! Touchstone file exported from HFSS 2025.2.0
!        File:           C:/Users/32474/OneDrive - UCL/Documents/Ingenieur/MASTER1/Stage/HFSS/capav6+stub.aedt
!        Generated:      07:38:19 PM Jul 17, 2026
!        Design:         HFSSDesign1
!        Project:        capav6+stub
!        Setup:          Setup4
!        Solution:       Sweep
!
# GHz S MA R 50.000000
! Terminal data exported
! Port[1] = capa_10p00_v2_1_1
! Port[2] = capa_10p00_v2_1_2
0.01                           0.969658598998927 159.887623422801 0.242799124162028 69.7934463083152 0.242799124162028 69.7934463083152 0.969659530796563 159.879472259117 
! Gamma         4.29697051666312E-05 0.209627589892663 4.3677466973427E-05 0.209628337336156 
! Port Impedance         50               0                50               0                
0.01015                        0.968521855129734 159.535365411063 0.247221873886219 69.4383710985297 0.247221873886219 69.4383710985297 0.968522789895521 159.527081669043 
! Gamma         4.32933905132943E-05 0.212771684439583 4.40067669848359E-05 0.212772437569208 
! Port Impedance         50               0                50               0                
0.0103                         0.967351749495758 159.180288737179 0.251687103945506 69.0804048366079 0.251687103945506 69.080404836608  0.967352687209649 159.171871795745 
! Gamma         4.36148289351826E-05 0.215915776056805 4.43337811793026E-05 0.215916534821591 
! Port Impedance         50               0                50               0                
0.01045                        0.966147197066195 158.822301579592 0.256196099003825 68.719452507041  0.256196099003825 68.719452507041  0.966148137702726 158.813750793273 
! Gamma         4.39340362214219E-05 0.219059864831728 4.46585256187471E-05 0.219060629182227 
! Port Impedance         50               0                50               0                
0.0106                         0.964907061385887 158.461308823984 0.260750183561774 68.3554156702551 0.260750183561774 68.3554156702551 0.964908004913834 158.4526235218   
! Gamma         4.42510305316822E-05 0.22220395084886 4.4981018776681E-05 0.22220472073709 
! Port Impedance         50               0                50               0                
0.01075                        0.963630151776987 158.097211909447 0.265350723474055 67.9881922997759 0.265350723474055 67.9881922997759 0.963631098158995 158.08839139373  
! Gamma         4.45658321216691E-05 0.225348034189809 4.53012812589442E-05 0.225348809569213 
! Port Impedance         50               0                50               0                
0.0109                         0.962315220362965 157.729908666668 0.269999127519077 67.6176766108604 0.269999127519077 67.6176766108605 0.962316169555145 157.720952211815 
! Gamma         4.48784630888331E-05 0.228492114933311 4.56193355450135E-05 0.228492895758694 
! Port Impedance         50               0                50               0                
0.01105                        0.960960958902512 157.359293147651 0.274696849021456 67.2437588800813 0.274696849021456 67.2437588800814 0.96096191085402 157.350199998802 
! Gamma         4.51889471372726E-05 0.231636193155237 4.59352057488306E-05 0.231636979382727 
! Port Impedance         50               0                50               0                
0.0112                         0.959565995419933 156.985255446505 0.279445387527969 66.8663252553189 0.279445387527969 66.8663252553189 0.959566950072504 156.976024818138 
! Gamma         4.54973093608034E-05 0.234780268928644 4.6248917398118E-05 0.234781060515639 
! Port Impedance         50               0                50               0                
0.01135                        0.95812889061758 156.607681510761 0.284246290537261 66.4852575555795 0.284246290537261 66.4852575555795 0.958129847905037 156.598312585206 
! Gamma         4.58035760431946E-05 0.237924342323817 4.65604972311559E-05 0.237925139228937 
! Port Impedance         50               0                50               0                
0.0115                         0.956648134054819 156.226452942696 0.289101155283346 66.1004330600274 0.289101155283346 66.1004330600274 0.956649093902537 156.216944868554 
! Gamma         4.61077744745861E-05 0.241068413408325 4.68699730100197E-05 0.241069215591363 
! Port Impedance         50               0                50               0                
0.01165                        0.955122140076776 155.841446790055 0.294011630572578 65.7117242855768 0.294011630572577 65.7117242855769 0.955123102401112 155.831798680523 
! Gamma         4.64099327831247E-05 0.244212482247084 4.71773733493012E-05 0.244213289668964 
! Port Impedance         50               0                50               0                
0.0118                         0.95354924347489 155.452535325594 0.298979418673377 65.3189987523536 0.298979418673377 65.3189987523536 0.953550208182564 155.442746256678 
! Gamma         4.67100797808914E-05 0.247356548902425 4.74827275593703E-05 0.247357361525153 
! Port Impedance         50               0                50               0                
0.01195                        0.95192769485985 155.059585814768 0.304006277257528 64.9221187362908 0.304006277257528 64.9221187362908 0.951928661847275 155.049654823387 
! Gamma         4.70082448232228E-05 0.250500613434164 4.77860655032572E-05 0.250501431220785 
! Port Impedance         50               0                50               0                
0.0121                         0.950255655726051 154.662460270905 0.309094021391275 64.5209410080835 0.309094021391275 64.5209410080835 0.950256624878622 154.652386352867 
! Gamma         4.73044576805561E-05 0.253644675899681 4.80874174662819E-05 0.25364549881424 
! Port Impedance         50               0                50               0                
0.01225                        0.948531193185089 154.261015197132 0.314244525573834 64.1153165576751 0.314244525573834 64.1153165576752 0.948532164376395 154.250797304988 
! Gamma         4.75987484219777E-05 0.25678873635399 4.83868140375852E-05 0.256789564361486 
! Port Impedance         50               0                50               0                
0.0124                         0.946752274344047 153.855101314314 0.319459725820109 63.7050903034051 0.319459725820108 63.705090303405  0.946753247435041 153.844738355057 
! Gamma         4.7891147309675E-05 0.259932794849826 4.86842860027532E-05 0.259933627916176 
! Port Impedance         50               0                50               0                
0.01255                        0.944916760302523 153.444563274193 0.324741621783559 63.2901007848908 0.324741621783559 63.2901007848908 0.944917735140609 153.434054106811 
! Gamma         4.8181684703541E-05 0.263076851437721 4.89798642467715E-05 0.263077689529719 
! Port Impedance         50               0                50               0                
0.0127                         0.943022399740298 153.029239356904 0.330092278914085 62.8701798386666 0.330092278914086 62.8701798386666 0.94302337615835 153.018582789765 
! Gamma         4.84703909752149E-05 0.266220906166083 4.92735796665763E-05 0.266221749251367 
! Port Impedance         50               0                50               0                
0.01285                        0.941066822065415 152.60896115199  0.335513830644606 62.4451522555461 0.335513830644606 62.4451522555461 0.941067799880716 152.598155940046 
! Gamma         4.87572964308721E-05 0.26936495908128 4.95654630925099E-05 0.269365807128291 
! Port Impedance         50               0                50               0                
0.013                          0.93904753009014 152.183553221998 0.34100848059857 62.0148354186147 0.34100848059857 62.0148354186146 0.939048509103221 152.172598063792 
! Gamma         4.90424312421269E-05 0.272509010227716 4.98555452180251E-05 0.272509863205672 
! Port Impedance         50               0                50               0                
0.01315                        0.93696189219977 151.752832747695 0.346578504809054 61.5790389207005 0.346578504809054 61.5790389207004 0.936962872193167 151.741726282161 
! Gamma         4.93258253844339E-05 0.275653059647915 5.01438565370229E-05 0.275653917526768 
! Port Impedance         50               0                50               0                
0.0133                         0.934807133976652 151.316609153925 0.352226253938185 61.1375641601097 0.352226253938185 61.1375641601098 0.934808114713543 151.305349956953 
! Gamma         4.96075085824181E-05 0.278797107382591 5.04304272882348E-05 0.278797970133003 
! Port Impedance         50               0                50               0                
0.01345                        0.932580329238919 150.874683715047 0.357954155483456 60.6902039133506 0.357954155483456 60.6902039133506 0.93258131046165 150.863270295804 
! Gamma         4.98875102615926E-05 0.281941153470731 5.07152874061048E-05 0.281942021064042 
! Port Impedance         50               0                50               0                
0.0136                         0.930278390450441 150.42684913891  0.363764715955011 60.2367418835023 0.363764715955011 60.2367418835023 0.930279371878919 150.415279935882 
! Gamma         5.01658595059574E-05 0.285085197949669 5.09984664776559E-05 0.285086070357867 
! Port Impedance         50               0                50               0                
0.01375                        0.927898058455303 149.972889128248 0.36966052300507 59.7769522228278 0.369660523005071 59.7769522228279 0.927899039785253 149.961162504992 
! Gamma         5.04425850210078E-05 0.28822924085515 5.12799937048571E-05 0.288230118050847 
! Port Impedance         50               0                50               0                
0.0139                         0.925435891486706 149.512577918369 0.375644247487352 59.3105990281584 0.375644247487352 59.3105990281584 0.925436872387764 149.500692158939 
! Gamma         5.07177151017007E-05 0.291373282221415 5.15598978720365E-05 0.291374164177816 
! Port Impedance         50               0                50               0                
0.01405                        0.922888253396606 149.045679789998 0.381718645420509 58.8374358075219 0.381718645420509 58.8374358075218 0.922889233510251 149.033633094016 
! Gamma         5.09912776049717E-05 0.294517322081256 5.18382073179219E-05 0.294518208772137 
! Port Impedance         50               0                50               0                
0.0142                         0.920251301048641 148.571948556099 0.387886559825216 58.357204916422  0.387886559825216 58.357204916422  0.920252279985927 148.559739033446 
! Gamma         5.12632999264077E-05 0.297661360466094 5.21149499119107E-05 0.297662251865778 
! Port Impedance         50               0                50               0                
0.01435                        0.917520970812908 148.091127021533 0.394150922399495 57.8696369621246 0.394150922399495 57.8696369621247 0.917521948151993 148.078752686612 
! Gamma         5.15338089807186E-05 0.300805397406033 5.23901530342037E-05 0.300806293489366 
! Port Impedance         50               0                50               0                
0.0145                         0.914692964097071 147.602946414385 0.400514754991059 57.3744501742542 0.400514754991059 57.3744501742542 0.914693939380514 147.59040517992  
! Gamma         5.18028311856682E-05 0.30394943292993 5.26638435594577E-05 0.303950333672261 
! Port Impedance         50               0                50               0                
0.01465                        0.911762731843985 147.107125787854 0.406981170818844 56.8713497399651 0.406981170818844 56.871349739965  0.911763704575789 147.094415458182 
! Gamma         5.20703924491522E-05 0.307093467065452 5.29360478436412E-05 0.307094372442609 
! Port Impedance         50               0                50               0                
0.0148                         0.908725457921677 146.603371391638 0.413553375388263 56.3600271019199 0.413553375388263 56.3600271019199 0.90872642756405 146.59048965544  
! Gamma         5.23365181591346E-05 0.310237499839132 5.32067917137951E-05 0.310238409827407 
! Port Impedance         50               0                50               0                
0.01495                        0.905576041327071 146.091376011825 0.420234667036046 55.8401592172927 0.420234667036046 55.8401592172928 0.90557700729687 146.078320434239 
! Gamma         5.26012331761677E-05 0.313381531276427 5.34761004604259E-05 0.313382445852552 
! Port Impedance         50               0                50               0                
0.0151                         0.902309077120432 145.570818278419 0.427028437030539 55.311407776014  0.427028437030539 55.311407776014  0.902310038785268 145.557586292468 
! Gamma         5.28645618282532E-05 0.316525561401768 5.37439988322757E-05 0.316526480542904 
! Port Impedance         50               0                50               0                
0.01525                        0.898918836003134 145.04136193977  0.433938169141991 54.7734183765044 0.433938169141992 54.7734183765042 0.898919792677083 145.027950837045 
! Gamma         5.31265279078062E-05 0.319669590238615 5.40105110332361E-05 0.319670513922329 
! Port Impedance         50               0                50               0                
0.0154                         0.895399242447189 144.502655103401 0.440967438584345 54.2258196571921 0.440967438584345 54.2258196571921 0.895400193386076 144.489062023902 
! Gamma         5.33871546705144E-05 0.322813617809503 5.42756607211859E-05 0.322814546013753 
! Port Impedance         50               0                50               0                
0.01555                        0.891743851281119 143.954329442959 0.448119910215253 53.6682223822038 0.448119910215253 53.6682223822038 0.891744795677328 143.940551364016 
! Gamma         5.36464648358902E-05 0.325957644136087 5.45394710085545E-05 0.325958576839209 
! Port Impedance         50               0                50               0                
0.0157                         0.887945822633381 143.395999371377 0.45539933586416 53.1002184797468 0.45539933586416 53.1002184797467 0.88794675961013 143.38203309554  
! Gamma         5.39044805893385E-05 0.329101669239191 5.48019644644255E-05 0.329102606419884 
! Port Impedance         50               0                50               0                
0.01585                        0.883997895131868 142.827261180726 0.462809550639064 52.5213800318932 0.462809550639064 52.5213800318932 0.883998823736889 142.813103322512 
! Gamma         5.41612235855702E-05 0.332245693138846 5.50631631180085E-05 0.332246634776157 
! Port Impedance         50               0                50               0                
0.016                          0.879892357256318 142.247692149805 0.4703544680408  51.9312582147244 0.4703544680408  51.9312582147243 0.879893276454865 142.233339121169 
! Gamma         5.44167149532082E-05 0.335389715854334 5.53230884633266E-05 0.335390661927645 
! Port Impedance         50               0                50               0                
0.01615                        0.875621016739985 141.656849621125 0.478038073688849 51.3293821881281 0.478038073688849 51.3293821881281 0.875621925407107 141.642297615505 
! Gamma         5.46709753004442E-05 0.338533737404224 5.558176146497E-05 0.338534687893241 
! Port Impedance         50               0                50               0                
0.0163                         0.871175167918258 141.0542700498   0.485864417434702 50.7152579349682 0.485864417434702 50.7152579349681 0.871176064830229 141.039515024563 
! Gamma         5.4924024721618E-05 0.34167775780641 5.58392025647895E-05 0.341678712691151 
! Port Impedance         50               0                50               0                
0.01645                        0.866545556925321 140.439468027807 0.493837603607025 50.0883670498872 0.493837603607025 50.0883670498871 0.866546440750129 140.424505684899 
! Gamma         5.51758828045981E-05 0.344821777078145 5.60954316894065E-05 0.344822736338927 
! Port Impedance         50               0                50               0                
0.0166                         0.861722344646245 139.811935288335 0.501961779097141 49.4481654786834 0.501961779097141 49.4481654786834 0.861723213933026 139.796761052922 
! Gamma         5.54265686388572E-05 0.347965795236077 5.63504682584264E-05 0.347966758853508 
! Port Impedance         50               0                50               0                
0.01675                        0.856695067341693 139.171139696403 0.510241118953053 48.7940822100463 0.510241118953053 48.7940822100463 0.856695920508971 139.155748693223 
! Gamma         5.56761008241425E-05 0.351109812296276 5.66043311932603E-05 0.351110780251244 
! Port Impedance         50               0                50               0                
0.0169                         0.851452594876722 138.516524233733 0.518679809105079 48.125517922474  0.51867980910508 48.125517922474  0.851453430199301 138.500911260888 
! Gamma         5.59244974796493E-05 0.354253828274267 5.68570389264575E-05 0.354254800547929 
! Port Impedance         50               0                50               0                
0.01705                        0.845983086504918 137.847505988065 0.527282025795673 47.4418435904643 0.527282025795673 47.4418435904642 0.845983902099251 137.831665487893 
! Gamma         5.61717762536172E-05 0.35739784318506 5.71086094114673E-05 0.357398819758836 
! Port Impedance         50               0                50               0                
0.0172                         0.840273944185801 137.163475159747 0.53605191122974 46.7423990556147 0.53605191122974 46.7423990556146 0.840274737993631 137.14740118638  
! Gamma         5.6417954333273E-05 0.360541857043172 5.73590601327545E-05 0.360542837898734 
! Port Impedance         50               0                50               0                
0.01735                        0.834311763448493 136.463794101623 0.544993544899447 46.0264915701314 0.544993544899447 46.0264915701312 0.834312533218523 136.447480284769 
! Gamma         5.66630484550507E-05 0.363685869862657 5.76084081161967E-05 0.363686854981922 
! Port Impedance         50               0                50               0                
0.0175                         0.828082281859977 135.74779641213  0.554110909968785 45.2933943224832 0.554110909968785 45.2933943224832 0.828083025127317 135.731235916547 
! Gamma         5.69070749150311E-05 0.366829881657129 5.78566699397041E-05 0.36683087102225 
! Port Impedance         50               0                50               0                
0.01765                        0.821570325214182 135.01478610617  0.563407854027916 44.5423449576219 0.563407854027916 44.5423449576218 0.821571039277238 134.997971586187 
! Gamma         5.71500495795407E-05 0.369973892439781 5.81038617440019E-05 0.369974886033143 
! Port Impedance         50               0                50               0                
0.0178                         0.814759751631017 134.264036893932 0.572888043445613 43.7725441073742 0.572888043445613 43.7725441073742 0.814760433525458 134.246960442285 
! Gamma         5.73919878958626E-05 0.373117902223414 5.83499992435273E-05 0.373118900027624 
! Port Impedance         50               0                50               0                
0.01795                        0.80763339384563 133.494791604642 0.582554910460208 42.9831539503984 0.582554910460208 42.9831539503983 0.807634040315014 133.477444694752 
! Gamma         5.7632904903013E-05 0.376261911020452 5.85950977373917E-05 0.376262913018334 
! Port Impedance         50               0                50               0                
0.0181                         0.80017300008091 132.706261800352 0.592411592056085 42.1732968255539 0.592411592056085 42.1732968255538 0.80017360754346 132.688635220999 
! Gamma         5.78728152425429E-05 0.379405918842964 5.88391721203702E-05 0.37940692501755 
! Port Impedance         50               0                50               0                
0.01825                        0.792359174034776 131.897627634741 0.602460859575122 41.342053927773  0.602460859575122 41.342053927773  0.792359738545715 131.879711415913 
! Gamma         5.81117331693302E-05 0.382549925702679 5.90822368938796E-05 0.382550936037207 
! Port Impedance         50               0                50               0                
0.0184                         0.784171314682677 131.06803802376  0.612705037912457 40.4884641216428 0.612705037912457 40.4884641216427 0.784171831891427 131.0498213522   
! Gamma         5.83496725623259E-05 0.385693931611006 5.93243061769115E-05 0.385694946088915 
! Port Impedance         50               0                50               0                
0.01855                        0.775587556800117 130.216611209312 0.623145913046254 39.6115229150127 0.623145913046254 39.6115229150126 0.775588021901536 130.198082332001 
! Gamma         5.85866469352312E-05 0.388837936579053 5.95653937168938E-05 0.388838955183971 
! Port Impedance         50               0                50               0                
0.0187                         0.766584713355734 129.342435814514 0.633784626555881 38.7101816431623 0.63378462655588 38.7101816431622 0.766585121034409 129.323581927959 
! Gamma         5.88226694470755E-05 0.391981940617635 5.98055129004513E-05 0.391982963333383 
! Port Impedance         50               0                50               0                
0.01885                        0.757138221218576 128.44457251017  0.644621555697175 37.7833469234862 0.644621555697175 37.7833469234861 0.757138565584977 128.425379632928 
! Gamma         5.90577529126747E-05 0.395125943737294 6.0044676764046E-05 0.395126970547874 
! Port Impedance         50               0                50               0                
0.019                          0.747222091970309 127.522056437752 0.65565617753481 36.8298804513959 0.65565617753481 36.8298804513959 0.747222366487412 127.50250926303  
! Gamma         5.92919098129508E-05 0.398269945948312 6.02828980044741E-05 0.398270976837906 
! Port Impedance         50               0                50               0                
0.01915                        0.736808870020737 126.573900565578 0.666886915589358 35.8485992202714 0.666886915589359 35.8485992202713 0.73680906741937 126.553982290079 
! Gamma         5.95251523050941E-05 0.401413947260724 6.05201889892052E-05 0.401414982213688 
! Port Impedance         50               0                50               0                
0.0193                         0.725869600699453 125.599100193503 0.678310967452964 34.8382762618654 0.678310967452965 34.8382762618653 0.725869712880272 125.578792317756 
! Gamma         5.97574922325555E-05 0.404557947684326 6.07565617665465E-05 0.404558986685189 
! Port Impedance         50               0                50               0                
0.01945                        0.71437381154302 124.596638869268 0.689924111877842 33.7976420185702 0.689924111877843 33.7976420185702 0.714373829462551 124.575920963555 
! Gamma         5.99889411348536E-05 0.407701947228694 6.09920280756202E-05 0.407702990262151 
! Port Impedance         50               0                50               0                
0.0196                         0.702289510619723 123.565496039373 0.701720493965569 32.7253864753052 0.701720493965569 32.7253864753051 0.702289424157261 123.544345467887 
! Gamma         6.02195102571882E-05 0.410845945903188 6.1226599356143E-05 0.410846992954095 
! Port Impedance         50               0                50               0                
0.01975                        0.689583206433419 122.504656832714 0.713692387305854 31.6201621962965 0.713692387305855 31.6201621962965 0.689583004234815 122.483048426683 
! Gamma         6.04492105598504E-05 0.413989943716964 6.14602867579988E-05 0.413990994770339 
! Port Impedance         50               0                50               0                
0.0199                         0.676219954721461 121.413124471438 0.725829932259513 30.4805884303483 0.725829932259512 30.4805884303482 0.676219624014785 121.391030139455 
! Gamma         6.06780527274209E-05 0.417133940678986 6.1693101150597E-05 0.417134995720004 
! Port Impedance         50               0                50               0                
0.02005                        0.66216343830002 120.289935928009 0.738120850084897 29.3052564668206 0.738120850084897 29.3052564668205 0.662162964676727 120.267324188513 
! Gamma         6.09060471777531E-05 0.420277936798034 6.19250531320099E-05 0.42027899581202 
! Port Impedance         50               0                50               0                
0.0202                         0.647376086996299 119.134181611294 0.750550133308147 28.0927364426572 0.750550133308148 28.0927364426572 0.647375454149716 119.111017027787 
! Gamma         6.11332040707342E-05 0.423421932082708 6.2156153037886E-05 0.42342299505514 
! Port Impedance         50               0                50               0                
0.02035                        0.631819245613577 117.945030083716 0.763099713677022 26.8415858173463 0.763099713677021 26.8415858173462 0.631818435024107 117.921272577392 
! Gamma         6.13595333168214E-05 0.426565926541442 6.23864109501333E-05 0.426566993457944 
! Port Impedance         50               0                50               0                
0.0205                         0.615453398760662 116.721759110662 0.775748110260327 25.5503597461826 0.775748110260327 25.5503597461825 0.615452389313742 116.697363117088 
! Gamma         6.15850445853517E-05 0.429709920182509 6.26158367053738E-05 0.429710991028848 
! Port Impedance         50               0                50               0                
0.02065                        0.598238462185198 115.463794759933 0.788470061803766 24.2176235907172 0.788470061803765 24.2176235907171 0.598237229703469 115.438708185342 
! Gamma         6.18097473126232E-05 0.432853913014027 6.28444399031631E-05 0.432854987776113 
! Port Impedance         50               0                50               0                
0.0208                         0.580134150905055 114.170760861902 0.801236149367637 22.8419678063977 0.801236149367637 22.8419678063977 0.580132667569715 114.144923779153 
! Gamma         6.20336507097474E-05 0.435997905043966 6.307222991398E-05 0.435998983707848 
! Port Impedance         50               0                50               0                
0.02095                        0.561100434840051 112.842542003846 0.814012417580342 21.4220254381659 0.814012417580342 21.4220254381658 0.561098668467206 112.815885006133 
! Gamma         6.22567637702732E-05 0.439141896280156 6.32992158869811E-05 0.439142978832018 
! Port Impedance         50               0                50               0                
0.0211                         0.541098092697714 111.479364516799 0.826760005552361 19.956492431664  0.826760005552361 19.9564924316638 0.541096005822153 111.451806615444 
! Gamma         6.24790952775827E-05 0.44228588673029 6.3525406757525E-05 0.442286973156453 
! Port Impedance         50               0                50               0                
0.02125                        0.52008937444489 110.081901872474 0.839434801585789 18.4441509267366 0.839434801585789 18.4441509267366 0.520086923144158 110.053347778623 
! Gamma         6.27006538120612E-05 0.445429876401932 6.37508112544669E-05 0.445430966688846 
! Port Impedance         50               0                50               0                
0.0214                         0.498038781697483 108.65141396927  0.851987139217175 16.8838956367597 0.851987139217174 16.8838956367597 0.498035914059575 108.621750529667 
! Gamma         6.2921447758044E-05 0.44857386530252 6.39754379072237E-05 0.448574959436766 
! Port Impedance         50               0                50               0                
0.02155                        0.474913973730198 107.189934694348 0.86436155571891 15.2747633276253 0.86436155571891 15.2747633276252 0.474910627822959 107.159026144878 
! Gamma         6.31414853105398E-05 0.451717853439373 6.41992950526158E-05 0.451718951407659 
! Port Impedance         50               0                50               0                
0.0217                         0.450686804618693 105.700530234981 0.876496637752195 13.6159652899637 0.876496637752194 13.6159652899636 0.4506829057478  105.668211769005 
! Gamma         6.33607744817375E-05 0.454861840819692 6.44223908414847E-05 0.454862942608852 
! Port Impedance         50               0                50               0                
0.02185                        0.42533449461439 104.187664336774 0.888324982117449 11.906922544395  0.888324982117448 11.9069225443949 0.425329951541833 104.153733217241 
! Gamma         6.3579323107297E-05 0.458005827450568 6.46447332450937E-05 0.45800693304756 
! Port Impedance         50               0                50               0                
0.022                          0.39884093709322 102.657730780905 0.899773302090197 10.1473033310851 0.899773302090197 10.1473033310851 0.398835636696772 102.621933780994 
! Gamma         6.37971388524286E-05 0.461149813338983 6.48663300613111E-05 0.461150922730887 
! Port Impedance         50               0                50               0                
0.02215                        0.371198143294821 101.119857185358 0.910762711166775 8.33706221324517 0.910762711166774 8.33706221324507 0.371191942818863 101.081872380739 
! Gamma         6.40142292177645E-05 0.464293798491817 6.50871889205848E-05 0.464294911665832 
! Port Impedance         50               0                50               0                
0.0223                         0.342407834911225 99.5871675295849 0.921209215598189 6.47647987494383 0.921209215598188 6.47647987494375 0.34240055036692 99.5465771070543 
! Gamma         6.4230601545028E-05 0.467437782915848 6.5307317291708E-05 0.467438899859292 
! Port Impedance         50               0                50               0                
0.02245                        0.312483219045453 98.0788571737745 0.931024444242773 4.56620242715181 0.931024444242772 4.56620242715177 0.312474607203985 98.0351053868839 
! Gamma         6.44462630225019E-05 0.470581766617757 6.55267224873829E-05 0.470582887318064 
! Port Impedance         50               0                50               0                
0.0226                         0.281451043764864 96.6237866220916 0.940116638425027 2.60727876852999 0.940116638425026 2.60727876852994 0.281440772972331 96.5761120401538 
! Gamma         6.46612206903042E-05 0.473725749604131 6.57454116695876E-05 0.473726874048848 
! Port Impedance         50               0                50               0                
0.02275                        0.249354192657852 95.2671017885844 0.948391915176455 0.601194301503085 0.948391915176455 0.601194301503046 0.249341792995211 95.2144225517646 
! Gamma         6.48754814454724E-05 0.476869731881465 6.59633918547476E-05 0.476870860058256 
! Port Impedance         50               0                50               0                
0.0229                         0.216255493175711 94.0833758170161 0.955755804224212 -1.45010089236834 0.955755804224211 -1.45010089236841 0.216240265650328 94.0240830806607 
! Gamma         6.5089052046863E-05 0.480013713456167 6.61806699187205E-05 0.480014845352805 
! Port Impedance         50               0                50               0                
0.02305                        0.182244589477455 93.205258721081  0.962115042531275 -3.54417142872939 0.962115042531275 -3.54417142872942 0.182225426322673 93.1368154315197 
! Gamma         6.5301939119871E-05 0.483157694334556 6.63972526015973E-05 0.483158829938925 
! Port Impedance         50               0                50               0                
0.0232                         0.14745351716795 92.8940734394052 0.967379590723895 -5.67808555987631 0.967379590723895 -5.67808555987637 0.147428505257561 92.8121561970308 
! Gamma         6.55141491609732E-05 0.48630167452287 6.66131465123232E-05 0.486302813822964 
! Port Impedance         50               0                50               0                
0.02335                        0.11210137329678 93.7457686799549 0.971464814595724 -7.84841554453985 0.971464814595724 -7.84841554453989 0.11206677706775 93.6421977851531 
! Gamma         6.57256885421011E-05 0.489445654027265 6.68283581331472E-05 0.489446797011182 
! Port Impedance         50               0                50               0                
0.0235                         0.0766648033053851 97.461568204569  0.974293753866048 -10.051251005196 0.974293753866047 -10.051251005196 0.0766118288534683 97.3186839521527 
! Gamma         6.5936563514848E-05 0.492589632853816 6.70428938239009E-05 0.492590779509764 
! Port Impedance         50               0                50               0                
0.02365                        0.0428921256296289 111.092951637938 0.9757993817821  -12.2822263470603 0.9757993817821  -12.2822263470603 0.0427933387113577 110.874891570876 
! Gamma         6.61467802145148E-05 0.495733611008523 6.72567598261147E-05 0.495734761324811 
! Port Impedance         50               0                50               0                
0.0238                         0.0241821926249845 170.045284618044 0.975926745526069 -14.5365626689436 0.975926745526069 -14.5365626689436 0.0239998427132623 170.063576304625 
! Gamma         6.63563446640003E-05 0.498877588497308 6.74699622669753E-05 0.498878742462351 
! Port Impedance         50               0                50               0                
0.02395                        0.0469539886662841 -138.397080576631 0.974634871140986 -16.8091238253478 0.974634871140985 -16.8091238253479 0.0468571963452578 -138.220529241115 
! Gamma         6.65652627775399E-05 0.50202156532602 6.76825071631288E-05 0.502022722928334 
! Port Impedance         50               0                50               0                
0.0241                         0.0821441748577586 -126.859410965742 0.971898319718343 -19.0944854574687 0.971898319718343 -19.0944854574687 0.0820872800816304 -126.751351415628 
! Gamma         6.67735403642978E-05 0.505165541500437 6.7894400424335E-05 0.505166702728637 
! Port Impedance         50               0                50               0                
0.02425                        0.119227411212036 -123.740616331485 0.967708294836462 -21.3870149715425 0.967708294836462 -21.3870149715425 0.119187253113491 -123.668332468474 
! Gamma         6.69811831318178E-05 0.508309517026264 6.81056478569778E-05 0.508310681869067 
! Port Impedance         50               0                50               0                
0.0244                         0.15671839823449 -123.203787081219 0.962073224380897 -23.6809596888974 0.962073224380897 -23.6809596888974 0.156687227601657 -123.151635669543 
! Gamma         6.71881966893369E-05 0.51145349190914 6.83162551674359E-05 0.511454660355359 
! Port Impedance         50               0                50               0                
0.02455                        0.194139971755467 -123.762398062231 0.955018771214713 -25.9705398038815 0.955018771214713 -25.9705398038815 0.194114404419712 -123.722959515816 
! Gamma         6.73945865509669E-05 0.514597466154632 6.85262279653194E-05 0.51459863819318 
! Port Impedance         50               0                50               0                
0.0247                         0.231226859898801 -124.8772881147  0.946587263751348 -28.2500424301535 0.946587263751348 -28.2500424301535 0.231205135379209 -124.846570298323 
! Gamma         6.7600358138747E-05 0.517741439768244 6.87355717665754E-05 0.517742615388127 
! Port Impedance         50               0                50               0                
0.02485                        0.267784999253081 -126.305638657968 0.936836575515963 -30.5139129342906 0.936836575515962 -30.5139129342906 0.267766089189938 -126.281268988615 
! Gamma         6.78055167855747E-05 0.520885412755413 6.89442919964689E-05 0.520886591945733 
! Port Impedance         50               0                50               0                
0.025                          0.303655255961341 -127.920951978907 0.925838518185404 -32.7568399579978 0.925838518185404 -32.7568399579978 0.303638508392382 -127.901411767882 
! Gamma         6.80100677380161E-05 0.524029385121513 6.91523939924423E-05 0.524030567871466 
! Port Impedance         50               0                50               0                
0.02515                        0.338702136958484 -129.649985923476 0.91367684166099 -34.9738309924198 0.91367684166099 -34.9738309924198 0.338687112505605 -129.634246593205 
! Gamma         6.82140161590028E-05 0.527173356871854 6.93598830068581E-05 0.527174543170727 
! Port Impedance         50               0                50               0                
0.0253                         0.372809975468291 -131.446795544258 0.900444954679528 -37.1602760366868 0.900444954679528 -37.1602760366868 0.372796363576227 -131.434129044146 
! Gamma         6.84173671304171E-05 0.530317328011683 6.95667642096292E-05 0.530318517848858 
! Port Impedance         50               0                50               0                
0.02545                        0.405881552993365 -133.280721148148 0.886243488850238 -39.3119976737088 0.886243488850238 -39.3119976737088 0.405869125561553 -133.27059362732 
! Gamma         6.86201256555709E-05 0.533461298546189 6.97730426907411E-05 0.533462491911134 
! Port Impedance         50               0                50               0                
0.0256                         0.437837436116822 -135.130309573747 0.871177827796657 -41.4252867463347 0.871177827796657 -41.4252867463346 0.437826020186821 -135.122318118714 
! Gamma         6.88222966615834E-05 0.536605268480499 6.99787234626692E-05 0.536606465362774 
! Port Impedance         50               0                50               0                
0.02575                        0.46861538190394 -136.980009646181 0.855355712550196 -43.4969236363781 0.855355712550196 -43.4969236363781 0.468604842750813 -136.973842776154 
! Gamma         6.90238850016581E-05 0.539749237819681 7.01838114626963E-05 0.539750438208933 
! Port Impedance         50               0                50               0                
0.0259                         0.498169572991082 -138.818264581035 0.838885016694642 -45.5241858710019 0.838885016694642 -45.5241858710019 0.49815980322131 -138.813676566134 
! Gamma         6.92248954572669E-05 0.542893206568745 7.03883115551342E-05 0.542894410454708 
! Port Impedance         50               0                50               0                
0.02605                        0.526469617021181 -140.636351105343 0.821871762697195 -47.5048433587076 0.821871762697196 -47.5048433587076 0.526460529301487 -140.633144694272 
! Gamma         6.94253327402418E-05 0.546037174732643 7.05922285334509E-05 0.54603838210514 
! Port Impedance         50               0                50               0                
0.0262                         0.553499324282958 -142.427637930394 0.804418427117994 -49.4371429662234 0.804418427117994 -49.4371429662234 0.553490846349846 -142.425652391748 
! Gamma         6.96252014947793E-05 0.549181142316271 7.07955671223106E-05 0.549182353165207 
! Port Impedance         50               0                50               0                
0.02635                        0.579255313035322 -144.187089907452 0.786622559371124 -51.3197843845937 0.786622559371126 -51.3197843845937 0.579247384184301 -144.18619253959 
! Gamma         6.98245062993616E-05 0.552325109324469 7.09983319795267E-05 0.552326323639836 
! Port Impedance         50               0                50               0                
0.0265                         0.603745505100642 -145.910921694002 0.768575718250685 -53.1518893116456 0.768575718250686 -53.1518893116456 0.603738073662194 -145.911001663973 
! Gamma         7.00232516685958E-05 0.555469075762022 7.12005276979341E-05 0.555470293533894 
! Port Impedance         50               0                50               0                
0.02665                        0.6269875749381  -147.596345747066 0.750362713703197 -54.9329659244413 0.750362713703197 -54.9329659244413 0.62698059642742 -147.597309532636 
! Gamma         7.02214420549762E-05 0.55861304163366 7.1402158807181E-05 0.558614262852193 
! Port Impedance         50               0                50               0                
0.0268                         0.649007409092133 -149.241382015037 0.732061128845651 -56.6628704612303 0.732061128845652 -56.6628704612303 0.649000844828523 -149.243149974516 
! Gamma         7.04190818505726E-05 0.561757006944059 7.16032297754469E-05 0.561758231599492 
! Port Impedance         50               0                50               0                
0.02695                        0.669837623060642 -150.844709519939 0.713741088981824 -58.3417675108941 0.713741088981826 -58.3417675108941 0.66983143912022 -150.847213271023 
! Gamma         7.06161753886475E-05 0.564900971697844 7.18037450110869E-05 0.564902199780494 
! Port Impedance         50               0                50               0                
0.0271                         0.689516171469515 -152.405547503336 0.695465239952919 -59.9700903495603 0.695465239952919 -59.9700903495603 0.689510337878412 -152.408727892469 
! Gamma         7.08127269452041E-05 0.568044935899585 7.20037088642071E-05 0.568046167399851 
! Port Impedance         50               0                50               0                
0.02725                        0.708085076428025 -153.923558268126 0.677288896931605 -61.5485023946481 0.677288896931605 -61.5485023946481 0.708079566531656 -153.927363777716 
! Gamma         7.10087407404696E-05 0.5711888995538  7.22031256281738E-05 0.571190134462159 
! Port Impedance         50               0                50               0                
0.0274                         0.725589288969561 -155.398766552441 0.659260325991178 -63.0778605858658 0.659260325991179 -63.0778605858658 0.725584078932681 -155.403152037374 
! Gamma         7.12042209403165E-05 0.574332862664959 7.24019995410579E-05 0.574334100971965 
! Port Impedance         50               0                50               0                
0.02755                        0.74207569003663 -156.831491936176 0.641421123720126 -64.55918126426  0.641421123720128 -64.55918126426  0.742070758441732 -156.8364176112  
! Gamma         7.13991716576226E-05 0.577476825237478 7.26003347870201E-05 0.577478066933763 
! Port Impedance         50               0                50               0                
0.0277                         0.757592230730194 -158.222291820003 0.623806664148526 -65.9936089125313 0.623806664148527 -65.9936089125313 0.757587558250853 -158.227722440511 
! Gamma         7.1593596953575E-05 0.580620787275723 7.27981354976359E-05 0.580622032351995 
! Port Impedance         50               0                50               0                
0.02785                        0.772187206487383 -159.571913176319 0.606446586761931 -67.3823879461618 0.606446586761933 -67.3823879461619 0.772182775619472 -159.57781736984 
! Gamma         7.17875008389183E-05 0.583764748784013 7.29954057531664E-05 0.583765997231055 
! Port Impedance         50               0                50               0                
0.028                          0.785908656325622 -160.881251699009 0.589365303982685 -68.7268376057202 0.589365303982686 -68.7268376057201 0.785904451163622 -160.887601415322 
! Gamma         7.19808872751508E-05 0.586908709766615 7.31921495837744E-05 0.586909961575284 
! Port Impedance         50               0                50               0                
0.02815                        0.798803876072994 -162.151317263584 0.572582510901223 -70.0283298939498 0.572582510901224 -70.0283298939498 0.798799882122022 -162.158087319062 
! Gamma         7.21737601756708E-05 0.590052670227749 7.33883709706911E-05 0.590053925388976 
! Port Impedance         50               0                50               0                
0.0283                         0.810919033347938 -163.383204805882 0.556113684050705 -71.2882704233914 0.556113684050707 -71.2882704233914 0.810915237364293 -163.390372503326 
! Gamma         7.23661234068743E-05 0.593196630171589 7.35840738473321E-05 0.593197888676375 
! Port Impedance         50               0                50               0                
0.02845                        0.822298871713276 -164.57806986945 0.539970559532601 -72.5080819871169 0.539970559532602 -72.5080819871169 0.822295261568005 -164.58561467889 
! Gamma         7.2557980789208E-05 0.596340589602256 7.37792621003688E-05 0.596341851441679 
! Port Impedance         50               0                50               0                
0.0286                         0.832986491690963 -165.737108179288 0.524161583779605 -73.6891906322746 0.524161583779607 -73.6891906322746 0.832983056252291 -165.745011468378 
! Gamma         7.27493360981773E-05 0.599484548523829 7.39739395707541E-05 0.599485813689034 
! Port Impedance         50               0                50               0                
0.02875                        0.843023196997324 -166.861538685142 0.508692332691846 -74.8330139993398 0.508692332691846 -74.8330139993398 0.843019926028622 -166.869783490183 
! Gamma         7.29401930653139E-05 0.60262850694034 7.41681100547063E-05 0.602629775422543 
! Port Impedance         50               0                50               0                
0.0289                         0.852448395290699 -167.952589588354 0.493565896839183 -75.9409516854582 0.493565896839184 -75.9409516854582 0.852445279361402 -167.961160418815 
! Gamma         7.3130555379103E-05 0.605772464855772 7.43617773046523E-05 0.605773736646259 
! Port Impedance         50               0                50               0                
0.02905                        0.861299543795592 -169.011486926858 0.478783231939734 -77.0143773947513 0.478783231939735 -77.0143773947513 0.861296574203018 -169.020369597667 
! Gamma         7.33204266858723E-05 0.608916422274065 7.45549450301321E-05 0.608917697364191 
! Port Impedance         50               0                50               0                
0.0292                         0.869612131290655 -170.039445345784 0.464343474963322 -78.0546326492132 0.464343474963323 -78.0546326492132 0.869609299991061 -170.048626832809 
! Gamma         7.35098105906455E-05 0.612060379199114 7.4747616898667E-05 0.6120616575803  
! Port Impedance         50               0                50               0                
0.02935                        0.877419689058475 -171.037660727989 0.450244227030225 -79.063021848649 0.450244227030226 -79.063021848649 0.877416988605998 -171.047129042941 
! Gamma         7.3698710657961E-05 0.615204335634769 7.49397965365921E-05 0.615205617298504 
! Port Impedance         50               0                50               0                
0.0295                         0.884753824451164 -172.007304400443 0.436481804838824 -80.0408084852722 0.436481804838826 -80.0408084852722 0.884751247943554 -172.017048482168 
! Gamma         7.38871304126572E-05 0.618348291584835 7.51314875298558E-05 0.618349576522675 
! Port Impedance         50               0                50               0                
0.02965                        0.891644271700493 -172.949518669604 0.4230514627134  -80.9892123367842 0.423051462713401 -80.9892123367841 0.89164181273071 -172.959528289246 
! Gamma         7.40750733406277E-05 0.621492247053073 7.53226934247871E-05 0.621493535256639 
! Port Impedance         50               0                50               0                
0.0298                         0.898118955480911 -173.865413471949 0.409947587561424 -81.9094074800461 0.409947587561425 -81.9094074800461 0.898116608093827 -173.875679149913 
! Gamma         7.42625428895453E-05 0.624636202043204 7.55134177288333E-05 0.624637493504181 
! Port Impedance         50               0                50               0                
0.02995                        0.904204063513069 -174.756063955197 0.397163869107114 -82.8025209851512 0.397163869107115 -82.8025209851513 0.904201822166653 -174.766576888197 
! Gamma         7.44495424695591E-05 0.627780156558903 7.57036639112673E-05 0.627781451269042 
! Port Impedance         50               0                50               0                
0.0301                         0.909924125175232 -175.622508831711 0.384693447756864 -83.6696321663611 0.384693447756865 -83.6696321663611 0.909921984705635 -175.633260828466 
! Gamma         7.46360754539628E-05 0.630924110603805 7.58934354038698E-05 0.630925408554917 
! Port Impedance         50               0                50               0                
0.03025                        0.915302093675232 -176.465749368397 0.372529042378322 -84.5117722816993 0.372529042378322 -84.5117722816992 0.915300049265342 -176.476732792773 
! Gamma         7.4822145179839E-05 0.6340680641815  7.60827356015829E-05 0.634069365365461 
! Port Impedance         50               0                50               0                
0.0304                         0.920359429833673 -177.286748897408 0.360663060158798 -85.3299245868554 0.360663060158798 -85.3299245868554 0.920357476984724 -177.297956618   
! Gamma         7.50077549486786E-05 0.637212017295541 7.62715678631401E-05 0.637213321704288 
! Port Impedance         50               0                50               0                
0.03055                        0.925116185948611 -178.086432749413 0.349087690566221 -86.1250246613637 0.349087690566222 -86.1250246613637 0.925114320454503 -178.097858094704 
! Gamma         7.51929080269755E-05 0.640355969949436 7.64599355116729E-05 0.640357277574968 
! Port Impedance         50               0                50               0                
0.0307                         0.929591088561724 -178.86568852633 0.337794985278967 -86.897960935795 0.337794985278967 -86.897960935795 0.929589306485761 -178.877325244709 
! Gamma         7.53776076468018E-05 0.643499922146656 7.66478418352943E-05 0.643501232981031 
! Port Impedance         50               0                50               0                
0.03085                        0.933801619235154 -179.625366643478 0.326776925788457 -87.6495753579713 0.326776925788458 -87.6495753579714 0.933799916888926 -179.637208867496 
! Gamma         7.55618570063596E-05 0.646643873890628 7.68352900876608E-05 0.646645187925965 
! Port Impedance         50               0                50               0                
0.031                          0.937764092684925 179.633718917583 0.316025480216904 -88.380664144034 0.316025480216904 -88.3806641440339 0.937762466609134 179.621676703243 
! Gamma         7.57456592705144E-05 0.649787825184744 7.70222834885152E-05 0.649789142413219 
! Port Impedance         50               0                50               0                
0.03115                        0.941493731809023 178.910789694626 0.305532650736257 -89.0919785666447 0.305532650736258 -89.0919785666448 0.941492178756007 178.898552681924 
! Gamma         7.59290175713089E-05 0.652931776032353 7.72088252242084E-05 0.652933096446203 
! Port Impedance         50               0                50               0                
0.0313                         0.945004739302611 178.20510170958  0.29529051282638 -89.7842257377332 0.295290512826382 -89.7842257377332 0.945003256220441 178.192674793024 
! Gamma         7.61119350084586E-05 0.656075726436766 7.73949184482047E-05 0.656077050028284 
! Port Impedance         50               0                50               0                
0.03145                        0.948310365675741 177.515944346381 0.285291247472381 -90.4580693470741 0.285291247472382 -90.4580693470741 0.948308949693698 177.503332146398 
! Gamma         7.62944146498311E-05 0.659219676401258 7.75805662815683E-05 0.659221003162794 
! Port Impedance         50               0                50               0                
0.0316                         0.951422973585486 176.842639169678 0.27552716727391 -91.1141303206271 0.27552716727391 -91.1141303206272 0.951421622000783 176.829846053744 
! Gamma         7.64764595319087E-05 0.662363625929064 7.77657718134346E-05 0.662364955853024 
! Port Impedance         50               0                50               0                
0.03175                        0.95435409846937 176.184538707149 0.2659907373233  -91.7529873639972 0.265990737323301 -91.7529873639973 0.954352808735028 176.171568808932 
! Gamma         7.66580726602351E-05 0.665507575023381 7.79505381014645E-05 0.665508908102227 
! Port Impedance         50               0                50               0                
0.0319                         0.957114505524186 175.541025213915 0.256674591604706 -92.3751773565582 0.256674591604707 -92.3751773565582 0.957113275237915 175.527882450651 
! Gamma         7.68392570098488E-05 0.66865152368737 7.81348681722849E-05 0.668652859913621 
! Port Impedance         50               0                50               0                
0.03205                        0.959714243117016 174.91150943397  0.247571545572345 -92.9811955606495 0.247571545572346 -92.9811955606495 0.959713070011019 174.898197522257 
! Gamma         7.70200155257015E-05 0.671795471924157 7.83187650219145E-05 0.671796811290383 
! Port Impedance         50               0                50               0                
0.0322                         0.962162692746386 174.295429370498 0.238674605482088 -93.571495607702 0.238674605482089 -93.5714956077021 0.962161574678015 174.281951840688 
! Gamma         7.7200351123064E-05 0.674939419736829 7.85022316161773E-05 0.674940762235655 
! Port Impedance         50               0                50               0                
0.03235                        0.964468615693286 173.692249074469 0.229976974976192 -94.1464892189674 0.229976974976192 -94.1464892189674 0.96446755063644 173.678609283802 
! Gamma         7.73802666879197E-05 0.678083367128437 7.86852708911015E-05 0.678084712752543 
! Port Impedance         50               0                50               0                
0.0325                         0.966640196516055 173.101457458801 0.221472059355216 -94.7065456124702 0.221472059355217 -94.7065456124703 0.966639182553277 173.087658603403 
! Gamma         7.75597650773455E-05 0.681227314102   7.88678857533086E-05 0.681228662844116 
! Port Impedance         50               0                50               0                
0.03265                        0.968685083551688 172.522567143624 0.213153467913346 -95.2519905394823 0.213153467913347 -95.2519905394824 0.968684118866888 172.508612269491 
! Gamma         7.77388491198829E-05 0.684371260660499 7.90500790803898E-05 0.684372612513408 
! Port Impedance         50               0                50               0                
0.0328                         0.970610426590049 171.955113336757 0.205015014662676 -95.7831048827123 0.205015014662677 -95.7831048827124 0.9706095094618  171.941005349829 
! Gamma         7.79175216158976E-05 0.687515206806882 7.9231853721272E-05 0.687516561763418 
! Port Impedance         50               0                50               0                
0.03295                        0.972422911887926 171.398652752335 0.197050717727852 -96.3001227338172 0.197050717727853 -96.3001227338173 0.97242204068327 171.384394427747 
! Gamma         7.8095785337929E-05 0.690659152544062 7.94132124965738E-05 0.690660510597109 
! Port Impedance         50               0                50               0                
0.0331                         0.974128794687642 170.852762569548 0.18925479765411 -96.8032288487886 0.189254797654111 -96.8032288487886 0.974127967856383 170.838356560126 
! Gamma         7.82736430310309E-05 0.693803097874919 7.95941581989517E-05 0.693804459017412 
! Port Impedance         50               0                50               0                
0.03325                        0.975733929400851 170.31703943265  0.18162167483864 -97.2925553549347 0.181621674838641 -97.2925553549347 0.97573314547027 170.302488276747 
! Gamma         7.84510974131025E-05 0.696947042802299 7.97746935934366E-05 0.696948407027223 
! Port Impedance         50               0                50               0                
0.0334                         0.977243797612508 169.791098492811 0.174145966266834 -97.7681775507624 0.174145966266835 -97.7681775507624 0.977243055182483 169.776404621519 
! Gamma         7.86281511752117E-05 0.700090987329015 7.99548214177633E-05 0.700092354629404 
! Port Impedance         50               0                50               0                
0.03355                        0.978663534053535 169.274572491807 0.16682248171089 -98.2301085975731 0.166822481710891 -98.2301085975731 0.978662831792014 169.259738235627 
! Gamma         7.88048069819095E-05 0.703234931457849 8.01345443826897E-05 0.703236301826784 
! Port Impedance         50               0                50               0                
0.0337                         0.979997950683504 168.767110887206 0.159646219528125 -98.6782928455602 0.159646219528125 -98.6782928455602 0.979997287322315 168.752138482205 
! Gamma         7.89810674715375E-05 0.706378875191549 8.03138651723102E-05 0.706380248622159 
! Port Impedance         50               0                50               0                
0.03385                        0.98125155901716 168.268379018347 0.152612362179948 -99.1125974628149 0.152612362179948 -99.1125974628149 0.981250933348126 168.253270611856 
! Gamma         7.91569352565277E-05 0.709522818532833 8.04927864443601E-05 0.709524195018295 
! Port Impedance         50               0                50               0                
0.034                          0.982428590820919 167.77805731217  0.145716271579652 -99.5328019360701 0.145716271579653 -99.5328019360702 0.982428001692248 167.762814968071 
! Gamma         7.93324129236958E-05 0.712666761484386 8.06713108305145E-05 0.712668141017924 
! Port Impedance         50               0                50               0                
0.03415                        0.983533017297816 167.295840527811 0.13895348436805 -99.938584877486 0.138953484368051 -99.938584877486 0.983532463610746 167.280466231431 
! Gamma         7.95075030345278E-05 0.715810704048864 8.08494409366794E-05 0.715812086623747 
! Port Impedance         50               0                50               0                
0.0343                         0.984568566871823 166.821437038668 0.132319707210735 -100.329507388207 0.132319707210736 -100.329507388207 0.984568047577511 166.805932701335 
! Gamma         7.96822081254609E-05 0.718954646228891 8.10271793432778E-05 0.718956031838435 
! Port Impedance         50               0                50               0                
0.03445                        0.98553874167514 166.354568150635 0.125810812209989 -100.704991976161 0.12581081220999 -100.704991976161 0.985538255771754 166.338935613904 
! Gamma         7.98565307081581E-05 0.722098588027061 8.12045286055287E-05 0.722099976664626 
! Port Impedance         50               0                50               0                
0.0346                         0.986446832834966 165.894967455063 0.119422832528991 -101.064295672   0.119422832528992 -101.064295672   0.98644637936499 165.879208494653 
! Gamma         8.00304732697776E-05 0.725242529445939 8.13814912537219E-05 0.725243921104931 
! Port Impedance         50               0                50               0                
0.03475                        0.98729593464955 165.442380215025 0.113151958337636 -101.406475487128 0.113151958337636 -101.406475487128 0.987295512697264 165.426496544487 
! Gamma         8.02040382732374E-05 0.728386470488061 8.15580697934859E-05 0.728387865161929 
! Port Impedance         50               0                50               0                
0.0349                         0.988088957736878 164.996562783421 0.106994533210544 -101.730343640837 0.106994533210544 -101.730343640837 0.988088566426009 164.980556057556 
! Gamma         8.03772281574739E-05 0.731530411155933 8.17342667060524E-05 0.731531808838169 
! Port Impedance         50               0                50               0                
0.03505                        0.988828641233299 164.557282051476 0.100947051142858 -102.034408940033 0.100947051142859 -102.034408940033 0.988828279724832 164.541153869528 
! Gamma         8.05500453376974E-05 0.734674351452032 8.1910084448515E-05 0.734675752136172 
! Port Impedance         50               0                50               0                
0.0352                         0.989517564113724 164.124314926186 0.095006154404834 -102.316799150671 0.0950061544048341 -102.316799150672 0.989517231603849 164.108066834827 
! Gamma         8.07224922056416E-05 0.737818291378808 8.20855254540839E-05 0.737819695058432 
! Port Impedance         50               0                50               0                
0.03535                        0.990158155699653 163.697447835322 0.0891686325430278 -102.57515687335 0.0891686325430289 -102.57515687335 0.990157851417861 163.681081331435 
! Gamma         8.08945711298103E-05 0.740962230938684 8.22605921323365E-05 0.740963637607411 
! Port Impedance         50               0                50               0                
0.0355                         0.990752705416332 163.2764762586   0.083431422972203 -102.806497860212 0.0834314229722038 -102.806497860212 0.990752428623616 163.259992791893 
! Gamma         8.10662844557195E-05 0.744106170134052 8.24352868694634E-05 0.744107579785546 
! Port Impedance         50               0                50               0                
0.03565                        0.991303371855655 162.861204283696 0.0777916138188843 -103.007015096022 0.0777916138188848 -103.007015096022 0.991303121842839 162.844605259147 
! Gamma         8.12376345061354E-05 0.747250108967282 8.26096120285112E-05 0.747251521595245 
! Port Impedance         50               0                50               0                
0.0358                         0.991812191197136 162.451444185828 0.0722464500289626 -103.171802935613 0.0722464500289628 -103.171802935613 0.991811967283306 162.434730965974 
! Gamma         8.14086235813097E-05 0.750394047440713 8.27835699496214E-05 0.750395463038889 
! Port Impedance         50               0                50               0                
0.03595                        0.99228108503523 162.047016029649 0.0667933443351853 -103.294460670122 0.066793344335186 -103.294460670122 0.992280886566261 162.030189936742 
! Gamma         8.15792539592111E-05 0.753537985556659 8.2957162950266E-05 0.753539404118834 
! Port Impedance         50               0                50               0                
0.0361                         0.992711867657577 161.647747292292 0.0614298956771414 -103.36650949517 0.061429895677142 -103.36650949517 0.992711694004755 161.630809610315 
! Gamma         8.17495278957536E-05 0.756681923317409 8.31303933254796E-05 0.756683344837406 
! Port Impedance         50               0                50               0                
0.03625                        0.993106252815296 161.253472506403 0.0561539194267203 -103.376512127704 0.0561539194267207 -103.376512127704 0.993106103374023 161.236424482972 
! Gamma         8.19194476250214E-05 0.759825860725225 8.33032633480887E-05 0.759827285196908 
! Port Impedance         50               0                50               0                
0.0364                         0.993465860023266 160.86403292211  0.0509634970029519 -103.308702470656 0.050963497002952 -103.308702470656 0.993465734211843 160.846875770256 
! Gamma         8.20890153594919E-05 0.762969797782345 8.3475775268938E-05 0.762971225199617 
! Port Impedance         50               0                50               0                
0.03655                        0.993792220425382 160.479276186867 0.0458570586600048 -103.140776191977 0.0458570586600054 -103.140776191977 0.993792117683866 160.462011086719 
! Gamma         8.22582332902552E-05 0.766113734490981 8.36479313171139E-05 0.766115164847782 
! Port Impedance         50               0                50               0                
0.0367                         0.994086782257083 160.099056042221 0.0408335257631474 -102.840178011436 0.040833525763148 -102.840178011437 0.994086702046218 160.081684142589 
! Gamma         8.24271035872308E-05 0.76925767085332 8.38197337001651E-05 0.76925910414363 
! Port Impedance         50               0                50               0                
0.03685                        0.994350915934921 159.723232036546 0.0358925657941752 -102.357548099452 0.0358925657941757 -102.357548099452 0.994350857735119 159.705754456412 
! Gamma         8.25956283993821E-05 0.772401606871527 8.39911846043209E-05 0.772403043089362 
! Port Impedance         50               0                50               0                
0.037                          0.994585918800625 159.351669252879 0.0310350755854973 -101.614444412052 0.0310350755854978 -101.614444412053 0.994585882111021 159.334087082807 
! Gamma         8.27638098549296E-05 0.775545542547741 8.41622861947073E-05 0.775546981687155 
! Port Impedance         50               0                50               0                
0.03715                        0.99479301954502 158.984238051014 0.0262641656636063 -100.478591318769 0.026264165663607 -100.478591318769 0.994793003882573 158.966552354477 
! Gamma         8.29316500615591E-05 0.778689477884078 8.43330406155602E-05 0.778690919939162 
! Port Impedance         50               0                50               0                
0.0373                         0.994973382335168 158.620813823058 0.021587363170416 -98.7091537300871 0.0215873631704167 -98.7091537300879 0.994973387233817 158.603025637694 
! Gamma         8.30991511066311E-05 0.78183341288263 8.45034499904368E-05 0.781834857847512 
! Port Impedance         50               0                50               0                
0.03745                        0.995128110666307 158.261276761717 0.0170221982419043 -95.8204328826762 0.0170221982419048 -95.820432882677 0.995128135676176 158.243387100513 
! Gamma         8.32663150573852E-05 0.784977347545469 8.4673516422425E-05 0.784978795414311 
! Port Impedance         50               0                50               0                
0.0376                         0.995258250958506 157.905511640578 0.0126130147110707 -90.6850306771185 0.0126130147110709 -90.6850306771189 0.995258295645147 157.887521492995 
! Gamma         8.34331439611443E-05 0.788121281874641 8.48432419943502E-05 0.788122732641642 
! Port Impedance         50               0                50               0                
0.03775                        0.995364795916407 157.553407605748 0.00849523122466063 -80.1311666318957 0.00849523122466119 -80.1311666318977 0.995364859860097 157.535317938778 
! Gamma         8.35996398455162E-05 0.791265215872172 8.50126287689811E-05 0.791266669531565 
! Port Impedance         50               0                50               0                
0.0379                         0.995448687669045 157.204857978194 0.00521971078443455 -53.6644500001667 0.00521971078443465 -53.6644500001689 0.995448770464115 157.186669737373 
! Gamma         8.37658047185937E-05 0.794409149540064 8.51816787892323E-05 0.794410606086119 
! Port Impedance         50               0                50               0                
0.03805                        0.995510820705419 156.859760066213 0.00475938208026988 -1.39779413666878 0.00475938208026969 -1.3977941366712 0.995510921959618 156.841474176564 
! Gamma         8.39316405691522E-05 0.797553082880299 8.53503940783665E-05 0.79755454230732 
! Port Impedance         50               0                50               0                
0.0382                         0.99555204462029 156.518014987444 0.00753684481160158 31.1470331364655 0.00753684481160148 31.1470331364642 0.995552163954187 156.499632354388 
! Gamma         8.40971493668465E-05 0.800697015894838 8.55187766401937E-05 0.800698478197161 
! Port Impedance         50               0                50               0                
0.03835                        0.995573166683607 156.179527499919 0.0113223505904982 43.8246048191151 0.0113223505904977 43.8246048191148 0.995573303730027 156.161049010127 
! Gamma         8.42623330624056E-05 0.803840948585621 8.56868284592699E-05 0.803842413757616 
! Port Impedance         50               0                50               0                
0.0385                         0.995574954245936 155.844205841634 0.0153425158690624 49.7572655687515 0.0153425158690623 49.757265568751  0.995575108649425 155.825632363842 
! Gamma         8.44271935878255E-05 0.806984880954565 8.58545515010935E-05 0.806986348990638 
! Port Impedance         50               0                50               0                
0.03865                        0.995558136991333 155.511961578181 0.0194172817505449 53.0269885086034 0.0194172817505444 53.0269885086035 0.995558308407644 155.49329396396  
! Gamma         8.45917328565612E-05 0.810128813003568 8.60219477122996E-05 0.810130283898157 
! Port Impedance         50               0                50               0                
0.0388                         0.995523409048243 155.182709457996 0.0234906420532345 55.0185168936668 0.0234906420532343 55.0185168936669 0.995523597143864 155.163948542488 
! Gamma         8.47559527637163E-05 0.81327274473451 8.61890190208543E-05 0.813274218482084 
! Port Impedance         50               0                50               0                
0.03895                        0.995471430968244 154.856367274799 0.0275407576412234 56.3067663837376 0.0275407576412228 56.3067663837374 0.995471635419936 154.837513877412 
! Gamma         8.49198551862321E-05 0.816416676149248 8.6355767336246E-05 0.816418152744309 
! Port Impedance         50               0                50               0                
0.0391                         0.995402831581683 154.532855736842 0.0315578937718071 57.1693499391487 0.0315578937718068 57.1693499391489 0.995403052076051 154.513910661915 
! Gamma         8.50834419830748E-05 0.819560607249621 8.65221945496761E-05 0.819562086686705 
! Port Impedance         50               0                50               0                
0.03925                        0.995318209738622 154.212098342589 0.0355374188702786 57.7558143692078 0.0355374188702784 57.7558143692078 0.995318445971703 154.193062380023 
! Gamma         8.52467149954207E-05 0.822704538037449 8.66883025342476E-05 0.822706020311121 
! Port Impedance         50               0                50               0                
0.0394                         0.995218135942861 153.894021262477 0.0394771325275519 58.153563637008  0.0394771325275516 58.1535636370082 0.995218387619741 153.874895188335 
! Gamma         8.54096760468417E-05 0.825848468514533 8.68540931451539E-05 0.825849953619391 
! Port Impedance         50               0                50               0                
0.03955                        0.995103153886272 153.578553226434 0.0433760993754664 58.416991879891  0.0433760993754664 58.416991879891  0.99510342072071 153.559337803515 
! Gamma         8.55723269434874E-05 0.828992398682655 8.70195682198638E-05 0.828993886613327 
! Port Impedance         50               0                50               0                
0.0397                         0.994973781890102 153.265625416839 0.0472340860925437 58.5816748612639 0.0472340860925432 58.5816748612639 0.994974063604181 153.246321395221 
! Gamma         8.57346694742676E-05 0.832136328543578 8.71847295783072E-05 0.832137819294723 
! Port Impedance         50               0                50               0                
0.03985                        0.994830514259469 152.955171366636 0.0510512674365064 58.6718358735358 0.0510512674365065 58.6718358735356 0.994830810583266 152.9357794842   
! Gamma         8.58967054110327E-05 0.835280258099049 8.73495790230587E-05 0.835281751665356 
! Port Impedance         50               0                50               0                
0.04                           0.994673822556804 152.647126862323 0.0548280628895928 58.7045253678003 0.0548280628895927 58.7045253678003 0.99467413322807 152.627647845244 
! Gamma         8.60584365087529E-05 0.838424187350794 8.75141183395199E-05 0.838425683726983 
! Port Impedance         50               0                50               0                
0.04015                        0.994504156799564 152.341429851558 0.0585650412048921 58.6920838242587 0.058565041204892 58.6920838242586 0.994504481563425 152.321864414783 
! Gamma         8.62198645056963E-05 0.841568116300525 8.76783492961008E-05 0.841569615481344 
! Port Impedance         50               0                50               0                
0.0403                         0.994321946587192 152.038020355136 0.062262862296508 58.6436566595469 0.062262862296508 58.6436566595469 0.99432228519586 152.018369202835 
! Gamma         8.6380991123606E-05 0.844712044949933 8.78422736443993E-05 0.844713546930163 
! Port Impedance         50               0                50               0                
0.04045                        0.99412760216193 151.736840383111 0.0659222406583634 58.5661606594379 0.0659222406583631 58.566160659438  0.994127954374432 151.717104209108 
! Gamma         8.6541818067875E-05 0.847855973300695 8.80058931193802E-05 0.847857478075143 
! Port Impedance         50               0                50               0                
0.0406                         0.993921515407756 151.43783385484  0.0695439216995395 58.4649201637348 0.0695439216995393 58.4649201637348 0.993921880989675 151.418013343026 
! Gamma         8.67023470277215E-05 0.850999901354471 8.81692094395526E-05 0.851001408917972 
! Port Impedance         50               0                50               0                
0.04075                        0.99370406079144 151.140946522742 0.0731286660983249 58.3440974338008 0.0731286660983248 58.3440974338009 0.993704439514665 151.121042347471 
! Gamma         8.68625796763616E-05 0.854143829112902 8.8332224307146E-05 0.854145339460322 
! Port Impedance         50               0                50               0                
0.0409                         0.993475596249411 150.846125899588 0.0766772392830261 58.2069908373975 0.0766772392830259 58.2069908373975 0.993475987891904 150.826138726051 
! Gamma         8.70225176711817E-05 0.857287756577614 8.84949394082855E-05 0.857289269703848 
! Port Impedance         50               0                50               0                
0.04105                        0.993236464023886 150.55332118913  0.0801904042751947 58.0562458663347 0.0801904042751941 58.0562458663347 0.993236868369455 150.53325167372  
! Gamma         8.71821626539089E-05 0.860431683750219 8.86573564131657E-05 0.860433199650187 
! Port Impedance         50               0                50               0                
0.0412                         0.992986991451464 150.262483219903 0.083668916787412 57.8940073079487 0.0836689167874118 57.8940073079487 0.992987408289551 150.242332010557 
! Gamma         8.73415162507813E-05 0.86357561063231 8.88194769762232E-05 0.863577129300961 
! Port Impedance         50               0                50               0                
0.04135                        0.992727491707178 149.97356438203  0.087113521862087 57.7220308489177 0.0871135218620869 57.7220308489177 0.992727920832654 149.953332118565 
! Gamma         8.75005800727162E-05 0.866719537225465 8.89813027363084E-05 0.866721058657777 
! Port Impedance         50               0                50               0                
0.0415                         0.99245826450678 149.686518566889 0.0905249515811153 57.5417661810912 0.0905249515811151 57.5417661810913 0.992458705719749 149.666205881312 
! Gamma         8.76593557154779E-05 0.86986346353125 8.91428353168553E-05 0.869864987722226 
! Port Impedance         50               0                50               0                
0.04165                        0.992179596769851 149.40130110948  0.0939039235303195 57.3544197448353 0.0939039235303193 57.3544197448354 0.992180049875464 149.380908626296 
! Gamma         8.78178447598434E-05 0.873007389551211 8.93040763260513E-05 0.873008916495882 
! Port Impedance         50               0                50               0                
0.0418                         0.991891763246161 149.117868733369 0.0972511398022504 57.1610026966447 0.0972511398022505 57.1610026966447 0.991892228054439 149.097397069875 
! Gamma         8.7976048771768E-05 0.876151315286883 8.94650273570049E-05 0.876152844980306 
! Port Impedance         50               0                50               0                
0.04195                        0.991595027107527 148.836179498079 0.100567286386745 56.9623680030391 0.100567286386745 56.962368003039  0.991595503433192 148.815629264637 
! Gamma         8.81339693025494E-05 0.879295240739784 8.96256899879125E-05 0.879296773177043 
! Port Impedance         50               0                50               0                
0.0421                         0.991289640507277 148.556192748795 0.103853032842877 56.7592394285506 0.103853032842877 56.7592394285507 0.991290128169588 148.535564549105 
! Gamma         8.829160788899E-05 0.882439165911418 8.9786065782224E-05 0.882440701087623 
! Port Impedance         50               0                50               0                
0.04225                        0.990975845109277 148.277869068278 0.107109032176204 56.5522344091377 0.107109032176204 56.5522344091376 0.990976343931877 148.257163499632 
! Gamma         8.84489660535589E-05 0.885583090803276 8.99461562888077E-05 0.885584628713563 
! Port Impedance         50               0                50               0                
0.0424                         0.990653872588362 148.001170230875 0.110335920866199 56.3418822625353 0.110335920866199 56.3418822625353 0.990654382399127 147.980387884406 
! Gamma         8.86060453045527E-05 0.888727015416834 9.0105963042113E-05 0.888728556056365 
! Port Impedance         50               0                50               0                
0.04255                        0.990323945103882 147.726059158519 0.113534319003547 56.128638806405  0.113534319003546 56.128638806405  0.990324465734784 147.705200619438 
! Gamma         8.87628471362545E-05 0.891870939753553 9.02654875623335E-05 0.891872483117515 
! Port Impedance         50               0                50               0                
0.0427                         0.989986275747966 147.452499878633 0.116704830507527 55.9128981831877 0.116704830507527 55.9128981831876 0.989986807034929 147.431565726455 
! Gamma         8.89193730290922E-05 0.895014863814883 9.04247313555669E-05 0.895016409898489 
! Port Impedance         50               0                50               0                
0.04285                        0.989641068969982 147.180457483826 0.119848043401308 55.6950024938896 0.119848043401308 55.6950024938896 0.989641610752763 147.159448292591 
! Gamma         8.90756244497961E-05 0.898158787602259 9.05836959139756E-05 0.898160336400745 
! Port Impedance         50               0                50               0                
0.043                          0.989288520978635 146.909898093312 0.122964530128521 55.475249699176  0.122964530128521 55.4752496991761 0.989289073100692 146.888814431796 
! Gamma         8.92316028515542E-05 0.901302711117103 9.07423827159453E-05 0.901304262625731 
! Port Impedance         50               0                50               0                
0.04315                        0.988928820122966 146.64078881596  0.126054847898572 55.2539001398182 0.126054847898571 55.2539001398182 0.988929382431339 146.619631247876 
! Gamma         8.93873096741675E-05 0.904446634360825 9.09007932262422E-05 0.904448188574881 
! Port Impedance         50               0                50               0                
0.0433                         0.9885621472535  146.373097714901 0.12911953905118 55.0311819491664 0.12911953905118 55.0311819491664 0.988562719598703 146.351866799093 
! Gamma         8.95427463442032E-05 0.907590557334819 9.10589288961697E-05 0.907592114249615 
! Port Impedance         50               0                50               0                
0.04345                        0.988188676064704 146.10679377361  0.132159131432933 54.8072955705201 0.132159131432933 54.8072955705201 0.988189258300611 146.085490064242 
! Gamma         8.96979142751477E-05 0.910734480040471 9.1216791163723E-05 0.910736039651341 
! Port Impedance         50               0                50               0                
0.0436                         0.987808573419799 145.841846863403 0.135174138780314 54.5824175468201 0.135174138780314 54.5824175468201 0.987809165403538 145.820470910141 
! Gamma         8.98528148675578E-05 0.913878402479151 9.13743814537437E-05 0.913879964781454 
! Port Impedance         50               0                50               0                
0.04375                        0.987421999658955 145.578227712279 0.138165061105032 54.3567037152711 0.138165061105032 54.3567037152711 0.987422601250814 145.55678006046  
! Gamma         9.00074495092102E-05 0.917022324652218 9.1531701178072E-05 0.917023889641336 
! Port Impedance         50               0                50               0                
0.0439                         0.987029108891818 145.315907875036 0.141132385078439 54.130291912618  0.141132385078439 54.1302919126179 0.987029719955142 145.294389065842 
! Gamma         9.01618195752516E-05 0.920166246561019 9.16887517356987E-05 0.920167814232358 
! Port Impedance         50               0                50               0                
0.04405                        0.986630049275229 145.054859704616 0.144076584412604 53.903304275894  0.144076584412604 53.903304275894  0.986630669676331 145.033270275229 
! Gamma         9.03159264283457E-05 0.923310168206889 9.18455345129154E-05 0.923311738555877 
! Port Impedance         50               0                50               0                
0.0442                         0.986224963276995 144.79505632461  0.146998120236213 53.6758492070907 0.146998120236213 53.6758492070908 0.986225592885066 144.773396808372 
! Gamma         9.04697714188201E-05 0.926454089591151 9.20020508834635E-05 0.926455662613241 
! Port Impedance         50               0                50               0                
0.04435                        0.985813987926471 144.536471602872 0.149897441463928 53.4480230572947 0.149897441463928 53.4480230572946 0.985814626613499 144.514742529432 
! Gamma         9.06233558848117E-05 0.929598010715117 9.21583022086826E-05 0.929599586405784 
! Port Impedance         50               0                50               0                
0.0445                         0.985397255052698 144.279080126196 0.152774985158185 53.2199115756093 0.152774985158185 53.2199115756092 0.985397902693382 144.257282021658 
! Gamma         9.07766811524111E-05 0.932741931580088 9.2314289837657E-05 0.932743509934828 
! Port Impedance         50               0                50               0                
0.04465                        0.984974891510777 144.022857176005 0.155631176882717 52.9915911600192 0.155631176882717 52.9915911600192 0.984975547982449 144.000990563063 
! Gamma         9.09297485358054E-05 0.935885852187351 9.24700151073612E-05 0.935887433201685 
! Port Impedance         50               0                50               0                
0.0448                         0.984547019397123 143.767778704997 0.158466431047282 52.7631299408089 0.158466431047282 52.7631299408089 0.984547684579673 143.745844103073 
! Gamma         9.10825593374207E-05 0.939029772538187 9.26254793428046E-05 0.939031356207656 
! Port Impedance         50               0                50               0                
0.04495                        0.984113756254213 143.513821314724 0.161281151243273 52.5345887218726 0.161281151243273 52.5345887218727 0.984114430030019 143.491819240097 
! Gamma         9.12351148480619E-05 0.94217369263386 9.27806838571741E-05 0.942175278954029 
! Port Impedance         50               0                50               0                
0.0451                         0.983675215265399 143.260962234041 0.164075730570012 52.3060218009752 0.164075730570012 52.3060218009752 0.983675897519255 143.238893199972 
! Gamma         9.13874163470531E-05 0.945317612475629 9.29356299519767E-05 0.945319201442083 
! Port Impedance         50               0                50               0                
0.04525                        0.983231505440308 143.009179298403 0.166850551951633 52.0774776865433 0.166850551951633 52.0774776865433 0.983232196059357 142.987043815258 
! Gamma         9.15394651023751E-05 0.948461532064738 9.30903189171794E-05 0.948463123673085 
! Port Impedance         50               0                50               0                
0.0454                         0.982782731791355 142.758450929961 0.169605988444546 51.8489997257169 0.169605988444546 51.8489997257168 0.982783430665026 142.736249505326 
! Gamma         9.16912623708031E-05 0.951605451402423 9.32447520313496E-05 0.951607045648292 
! Port Impedance         50               0                50               0                
0.04555                        0.982328995501823 142.508756118426 0.172342403535556 51.6206266560522 0.172342403535556 51.6206266560522 0.98232970252177 142.486489257221 
! Gamma         9.18428093980424E-05 0.954749370489909 9.33989305617925E-05 0.95475096736895 
! Port Impedance         50               0                50               0                
0.0457                         0.981870394085979 142.260074402671 0.175060151430719 51.3923930913377 0.175060151430719 51.3923930913377 0.981871109146019 142.237742607259 
! Gamma         9.19941074188629E-05 0.957893289328411 9.35528557646885E-05 0.957894888836296 
! Port Impedance         50               0                50               0                
0.04585                        0.981407021541627 142.012385853029 0.177759577335107 51.1643299503822 0.177759577335107 51.1643299503822 0.981407744537682 141.989989623324 
! Gamma         9.21451576572327E-05 0.961037207919134 9.37065288852292E-05 0.961038810051556 
! Port Impedance         50               0                50               0                
0.046                          0.980938968495496 141.765671054267 0.180441017723642 50.9364648363107 0.180441017723642 50.9364648363107 0.980939699325544 141.743210887832 
! Gamma         9.22959613264503E-05 0.964181126263273 9.38599511577512E-05 0.964182731015944 
! Port Impedance         50               0                50               0                
0.04615                        0.980466322341865 141.519911089198 0.183104800603205 50.7088223727869 0.183104800603205 50.7088223727868 0.980467060905879 141.497387481348 
! Gamma         9.24465196292758E-05 0.967325044362013 9.40131238058704E-05 0.967326651730668 
! Port Impedance         50               0                50               0                
0.0463                         0.979989167374738 141.275087522914 0.185751245766233 50.4814245026575 0.185751245766233 50.4814245026574 0.979989913574638 141.25250096681  
! Gamma         9.25968337580604E-05 0.970468962216531 9.41660480426132E-05 0.970470572196922 
! Port Impedance         50               0                50               0                
0.04645                        0.979507584913919 141.031182387598 0.188380665036026 50.2542907537291 0.188380665036026 50.2542907537291 0.979508338653525 141.00853337434  
! Gamma         9.27469048948753E-05 0.973612879827991 9.43187250705477E-05 0.973614492415895 
! Port Impedance         50               0                50               0                
0.0466                         0.979021653425312 140.788178167909 0.190993362503995 50.0274384757312 0.190993362503994 50.0274384757311 0.979022414610295 140.765467186627 
! Gamma         9.28967342116389E-05 0.976756797197552 9.44711560819134E-05 0.976758412388763 
! Port Impedance         50               0                50               0                
0.04675                        0.978531448635721 140.546057786898 0.193589634759097 49.8008830519607 0.193589634759097 49.8008830519607 0.978532217173556 140.523285324836 
! Gamma         9.30463228702429E-05 0.979900714326361 9.46233422587493E-05 0.979902332116693 
! Port Impedance         50               0                50               0                
0.0469                         0.978037043642444 140.304804592447 0.196169771109689 49.574638088633  0.196169771109688 49.574638088633  0.978037819442364 140.281971135049 
! Gamma         9.31956720226772E-05 0.983044631215556 9.47752847730211E-05 0.983046251600844 
! Port Impedance         50               0                50               0                
0.04705                        0.977538509017908 140.064402344196 0.198734053798026 49.3487155845589 0.198734053798026 49.3487155845589 0.977539291990865 140.041508375189 
! Gamma         9.3344782811154E-05 0.986188547866267 9.49269847867469E-05 0.986190170842366 
! Port Impedance         50               0                50               0                
0.0472                         0.977035912909618 139.824835200951 0.20128275820767 49.1231260834269 0.20128275820767 49.1231260834269 0.977036702968244 139.801881202423 
! Gamma         9.34936563682298E-05 0.989332464279616 9.5078443452122E-05 0.989334089842398 
! Port Impedance         50               0                50               0                
0.04735                        0.976529321135633 139.586087708542 0.203816153064013 48.8978788106751 0.203816153064013 48.8978788106751 0.976530118194192 139.563074161018 
! Gamma         9.36422938169267E-05 0.992476380456714 9.52296619116423E-05 0.992478008602073 
! Port Impedance         50               0                50               0                
0.0475                         0.9760187972758  139.348144788121 0.206334500628157 48.6729817966853 0.206334500628157 48.6729817966852 0.976019601250158 139.325072170636 
! Gamma         9.37906962708527E-05 0.995620296398666 9.53806412982259E-05 0.995621927122513 
! Port Impedance         50               0                50               0                
0.04765                        0.975504402758959 139.110991724869 0.20883805688438 48.448441987815  0.20883805688438 48.448441987815  0.975505213566543 139.087860515044 
! Gamma         9.39388648343201E-05 0.998764212106565 9.55313827353347E-05 0.998765845404833 
! Port Impedance         50               0                50               0                
0.0478                         0.97498619694631 138.874614157114 0.211327071721395 48.2242653465983 0.211327071721395 48.2242653465983 0.97498701450607 138.851424831224 
! Gamma         9.40868006024637E-05 1.0019081275815  9.56818873370935E-05 1.00190976345014 
! Port Impedance         50               0                50               0                
0.04795                        0.974464237211133 138.63899806583  0.213801789107627 48.0004569422806 0.213801789107627 48.0004569422806 0.974465061443511 138.615751098872 
! Gamma         9.42345046613562E-05 1.00505204282455 9.58321562084085E-05 1.00505368125952 
! Port Impedance         50               0                50               0                
0.0481                         0.973938579015046 138.4041297645   0.216262447260714 47.7770210327192 0.216262447260714 47.7770210327192 0.973939409841944 138.380825630257 
! Gamma         9.43819780881245E-05 1.00819595783678 9.59821904450844E-05 1.00819759883408 
! Port Impedance         50               0                50               0                
0.04825                        0.973409275980956 138.16999588934  0.218709278811427 47.5539611385529 0.218709278811427 47.5539611385528 0.973410113325698 138.146635060448 
! Gamma         9.45292219510625E-05 1.01133987261925 9.61319911339406E-05 1.01134151617489 
! Port Impedance         50               0                50               0                
0.0484                         0.972876379962867 137.936583389856 0.221142510962213 47.3312801104447 0.221142510962213 47.3312801104446 0.972877223750173 137.913166337866 
! Gamma         9.46762373097445E-05 1.01448378717303 9.62815593529251E-05 1.01448543328302 
! Port Impedance         50               0                50               0                
0.04855                        0.972339941112708 137.703879519737 0.223562365640553 47.1089801901057 0.223562365640553 47.1089801901057 0.972340791268661 137.680406715173 
! Gamma         9.48230252151365E-05 1.01762770149915 9.64308961712288E-05 1.01762935015954 
! Port Impedance         50               0                50               0                
0.0487                         0.9718000079443  137.471871828048 0.225969059647306 46.8870630657289 0.225969059647307 46.8870630657289 0.971800864396316 137.448343740468 
! Gamma         9.49695867097064E-05 1.02077161559866 9.65800026493971E-05 1.02077326680551 
! Port Impedance         50               0                50               0                
0.04885                        0.971256627394617 137.240548150737 0.228362804800236 46.6655299223924 0.228362804800236 46.6655299223923 0.971257490071418 137.216965248789 
! Gamma         9.51159228275328E-05 1.02391552947259 9.6728879839441E-05 1.02391718322197 
! Port Impedance         50               0                50               0                
0.049                          0.970709844882463 137.009896602423 0.230743808072867 46.4443814879277 0.230743808072867 46.4443814879277 0.970710713714048 136.9862593539   
! Gamma         9.52620345944136E-05 1.02705944312195 9.68775287849469E-05 1.02706109940997 
! Port Impedance         50               0                50               0                
0.04915                        0.970159704364681 136.779905568464 0.233112271728867 46.2236180746979 0.233112271728867 46.2236180746979 0.970160579282305 136.756214440359 
! Gamma         9.54079230279717E-05 1.03020335654777 9.70259505211849E-05 1.03020501537054 
! Port Impedance         50               0                50               0                
0.0493                         0.969606248390025 136.550563697293 0.23546839345208 46.0032396176778 0.23546839345208 46.0032396176777 0.969607129326161 136.526819155851 
! Gamma         9.55535891377612E-05 1.03334726975105 9.71741460752163E-05 1.0333489311047  
! Port Impedance         50               0                50               0                
0.04945                        0.969049518150773 136.321859893011 0.237812366472398 45.783245709192  0.237812366472398 45.783245709192  0.9690504050391  136.298062403779 
! Gamma         9.56990339253711E-05 1.03649118273281 9.73221164659993E-05 1.03649284661348 
! Port Impedance         50               0                50               0                
0.0496                         0.968489553532232 136.093783308222 0.240144379687598 45.5636356306254 0.240144379687598 45.5636356306254 0.968490446307603 136.069933336101 
! Gamma         9.58442583845286E-05 1.03963509549401 9.74698627044941E-05 1.03963676189789 
! Port Impedance         50               0                50               0                
0.04975                        0.967926393160182 135.866323337116 0.242464617781288 45.3444083813888 0.242464617781288 45.3444083813888 0.967927291758601 135.842421346406 
! Gamma         9.5989263501201E-05 1.04277900803567 9.76173857937665E-05 1.04278067695892 
! Port Impedance         50               0                50               0                
0.0499                         0.967360074446392 135.639469608767 0.244773261337115 45.1255627053951 0.244773261337115 45.125562705395  0.967360978804992 135.615516063218 
! Gamma         9.6134050253696E-05 1.04592292035876 9.77646867290903E-05 1.04592459179759 
! Port Impedance         50               0                50               0                
0.05005                        0.966790633632275 135.413211980662 0.247070486949356 44.9070971152726 0.247070486949357 44.9070971152726 0.966791543689298 135.389207343516 
! Gamma         9.62786196127617E-05 1.04906683246424 9.79117664980484E-05 1.04906850641487 
! Port Impedance         50               0                50               0                
0.0502                         0.966218105830776 135.187540532436 0.249356467330016 44.6890099145231 0.249356467330016 44.689009914523  0.966219021525545 135.163485266474 
! Gamma         9.64229725416845E-05 1.05221074435309 9.80586260806326E-05 1.05221242081175 
! Port Impedance         50               0                50               0                
0.05035                        0.965642525066565 134.962445559808 0.251631371412568 44.4712992178062 0.251631371412568 44.4712992178062 0.965643446339471 134.938340127392 
! Gamma         9.65671099963863E-05 1.05535465602627 9.8205266449343E-05 1.0553563349892  
! Port Impedance         50               0                50               0                
0.0505                         0.965063924314624 134.737917568722 0.253895364452447 44.2539629695209 0.253895364452447 44.2539629695209 0.965064851107097 134.713762431838 
! Gamma         9.67110329255204E-05 1.05849856748472 9.8351688569285E-05 1.05850024894821 
! Port Impedance         50               0                50               0                
0.05065                        0.964482335537281 134.513947269666 0.256148608124412 44.0369989608311 0.256148608124412 44.036998960831  0.964483267791775 134.489742889966 
! Gamma         9.68547422705666E-05 1.0616424787294  9.84978933982661E-05 1.06164416268972 
! Port Impedance         50               0                50               0                
0.0508                         0.963897789719781 134.290525572179 0.258391260616884 43.8204048452734 0.258391260616884 43.8204048452734 0.963898727379755 134.266272411021 
! Gamma         9.69982389659244E-05 1.06478638976125 9.86438818868911E-05 1.0647880762147  
! Port Impedance         50               0                50               0                
0.05095                        0.963310316904443 134.067643579535 0.260623476723372 43.6041781530702 0.260623476723373 43.6041781530701 0.963311259914337 134.043342098019 
! Gamma         9.71415239390059E-05 1.06793030058119 9.8789654978656E-05 1.06793198952409 
! Port Impedance         50               0                50               0                
0.0511                         0.962719946223471 133.845292583585 0.262845407931083 43.3883163042576 0.262845407931083 43.3883163042576 0.962720894528694 133.820943242596 
! Gamma         9.72845981103264E-05 1.07107421119015 9.89352136100411E-05 1.07107590261883 
! Port Impedance         50               0                50               0                
0.05125                        0.962126705930484 133.623464059775 0.265057202506811 43.1728166207329 0.265057202506811 43.1728166207329 0.962127659477391 133.599067320018 
! Gamma         9.74274623935958E-05 1.07421812158906 9.90805587106026E-05 1.07421981549987 
! Port Impedance         50               0                50               0                
0.0514                         0.961530623430809 133.402149662308 0.267259005580216 42.9576763373087 0.267259005580216 42.9576763373087 0.961531582166682 133.377705984345 
! Gamma         9.75701176958063E-05 1.07736203177883 9.92256912030634E-05 1.07736372816813 
! Port Impedance         50               0                50               0                
0.05155                        0.960931725310597 133.181341219471 0.269450959224553 42.7428926118614 0.269450959224553 42.7428926118614 0.960932689183635 133.156851063754 
! Gamma         9.77125649173214E-05 1.08050594176036 9.93706120034025E-05 1.08050764062454 
! Port Impedance         50               0                50               0                
0.0517                         0.960330037364821 132.961030729089 0.271633202534975 42.5284625346469 0.271633202534975 42.5284625346469 0.960331006324115 132.936494555998 
! Gamma         9.7854804951962E-05 1.08364985153457 9.95153220209429E-05 1.08365155287002 
! Port Impedance         50               0                50               0                
0.05185                        0.959725584624186 132.741210354137 0.273805871704461 42.3143831368539 0.273805871704461 42.3143831368539 0.959726558619707 132.716628624014 
! Gamma         9.79968386870925E-05 1.08679376110233 9.96598221584394E-05 1.08679546490546 
! Port Impedance         50               0                50               0                
0.052                          0.959118391381017 132.521872418476 0.275969100097472 42.1006513984568 0.275969100097472 42.1006513984568 0.959119370363597 132.497245591656 
! Gamma         9.81386670037051E-05 1.08993767046455 9.98041133121642E-05 1.08993937673179 
! Port Impedance         50               0                50               0                
0.05215                        0.958508481214151 132.303009402727 0.2781230183214  41.8872642554264 0.2781230183214  41.8872642554264 0.958509465135469 132.27833793957  
! Gamma         9.82802907765033E-05 1.09308157962211 9.9948196371992E-05 1.0930832883499  
! Port Impedance         50               0                50               0                
0.0523                         0.95789587701289 132.084613940261 0.280267754295895 41.6742186063496 0.280267754295895 41.6742186063495 0.957896865825458 132.059898301185 
! Gamma         9.84217108739847E-05 1.09622548857588 0.000100092072221484 1.09622719976068 
! Port Impedance         50               0                50               0                
0.05245                        0.957280601000049 131.866678813321 0.282403433320131 41.4615113185062 0.282403433320132 41.4615113185062 0.957281594657193 131.841919458833 
! Gamma         9.85629281585216E-05 1.09936939732674 0.00010023574173797 1.09937111096502 
! Port Impedance         50               0                50               0                
0.0526                         0.956662674754134 131.649196949255 0.28453017813809 41.2491392334472 0.28453017813809 41.2491392334472 0.956663673209981 131.624394339981 
! Gamma         9.87039434864417E-05 1.10251330587555 0.00010037920579263 1.1025150219638  
! Port Impedance         50               0                50               0                
0.05275                        0.956042119230687 131.432161416863 0.28664810900192 41.0370991721131 0.28664810900192 41.0370991721131 0.95604312244015 131.407316013576 
! Gamma         9.88447577081071E-05 1.10565721422318 0.000100522465250576 1.1056589327579  
! Port Impedance         50               0                50               0                
0.0529                         0.955418954782843 131.215565422856 0.288757343733451 40.8253879395294 0.288757343733451 40.8253879395294 0.955419962701606 131.190677686508 
! Gamma         9.89853716679924E-05 1.10880112237047 0.00010066552097093 1.10880284334818 
! Port Impedance         50               0                50               0                
0.05305                        0.954793201181116 130.999402308417 0.290857997783904 40.6140023291133 0.290857997783904 40.6140023291133 0.954794213765621 130.974472700162 
! Gamma         9.91257862047614E-05 1.11194503031828 0.000100808373806902 1.11194675373552 
! Port Impedance         50               0                50               0                
0.0532                         0.954164877632458 130.783665545863 0.292950184291871 40.4029391266204 0.292950184291871 40.4029391266204 0.954165894839889 130.758694527091 
! Gamma         9.92660021513436E-05 1.11508893806745 0.000100951024605871 1.11509066392076 
! Port Impedance         50               0                50               0                
0.05335                        0.953534002798614 130.568348735412 0.295034014139624 40.1921951137621 0.295034014139625 40.1921951137621 0.953535024586887 130.543336767771 
! Gamma         9.94060203350087E-05 1.11823284561882 0.000101093474209454 1.11823457390476 
! Port Impedance         50               0                50               0                
0.0535                         0.952900594813811 130.353445602036 0.297109596007801 39.9817670715172 0.297109596007801 39.9817670715171 0.952901621141554 130.328393147461 
! Gamma         9.95458415774407E-05 1.12137675297323 0.000101235723453589 1.12137848368837 
! Port Impedance         50               0                50               0                
0.05365                        0.952264671301789 130.138949992413 0.299177036428512 39.771651783162  0.299177036428512 39.771651783162  0.952265702128336 130.113857513152 
! Gamma         9.96854666948105E-05 1.12452066013149 0.000101377773168604 1.12452239327243 
! Port Impedance         50               0                50               0                
0.0538                         0.951626249392227 129.924855871964 0.301236439836954 39.5618460370422 0.301236439836954 39.5618460370421 0.9516272846776  129.899723830601 
! Gamma         9.9824896497848E-05 1.12766456709443 0.000101519624179291 1.12766630265778 
! Port Impedance         50               0                50               0                
0.05395                        0.95098534573657 129.711157321977 0.303287908621532 39.3523466291033 0.303287908621532 39.3523466291033 0.950986385441467 129.685986181459 
! Gamma         9.99641317919129E-05 1.13080847386288 0.000101661277304982 1.13081021184525 
! Port Impedance         50               0                50               0                
0.0541                         0.950341976523283 129.497848536812 0.305331543172582 39.1431503652022 0.305331543172582 39.1431503652022 0.950343020609065 129.472638760474 
! Gamma         0.000100103173377064 1.13395238043763 0.000101802733359612 1.13395412083565 
! Port Impedance         50               0                50               0                
0.05425                        0.94969615749256 129.28492382119  0.30736744192971 38.9342540632126 0.30736744192971 38.9342540632126 0.949697205921238 129.259675872777 
! Gamma         0.00010024202204813 1.1370962868195  0.000101943993151797 1.13709802962983 
! Port Impedance         50               0                50               0                
0.0544                         0.949047903950511 129.072377587556 0.309395701427804 38.7256545549431 0.309395701427804 38.7256545549431 0.949048956684737 129.047091931246 
! Gamma         0.000100380678594773 1.14024019300928 0.000102085057484899 1.14024193822857 
! Port Impedance         50               0                50               0                
0.05455                        0.948397230782844 128.860204353516 0.311416416341761 38.5173486878803 0.311416416341761 38.5173486878803 0.948398287785893 128.834881453946 
! Gamma         0.00010051914380156 1.14338409900778 0.000102225927157095 1.14338584663271 
! Port Impedance         50               0                50               0                
0.0547                         0.947744152468057 128.648398739351 0.313429679529968 38.3093333267719 0.313429679529968 38.3093333267719 0.947745213703818 128.623039061637 
! Gamma         0.000100657418448028 1.14652800481578 0.000102366602961444 1.14652975484304 
! Port Impedance         50               0                50               0                
0.05485                        0.947088683090173 128.4369554656   0.315435582076583 38.10160535506   0.315435582076583 38.1016053550599 0.947089748523134 128.411559475358 
! Gamma         0.000100795503308746 1.14967191043407 0.000102507085685952 1.14967366286036 
! Port Impedance         50               0                50               0                
0.055                          0.946430836351019 128.225869350702 0.317434213332637 37.8941616761776 0.317434213332638 37.8941616761776 0.94643190594626 128.200437514075 
! Gamma         0.000100933399153381 1.15281581586343 0.000102647376113637 1.15281757068547 
! Port Impedance         50               0                50               0                
0.05515                        0.94577062558209 128.015135308721 0.319425660956021 37.6869992147182 0.319425660956021 37.6869992147182 0.945771699305264 127.989668092393 
! Gamma         0.000101071106746762 1.15595972110464 0.000102787475022598 1.15596147831915 
! Port Impedance         50               0                50               0                
0.0553                         0.945108063755982 127.804748347116 0.321410010950365 37.480114917487  0.321410010950365 37.480114917487  0.945109141573309 127.779246218338 
! Gamma         0.000101208626848941 1.15910362615847 0.000102927383186071 1.1591053857622  
! Port Impedance         50               0                50               0                
0.05545                        0.944443163497444 127.594703564584 0.323387347702866 37.273505754445  0.323387347702866 37.273505754445  0.944444245375696 127.569166991194 
! Gamma         0.000101345960215252 1.16224753102568 0.000103067101372496 1.16224929301538 
! Port Impedance         50               0                50               0                
0.0556                         0.943775937094039 127.384996148962 0.325357754021087 37.0671687195513 0.325357754021087 37.0671687195513 0.943777023000531 127.359425599403 
! Gamma         0.000101483107596378 1.16539143570703 0.000103206630345576 1.16539320007948 
! Port Impedance         50               0                50               0                
0.05575                        0.943106396506447 127.175621375178 0.327321311168756 36.8611008315139 0.327321311168756 36.8611008315139 0.943107486409019 127.150017318519 
! Gamma         0.0001016200697384 1.16853534020328 0.000103345970864338 1.16853710695526 
! Port Impedance         50               0                50               0                
0.0559                         0.942434553378402 126.96657460327  0.329278098900611 36.6552991344541 0.329278098900611 36.6552991344541 0.942435647245416 126.940937509226 
! Gamma         0.000101756847382867 1.17167924451519 0.000103485123683194 1.17168101364349 
! Port Impedance         50               0                50               0                
0.05605                        0.941760419046308 126.757851276448 0.331228195496298 36.4497606984916 0.331228195496299 36.4497606984916 0.941761516846627 126.732181615398 
! Gamma         0.000101893441266844 1.1748231486435  0.000103624089551999 1.17482492014493 
! Port Impedance         50               0                50               0                
0.0562                         0.941084004548511 126.549446919215 0.333171677793377 36.2444826202571 0.333171677793377 36.2444826202571 0.941085106251497 126.523745162223 
! Gamma         0.000102029852122975 1.17796705258895 0.000103762869216105 1.17796882646033 
! Port Impedance         50               0                50               0                
0.05635                        0.940405320634272 126.341357135538 0.335108621219436 36.0394620233365 0.335108621219437 36.0394620233365 0.940406426209764 126.315623754368 
! Gamma         0.000102166080679534 1.18111095635228 0.000103901463416423 1.18111273259045 
! Port Impedance         50               0                50               0                
0.0565                         0.939724377772426 126.133577607065 0.337039099823372 35.8346960586532 0.337039099823372 35.8346960586532 0.939725487190738 126.107813074202 
! Gamma         0.000102302127660485 1.18425485993422 0.000104039872889477 1.18425663853603 
! Port Impedance         50               0                50               0                
0.05665                        0.939041186159757 125.926104091392 0.338963186305824 35.6301819047923 0.338963186305824 35.6301819047923 0.93904229939166 125.900308880058 
! Gamma         0.000102437993785531 1.18739876333551 0.000104178098367457 1.1874005442978  
! Port Impedance         50               0                50               0                
0.0568                         0.938355755729096 125.718932420374 0.340880952048832 35.4259167682723 0.340880952048831 35.4259167682723 0.938356872745808 125.693107004548 
! Gamma         0.000102573679770172 1.19054266655685 0.000104316140578277 1.19054444987652 
! Port Impedance         50               0                50               0                
0.05695                        0.937668096157139 125.512058498488 0.342792467144694 35.2218978837664 0.342792467144694 35.2218978837664 0.937669216930317 125.486203352922 
! Gamma         0.000102709186325755 1.19368656959899 0.000104454000245625 1.19368835527291 
! Port Impedance         50               0                50               0                
0.0571                         0.936978216872017 125.305478301226 0.344697800424094 35.0181225142803 0.344697800424094 35.0181225142803 0.936979341373739 125.27959390146  
! Gamma         0.000102844514159523 1.19683047246262 0.000104591678089016 1.19683226048769 
! Port Impedance         50               0                50               0                
0.05725                        0.936286127060609 125.099187873543 0.346597019483484 34.8145879512861 0.346597019483484 34.814587951286  0.936287255263367 125.073274695927 
! Gamma         0.000102979663974671 1.19997437514847 0.000104729174823848 1.19997616552159 
! Port Impedance         50               0                50               0                
0.0574                         0.935591835675619 124.893183328338 0.348490190711765 34.6112915148196 0.348490190711764 34.6112915148196 0.935592967552305 124.867241850043 
! Gamma         0.000103114636470394 1.20311827765723 0.000104866491161444 1.20312007037533 
! Port Impedance         50               0                50               0                
0.05755                        0.934895351442416 124.687460844979 0.350377379316276 34.4082305535412 0.350377379316276 34.4082305535412 0.934896486966314 124.661491544016 
! Gamma         0.000103249432341935 1.2062621799896  0.000105003627809112 1.20626397504963 
! Port Impedance         50               0                50               0                
0.0577                         0.934196682865656 124.482016667861 0.352258649348127 34.2054024447641 0.352258649348128 34.2054024447641 0.934197822010425 124.456020023099 
! Gamma         0.000103384052280634 1.2094060821463  0.000105140585470187 1.20940787954518 
! Port Impedance         50               0                50               0                
0.05785                        0.933495838235686 124.276847105008 0.354134063726871 34.0028045944531 0.354134063726871 34.0028045944531 0.933496980975355 124.250823596185 
! Gamma         0.000103518496973975 1.212549984128   0.000105277364844083 1.2125517838627  
! Port Impedance         50               0                50               0                
0.058                          0.932792825634746 124.071948526704 0.356003684264555 33.800434437195  0.356003684264555 33.800434437195  0.932793971943692 124.045898634448 
! Gamma         0.000103652767105635 1.21569388593539 0.000105413966626339 1.21569568800289 
! Port Impedance         50               0                50               0                
0.05815                        0.932087652942953 123.867317364167 0.357867571689164 33.5982894361447 0.357867571689164 33.5982894361447 0.932088802795902 123.841241570007 
! Gamma         0.000103786863355527 1.21883778756917 0.000105550391508667 1.21883959196644 
! Port Impedance         50               0                50               0                
0.0583                         0.931380327844126 123.662950108248 0.359725785667469 33.3963670829472 0.359725785667469 33.3963670829471 0.931381481216129 123.636848894631 
! Gamma         0.00010392078639985 1.22198168903001 0.000105686640178998 1.22198349575404 
! Port Impedance         50               0                50               0                
0.05845                        0.930670857831385 123.458843308167 0.361578384827299 33.1946648976388 0.361578384827299 33.1946648976388 0.930672014697817 123.432717158475 
! Gamma         0.000104054536911127 1.22512559031858 0.000105822713321525 1.22512739936639 
! Port Impedance         50               0                50               0                
0.0586                         0.929959250212604 123.254993570288 0.363425426779262 32.9931804285288 0.363425426779261 32.9931804285289 0.929960410549143 123.228842968849 
! Gamma         0.000104188115558255 1.22826949143557 0.000105958611616753 1.22827130280417 
! Port Impedance         50               0                50               0                
0.05875                        0.929245512115676 123.051397556911 0.365266968137915 32.7919112520636 0.365266968137915 32.7919112520636 0.929246675898296 123.025222989017 
! Gamma         0.000104321523006543 1.23141339238162 0.000106094335741536 1.23141520606804 
! Port Impedance         50               0                50               0                
0.0589                         0.928529650493609 122.848051985103 0.367103064542417 32.5908549726737 0.367103064542417 32.5908549726738 0.928530817698568 122.821853937023 
! Gamma         0.00010445475991776 1.23455729315742 0.000106229886369126 1.2345591091587  
! Port Impedance         50               0                50               0                
0.05905                        0.927811672129471 122.644953625562 0.368933770676662 32.3900092226076 0.368933770676662 32.3900092226076 0.927812842733296 122.618732584556 
! Gamma         0.000104587826950172 1.23770119376361 0.000106365264169211 1.23770301207681 
! Port Impedance         50               0                50               0                
0.0592                         0.927091583641174 122.442099301498 0.37075914028892 32.1893716617504 0.37075914028892 32.1893716617504 0.927092757620649 122.415855755831 
! Gamma         0.000104720724758583 1.24084509420086 0.000106500469807961 1.24084691482303 
! Port Impedance         50               0                50               0                
0.05935                        0.926369391486104 122.23948588755  0.372579226210999 31.9889399774319 0.372579226210999 31.9889399774319 0.926370568818264 122.213220326508 
! Gamma         0.00010485345399438 1.24398899446981 0.000106635503948063 1.24399081739803 
! Port Impedance         50               0                50               0                
0.0595                         0.925645101965622 122.03711030873  0.374394080376927 31.7887118842224 0.374394080376927 31.7887118842224 0.92564628262773 122.010823222632 
! Gamma         0.000104986015305566 1.24713289457111 0.00010677036724877 1.24713471980247 
! Port Impedance         50               0                50               0                
0.05965                        0.924918721229406 121.834969539387 0.376203753841193 31.5886851237198 0.376203753841193 31.5886851237198 0.92491990519895 121.808661419599 
! Gamma         0.000105118409336807 1.25027679450541 0.00010690506036593 1.250278622037   
! Port Impedance         50               0                50               0                
0.0598                         0.924190255279671 121.633060602202 0.378008296796532 31.3888574643265 0.378008296796531 31.3888574643265 0.924191442534346 121.60673194115  
! Gamma         0.000105250636729461 1.25342069427333 0.000107039583952036 1.25342252410227 
! Port Impedance         50               0                50               0                
0.05995                        0.923459709975261 121.431380567206 0.379807758591286 31.1892267010193 0.379807758591286 31.1892267010193 0.923460900492957 121.405031858392 
! Gamma         0.000105382698121622 1.25656459387553 0.000107173938656253 1.25656642599892 
! Port Impedance         50               0                50               0                
0.0601                         0.922727091035602 121.229926550822 0.381602187746349 30.9897906551119 0.381602187746349 30.9897906551119 0.922728284794396 121.203558288832 
! Gamma         0.000105514594148157 1.25970849331262 0.000107308125124467 1.25971032772761 
! Port Impedance         50               0                50               0                
0.06025                        0.921992404044551 121.028695714926 0.383391631971698 30.790547174011  0.383391631971698 30.790547174011  0.921993601022686 121.002308395448 
! Gamma         0.000105646325440738 1.26285239258523 0.000107442143999311 1.26285422928896 
! Port Impedance         50               0                50               0                
0.0604                         0.921255654454112 120.827685265938 0.385176138182534 30.5914941309665 0.385176138182534 30.5914941309666 0.921256854629991 120.801279385775 
! Gamma         0.000105777892627881 1.26599629169399 0.000107575995920211 1.2659981306836  
! Port Impedance         50               0                50               0                
0.06055                        0.920516847588053 120.626892453932 0.386955752515036 30.3926294248179 0.386955752515036 30.3926294248179 0.920518050940223 120.600468511011 
! Gamma         0.000105909296334981 1.26914019063952 0.000107709681523415 1.26914203191218 
! Port Impedance         50               0                50               0                
0.0607                         0.919775988645406 120.426314571763 0.388730520341743 30.193950979735  0.388730520341743 30.193950979735  0.919777195152543 120.39987306515  
! Gamma         0.000106040537184345 1.27228408942243 0.000107843201442029 1.27228593297531 
! Port Impedance         50               0                50               0                
0.06085                        0.919033082703858 120.225948954221 0.39050048628657 29.9954567449561 0.39050048628657 29.9954567449561 0.919034292344759 120.199490384134 
! Gamma         0.000106171615795226 1.27542798804333 0.000107976556306057 1.27542983387362 
! Port Impedance         50               0                50               0                
0.061                          0.918288134723053 120.025792977202 0.392265694239468 29.7971446945226 0.392265694239468 29.7971446945226 0.918289347476617 119.999317845023 
! Gamma         0.00010630253278386 1.27857188650284 0.000108109746742425 1.27857373460773 
! Port Impedance         50               0                50               0                
0.06115                        0.917541149547783 119.825844056898 0.39402618737075 29.5990128270109 0.39402618737075 29.5990128270109 0.917542365393001 119.799352865185 
! Gamma         0.00010643328876349 1.28171578480154 0.000108242773375024 1.28171763517824 
! Port Impedance         50               0                50               0                
0.0613                         0.916792131911088 119.626099649008 0.395782008145066 29.4010591652627 0.395782008145065 29.4010591652627 0.916793350827028 119.599592901509 
! Gamma         0.000106563884344409 1.28485968294005 0.000108375636824737 1.28486153558577 
! Port Impedance         50               0                50               0                
0.06145                        0.916041086437269 119.42655724797  0.397533198335067 29.203281756113  0.397533198335067 29.203281756113  0.916042308403063 119.400035449633 
! Gamma         0.000106694320133983 1.28800358091896 0.000108508337709471 1.28800543583093 
! Port Impedance         50               0                50               0                
0.0616                         0.915288017644803 119.2272143862   0.399279799034744 29.0056786701172 0.399279799034744 29.0056786701172 0.915289242639632 119.200678043186 
! Gamma         0.000106824596736684 1.29114747873886 0.000108640876644192 1.29114933591431 
! Port Impedance         50               0                50               0                
0.06175                        0.91453292994918 119.028068633365 0.401021850672458 28.8082480012773 0.401021850672458 28.8082480012773 0.914534157952259 119.001518253061 
! Gamma         0.000106954714754125 1.29429137640033 0.000108773254240953 1.29429323583652 
! Port Impedance         50               0                50               0                
0.0619                         0.913775827665651 118.829117595659 0.402759393023677 28.6109878667671 0.402759393023677 28.6109878667671 0.913777058656216 118.802553686689 
! Gamma         0.000107084674785082 1.29743527390398 0.000108905471108924 1.29743713559815 
! Port Impedance         50               0                50               0                
0.06205                        0.913016715011899 118.630358915105 0.404492465223406 28.4138964066577 0.404492465223407 28.4138964066577 0.913017948969195 118.60378198734  
! Gamma         0.000107214477425531 1.30057917125036 0.000109037527854424 1.3005810351998  
! Port Impedance         50               0                50               0                
0.0622                         0.912255596110631 118.431790268864 0.406221105778354 28.2169717836431 0.406221105778354 28.2169717836431 0.912256833013897 118.405200833438 
! Gamma         0.00010734412326867 1.30372306844007 0.000109169425080949 1.30372493464204 
! Port Impedance         50               0                50               0                
0.06235                        0.911492474992101 118.233409368571 0.4079453525788  28.020212182765  0.4079453525788  28.0202121827651 0.911493714820548 118.206807937889 
! Gamma         0.000107473612904952 1.30686696547367 0.0001093011633892 1.30686883392546 
! Port Impedance         50               0                50               0                
0.0625                         0.910727355596544 118.035213959678 0.409665242910207 27.8236158111402 0.409665242910206 27.8236158111402 0.910728598329349 118.008601047429 
! Gamma         0.000107602946922111 1.31001086235174 0.000109432743377112 1.31001273305065 
! Port Impedance         50               0                50               0                
0.06265                        0.909960241776559 117.837201820812 0.411380813464565 27.6271808976865 0.411380813464565 27.6271808976865 0.909961487392847 117.810577941981 
! Gamma         0.000107732125905189 1.31315475907484 0.000109564165639882 1.31315663201817 
! Port Impedance         50               0                50               0                
0.0628                         0.909191137299406 117.639370763154 0.413092100351482 27.4309056928512 0.413092100351482 27.4309056928512 0.909192385778236 117.612736434033 
! Gamma         0.000107861150436562 1.31629865564354 0.000109695430769996 1.31630053082861 
! Port Impedance         50               0                50               0                
0.06295                        0.908420045849259 117.441718629826 0.414799139109021 27.2347884683404 0.414799139109021 27.2347884683404 0.908421297169606 117.415074368025 
! Gamma         0.000107990021095968 1.31944255205839 0.000109826539357254 1.31944442948252 
! Port Impedance         50               0                50               0                
0.0631                         0.90764697102937 117.244243295295 0.4165019647143  27.0388275168495 0.416501964714299 27.0388275168495 0.90764822517011 117.217589619754 
! Gamma         0.000108118738460532 1.32258644831994 0.000109957491988799 1.32258832798048 
! Port Impedance         50               0                50               0                
0.06325                        0.906871916364189 117.046942664788 0.418200611593847 26.8430211517948 0.418200611593847 26.8430211517949 0.90687317330409 117.020280095787 
! Gamma         0.000108247303104789 1.32573034442876 0.00011008828924914 1.32573222632304 
! Port Impedance         50               0                50               0                
0.0634                         0.90609488530142 116.849814673721 0.419895113633738 26.6473677070484 0.419895113633738 26.6473677070484 0.906096145019115 116.823143732894 
! Gamma         0.000108375715600712 1.32887424038538 0.000110218931720178 1.32887612451076 
! Port Impedance         50               0                50               0                
0.06355                        0.905315881214015 116.652857287143 0.421585504189498 26.4518655366725 0.421585504189498 26.4518655366725 0.905317143687995 116.626178497487 
! Gamma         0.000108503976517735 1.33201813619035 0.000110349419981232 1.3320200225442  
! Port Impedance         50               0                50               0                
0.0637                         0.904534907402114 116.456068499191 0.423271816095788 26.256513014658  0.423271816095788 26.256513014658  0.904536172610708 116.429382385077 
! Gamma         0.000108632086422776 1.33516203184422 0.000110479754609061 1.33516392042391 
! Port Impedance         50               0                50               0                
0.06385                        0.903751967094937 116.259446332553 0.424954081675881 26.0613085346635 0.42495408167588 26.0613085346635 0.903753235016298 116.232753419739 
! Gamma         0.000108760045880262 1.33830592734752 0.000110609936177889 1.33830781815043 
! Port Impedance         50               0                50               0                
0.064                          0.90296706345261 116.062988837952 0.426632332750924 25.8662505097573 0.426632332750924 25.8662505097573 0.902968334064697 116.03628965359  
! Gamma         0.000108887855452149 1.34144982270078 0.000110739965259429 1.34145171572431 
! Port Impedance         50               0                50               0                
0.06415                        0.90218019956796 115.866694093629 0.428306600649009 25.6713373721611 0.428306600649009 25.6713373721611 0.90218147284852 115.839989166282 
! Gamma         0.000109015515697948 1.34459371790453 0.000110869842422903 1.34459561314608 
! Port Impedance         50               0                50               0                
0.0643                         0.901391378468236 115.670560204852 0.429976916214032 25.4765675729968 0.429976916214031 25.4765675729968 0.901392654394791 115.643850064499 
! Gamma         0.000109143027174744 1.34773761295931 0.000110999568235068 1.34773951041629 
! Port Impedance         50               0                50               0                
0.06445                        0.900600603116804 115.474585303422 0.43164330981437 25.2819395820345 0.431643309814369 25.2819395820345 0.900601881666631 115.447870481474 
! Gamma         0.000109270390437221 1.35088150786563 0.000111129143260237 1.35088340753546 
! Port Impedance         50               0                50               0                
0.0646                         0.899807876414783 115.278767547197 0.433305811351369 25.0874518874444 0.433305811351368 25.0874518874444 0.8998091575649  115.252048576505 
! Gamma         0.000109397606037679 1.35402540262402 0.000111258568060297 1.35402730450412 
! Port Impedance         50               0                50               0                
0.06475                        0.899013201202641 115.083105119629 0.434964450267643 24.8931029955497 0.434964450267643 24.8931029955497 0.899014484929788 115.056382534494 
! Gamma         0.000109524674526057 1.35716929723499 0.000111387843194735 1.3571712013228  
! Port Impedance         50               0                50               0                
0.0649                         0.898216580261753 114.887596229302 0.436619255555206 24.6988914305833 0.436619255555206 24.6988914305833 0.898217866542369 114.860870565487 
! Gamma         0.000109651596449954 1.36031319169905 0.000111516969220656 1.36031509799203 
! Port Impedance         50               0                50               0                
0.06505                        0.897418016315897 114.692239109487 0.438270255763416 24.5048157344467 0.438270255763416 24.5048157344467 0.897419305126114 114.665510904231 
! Gamma         0.000109778372354648 1.36345708601672 0.000111645946692804 1.36345899451231 
! Port Impedance         50               0                50               0                
0.0652                         0.896617512032737 114.497032017706 0.439917479006762 24.3108744664709 0.439917479006761 24.3108744664709 0.896618803348352 114.470301809729 
! Gamma         0.000109905002783115 1.36660098018849 0.000111774776163582 1.36660289088417 
! Port Impedance         50               0                50               0                
0.06535                        0.895815070025244 114.301973235302 0.441560952972477 24.117066203181  0.441560952972477 24.117066203181  0.895816363821707 114.27524156482  
! Gamma         0.00011003148827605 1.36974487421488 0.000111903458183072 1.36974678710811 
! Port Impedance         50               0                50               0                
0.0655                         0.895010692853093 114.107061067022 0.443200704927995 23.9233895380631 0.443200704927995 23.9233895380631 0.895011989105484 114.080328475755 
! Gamma         0.000110157829371884 1.37288876809638 0.000112031993299051 1.37289068318465 
! Port Impedance         50               0                50               0                
0.06565                        0.894204383024011 113.912293840605 0.444836761728249 23.7298430813333 0.444836761728249 23.7298430813333 0.894205681707025 113.885560871791 
! Gamma         0.000110284026606801 1.37603266183349 0.000112160382057014 1.37603457911428 
! Port Impedance         50               0                50               0                
0.0658                         0.893396142995099 113.717669906384 0.446469149822811 23.5364254597107 0.446469149822812 23.5364254597107 0.893397444083029 113.690937104787 
! Gamma         0.000110410080514763 1.3791765554267  0.00011228862500019 1.37917847489752 
! Port Impedance         50               0                50               0                
0.06595                        0.892585975174117 113.523187636891 0.448097895262893 23.3431353161918 0.448097895262893 23.3431353161918 0.892587278640828 113.496455548811 
! Gamma         0.000110535991627517 1.38232044887649 0.000112416722669562 1.38232237053485 
! Port Impedance         50               0                50               0                
0.0661                         0.891773881920727 113.32884542647  0.449723023708187 23.1499713098288 0.449723023708187 23.1499713098289 0.891775187739646 113.302114599758 
! Gamma         0.000110661760474622 1.38546434218337 0.00011254467560388 1.38546626602678 
! Port Impedance         50               0                50               0                
0.06625                        0.890959865547716 113.134641690908 0.451344560433577 22.95693211551   0.451344560433576 22.95693211551   0.890961173691807 113.107912674971 
! Gamma         0.000110787387583461 1.3886082353478  0.000112672484339684 1.38861016137379 
! Port Impedance         50               0                50               0                
0.0664                         0.89014392832218 112.940574867059 0.4529625303357  22.764016423743  0.4529625303357  22.764016423743  0.890145238763924 112.913848212876 
! Gamma         0.000110912873479259 1.39175212837027 0.000112800149411317 1.39175405657636 
! Port Impedance         50               0                50               0                
0.06655                        0.88932607246667 112.746643412489 0.454576957939382 22.5712229404409 0.454576957939381 22.5712229404409 0.889327385178051 112.719919672617 
! Gamma         0.000111038218685096 1.39489602125125 0.000112927671350942 1.394897951635   
! Port Impedance         50               0                50               0                
0.0667                         0.888506300160329 112.552845805118 0.456187867403929 22.3785503867115 0.456187867403929 22.3785503867115 0.888507615112808 112.526125533707 
! Gamma         0.000111163423721931 1.39803991399123 0.000113055050688562 1.39804184655017 
! Port Impedance         50               0                50               0                
0.06685                        0.887684613539977 112.359180542879 0.4577952825293  22.1859974986484 0.4577952825293  22.1859974986484 0.887685930704475 112.332464295678 
! Gamma         0.000111288489108609 1.40118380659065 0.000113182287952029 1.40118574132235 
! Port Impedance         50               0                50               0                
0.067                          0.886861014701181 112.165646143374 0.459399226762147 21.993563027126  0.459399226762147 21.993563027126  0.88686233404806 112.138934477746 
! Gamma         0.00011141341536188 1.40432769905    0.000113309383667068 1.40432963595202 
! Port Impedance         50               0                50               0                
0.06715                        0.886035505699295 111.972241143546 0.460999723201733 21.801245737596  0.460999723201733 21.801245737596  0.886036827198334 111.945534618477 
! Gamma         0.000111538202996414 1.40747159136973 0.000113436338357283 1.40747353043965 
! Port Impedance         50               0                50               0                
0.0673                         0.885208088550474 111.778964099354 0.462596794605729 21.6090444098879 0.462596794605729 21.6090444098879 0.885209412170851 111.752263275462 
! Gamma         0.000111662852524817 1.41061548355031 0.00011356315254418 1.4106174247857  
! Port Impedance         50               0                50               0                
0.06745                        0.884378765232656 111.585813585452 0.464190463395897 21.4169578380113 0.464190463395897 21.4169578380113 0.884380090942926 111.559119025    
! Gamma         0.000111787364457642 1.41375937559219 0.000113689826747176 1.41376131899065 
! Port Impedance         50               0                50               0                
0.0676                         0.88354753768653 111.39278819488  0.465780751663654 21.2249848299611 0.465780751663654 21.2249848299611 0.883548865454606 111.366100461786 
! Gamma         0.000111911739303407 1.41690326749583 0.000113816361483619 1.41690521305495 
! Port Impedance         50               0                50               0                
0.06775                        0.882714407816473 111.199886538758 0.467367681175523 21.0331242075258 0.467367681175523 21.0331242075258 0.882715737609602 111.173206198606 
! Gamma         0.000112035977568603 1.42004715926166 0.000113942757268795 1.42004910697905 
! Port Impedance         50               0                50               0                
0.0679                         0.881879377491464 111.007107245986 0.468951273378479 20.8413748060978 0.468951273378479 20.8413748060978 0.881880709276205 110.980434866036 
! Gamma         0.000112160079757715 1.42319105089016 0.000114069014615947 1.42319300076343 
! Port Impedance         50               0                50               0                
0.06805                        0.881042448545971 110.814448962951 0.470531549405185 20.6497354744871 0.470531549405185 20.6497354744871 0.881043782288178 110.787785112149 
! Gamma         0.00011228404637323 1.42633494238174 0.000114195134036287 1.42633689440851 
! Port Impedance         50               0                50               0                
0.0682                         0.880203622780829 110.62191035324  0.472108530079124 20.4582050747369 0.472108530079125 20.4582050747369 0.880204958445625 110.595255602231 
! Gamma         0.00011240787791565 1.42947883373686 0.000114321116039008 1.42948078791477 
! Port Impedance         50               0                50               0                
0.06835                        0.879362901964083 110.42949009736  0.473682235919628 20.2667824819424 0.473682235919628 20.2667824819424 0.879364239515838 110.402845018496 
! Gamma         0.000112531574883508 1.43262272495595 0.000114446961131298 1.43262468128263 
! Port Impedance         50               0                50               0                
0.0685                         0.878520287831816 110.237186892459 0.475252687146809 20.0754665840717 0.475252687146809 20.0754665840717 0.878521627234126 110.210552059813 
! Gamma         0.000112655137773376 1.43576661603946 0.000114572669818353 1.43576857451254 
! Port Impedance         50               0                50               0                
0.06865                        0.877675782088954 110.044999452058 0.47681990368639 19.8842562817895 0.476819903686389 19.8842562817895 0.877677123304619 110.018375441434 
! Gamma         0.000112778567079883 1.43891050698779 0.000114698242603388 1.43891246760494 
! Port Impedance         50               0                50               0                
0.0688                         0.87682938641006 109.852926505789 0.478383905174443 19.6931504882836 0.478383905174442 19.6931504882836 0.876830729401057 109.826313894728 
! Gamma         0.000112901863295719 1.4420543978014  0.000114823679987649 1.44205636056026 
! Port Impedance         50               0                50               0                
0.06895                        0.875981102440091 109.660966799126 0.479944710962034 19.5021481290932 0.479944710962034 19.5021481290932 0.875982447167558 109.634366166925 
! Gamma         0.000113025026911654 1.4451982884807  0.000114948982470428 1.44520025337895 
! Port Impedance         50               0                50               0                
0.0691                         0.875130931795161 109.469119093144 0.481502340119776 19.3112481419404 0.481502340119776 19.3112481419404 0.875132278219367 109.442531020859 
! Gamma         0.000113148058416545 1.44834217902611 0.00011507415054907 1.44834414606142 
! Port Impedance         50               0                50               0                
0.06925                        0.874278876063258 109.277382164256 0.483056811442292 19.1204494765638 0.483056811442291 19.1204494765638 0.874280224143584 109.25080723472  
! Gamma         0.000113270958297347 1.45148606943805 0.000115199184718986 1.4514880386081  
! Port Impedance         50               0                50               0                
0.0694                         0.873424936804973 109.085754803979 0.484608143452591 18.9297510945546 0.484608143452591 18.9297510945546 0.873426286499885 109.059193601807 
! Gamma         0.000113393727039129 1.45462995971693 0.000115324085473667 1.45463193101941 
! Port Impedance         50               0                50               0                
0.06955                        0.872569115554184 108.894235818689 0.486156354406366 18.7391519691949 0.486156354406366 18.7391519691948 0.872570466821214 108.867688930293 
! Gamma         0.000113516365125077 1.45777384986318 0.000115448853304689 1.45777582329578 
! Port Impedance         50               0                50               0                
0.0697                         0.871711413818746 108.702824029387 0.487701462296197 18.5486510852988 0.487701462296196 18.5486510852987 0.87171276661446 108.676292042984 
! Gamma         0.000113638873036509 1.46091773987719 0.000115573488701728 1.46091971543762 
! Port Impedance         50               0                50               0                
0.06985                        0.870851833081147 108.51151827147  0.489243484855681 18.3582474390555 0.489243484855681 18.3582474390555 0.870853187361131 108.485001777095 
! Gamma         0.000113761251252886 1.46406162975939 0.000115697992152571 1.46406360744534 
! Port Impedance         50               0                50               0                
0.07                           0.869990374799168 108.320317394503 0.490782439563484 18.167940037875  0.490782439563484 18.167940037875  0.869991730517993 108.293816984021 
! Gamma         0.000113883500251819 1.46720551951015 0.000115822364143122 1.46720749931936 
! Port Impedance         50               0                50               0                
