#  HZ   S   RI   R     50.00 
! Rohde & Schwarz ZVT8 8Ports - Version 4.11 - 1300.0000k08 SN: 100242
! Date: 2026-07-31 14:10:20
! Measurements: S11 S21 S12 S22 
! 
 1.000000000000000E7    -4.007365107536316E-1   9.122723937034607E-1   5.551732704043388E-2   5.544357746839523E-2   5.539774522185326E-2   5.556678771972656E-2  -9.146242141723633E-1   3.952482938766480E-1  
 1.030000000000000E7    -3.682581484317780E-1   9.245816469192505E-1   5.939661338925362E-2   5.606466159224510E-2   5.924663320183754E-2   5.618773028254509E-2  -9.081836938858032E-1   4.090313017368317E-1  
 1.060000000000000E7    -3.318012952804565E-1   9.377824664115906E-1   6.346830725669861E-2   5.723218247294426E-2   6.347927451133728E-2   5.713091418147087E-2  -9.035474061965942E-1   4.216978251934052E-1  
 1.090000000000000E7    -2.990520298480988E-1   9.482132196426392E-1   6.764762848615646E-2   5.787644535303116E-2   6.756652891635895E-2   5.789040774106979E-2  -8.968750238418579E-1   4.349988698959351E-1  
 1.120000000000000E7    -2.631566226482391E-1   9.577313661575317E-1   7.220579683780670E-2   5.877102538943291E-2   7.169144600629807E-2   5.864925682544708E-2  -8.901214599609375E-1   4.476203322410584E-1  
 1.150000000000000E7    -2.271291017532349E-1   9.675497412681580E-1   7.641687244176865E-2   5.872616916894913E-2   7.632014900445938E-2   5.889166146516800E-2  -8.818203806877136E-1   4.587530493736267E-1  
 1.180000000000000E7    -1.915448904037476E-1   9.728938937187195E-1   8.099371939897537E-2   5.933726578950882E-2   8.078185468912125E-2   5.937850847840309E-2  -8.758581876754761E-1   4.705520868301392E-1  
 1.210000000000000E7    -1.562585681676865E-1   9.795532822608948E-1   8.598768711090088E-2   5.973397940397263E-2   8.604338765144348E-2   5.985017865896225E-2  -8.671546578407288E-1   4.851901531219482E-1  
 1.240000000000000E7    -1.198212876915932E-1   9.836604595184326E-1   9.089049696922302E-2   6.007883697748184E-2   9.115769714117050E-2   5.965745449066162E-2  -8.590548634529114E-1   4.962840676307678E-1  
 1.270000000000000E7    -8.330418169498444E-2   9.867274761199951E-1   9.680102020502091E-2   5.955328419804573E-2   9.646687656641007E-2   5.954305827617645E-2  -8.502786755561829E-1   5.121797323226929E-1  
 1.300000000000000E7    -4.663673415780067E-2   9.891666769981384E-1   1.018743664026260E-1   5.944837629795075E-2   1.022364720702171E-1   5.947181582450867E-2  -8.409250974655151E-1   5.248914361000061E-1  
 1.330000000000000E7    -9.280765429139137E-3   9.902151823043823E-1   1.082881167531014E-1   5.918054282665253E-2   1.082158312201500E-1   5.867783352732658E-2  -8.317448496818543E-1   5.390203595161438E-1  
 1.360000000000000E7     2.938027307391167E-2   9.894412159919739E-1   1.141563877463341E-1   5.872821062803268E-2   1.148079112172127E-1   5.799445509910584E-2  -8.220567107200623E-1   5.509446263313294E-1  
 1.390000000000000E7     6.538058072328568E-2   9.861372709274292E-1   1.210980340838432E-1   5.747443065047264E-2   1.206853389739990E-1   5.762674659490585E-2  -8.118000030517578E-1   5.650399327278137E-1  
 1.420000000000000E7     1.044137775897980E-1   9.826712608337402E-1   1.274008750915527E-1   5.659813061356545E-2   1.275624036788940E-1   5.675702914595604E-2  -8.029617071151733E-1   5.783089399337769E-1  
 1.450000000000000E7     1.413842588663101E-1   9.759335517883301E-1   1.347844749689102E-1   5.493618920445442E-2   1.347578614950180E-1   5.517888441681862E-2  -7.893175482749939E-1   5.932053923606873E-1  
 1.480000000000000E7     1.805726140737534E-1   9.687361121177673E-1   1.423212289810181E-1   5.298689380288124E-2   1.424978524446487E-1   5.359866842627525E-2  -7.783379554748535E-1   6.069113612174988E-1  
 1.510000000000000E7     2.173250168561935E-1   9.593279361724854E-1   1.499072015285492E-1   5.108650773763657E-2   1.500728279352188E-1   5.097553879022598E-2  -7.628093957901001E-1   6.215069890022278E-1  
 1.540000000000000E7     2.544389963150024E-1   9.492428302764893E-1   1.582065075635910E-1   4.972641542553902E-2   1.582850664854050E-1   4.926298186182976E-2  -7.531439661979675E-1   6.349073052406311E-1  
 1.570000000000000E7     2.929857671260834E-1   9.382146596908569E-1   1.669127494096756E-1   4.622703045606613E-2   1.671490967273712E-1   4.608610644936562E-2  -7.367538213729858E-1   6.506615281105042E-1  
 1.600000000000000E7     3.306592106819153E-1   9.231376647949219E-1   1.758149862289429E-1   4.297567903995514E-2   1.764492988586426E-1   4.264923185110092E-2  -7.225273251533508E-1   6.630706787109375E-1  
 1.630000000000000E7     3.673599064350128E-1   9.072676897048950E-1   1.860429644584656E-1   3.877470642328262E-2   1.857399046421051E-1   3.894184902310371E-2  -7.059708237648010E-1   6.794058084487915E-1  
 1.660000000000000E7     4.037810862064362E-1   8.882778286933899E-1   1.960595101118088E-1   3.407827764749527E-2   1.959606260061264E-1   3.361258655786514E-2  -6.869636774063110E-1   6.943316459655762E-1  
 1.690000000000000E7     4.401508569717407E-1   8.686513900756836E-1   2.070543617010117E-1   2.936715260148048E-2   2.067581713199616E-1   2.885144576430321E-2  -6.688791513442993E-1   7.090245485305786E-1  
 1.720000000000000E7     4.784923195838928E-1   8.471873998641968E-1   2.172413617372513E-1   2.228319644927979E-2   2.179060578346252E-1   2.294050715863705E-2  -6.495947837829590E-1   7.235404849052429E-1  
 1.750000000000000E7     5.092797279357910E-1   8.258581161499023E-1   2.302938401699066E-1   1.716939918696880E-2   2.307042777538300E-1   1.638553477823734E-2  -6.286982297897339E-1   7.405641674995422E-1  
 1.780000000000000E7     5.463370680809021E-1   7.965705990791321E-1   2.416231632232666E-1   8.330082520842552E-3   2.425216734409332E-1   8.473107591271401E-3  -6.052727103233337E-1   7.532126307487488E-1  
 1.810000000000000E7     5.789667367935181E-1   7.698379755020142E-1   2.565109431743622E-1  -5.363747477531433E-4   2.551695108413696E-1  -1.373533159494400E-3  -5.794928669929504E-1   7.710206508636475E-1  
 1.840000000000000E7     6.128945946693420E-1   7.390633821487427E-1   2.700433135032654E-1  -1.284467242658138E-2   2.695242464542389E-1  -1.221395563334227E-2  -5.516953468322754E-1   7.854279875755310E-1  
 1.870000000000000E7     6.425915956497192E-1   7.066506147384644E-1   2.846637666225433E-1  -2.386077307164669E-2   2.839550971984863E-1  -2.448892965912819E-2  -5.222749114036560E-1   7.987716794013977E-1  
 1.900000000000000E7     6.724382638931274E-1   6.715398430824280E-1   2.999779284000397E-1  -3.766481205821037E-2   2.997925579547882E-1  -3.850371018052101E-2  -4.899966418743134E-1   8.130626082420349E-1  
 1.930000000000000E7     7.008624076843262E-1   6.322022676467896E-1   3.150444030761719E-1  -5.561390519142151E-2   3.164423406124115E-1  -5.476592853665352E-2  -4.541622400283814E-1   8.275500535964966E-1  
 1.960000000000000E7     7.269917130470276E-1   5.909669399261475E-1   3.316780328750610E-1  -7.417925447225571E-2   3.325892090797424E-1  -7.366873323917389E-2  -4.174034595489502E-1   8.389949798583984E-1  
 1.990000000000000E7     7.488043904304504E-1   5.478273034095764E-1   3.488071858882904E-1  -9.648465365171433E-2   3.497886657714844E-1  -9.686151891946793E-2  -3.715189099311829E-1   8.509058952331543E-1  
 2.020000000000000E7     7.689903974533081E-1   5.004485249519348E-1   3.667124509811401E-1  -1.220950782299042E-1   3.664021790027618E-1  -1.217722967267036E-1  -3.263834714889526E-1   8.576173782348633E-1  
 2.050000000000000E7     7.876764535903931E-1   4.497384727001190E-1   3.842231929302216E-1  -1.516179442405701E-1   3.822495937347412E-1  -1.518175005912781E-1  -2.744150161743164E-1   8.638436198234558E-1  
 2.080000000000000E7     7.989879846572876E-1   3.958986997604370E-1   4.008366167545319E-1  -1.876096576452255E-1   4.015269875526428E-1  -1.876993179321289E-1  -2.153079509735107E-1   8.664621710777283E-1  
 2.110000000000000E7     8.062582612037659E-1   3.407455682754517E-1   4.161332845687866E-1  -2.302310019731522E-1   4.165859222412109E-1  -2.302509099245071E-1  -1.515870094299316E-1   8.616876006126404E-1  
 2.140000000000000E7     8.067317008972168E-1   2.834827899932861E-1   4.282799065113068E-1  -2.788568437099457E-1   4.283217191696167E-1  -2.770888209342957E-1  -8.171742409467697E-2   8.506518602371216E-1  
 2.170000000000000E7     7.989670038223267E-1   2.246648967266083E-1   4.374444782733917E-1  -3.337101936340332E-1   4.384590983390808E-1  -3.331713378429413E-1  -5.303807556629181E-3   8.290026783943176E-1  
 2.200000000000000E7     7.831466197967529E-1   1.628265082836151E-1   4.387822151184082E-1  -3.986057341098785E-1   4.396959543228149E-1  -3.986831605434418E-1   7.645620405673981E-2   7.937459945678711E-1  
 2.230000000000000E7     7.554930448532105E-1   1.053592413663864E-1   4.313081800937653E-1  -4.710891246795654E-1   4.320388436317444E-1  -4.709110260009766E-1   1.612477302551270E-1   7.429765462875366E-1  
 2.260000000000000E7     7.172485589981079E-1   5.055179446935654E-2   4.102809727191925E-1  -5.522003769874573E-1   4.117215871810913E-1  -5.539932847023010E-1   2.453320920467377E-1   6.704834699630737E-1  
 2.290000000000000E7     6.659950017929077E-1   5.148705095052719E-3   3.711195588111877E-1  -6.388035416603088E-1   3.724928498268127E-1  -6.396081447601318E-1   3.264676332473755E-1   5.739973187446594E-1  
 2.320000000000000E7     6.051872968673706E-1  -2.417398057878017E-2   3.079094588756561E-1  -7.257708907127380E-1   3.071886599063873E-1  -7.264900803565979E-1   3.921636641025543E-1   4.554290771484375E-1  
 2.350000000000000E7     5.379340648651123E-1  -3.715524449944496E-2   2.182216495275497E-1  -8.051350116729736E-1   2.194029092788696E-1  -8.057800531387329E-1   4.333004653453827E-1   3.091826140880585E-1  
 2.380000000000000E7     4.695334732532501E-1  -2.923698164522648E-2   1.074891909956932E-1  -8.686876296997070E-1   1.068347617983818E-1  -8.688925504684448E-1   4.392717480659485E-1   1.456675678491592E-1  
 2.410000000000000E7     4.115262925624847E-1   1.693160040304065E-3  -2.608477324247360E-2  -9.041680693626404E-1  -2.623264119029045E-2  -9.030793309211731E-1   4.022897183895111E-1  -2.037736400961876E-2  
 2.440000000000000E7     3.732958137989044E-1   5.148988962173462E-2  -1.673904806375504E-1  -9.032514691352844E-1  -1.694421023130417E-1  -9.053466320037842E-1   3.190532624721527E-1  -1.729395538568497E-1  
 2.470000000000000E7     3.577142059803009E-1   1.088437661528587E-1  -3.050435185432434E-1  -8.690013289451599E-1  -3.056620061397553E-1  -8.690040707588196E-1   2.005070596933365E-1  -3.024551868438721E-1  
 2.500000000000000E7     3.645896613597870E-1   1.670816987752914E-1  -4.263474047183991E-1  -8.030681014060974E-1  -4.286470115184784E-1  -8.028424978256226E-1   6.013640761375427E-2  -3.874474167823792E-1  
 2.530000000000000E7     3.964503705501556E-1   2.179529964923859E-1  -5.247267484664917E-1  -7.148540616035461E-1  -5.222992300987244E-1  -7.154752016067505E-1  -9.050151705741882E-2  -4.336955547332764E-1  
 2.560000000000000E7     4.406457841396332E-1   2.497961074113846E-1  -5.933847427368164E-1  -6.176362037658691E-1  -5.923907756805420E-1  -6.186462044715881E-1  -2.342657595872879E-1  -4.429772198200226E-1  
 2.590000000000000E7     4.970165193080902E-1   2.616296708583832E-1  -6.362922191619873E-1  -5.186767578125000E-1  -6.375698447227478E-1  -5.183112621307373E-1  -3.590619564056397E-1  -4.261632859706879E-1  
 2.620000000000000E7     5.550785660743713E-1   2.588839232921600E-1  -6.621009707450867E-1  -4.228983521461487E-1  -6.612712740898132E-1  -4.232236444950104E-1  -4.690459370613098E-1  -3.890992105007172E-1  
 2.650000000000000E7     6.094755530357361E-1   2.412147521972656E-1  -6.688181757926941E-1  -3.358355760574341E-1  -6.709803938865662E-1  -3.357412815093994E-1  -5.591063499450684E-1  -3.379074037075043E-1  
 2.680000000000000E7     6.598705649375916E-1   2.094391286373138E-1  -6.657635569572449E-1  -2.576829493045807E-1  -6.683252453804016E-1  -2.584440708160400E-1  -6.297987103462219E-1  -2.819132208824158E-1  
 2.710000000000000E7     7.033652663230896E-1   1.666585952043533E-1  -6.585982441902161E-1  -1.880285739898682E-1  -6.580274105072022E-1  -1.859721243381500E-1  -6.866751313209534E-1  -2.252062261104584E-1  
 2.740000000000000E7     7.411862015724182E-1   1.166902557015419E-1  -6.418750286102295E-1  -1.261402964591980E-1  -6.446992754936218E-1  -1.258621215820313E-1  -7.290701270103455E-1  -1.662669479846954E-1  
 2.770000000000000E7     7.689876556396484E-1   5.902584642171860E-2  -6.251956820487976E-1  -7.169748097658157E-2  -6.282545924186707E-1  -7.097207009792328E-2  -7.627405524253845E-1  -1.115407943725586E-1  
 2.800000000000000E7     7.897711396217346E-1  -3.520404919981957E-3  -6.056267023086548E-1  -2.196072228252888E-2  -6.077380776405335E-1  -2.453798055648804E-2  -7.864579558372498E-1  -5.826189368963242E-2  
 2.830000000000000E7     8.006542325019836E-1  -7.277184724807739E-2  -5.859594941139221E-1   2.238352037966251E-2  -5.869910120964050E-1   2.312675490975380E-2  -8.040595054626465E-1  -1.067002676427364E-2  
 2.860000000000000E7     8.026887178421021E-1  -1.467937529087067E-1  -5.658699870109558E-1   6.334933638572693E-2  -5.677065849304199E-1   6.374758481979370E-2  -8.166294693946838E-1   3.576189279556274E-2  
 2.890000000000000E7     7.941400408744812E-1  -2.227091491222382E-1  -5.467400550842285E-1   1.014144346117973E-1  -5.461283326148987E-1   1.012520939111710E-1  -8.228342533111572E-1   7.747070491313934E-2  
 2.920000000000000E7     7.769503593444824E-1  -3.030183315277100E-1  -5.249766111373901E-1   1.372596919536591E-1  -5.251007676124573E-1   1.382298618555069E-1  -8.270378708839417E-1   1.167806386947632E-1  
 2.950000000000000E7     7.455811500549316E-1  -3.851278722286224E-1  -5.058923959732056E-1   1.723803281784058E-1  -5.059764385223389E-1   1.726592928171158E-1  -8.280699849128723E-1   1.525086164474487E-1  
 2.980000000000000E7     7.009849548339844E-1  -4.689863324165344E-1  -4.836768209934235E-1   2.075835019350052E-1  -4.853505492210388E-1   2.079187035560608E-1  -8.254610300064087E-1   1.841592192649841E-1  
 3.010000000000000E7     6.392586231231690E-1  -5.540993809700012E-1  -4.620237052440643E-1   2.440404593944550E-1  -4.629196524620056E-1   2.427535653114319E-1  -8.219776153564453E-1   2.136512100696564E-1  
 3.040000000000000E7     5.578519105911255E-1  -6.384688615798950E-1  -4.368171095848084E-1   2.792729437351227E-1  -4.383284449577332E-1   2.815511226654053E-1  -8.158777952194214E-1   2.397210597991943E-1  
 3.070000000000000E7     4.539788067340851E-1  -7.141147255897522E-1  -4.081974923610687E-1   3.180653154850006E-1  -4.089716076850891E-1   3.177822232246399E-1  -8.106899857521057E-1   2.630451023578644E-1  
 3.100000000000000E7     3.224166929721832E-1  -7.797384858131409E-1  -3.757592141628265E-1   3.568072319030762E-1  -3.759230375289917E-1   3.569903373718262E-1  -8.042544722557068E-1   2.828576266765595E-1  
 3.130000000000000E7     1.626977920532227E-1  -8.268982768058777E-1  -3.353413641452789E-1   3.980555236339569E-1  -3.358165025711060E-1   3.979767262935638E-1  -7.963132262229919E-1   2.986912131309509E-1  
 3.160000000000000E7    -2.919694036245346E-2  -8.382977247238159E-1  -2.856767475605011E-1   4.355901479721069E-1  -2.856172025203705E-1   4.368710219860077E-1  -7.913148999214172E-1   3.107224404811859E-1  
 3.190000000000000E7    -2.461619079113007E-1  -7.985951304435730E-1  -2.224860787391663E-1   4.707917571067810E-1  -2.227398753166199E-1   4.708209335803986E-1  -7.868223786354065E-1   3.212823271751404E-1  
 3.220000000000000E7    -4.750070869922638E-1  -6.898077130317688E-1  -1.457359790802002E-1   4.950084388256073E-1  -1.459677815437317E-1   4.954674839973450E-1  -7.869476079940796E-1   3.274123370647430E-1  
 3.250000000000000E7    -6.820816993713379E-1  -4.931695461273193E-1  -5.876528471708298E-2   5.016034245491028E-1  -5.773696303367615E-2   5.022027492523193E-1  -7.922163605690002E-1   3.339736461639404E-1  
 3.280000000000000E7    -8.248146176338196E-1  -2.124445736408234E-1   3.334307298064232E-2   4.825138449668884E-1   3.460901603102684E-2   4.836262464523315E-1  -8.006809353828430E-1   3.423621356487274E-1  
 3.310000000000000E7    -8.616183996200562E-1   1.175766065716744E-1   1.197550445795059E-1   4.350243508815765E-1   1.206189095973969E-1   4.350202083587647E-1  -8.146647810935974E-1   3.557164371013641E-1  
 3.340000000000000E7    -7.736551165580750E-1   4.408126473426819E-1   1.834348738193512E-1   3.656589984893799E-1   1.834720969200134E-1   3.653809130191803E-1  -8.276721239089966E-1   3.761175870895386E-1  
 3.370000000000000E7    -5.835372805595398E-1   7.014671564102173E-1   2.183602005243301E-1   2.851445078849793E-1   2.189647406339645E-1   2.853776216506958E-1  -8.397411108016968E-1   4.007429182529450E-1  
 3.400000000000000E7    -3.404762148857117E-1   8.679951429367065E-1   2.269862145185471E-1   2.097276598215103E-1   2.268558144569397E-1   2.095913589000702E-1  -8.448579311370850E-1   4.295149147510529E-1  
 3.430000000000000E7    -8.749705553054810E-2   9.441477656364441E-1   2.173155695199966E-1   1.459552943706513E-1   2.173475474119186E-1   1.459818184375763E-1  -8.452419638633728E-1   4.588552415370941E-1  
 3.460000000000000E7     1.446671038866043E-1   9.511929154396057E-1   1.968102753162384E-1   9.660472720861435E-2   1.965174227952957E-1   9.719984233379364E-2  -8.425377607345581E-1   4.881013333797455E-1  
 3.490000000000000E7     3.434261083602905E-1   9.087342023849487E-1   1.726363301277161E-1   6.039385125041008E-2   1.723356395959854E-1   6.044086068868637E-2  -8.342818021774292E-1   5.132858157157898E-1  
 3.520000000000000E7     5.044922232627869E-1   8.384212255477905E-1   1.470079869031906E-1   3.512441366910934E-2   1.471156179904938E-1   3.527290001511574E-2  -8.262583017349243E-1   5.381582975387573E-1  
 3.550000000000000E7     6.343899369239807E-1   7.501378059387207E-1   1.235090345144272E-1   1.806897297501564E-2   1.235007122159004E-1   1.814734563231468E-2  -8.164528012275696E-1   5.598437786102295E-1  
 3.580000000000000E7     7.357842326164246E-1   6.580781340599060E-1   1.027808263897896E-1   6.363362073898315E-3   1.027000918984413E-1   6.387143395841122E-3  -8.042006492614746E-1   5.806270837783814E-1  
 3.610000000000000E7     8.138909935951233E-1   5.639932751655579E-1   8.504304289817810E-2  -6.294180639088154E-4   8.475565910339356E-2  -9.553115814924240E-4  -7.938437461853027E-1   6.006446480751038E-1  
 3.640000000000000E7     8.735558390617371E-1   4.703784286975861E-1   6.912011653184891E-2  -5.189974326640368E-3   6.917212158441544E-2  -5.119116511195898E-3  -7.822756171226502E-1   6.158568263053894E-1  
 3.670000000000000E7     9.176493883132935E-1   3.806450963020325E-1   5.607239156961441E-2  -7.560528814792633E-3   5.604361742734909E-2  -7.635943591594696E-3  -7.711693644523621E-1   6.317276954650879E-1  
 3.700000000000000E7     9.494586586952210E-1   2.944164574146271E-1   4.500537365674973E-2  -8.728016167879105E-3   4.494497179985046E-2  -8.632826618850231E-3  -7.586154937744141E-1   6.477095484733582E-1  
 3.730000000000000E7     9.720616936683655E-1   2.108969986438751E-1   3.553205728530884E-2  -8.891562931239605E-3   3.569610416889191E-2  -8.682040497660637E-3  -7.464695572853088E-1   6.599882245063782E-1  
 3.760000000000000E7     9.852904677391052E-1   1.350337862968445E-1   2.778666839003563E-2  -8.328378200531006E-3   2.783332578837872E-2  -8.257582783699036E-3  -7.355331778526306E-1   6.750114560127258E-1  
 3.790000000000000E7     9.937958717346191E-1   6.007887423038483E-2   2.130552381277084E-2  -7.425252813845873E-3   2.130735106766224E-2  -7.376044522970915E-3  -7.234050035476685E-1   6.873861551284790E-1  
 3.820000000000000E7     9.966139793395996E-1  -9.710855782032013E-3   1.587058231234551E-2  -6.193370558321476E-3   1.569598540663719E-2  -6.236986257135868E-3  -7.123200893402100E-1   6.979306340217590E-1  
 3.850000000000000E7     9.938951134681702E-1  -7.739564776420593E-2   1.124938391149044E-2  -4.805650562047958E-3   1.124092005193234E-2  -4.934700205922127E-3  -7.023594379425049E-1   7.099114656448364E-1  
 3.880000000000000E7     9.870327115058899E-1  -1.391639262437820E-1   7.528216112405062E-3  -3.547485917806625E-3   7.438443135470152E-3  -3.633029758930206E-3  -6.908000111579895E-1   7.215534448623657E-1  
 3.910000000000000E7     9.778055548667908E-1  -1.989303380250931E-1   4.376121796667576E-3  -2.254225779324770E-3   4.401269834488630E-3  -2.308208728209138E-3  -6.799021959304810E-1   7.333527803421021E-1  
 3.940000000000000E7     9.627263545989990E-1  -2.545819878578186E-1   1.824728562496603E-3  -9.144232026301324E-4   1.744277309626341E-3  -8.869210723787546E-4  -6.682691574096680E-1   7.417280077934265E-1  
 3.970000000000000E7     9.487323164939880E-1  -3.078603148460388E-1  -2.796924090944231E-4   2.632294490467757E-4  -2.705857623368502E-4   3.961831389460713E-4  -6.562684178352356E-1   7.510303854942322E-1  
 4.000000000000000E7     9.300999641418457E-1  -3.593175113201141E-1  -1.834882539696991E-3   1.556789153255522E-3  -1.908192643895745E-3   1.531614107079804E-3  -6.467545032501221E-1   7.614654898643494E-1  
 4.030000000000000E7     9.108726382255554E-1  -4.070864915847778E-1  -3.248594701290131E-3   2.569806994870305E-3  -3.198693040758371E-3   2.586721442639828E-3  -6.356412768363953E-1   7.707667946815491E-1  
 4.060000000000000E7     8.887434601783752E-1  -4.529788494110107E-1  -4.332662094384432E-3   3.550488734617829E-3  -4.346671048551798E-3   3.597559873014689E-3  -6.245746016502380E-1   7.785668969154358E-1  
 4.090000000000000E7     8.649427294731140E-1  -4.973093271255493E-1  -5.015274044126272E-3   4.493117332458496E-3  -5.131422076374292E-3   4.499327857047319E-3  -6.140893697738648E-1   7.866306900978088E-1  
 4.120000000000000E7     8.406588435173035E-1  -5.381313562393189E-1  -5.572221707552671E-3   5.303939804434776E-3  -5.636792629957199E-3   5.251558031886816E-3  -6.023437976837158E-1   7.952497005462647E-1  
 4.150000000000000E7     8.141004443168640E-1  -5.759798884391785E-1  -5.982048343867064E-3   5.903658922761679E-3  -5.924072582274675E-3   5.876367911696434E-3  -5.913013815879822E-1   8.034811615943909E-1  
 4.180000000000000E7     7.863969802856445E-1  -6.143743395805359E-1  -6.150180008262396E-3   6.611344870179892E-3  -6.269783712923527E-3   6.530079990625382E-3  -5.817837715148926E-1   8.106184005737305E-1  
 4.210000000000000E7     7.579316496849060E-1  -6.490504145622253E-1  -6.191685795783997E-3   7.058015093207359E-3  -6.397653836756945E-3   6.969521287828684E-3  -5.703597068786621E-1   8.191081285476685E-1  
 4.240000000000000E7     7.279072403907776E-1  -6.809045672416687E-1  -6.279248744249344E-3   7.412808481603861E-3  -6.309100426733494E-3   7.363046519458294E-3  -5.604559183120728E-1   8.266241550445557E-1  
 4.270000000000000E7     6.970252990722656E-1  -7.127618789672852E-1  -6.255595479160547E-3   7.782388012856245E-3  -6.149429362267256E-3   7.681110408157110E-3  -5.487806200981140E-1   8.343827724456787E-1  
 4.300000000000000E7     6.651433110237122E-1  -7.430904507637024E-1  -6.012199912220240E-3   7.916430011391640E-3  -6.052847020328045E-3   8.010860532522202E-3  -5.379323959350586E-1   8.419761657714844E-1  
 4.330000000000000E7     6.351702213287354E-1  -7.702827453613281E-1  -5.810362286865711E-3   8.031319826841354E-3  -5.802099127322435E-3   8.003016933798790E-3  -5.271093845367432E-1   8.476979732513428E-1  
 4.360000000000000E7     6.009573340415955E-1  -7.962414026260376E-1  -5.507749971002340E-3   8.064356632530689E-3  -5.513702053576708E-3   8.095257915556431E-3  -5.171232819557190E-1   8.543283939361572E-1  
 4.390000000000000E7     5.675306320190430E-1  -8.218537569046021E-1  -5.160959437489510E-3   8.079733699560165E-3  -5.206021014600992E-3   8.040102198719978E-3  -5.056943893432617E-1   8.600656986236572E-1  
 4.420000000000000E7     5.327585935592651E-1  -8.432045578956604E-1  -4.836927633732557E-3   7.965403608977795E-3  -4.828213248401880E-3   7.959092967212200E-3  -4.943663775920868E-1   8.662077188491821E-1  
 4.450000000000000E7     4.982611835002899E-1  -8.640416264533997E-1  -4.472185391932726E-3   7.820891216397286E-3  -4.463409073650837E-3   7.754930295050144E-3  -4.850631654262543E-1   8.724941611289978E-1  
 4.480000000000000E7     4.635668098926544E-1  -8.835548758506775E-1  -4.126881249248982E-3   7.532054092735052E-3  -4.026363603770733E-3   7.515182252973318E-3  -4.742130637168884E-1   8.778035640716553E-1  
 4.510000000000000E7     4.289690256118774E-1  -9.013267755508423E-1  -3.670879174023867E-3   7.257142569869757E-3  -3.612386761233211E-3   7.174448575824499E-3  -4.638353586196899E-1   8.844121098518372E-1  
 4.540000000000000E7     3.927013278007507E-1  -9.171864390373230E-1  -3.265075385570526E-3   6.790758110582829E-3  -3.308165818452835E-3   6.879691034555435E-3  -4.521177709102631E-1   8.902170658111572E-1  
 4.570000000000000E7     3.565258979797363E-1  -9.320485591888428E-1  -2.869431627914310E-3   6.451327353715897E-3  -2.882744418457151E-3   6.464180070906878E-3  -4.412310421466827E-1   8.949812054634094E-1  
 4.600000000000000E7     3.221065700054169E-1  -9.441114068031311E-1  -2.475567860528827E-3   5.968103650957346E-3  -2.476425841450691E-3   5.937277805060148E-3  -4.315171837806702E-1   9.001660346984863E-1  
 4.630000000000000E7     2.833909392356873E-1  -9.571181535720825E-1  -2.090404275804758E-3   5.427683237940073E-3  -2.076830249279738E-3   5.426298361271620E-3  -4.206632077693939E-1   9.050760865211487E-1  
 4.660000000000000E7     2.463275194168091E-1  -9.682930707931519E-1  -1.700613414868712E-3   4.850169643759728E-3  -1.775961602106690E-3   4.821650218218565E-3  -4.083811044692993E-1   9.105955362319946E-1  
 4.690000000000000E7     2.100089490413666E-1  -9.755561947822571E-1  -1.310654217377305E-3   4.169079940766096E-3  -1.398122869431973E-3   4.261734429746866E-3  -3.982052505016327E-1   9.157524704933167E-1  
 4.720000000000000E7     1.727363467216492E-1  -9.822878241539002E-1  -1.086727366782725E-3   3.455346683040261E-3  -1.139596104621887E-3   3.587159328162670E-3  -3.867295980453491E-1   9.194521903991699E-1  
 4.750000000000000E7     1.367019563913345E-1  -9.887980818748474E-1  -7.488340488635004E-4   2.826308831572533E-3  -8.831807645037770E-4   2.766841324046254E-3  -3.763436079025269E-1   9.248721599578857E-1  
 4.780000000000000E7     1.003229469060898E-1  -9.931722283363342E-1  -6.066500791348517E-4   2.093495568260551E-3  -4.410250403452665E-4   2.023842884227634E-3  -3.644832074642181E-1   9.275168180465698E-1  
 4.810000000000000E7     6.291683763265610E-2  -9.959506988525391E-1  -3.922111936844885E-4   1.356842811219394E-3  -4.176119982730597E-4   1.321822055615485E-3  -3.547959923744202E-1   9.325426816940308E-1  
 4.840000000000000E7     2.621724456548691E-2  -9.983839988708496E-1  -1.616339577594772E-4   5.255495198071003E-4  -1.645222801016644E-4   5.438053049147129E-4  -3.438900709152222E-1   9.367193579673767E-1  
 4.870000000000000E7    -1.076757907867432E-2  -9.982992410659790E-1  -3.536177973728627E-5  -2.510256599634886E-4   1.323272226727568E-5  -3.288946463726461E-4  -3.326885104179382E-1   9.406634569168091E-1  
 4.900000000000000E7    -4.752575978636742E-2  -9.979911446571350E-1   6.661895167781040E-5  -1.212588045746088E-3   1.708992058411241E-4  -1.139844534918666E-3  -3.225800693035126E-1   9.439296126365662E-1  
 4.930000000000000E7    -8.400579541921616E-2  -9.953326582908630E-1   1.645777665544301E-4  -2.127235755324364E-3   1.323305186815560E-4  -2.028447808697820E-3  -3.103362321853638E-1   9.480583071708679E-1  
 4.960000000000000E7    -1.195012032985687E-1  -9.896934032440186E-1   2.034297212958336E-4  -2.909008413553238E-3   2.467004233039916E-4  -2.998183481395245E-3  -3.000677525997162E-1   9.513077735900879E-1  
 4.990000000000000E7    -1.549485623836517E-1  -9.851390123367310E-1   1.848287356551737E-4  -3.830730915069580E-3   2.007168659474701E-4  -3.889476647600532E-3  -2.888296842575073E-1   9.542122483253479E-1  
 5.020000000000000E7    -1.895279437303543E-1  -9.806570410728455E-1   1.395031868014485E-4  -4.815653897821903E-3   1.776452700141817E-4  -4.845243413001299E-3  -2.782912552356720E-1   9.579136967658997E-1  
 5.050000000000000E7    -2.252335250377655E-1  -9.726028442382813E-1   4.711025394499302E-5  -5.809711292386055E-3   4.730737418867648E-5  -5.808360408991575E-3  -2.676075398921967E-1   9.621288776397705E-1  
 5.080000000000000E7    -2.592941820621491E-1  -9.642222523689270E-1  -1.059387577697635E-4  -6.759959738701582E-3  -4.595797508955002E-5  -6.764164660125971E-3  -2.561480998992920E-1   9.628347754478455E-1  
 5.110000000000000E7    -2.941942512989044E-1  -9.536227583885193E-1  -2.700323238968849E-4  -7.750929798930883E-3  -2.593572717159987E-4  -7.773249875754118E-3  -2.457919716835022E-1   9.672164320945740E-1  
 5.140000000000000E7    -3.276444375514984E-1  -9.424373507499695E-1  -5.031552864238620E-4  -8.755366317927837E-3  -5.153627134859562E-4  -8.767102845013142E-3  -2.336550354957581E-1   9.711951613426209E-1  
 5.170000000000000E7    -3.604411482810974E-1  -9.303522109985352E-1  -7.717499975115061E-4  -9.724890813231468E-3  -7.533638272434473E-4  -9.762081317603588E-3  -2.226011604070664E-1   9.719778895378113E-1  
 5.200000000000000E7    -3.936074078083038E-1  -9.187207818031311E-1  -1.097483793273568E-3  -1.077075116336346E-2  -1.080018002539873E-3  -1.080466061830521E-2  -2.114369571208954E-1   9.734753370285034E-1  
 5.230000000000000E7    -4.256796836853027E-1  -9.028955101966858E-1  -1.460098312236369E-3  -1.180997677147389E-2  -1.497260527685285E-3  -1.179557666182518E-2  -2.008381783962250E-1   9.770042300224304E-1  
 5.260000000000000E7    -4.566392898559570E-1  -8.864721655845642E-1  -1.941249240189791E-3  -1.281517092138529E-2  -1.874146633781493E-3  -1.282326132059097E-2  -1.894499361515045E-1   9.792317152023315E-1  
 5.290000000000000E7    -4.881860315799713E-1  -8.702304363250732E-1  -2.355838660150766E-3  -1.376945525407791E-2  -2.395793329924345E-3  -1.378414779901505E-2  -1.789325922727585E-1   9.808952212333679E-1  
 5.320000000000000E7    -5.175836086273193E-1  -8.540942668914795E-1  -2.859452972188592E-3  -1.480789203196764E-2  -2.954917494207621E-3  -1.484407484531403E-2  -1.674198955297470E-1   9.831974506378174E-1  
 5.350000000000000E7    -5.463454127311707E-1  -8.346321582794190E-1  -3.455487545579672E-3  -1.582403481006622E-2  -3.470322117209435E-3  -1.581795699894428E-2  -1.573959290981293E-1   9.852977395057678E-1  
 5.380000000000000E7    -5.741016268730164E-1  -8.151588439941406E-1  -4.037932027131319E-3  -1.680666767060757E-2  -4.063307307660580E-3  -1.680284924805164E-2  -1.442962884902954E-1   9.859445691108704E-1  
 5.410000000000000E7    -6.044263839721680E-1  -7.953136563301086E-1  -4.761355929076672E-3  -1.784009113907814E-2  -4.791046492755413E-3  -1.782299578189850E-2  -1.341473609209061E-1   9.882425069808960E-1  
 5.440000000000000E7    -6.311303973197937E-1  -7.726822495460510E-1  -5.466428119689226E-3  -1.879063248634338E-2  -5.492233205586672E-3  -1.881761290132999E-2  -1.230340451002121E-1   9.892028570175171E-1  
 5.470000000000000E7    -6.562094688415527E-1  -7.513558864593506E-1  -6.272875238209963E-3  -1.971509121358395E-2  -6.297053769230843E-3  -1.978776045143604E-2  -1.110981702804565E-1   9.903627038002014E-1  
 5.500000000000000E7    -6.827806234359741E-1  -7.280447483062744E-1  -7.130866404622793E-3  -2.075762115418911E-2  -7.087187841534615E-3  -2.075550332665443E-2  -9.915858507156372E-2   9.929559826850891E-1  
 5.530000000000000E7    -7.074404954910278E-1  -7.038808465003967E-1  -7.927683182060719E-3  -2.168903872370720E-2  -8.036782965064049E-3  -2.168397605419159E-2  -8.843962103128433E-2   9.927328228950501E-1  
 5.560000000000000E7    -7.318241000175476E-1  -6.784017086029053E-1  -8.955877274274826E-3  -2.261586114764214E-2  -8.907435461878777E-3  -2.260624989867210E-2  -7.792608439922333E-2   9.938879013061523E-1  
 5.590000000000000E7    -7.547181248664856E-1  -6.539141535758972E-1  -9.901419281959534E-3  -2.350185997784138E-2  -9.947486221790314E-3  -2.356465905904770E-2  -6.562261283397675E-2   9.945958256721497E-1  
 5.620000000000000E7    -7.765232324600220E-1  -6.258687376976013E-1  -1.094361953437328E-2  -2.440722286701202E-2  -1.087347976863384E-2  -2.438296377658844E-2  -5.514977127313614E-2   9.959539771080017E-1  
 5.650000000000000E7    -7.964980006217957E-1  -6.002775430679321E-1  -1.195767149329186E-2  -2.521162852644920E-2  -1.199166756123304E-2  -2.527566812932491E-2  -4.339391738176346E-2   9.958143234252930E-1  
 5.680000000000000E7    -8.170856833457947E-1  -5.724132061004639E-1  -1.314271520823240E-2  -2.607802115380764E-2  -1.320711430162191E-2  -2.609732933342457E-2  -3.185551613569260E-2   9.955434799194336E-1  
 5.710000000000000E7    -8.367443084716797E-1  -5.424662232398987E-1  -1.439909078180790E-2  -2.685060910880566E-2  -1.443661656230688E-2  -2.692317217588425E-2  -2.043100073933601E-2   9.965946674346924E-1  
 5.740000000000000E7    -8.552764058113098E-1  -5.142461657524109E-1  -1.562539301812649E-2  -2.769306115806103E-2  -1.557985506951809E-2  -2.768780849874020E-2  -8.626062422990799E-3   9.964029788970947E-1  
 5.770000000000000E7    -8.709764480590820E-1  -4.856643974781036E-1  -1.680562272667885E-2  -2.847095392644405E-2  -1.679172739386559E-2  -2.847834303975105E-2   1.186627894639969E-3   9.960552453994751E-1  
 5.800000000000000E7    -8.876625299453735E-1  -4.542420208454132E-1  -1.827245578169823E-2  -2.917428687214851E-2  -1.827229931950569E-2  -2.910779230296612E-2   1.429800689220429E-2   9.970610141754150E-1  
 5.830000000000000E7    -9.022518396377564E-1  -4.238832592964172E-1  -1.957382075488567E-2  -2.978907153010368E-2  -1.961967721581459E-2  -2.986443415284157E-2   2.462121471762657E-2   9.966076612472534E-1  
 5.860000000000000E7    -9.174574613571167E-1  -3.933778405189514E-1  -2.100530453026295E-2  -3.051041066646576E-2  -2.109861560165882E-2  -3.053363971412182E-2   3.641740232706070E-2   9.957073330879211E-1  
 5.890000000000000E7    -9.292171597480774E-1  -3.613749444484711E-1  -2.250828780233860E-2  -3.109063766896725E-2  -2.249578386545181E-2  -3.119724430143833E-2   4.724681004881859E-2   9.950470924377441E-1  
 5.920000000000000E7    -9.411675333976746E-1  -3.283348679542542E-1  -2.408421970903873E-2  -3.161566704511643E-2  -2.413698844611645E-2  -3.157558664679527E-2   5.943053960800171E-2   9.953080415725708E-1  
 5.950000000000000E7    -9.512049555778503E-1  -2.962931394577026E-1  -2.561352029442787E-2  -3.207917883992195E-2  -2.562800981104374E-2  -3.217338398098946E-2   7.059562206268311E-2   9.929557442665100E-1  
 5.980000000000000E7    -9.614553451538086E-1  -2.633435726165772E-1  -2.737104333937168E-2  -3.253158926963806E-2  -2.722689136862755E-2  -3.256127238273621E-2   8.279625326395035E-2   9.918474555015564E-1  
 6.010000000000000E7    -9.681650400161743E-1  -2.314037680625916E-1  -2.882248535752296E-2  -3.313673660159111E-2  -2.882405184209347E-2  -3.314990550279617E-2   9.333866834640503E-2   9.917632341384888E-1  
 6.040000000000000E7    -9.760656356811523E-1  -1.971122026443481E-1  -3.062677010893822E-2  -3.350780159235001E-2  -3.071096539497376E-2  -3.350673615932465E-2   1.054886132478714E-1   9.910411834716797E-1  
 6.070000000000000E7    -9.833037853240967E-1  -1.649120599031448E-1  -3.245870396494865E-2  -3.384215757250786E-2  -3.236085548996925E-2  -3.397247940301895E-2   1.161589398980141E-1   9.891444444656372E-1  
 6.100000000000000E7    -9.874281287193298E-1  -1.313440501689911E-1  -3.427593410015106E-2  -3.397731482982636E-2  -3.425870835781097E-2  -3.410470858216286E-2   1.290688067674637E-1   9.876373410224915E-1  
 6.130000000000000E7    -9.920381903648377E-1  -9.665746986865997E-2  -3.611112013459206E-2  -3.433398529887199E-2  -3.621673583984375E-2  -3.440498188138008E-2   1.409864574670792E-1   9.864684343338013E-1  
 6.160000000000000E7    -9.940325617790222E-1  -6.330975890159607E-2  -3.792897239327431E-2  -3.454563766717911E-2  -3.804463148117065E-2  -3.454103320837021E-2   1.509386599063873E-1   9.836289882659912E-1  
 6.190000000000000E7    -9.954012036323547E-1  -2.960145473480225E-2  -3.986348584294319E-2  -3.475160151720047E-2  -3.981176391243935E-2  -3.454118221998215E-2   1.618618220090866E-1   9.812105894088745E-1  
 6.220000000000000E7    -9.960297942161560E-1   4.281640052795410E-3  -4.160989075899124E-2  -3.467229008674622E-2  -4.188296943902969E-2  -3.474738076329231E-2   1.731604337692261E-1   9.806576967239380E-1  
 6.250000000000000E7    -9.950869679450989E-1   3.804707527160645E-2  -4.379072785377502E-2  -3.474459797143936E-2  -4.376726225018501E-2  -3.480897098779678E-2   1.846087574958801E-1   9.785628318786621E-1  
 6.280000000000000E7    -9.924153089523315E-1   7.199481129646301E-2  -4.595770314335823E-2  -3.474408015608788E-2  -4.587215930223465E-2  -3.486742824316025E-2   1.968461722135544E-1   9.763906598091126E-1  
 6.310000000000000E7    -9.890196919441223E-1   1.066612526774406E-1  -4.804811999201775E-2  -3.451232984662056E-2  -4.792324453592300E-2  -3.465186059474945E-2   2.079032510519028E-1   9.737389087677002E-1  
 6.340000000000000E7    -9.850214123725891E-1   1.398244500160217E-1  -5.014969035983086E-2  -3.448090329766274E-2  -5.008072406053543E-2  -3.442149236798286E-2   2.200075984001160E-1   9.712277054786682E-1  
 6.370000000000000E7    -9.797145128250122E-1   1.732940375804901E-1  -5.227742344141007E-2  -3.410291671752930E-2  -5.226778611540794E-2  -3.408229723572731E-2   2.306676208972931E-1   9.677793383598328E-1  
 6.400000000000000E7    -9.720436930656433E-1   2.063151001930237E-1  -5.451396107673645E-2  -3.363882005214691E-2  -5.446055904030800E-2  -3.361080586910248E-2   2.427015900611877E-1   9.658164381980896E-1  
 6.430000000000000E7    -9.642531871795654E-1   2.406250238418579E-1  -5.679294466972351E-2  -3.340995684266090E-2  -5.671013146638870E-2  -3.331650421023369E-2   2.539911866188049E-1   9.624348878860474E-1  
 6.460000000000000E7    -9.560999870300293E-1   2.731104791164398E-1  -5.884819105267525E-2  -3.308400139212608E-2  -5.893962830305100E-2  -3.296561911702156E-2   2.643998563289642E-1   9.587717652320862E-1  
 6.490000000000000E7    -9.471857547760010E-1   3.051676154136658E-1  -6.106312200427055E-2  -3.243765980005264E-2  -6.132932007312775E-2  -3.250380605459213E-2   2.758232355117798E-1   9.561452269554138E-1  
 6.520000000000000E7    -9.349549412727356E-1   3.369124531745911E-1  -6.361967325210571E-2  -3.193262964487076E-2  -6.345877051353455E-2  -3.175275400280953E-2   2.876840233802795E-1   9.532006978988648E-1  
 6.550000000000000E7    -9.236558079719544E-1   3.682743906974793E-1  -6.591200828552246E-2  -3.104468062520027E-2  -6.578147411346436E-2  -3.108181245625019E-2   2.982707321643829E-1   9.479961991310120E-1  
 6.580000000000000E7    -9.096528887748718E-1   4.000465571880341E-1  -6.826113909482956E-2  -3.011682257056236E-2  -6.822206825017929E-2  -3.033089078962803E-2   3.102324008941650E-1   9.457750320434570E-1  
 6.610000000000000E7    -8.944298624992371E-1   4.307046532630920E-1  -7.058038562536240E-2  -2.933016419410706E-2  -7.037133723497391E-2  -2.904950082302094E-2   3.225036263465881E-1   9.398114085197449E-1  
 6.640000000000000E7    -8.807004690170288E-1   4.612385332584381E-1  -7.302322983741760E-2  -2.840321883559227E-2  -7.304205000400543E-2  -2.852934412658215E-2   3.338826894760132E-1   9.361528754234314E-1  
 6.670000000000000E7    -8.635823726654053E-1   4.909665584564209E-1  -7.541841268539429E-2  -2.728033438324928E-2  -7.537637650966644E-2  -2.740491926670075E-2   3.441226482391357E-1   9.330077767372131E-1  
 6.700000000000000E7    -8.457788228988648E-1   5.199574232101440E-1  -7.782589644193649E-2  -2.625470608472824E-2  -7.766592502593994E-2  -2.617103420197964E-2   3.551409840583801E-1   9.274917244911194E-1  
 6.730000000000000E7    -8.272394537925720E-1   5.486513972282410E-1  -8.006209135055542E-2  -2.507985755801201E-2  -8.014229685068131E-2  -2.481897361576557E-2   3.674679994583130E-1   9.238170981407166E-1  
 6.760000000000000E7    -8.081939220428467E-1   5.764918327331543E-1  -8.271443098783493E-2  -2.345700189471245E-2  -8.261302858591080E-2  -2.356525138020515E-2   3.787181675434113E-1   9.186284542083740E-1  
 6.790000000000000E7    -7.873346209526062E-1   6.042003035545349E-1  -8.507128804922104E-2  -2.218296565115452E-2  -8.520941436290741E-2  -2.217649854719639E-2   3.886408507823944E-1   9.133292436599731E-1  
 6.820000000000000E7    -7.660450339317322E-1   6.299333572387695E-1  -8.741942048072815E-2  -2.061514928936958E-2  -8.748291432857513E-2  -2.079480700194836E-2   4.002588391304016E-1   9.089815020561218E-1  
 6.850000000000000E7    -7.442124485969544E-1   6.568796634674072E-1  -9.024781733751297E-2  -1.923090964555740E-2  -9.019832313060761E-2  -1.911054551601410E-2   4.109834432601929E-1   9.043770432472229E-1  
 6.880000000000000E7    -7.207322120666504E-1   6.814900040626526E-1  -9.262689203023911E-2  -1.733450405299664E-2  -9.236478805541992E-2  -1.720262877643108E-2   4.222444891929627E-1   8.982340693473816E-1  
 6.910000000000000E7    -6.964126825332642E-1   7.056323885917664E-1  -9.506740421056747E-2  -1.531100366264582E-2  -9.512361139059067E-2  -1.546429097652435E-2   4.340917170047760E-1   8.927274346351624E-1  
 6.940000000000000E7    -6.721239089965820E-1   7.293376922607422E-1  -9.747170656919479E-2  -1.355255115777254E-2  -9.768282622098923E-2  -1.362211909145117E-2   4.440219402313232E-1   8.876242041587830E-1  
 6.970000000000000E7    -6.452406644821167E-1   7.519969940185547E-1  -9.997905045747757E-2  -1.156989298760891E-2  -1.000905111432076E-1  -1.128292921930552E-2   4.555751681327820E-1   8.811264038085938E-1  
 7.000000000000000E7    -6.190093755722046E-1   7.744268774986267E-1  -1.025357469916344E-1  -9.450312703847885E-3  -1.024410352110863E-1  -9.355768561363220E-3   4.661735892295837E-1   8.761345148086548E-1  
