#  HZ   S   RI   R     50.00 
! Rohde & Schwarz ZVT8 8Ports - Version 4.11 - 1300.0000k08 SN: 100242
! Date: 2026-07-31 14:08:56
! Measurements: S11 S21 S12 S22 
! 
 1.000000000000000E7    -3.988663554191589E-1   9.129650592803955E-1   5.623716488480568E-2   5.602382123470306E-2   5.614147335290909E-2   5.619905516505241E-2  -9.141556024551392E-1   3.956998288631439E-1  
 1.030000000000000E7    -3.660342395305634E-1   9.255265593528748E-1   6.021852418780327E-2   5.671808496117592E-2   6.011236459016800E-2   5.658821389079094E-2  -9.076616764068604E-1   4.092022776603699E-1  
 1.060000000000000E7    -3.290240466594696E-1   9.389651417732239E-1   6.432348489761353E-2   5.780453979969025E-2   6.440068781375885E-2   5.786517262458801E-2  -9.031252264976502E-1   4.220623075962067E-1  
 1.090000000000000E7    -2.966963350772858E-1   9.489160180091858E-1   6.855830550193787E-2   5.854303389787674E-2   6.858500093221664E-2   5.850487574934959E-2  -8.962039947509766E-1   4.352551400661469E-1  
 1.120000000000000E7    -2.601435780525208E-1   9.584088921546936E-1   7.312541455030441E-2   5.953560769557953E-2   7.284969836473465E-2   5.943320691585541E-2  -8.895298838615418E-1   4.481608271598816E-1  
 1.150000000000000E7    -2.239920496940613E-1   9.681946635246277E-1   7.762107253074646E-2   5.956287682056427E-2   7.749250531196594E-2   5.976220220327377E-2  -8.812230825424194E-1   4.589037597179413E-1  
 1.180000000000000E7    -1.881522536277771E-1   9.732528328895569E-1   8.217497169971466E-2   6.030088663101196E-2   8.236023783683777E-2   6.012885272502899E-2  -8.760633468627930E-1   4.715083539485931E-1  
 1.210000000000000E7    -1.521370857954025E-1   9.801942110061646E-1   8.772882074117661E-2   6.054398790001869E-2   8.739470690488815E-2   6.036153435707092E-2  -8.662877082824707E-1   4.857457876205444E-1  
 1.240000000000000E7    -1.154749542474747E-1   9.838595390319824E-1   9.262231737375259E-2   6.097858399152756E-2   9.288049489259720E-2   6.041532382369041E-2  -8.584718704223633E-1   4.969505369663239E-1  
 1.270000000000000E7    -7.827512919902802E-2   9.871329665184021E-1   9.890554845333099E-2   6.044612824916840E-2   9.833639860153198E-2   6.030029058456421E-2  -8.491471409797669E-1   5.128164291381836E-1  
 1.300000000000000E7    -4.156355559825897E-2   9.888901710510254E-1   1.043650135397911E-1   6.056410819292069E-2   1.044369339942932E-1   6.026399880647659E-2  -8.404024243354797E-1   5.254717469215393E-1  
 1.330000000000000E7    -3.377195447683334E-3   9.899688363075256E-1   1.106510311365128E-1   5.993824824690819E-2   1.108763664960861E-1   5.947396904230118E-2  -8.306550383567810E-1   5.397650003433228E-1  
 1.360000000000000E7     3.572871163487434E-2   9.887216687202454E-1   1.171170547604561E-1   5.964021757245064E-2   1.174165159463882E-1   5.894061177968979E-2  -8.212056756019592E-1   5.515109300613403E-1  
 1.390000000000000E7     7.253212481737137E-2   9.849699139595032E-1   1.242090538144112E-1   5.825219675898552E-2   1.239934042096138E-1   5.855172127485275E-2  -8.108614683151245E-1   5.662252902984619E-1  
 1.420000000000000E7     1.117712631821632E-1   9.811499714851379E-1   1.309645622968674E-1   5.738972499966621E-2   1.311114579439163E-1   5.742366611957550E-2  -8.015115261077881E-1   5.791442394256592E-1  
 1.450000000000000E7     1.497609019279480E-1   9.738127589225769E-1   1.387682408094406E-1   5.572248622775078E-2   1.390077024698257E-1   5.575763434171677E-2  -7.876580357551575E-1   5.945960879325867E-1  
 1.480000000000000E7     1.896741837263107E-1   9.662498235702515E-1   1.467636823654175E-1   5.386281758546829E-2   1.471105515956879E-1   5.412780493497849E-2  -7.762957215309143E-1   6.083958745002747E-1  
 1.510000000000000E7     2.273502796888351E-1   9.566959738731384E-1   1.549115180969238E-1   5.174877122044563E-2   1.550475805997849E-1   5.162964016199112E-2  -7.605321407318115E-1   6.229447722434998E-1  
 1.540000000000000E7     2.650364637374878E-1   9.452623128890991E-1   1.635908335447311E-1   5.024168640375137E-2   1.638385057449341E-1   4.942372068762779E-2  -7.502754926681519E-1   6.361402273178101E-1  
 1.570000000000000E7     3.043709099292755E-1   9.335633516311646E-1   1.731786429882050E-1   4.645823314785957E-2   1.732840240001679E-1   4.633164033293724E-2  -7.339100837707520E-1   6.520105004310608E-1  
 1.600000000000000E7     3.434286713600159E-1   9.173260927200317E-1   1.825071424245834E-1   4.280897229909897E-2   1.834101229906082E-1   4.252429306507111E-2  -7.195430397987366E-1   6.649169325828552E-1  
 1.630000000000000E7     3.807460069656372E-1   8.999814391136169E-1   1.938196569681168E-1   3.842128440737724E-2   1.936341822147369E-1   3.868722170591354E-2  -7.025139331817627E-1   6.816374659538269E-1  
 1.660000000000000E7     4.184545874595642E-1   8.798516988754273E-1   2.048203349113464E-1   3.318737447261810E-2   2.045118510723114E-1   3.274355828762054E-2  -6.831700205802918E-1   6.963296532630920E-1  
 1.690000000000000E7     4.553698897361755E-1   8.587848544120789E-1   2.165651023387909E-1   2.802995592355728E-2   2.164574265480042E-1   2.748345211148262E-2  -6.642116904258728E-1   7.109646797180176E-1  
 1.720000000000000E7     4.943596720695496E-1   8.352216482162476E-1   2.279415875673294E-1   2.061567828059197E-2   2.285813242197037E-1   2.115102112293243E-2  -6.444496512413025E-1   7.253445982933044E-1  
 1.750000000000000E7     5.263135433197022E-1   8.116974830627441E-1   2.422208636999130E-1   1.433808356523514E-2   2.427000701427460E-1   1.372079551219940E-2  -6.222867965698242E-1   7.421594262123108E-1  
 1.780000000000000E7     5.640110969543457E-1   7.794522047042847E-1   2.545949816703796E-1   4.592392593622208E-3   2.556040883064270E-1   4.973884671926498E-3  -5.978276729583740E-1   7.546647787094116E-1  
 1.810000000000000E7     5.974325537681580E-1   7.500334978103638E-1   2.710715532302856E-1  -5.507173016667366E-3   2.696410417556763E-1  -6.498236209154129E-3  -5.709356665611267E-1   7.725790143013001E-1  
 1.840000000000000E7     6.320279240608215E-1   7.159765362739563E-1   2.862507402896881E-1  -1.944356411695480E-2   2.855071425437927E-1  -1.871749386191368E-2  -5.419639348983765E-1   7.859187722206116E-1  
 1.870000000000000E7     6.622639298439026E-1   6.802060008049011E-1   3.024378716945648E-1  -3.232615813612938E-2   3.015445470809937E-1  -3.280931711196899E-2  -5.110921859741211E-1   7.993822693824768E-1  
 1.900000000000000E7     6.922118067741394E-1   6.404319405555725E-1   3.194699883460999E-1  -4.840633273124695E-2   3.191679716110230E-1  -4.938588291406632E-2  -4.764813184738159E-1   8.128198981285095E-1  
 1.930000000000000E7     7.207312583923340E-1   5.969405174255371E-1   3.364036381244659E-1  -6.937408447265625E-2   3.375329971313477E-1  -6.834840029478073E-2  -4.387505650520325E-1   8.265563249588013E-1  
 1.960000000000000E7     7.457897663116455E-1   5.499678850173950E-1   3.546186387538910E-1  -9.123824536800385E-2   3.556284308433533E-1  -9.100632369518280E-2  -3.993099927902222E-1   8.368906974792481E-1  
 1.990000000000000E7     7.662708163261414E-1   5.004093647003174E-1   3.732780218124390E-1  -1.180586516857147E-1   3.744865953922272E-1  -1.184401288628578E-1  -3.506409525871277E-1   8.460584282875061E-1  
 2.020000000000000E7     7.841123342514038E-1   4.463200569152832E-1   3.927745521068573E-1  -1.490148305892944E-1   3.926328420639038E-1  -1.486041843891144E-1  -3.025288581848145E-1   8.505223393440247E-1  
 2.050000000000000E7     7.988086938858032E-1   3.877251148223877E-1   4.113816320896149E-1  -1.850541085004807E-1   4.092788994312286E-1  -1.849958300590515E-1  -2.468020319938660E-1   8.527334332466126E-1  
 2.080000000000000E7     8.047114610671997E-1   3.263052999973297E-1   4.283632040023804E-1  -2.287428081035614E-1   4.291254878044128E-1  -2.292524278163910E-1  -1.842027604579926E-1   8.502599000930786E-1  
 2.110000000000000E7     8.046967983245850E-1   2.626931071281433E-1   4.423243999481201E-1  -2.810303568840027E-1   4.429086446762085E-1  -2.809504568576813E-1  -1.170693859457970E-1   8.381551504135132E-1  
 2.140000000000000E7     7.952790260314941E-1   1.974243819713593E-1   4.515760838985443E-1  -3.406629860401154E-1   4.519487619400024E-1  -3.388574123382568E-1  -4.390697181224823E-2   8.180429339408875E-1  
 2.170000000000000E7     7.742968201637268E-1   1.303677260875702E-1   4.548574686050415E-1  -4.081471562385559E-1   4.562427997589111E-1  -4.075845777988434E-1   3.439610823988915E-2   7.836897373199463E-1  
 2.200000000000000E7     7.413538098335266E-1   6.347385048866272E-2   4.462156891822815E-1  -4.861453175544739E-1   4.473196864128113E-1  -4.866188466548920E-1   1.153906434774399E-1   7.331681251525879E-1  
 2.230000000000000E7     6.938754916191101E-1   3.652140498161316E-3   4.240421652793884E-1  -5.721190571784973E-1   4.248002171516419E-1  -5.718304514884949E-1   1.949738711118698E-1   6.635364294052124E-1  
 2.260000000000000E7     6.319658160209656E-1  -4.800736531615257E-2   3.814269900321960E-1  -6.642285585403442E-1   3.826128542423248E-1  -6.663948297500610E-1   2.663530707359314E-1   5.699362158775330E-1  
 2.290000000000000E7     5.565616488456726E-1  -8.198450505733490E-2   3.146588206291199E-1  -7.566027641296387E-1   3.153877854347229E-1  -7.574426531791687E-1   3.257627785205841E-1   4.516943097114563E-1  
 2.320000000000000E7     4.750191867351532E-1  -9.184014797210693E-2   2.190378010272980E-1  -8.394275307655335E-1   2.176140546798706E-1  -8.398593068122864E-1   3.589663803577423E-1   3.170752823352814E-1  
 2.350000000000000E7     3.936675190925598E-1  -7.717630267143250E-2   9.660036861896515E-2  -9.027144312858582E-1   9.774968028068543E-2  -9.032391905784607E-1   3.568635284900665E-1   1.656529605388641E-1  
 2.380000000000000E7     3.204644322395325E-1  -3.730252757668495E-2  -4.192379862070084E-2  -9.376167654991150E-1  -4.252853989601135E-2  -9.382023811340332E-1   3.141301870346069E-1   1.360762119293213E-2  
 2.410000000000000E7     2.707650661468506E-1   2.353681251406670E-2  -1.904894560575485E-1  -9.358549714088440E-1  -1.903015673160553E-1  -9.352298974990845E-1   2.332961261272430E-1  -1.211262792348862E-1  
 2.440000000000000E7     2.504855096340179E-1   9.546751528978348E-2  -3.309812545776367E-1  -8.961083292961121E-1  -3.331514000892639E-1  -8.975839018821716E-1   1.196858808398247E-1  -2.249353080987930E-1  
 2.470000000000000E7     2.570767104625702E-1   1.653223931789398E-1  -4.558660089969635E-1  -8.279796838760376E-1  -4.559032618999481E-1  -8.276935815811157E-1  -1.094086281955242E-2  -2.982095181941986E-1  
 2.500000000000000E7     2.856364548206329E-1   2.269163727760315E-1  -5.552600622177124E-1  -7.387056946754456E-1  -5.574750900268555E-1  -7.382804155349731E-1  -1.415686756372452E-1  -3.294975459575653E-1  
 2.530000000000000E7     3.354334533214569E-1   2.726318836212158E-1  -6.294161677360535E-1  -6.379641890525818E-1  -6.275646686553955E-1  -6.393733024597168E-1  -2.674555182456970E-1  -3.305628001689911E-1  
 2.560000000000000E7     3.916536867618561E-1   2.964770793914795E-1  -6.778629422187805E-1  -5.381060838699341E-1  -6.763632893562317E-1  -5.391710996627808E-1  -3.777736723423004E-1  -3.073321878910065E-1  
 2.590000000000000E7     4.539514780044556E-1   2.981606721878052E-1  -7.059832215309143E-1  -4.423210322856903E-1  -7.072147130966187E-1  -4.425192177295685E-1  -4.673986434936523E-1  -2.723239362239838E-1  
 2.620000000000000E7     5.150397419929504E-1   2.856970727443695E-1  -7.217510342597961E-1  -3.519728183746338E-1  -7.212202548980713E-1  -3.522026538848877E-1  -5.427076816558838E-1  -2.255370020866394E-1  
 2.650000000000000E7     5.701534152030945E-1   2.590120434761047E-1  -7.238371968269348E-1  -2.702108025550842E-1  -7.262771725654602E-1  -2.698873281478882E-1  -6.011630296707153E-1  -1.725560575723648E-1  
 2.680000000000000E7     6.195700764656067E-1   2.180751711130142E-1  -7.205983996391296E-1  -1.960766017436981E-1  -7.229415178298950E-1  -1.964923441410065E-1  -6.441982984542847E-1  -1.195643320679665E-1  
 2.710000000000000E7     6.594011187553406E-1   1.663492769002914E-1  -7.154358029365540E-1  -1.273220181465149E-1  -7.146961688995361E-1  -1.258712857961655E-1  -6.776949763298035E-1  -6.943841278553009E-2  
 2.740000000000000E7     6.927508115768433E-1   1.065045744180679E-1  -7.031297683715820E-1  -6.540422886610031E-2  -7.062526941299439E-1  -6.448126584291458E-2  -6.989438533782959E-1  -1.838700100779533E-2  
 2.770000000000000E7     7.133855223655701E-1   3.801753371953964E-2  -6.921058893203735E-1  -6.631363648921251E-3  -6.952708959579468E-1  -5.334414541721344E-3  -7.144199609756470E-1   2.740164101123810E-2  
 2.800000000000000E7     7.242382168769836E-1  -3.722566738724709E-2  -6.786228418350220E-1   5.059435963630676E-2  -6.814849972724915E-1   4.859542101621628E-2  -7.214589118957520E-1   7.150863111019135E-2  
 2.830000000000000E7     7.206327319145203E-1  -1.210571974515915E-1  -6.653088331222534E-1   1.064241454005241E-1  -6.662546992301941E-1   1.071786135435104E-1  -7.239856719970703E-1   1.080291792750359E-1  
 2.860000000000000E7     7.017565369606018E-1  -2.107921689748764E-1  -6.510631442070007E-1   1.627880483865738E-1  -6.529625058174133E-1   1.636462062597275E-1  -7.210289835929871E-1   1.432948559522629E-1  
 2.890000000000000E7     6.626502871513367E-1  -3.047609031200409E-1  -6.357228755950928E-1   2.222194820642471E-1  -6.353114247322083E-1   2.220807671546936E-1  -7.128256559371948E-1   1.727499067783356E-1  
 2.920000000000000E7     6.031185984611511E-1  -4.033315181732178E-1  -6.147500276565552E-1   2.848334908485413E-1  -6.148787140846252E-1   2.859774231910706E-1  -7.020184993743897E-1   1.974251717329025E-1  
 2.950000000000000E7     5.100579857826233E-1  -4.990170300006867E-1  -5.904796719551086E-1   3.547026216983795E-1  -5.904492735862732E-1   3.549636304378510E-1  -6.869671344757080E-1   2.155147939920425E-1  
 2.980000000000000E7     3.813682794570923E-1  -5.860834121704102E-1  -5.526586174964905E-1   4.310631453990936E-1  -5.541954040527344E-1   4.323396980762482E-1  -6.692380905151367E-1   2.240957021713257E-1  
 3.010000000000000E7     2.062702029943466E-1  -6.479988098144531E-1  -4.991693794727325E-1   5.156411528587341E-1  -5.007559061050415E-1   5.148571133613586E-1  -6.520689129829407E-1   2.240904420614243E-1  
 3.040000000000000E7    -1.729058101773262E-2  -6.615121364593506E-1  -4.186822175979614E-1   5.988876819610596E-1  -4.184080958366394E-1   6.024879217147827E-1  -6.393365859985352E-1   2.107725441455841E-1  
 3.070000000000000E7    -2.707720398902893E-1  -5.891130566596985E-1  -3.029091954231262E-1   6.743982434272766E-1  -3.032608032226563E-1   6.738405227661133E-1  -6.380736231803894E-1   1.895775943994522E-1  
 3.100000000000000E7    -5.162373185157776E-1  -3.972143530845642E-1  -1.526478081941605E-1   7.154859900474548E-1  -1.529302448034287E-1   7.160099744796753E-1  -6.536992788314819E-1   1.602773070335388E-1  
 3.130000000000000E7    -6.766510605812073E-1  -9.023217111825943E-2   1.839132606983185E-2   7.007048130035400E-1   1.811207830905914E-2   7.005202770233154E-1  -6.925055384635925E-1   1.347777396440506E-1  
 3.160000000000000E7    -6.855998635292053E-1   2.726888656616211E-1   1.678082048892975E-1   6.200249195098877E-1   1.681396067142487E-1   6.200649738311768E-1  -7.481707930564880E-1   1.305659115314484E-1  
 3.190000000000000E7    -5.399126410484314E-1   5.902196764945984E-1   2.684508264064789E-1   4.965584576129913E-1   2.688788771629334E-1   4.970747530460358E-1  -8.045953512191773E-1   1.510803252458572E-1  
 3.220000000000000E7    -3.032447695732117E-1   8.017902970314026E-1   3.101393878459930E-1   3.657678365707398E-1   3.108674883842468E-1   3.662862181663513E-1  -8.502257466316223E-1   1.912191063165665E-1  
 3.250000000000000E7    -4.537620395421982E-2   8.994896411895752E-1   3.083213865756989E-1   2.546315789222717E-1   3.089392781257629E-1   2.551396787166596E-1  -8.798878788948059E-1   2.410502433776856E-1  
 3.280000000000000E7     1.888829767704010E-1   9.109109044075012E-1   2.827086150646210E-1   1.696276813745499E-1   2.839883863925934E-1   1.688505709171295E-1  -8.941503763198853E-1   2.911753654479981E-1  
 3.310000000000000E7     3.811508715152741E-1   8.715053200721741E-1   2.488986402750015E-1   1.080651283264160E-1   2.490685135126114E-1   1.082723885774612E-1  -8.980459570884705E-1   3.384600579738617E-1  
 3.340000000000000E7     5.349573493003845E-1   8.042696118354797E-1   2.138277590274811E-1   6.646544486284256E-2   2.137072980403900E-1   6.624929606914520E-2  -8.940667510032654E-1   3.808376789093018E-1  
 3.370000000000000E7     6.537111401557922E-1   7.219696640968323E-1   1.802351176738739E-1   3.799985349178314E-2   1.802769154310226E-1   3.822923824191093E-2  -8.876283764839172E-1   4.168479740619659E-1  
 3.400000000000000E7     7.456310987472534E-1   6.371362805366516E-1   1.514430046081543E-1   1.928721554577351E-2   1.515180319547653E-1   1.955568976700306E-2  -8.769588470458984E-1   4.493333995342255E-1  
 3.430000000000000E7     8.165819644927979E-1   5.518960356712341E-1   1.267138570547104E-1   6.769882515072823E-3   1.265383511781693E-1   6.816210225224495E-3  -8.660430312156677E-1   4.777190685272217E-1  
 3.460000000000000E7     8.711593747138977E-1   4.679051935672760E-1   1.055612787604332E-1  -1.269419211894274E-3   1.056725457310677E-1  -1.030790153890848E-3  -8.554125428199768E-1   5.039092898368835E-1  
 3.490000000000000E7     9.123238325119019E-1   3.870576918125153E-1   8.775732666254044E-2  -6.358216516673565E-3   8.765004575252533E-2  -6.293667480349541E-3  -8.416453599929810E-1   5.260126590728760E-1  
 3.520000000000000E7     9.430981874465942E-1   3.113063275814056E-1   7.262235879898071E-2  -9.077206254005432E-3   7.259343564510346E-2  -9.051132947206497E-3  -8.303708434104919E-1   5.485289096832275E-1  
 3.550000000000000E7     9.641701579093933E-1   2.366829514503479E-1   5.995713546872139E-2  -1.034991443157196E-2   6.007840856909752E-2  -1.044460944831371E-2  -8.187412023544312E-1   5.674114823341370E-1  
 3.580000000000000E7     9.807410836219788E-1   1.679362654685974E-1   4.931408166885376E-2  -1.110643893480301E-2   4.933540523052216E-2  -1.096753124147654E-2  -8.053985834121704E-1   5.858871936798096E-1  
 3.610000000000000E7     9.909969568252564E-1   1.018458381295204E-1   4.056749865412712E-2  -1.093840785324574E-2   4.052287712693214E-2  -1.099844835698605E-2  -7.942434549331665E-1   6.048858761787415E-1  
 3.640000000000000E7     9.957232475280762E-1   3.833320736885071E-2   3.307407349348068E-2  -1.040155533701181E-2   3.298568353056908E-2  -1.029450353235006E-2  -7.820581197738648E-1   6.190497279167175E-1  
 3.670000000000000E7     9.968407154083252E-1  -2.060076221823692E-2   2.673776075243950E-2  -9.457754902541637E-3   2.662961371243000E-2  -9.526996873319149E-3  -7.708795666694641E-1   6.338042616844177E-1  
 3.700000000000000E7     9.942925572395325E-1  -7.847112417221069E-2   2.141673490405083E-2  -8.584851399064064E-3   2.137843891978264E-2  -8.519282564520836E-3  -7.585391998291016E-1   6.495131254196167E-1  
 3.730000000000000E7     9.882197380065918E-1  -1.338867992162705E-1   1.680240966379643E-2  -7.443481590598822E-3   1.697434298694134E-2  -7.443787995725870E-3  -7.460996508598328E-1   6.609063744544983E-1  
 3.760000000000000E7     9.796048402786255E-1  -1.845790147781372E-1   1.305680163204670E-2  -6.369882728904486E-3   1.323558762669563E-2  -6.371587980538607E-3  -7.352982163429260E-1   6.757421493530273E-1  
 3.790000000000000E7     9.691471457481384E-1  -2.359652966260910E-1   1.001892797648907E-2  -5.285557825118303E-3   1.006815675646067E-2  -5.292343441396952E-3  -7.235746979713440E-1   6.876544356346130E-1  
 3.820000000000000E7     9.566184282302856E-1  -2.848376929759979E-1   7.421562448143959E-3  -4.165198653936386E-3   7.367370650172234E-3  -4.196797963231802E-3  -7.122313380241394E-1   6.980301141738892E-1  
 3.850000000000000E7     9.412857890129089E-1  -3.317143321037293E-1   5.167540162801743E-3  -3.136664396151900E-3   5.121003370732069E-3  -3.125580959022045E-3  -7.025254368782044E-1   7.101728916168213E-1  
 3.880000000000000E7     9.242395758628845E-1  -3.754259347915649E-1   3.283140948042274E-3  -2.208186313509941E-3   3.433655947446823E-3  -2.195363631471992E-3  -6.908307671546936E-1   7.218157649040222E-1  
 3.910000000000000E7     9.067349433898926E-1  -4.182951152324677E-1   2.058749552816153E-3  -1.376664615236223E-3   2.079218160361052E-3  -1.315939938649535E-3  -6.799179315567017E-1   7.334233522415161E-1  
 3.940000000000000E7     8.856834769248962E-1  -4.574588835239410E-1   7.596707437187433E-4  -5.472967168316245E-4   7.785909692756832E-4  -5.515023367479444E-4  -6.681874394416809E-1   7.418991327285767E-1  
 3.970000000000000E7     8.656527400016785E-1  -4.969408214092255E-1  -1.762516039889306E-4   1.316484122071415E-4  -1.407321979058906E-4   1.889894192572683E-4  -6.564618349075317E-1   7.511289715766907E-1  
 4.000000000000000E7     8.425371646881104E-1  -5.342035889625549E-1  -8.805168909020722E-4   7.290403009392321E-4  -8.403187384828925E-4   7.623610435985029E-4  -6.465624570846558E-1   7.614656686782837E-1  
 4.030000000000000E7     8.194563388824463E-1  -5.700417160987854E-1  -1.317836809903383E-3   1.340524526312947E-3  -1.473090494982898E-3   1.407625270076096E-3  -6.358323693275452E-1   7.703832983970642E-1  
 4.060000000000000E7     7.944416999816895E-1  -6.038250923156738E-1  -1.818062504753470E-3   1.708933850750327E-3  -1.711269491352141E-3   1.819325494579971E-3  -6.244412660598755E-1   7.787328958511353E-1  
 4.090000000000000E7     7.683601379394531E-1  -6.368128657341003E-1  -2.037103520706296E-3   2.174068242311478E-3  -2.064842730760574E-3   2.067577559500933E-3  -6.142901778221130E-1   7.867302298545837E-1  
 4.120000000000000E7     7.421207427978516E-1  -6.683295369148254E-1  -2.219001296907663E-3   2.513568149879575E-3  -2.161693293601275E-3   2.437600633129478E-3  -6.020315885543823E-1   7.956601977348328E-1  
 4.150000000000000E7     7.147566080093384E-1  -6.966221928596497E-1  -2.273979363963008E-3   2.646439941599965E-3  -2.300039399415255E-3   2.628622809424996E-3  -5.912709832191467E-1   8.035873174667358E-1  
 4.180000000000000E7     6.857253909111023E-1  -7.260516285896301E-1  -2.383546903729439E-3   2.803407376632094E-3  -2.305079018697143E-3   2.731901360675693E-3  -5.816358923912048E-1   8.108406066894531E-1  
 4.210000000000000E7     6.566436886787415E-1  -7.522196173667908E-1  -2.260648179799318E-3   2.838228829205036E-3  -2.172120613977313E-3   2.879406558349729E-3  -5.701748728752136E-1   8.189935088157654E-1  
 4.240000000000000E7     6.262388229370117E-1  -7.762174606323242E-1  -2.016140613704920E-3   2.865185029804707E-3  -2.031287876889110E-3   2.746470039710403E-3  -5.602092742919922E-1   8.267776370048523E-1  
 4.270000000000000E7     5.951502323150635E-1  -8.002426624298096E-1  -1.965257572010160E-3   2.752814441919327E-3  -1.903977245092392E-3   2.720982069149613E-3  -5.485752224922180E-1   8.342197537422180E-1  
 4.300000000000000E7     5.632237195968628E-1  -8.236119151115418E-1  -1.794758485630155E-3   2.588932868093252E-3  -1.758966129273176E-3   2.589181764051318E-3  -5.376284122467041E-1   8.423154354095459E-1  
 4.330000000000000E7     5.337730646133423E-1  -8.442596793174744E-1  -1.405049348250032E-3   2.353482879698277E-3  -1.564533798955381E-3   2.409694483503699E-3  -5.267979502677918E-1   8.478045463562012E-1  
 4.360000000000000E7     4.998584091663361E-1  -8.635427355766296E-1  -1.252878922969103E-3   2.081483136862516E-3  -1.280867028981447E-3   2.165990648791194E-3  -5.165860056877136E-1   8.549707531929016E-1  
 4.390000000000000E7     4.663743078708649E-1  -8.834844827651978E-1  -9.990455582737923E-4   1.620049471966922E-3  -9.251200826838613E-4   1.750207506120205E-3  -5.053601861000061E-1   8.601163625717163E-1  
 4.420000000000000E7     4.330546855926514E-1  -8.990135192871094E-1  -7.063175435177982E-4   1.285514677874744E-3  -7.526042754761875E-4   1.365661504678428E-3  -4.939979314804077E-1   8.663936853408814E-1  
 4.450000000000000E7     3.990648984909058E-1  -9.142103791236877E-1  -4.774288390763104E-4   9.546934161335230E-4  -4.998142248950899E-4   8.699819445610046E-4  -4.848478734493256E-1   8.725551366806030E-1  
 4.480000000000000E7     3.650670349597931E-1  -9.288436174392700E-1  -2.087394677801058E-4   4.302958259359002E-4  -2.448064333293587E-4   4.471781721804291E-4  -4.735440611839294E-1   8.783836364746094E-1  
 4.510000000000000E7     3.315180838108063E-1  -9.420548081398010E-1   2.277030944242142E-5  -4.852828351431526E-5   1.684891685727052E-5  -1.228081091539934E-4  -4.632043540477753E-1   8.848484158515930E-1  
 4.540000000000000E7     2.964586615562439E-1  -9.527328014373779E-1   2.574724785517901E-4  -6.018067942932248E-4   1.738714054226875E-4  -6.576525047421455E-4  -4.516063630580902E-1   8.903463482856751E-1  
 4.570000000000000E7     2.611806988716126E-1  -9.632894396781921E-1   5.063976277597249E-4  -1.351508544757962E-3   5.068535683676601E-4  -1.320929732173681E-3  -4.405499100685120E-1   8.955397605895996E-1  
 4.600000000000000E7     2.284021675586700E-1  -9.711320400238037E-1   6.115905707702041E-4  -2.042784588411450E-3   7.156413048505783E-4  -1.951319281943142E-3  -4.304384291172028E-1   9.005056619644165E-1  
 4.630000000000000E7     1.906753331422806E-1  -9.800044894218445E-1   8.556460961699486E-4  -2.681110054254532E-3   8.507515885867178E-4  -2.686201129108667E-3  -4.201839864253998E-1   9.052786827087402E-1  
 4.660000000000000E7     1.548196971416473E-1  -9.869352579116821E-1   8.706015651114285E-4  -3.372395411133766E-3   9.313173941336572E-4  -3.475359175354242E-3  -4.074546992778778E-1   9.110428094863892E-1  
 4.690000000000000E7     1.201649904251099E-1  -9.908038973808289E-1   1.062106923200190E-3  -4.139042459428310E-3   1.075252192094922E-3  -4.171799402683973E-3  -3.973703682422638E-1   9.158209562301636E-1  
 4.720000000000000E7     8.436387777328491E-2  -9.941688776016235E-1   1.157040009275079E-3  -4.898184444755316E-3   1.134861493483186E-3  -4.919162020087242E-3  -3.857825398445129E-1   9.198632836341858E-1  
 4.750000000000000E7     4.945272952318192E-2  -9.973590970039368E-1   1.216703793033958E-3  -5.767368245869875E-3   1.204883796162903E-3  -5.623691715300083E-3  -3.757242560386658E-1   9.250403046607971E-1  
 4.780000000000000E7     1.474789157509804E-2  -9.982128143310547E-1   1.226937398314476E-3  -6.625716574490070E-3   1.196831464767456E-3  -6.600760389119387E-3  -3.637985587120056E-1   9.278945922851563E-1  
 4.810000000000000E7    -2.138761430978775E-2  -9.978604316711426E-1   1.209635054692626E-3  -7.495203521102667E-3   1.239227014593780E-3  -7.531692739576101E-3  -3.543373346328735E-1   9.325530529022217E-1  
 4.840000000000000E7    -5.612297728657723E-2  -9.971325993537903E-1   1.189952017739415E-3  -8.316583000123501E-3   1.100836321711540E-3  -8.312056772410870E-3  -3.432865738868713E-1   9.367191195487976E-1  
 4.870000000000000E7    -9.197609126567841E-2  -9.942435026168823E-1   1.044361386448145E-3  -9.264951571822166E-3   1.100084278732538E-3  -9.177032858133316E-3  -3.319321274757385E-1   9.410259723663330E-1  
 4.900000000000000E7    -1.266934275627136E-1  -9.911897778511047E-1   9.045047918334603E-4  -1.016830187290907E-2   9.379909606650472E-4  -1.022847369313240E-2  -3.214381337165833E-1   9.442547559738159E-1  
 4.930000000000000E7    -1.617121994495392E-1  -9.858412146568298E-1   8.155346149578691E-4  -1.115937251597643E-2   8.194789988920093E-4  -1.110611669719219E-2  -3.096401691436768E-1   9.485456347465515E-1  
 4.960000000000000E7    -1.952717751264572E-1  -9.777688384056091E-1   4.544023540802300E-4  -1.211759634315968E-2   5.975133972242475E-4  -1.209149789065123E-2  -2.988464534282684E-1   9.515445232391357E-1  
 4.990000000000000E7    -2.285604178905487E-1  -9.708105921745300E-1   2.737213508225977E-4  -1.298001967370510E-2   3.321162657812238E-4  -1.304447837173939E-2  -2.878737449645996E-1   9.545415043830872E-1  
 5.020000000000000E7    -2.620073854923248E-1  -9.634435176849365E-1   7.062981603667140E-5  -1.400891412049532E-2   5.610124208033085E-5  -1.404586527496576E-2  -2.771918177604675E-1   9.586361646652222E-1  
 5.050000000000000E7    -2.959761917591095E-1  -9.535180926322937E-1  -2.920766128227115E-4  -1.501543354243040E-2  -3.013242967426777E-4  -1.504284888505936E-2  -2.665736675262451E-1   9.627317190170288E-1  
 5.080000000000000E7    -3.280114829540253E-1  -9.430966377258301E-1  -6.581769557669759E-4  -1.596363075077534E-2  -6.295016501098871E-4  -1.600757800042629E-2  -2.549161911010742E-1   9.633139967918396E-1  
 5.110000000000000E7    -3.611747026443481E-1  -9.303699135780335E-1  -1.114765997044742E-3  -1.698289439082146E-2  -1.093339058570564E-3  -1.702625118196011E-2  -2.450398206710815E-1   9.674915075302124E-1  
 5.140000000000000E7    -3.925924897193909E-1  -9.169781804084778E-1  -1.551080611534417E-3  -1.794992201030254E-2  -1.602663425728679E-3  -1.801185682415962E-2  -2.323120534420013E-1   9.715939164161682E-1  
 5.170000000000000E7    -4.239200055599213E-1  -9.030495285987854E-1  -2.170216524973512E-3  -1.895467564463615E-2  -2.097723772749305E-3  -1.897524483501911E-2  -2.211501598358154E-1   9.718264937400818E-1  
 5.200000000000000E7    -4.551665484905243E-1  -8.894733786582947E-1  -2.681568963453174E-3  -1.992795057594776E-2  -2.642086474224925E-3  -2.003752812743187E-2  -2.104818820953369E-1   9.737060070037842E-1  
 5.230000000000000E7    -4.850612580776215E-1  -8.720219135284424E-1  -3.275631694123149E-3  -2.093793079257011E-2  -3.336765803396702E-3  -2.095974422991276E-2  -1.994909346103668E-1   9.770190715789795E-1  
 5.260000000000000E7    -5.140743255615234E-1  -8.538849353790283E-1  -3.953646402806044E-3  -2.192667871713638E-2  -3.964522853493691E-3  -2.194290980696678E-2  -1.881384551525116E-1   9.795069098472595E-1  
 5.290000000000000E7    -5.440624952316284E-1  -8.362342119216919E-1  -4.665530286729336E-3  -2.285718545317650E-2  -4.693093709647656E-3  -2.296793088316917E-2  -1.773642003536224E-1   9.810245633125305E-1  
 5.320000000000000E7    -5.719945430755615E-1  -8.184199333190918E-1  -5.442524328827858E-3  -2.385967038571835E-2  -5.479814019054174E-3  -2.392528764903545E-2  -1.662915945053101E-1   9.832645654678345E-1  
 5.350000000000000E7    -5.984021425247192E-1  -7.977771759033203E-1  -6.204227451235056E-3  -2.484171651303768E-2  -6.251048762351275E-3  -2.486592531204224E-2  -1.563102304935455E-1   9.854321479797363E-1  
 5.380000000000000E7    -6.244401335716248E-1  -7.771164774894714E-1  -7.047193124890328E-3  -2.580137737095356E-2  -7.079254835844040E-3  -2.577252127230167E-2  -1.432372033596039E-1   9.862759709358215E-1  
 5.410000000000000E7    -6.529418230056763E-1  -7.554863095283508E-1  -8.016217499971390E-3  -2.676543593406677E-2  -8.069796487689018E-3  -2.675752155482769E-2  -1.326071023941040E-1   9.881206154823303E-1  
 5.440000000000000E7    -6.775594353675842E-1  -7.319253683090210E-1  -8.983436971902847E-3  -2.763512171804905E-2  -9.012928232550621E-3  -2.765758521854878E-2  -1.215044260025024E-1   9.891679286956787E-1  
 5.470000000000000E7    -7.006556987762451E-1  -7.096354365348816E-1  -9.955958463251591E-3  -2.846972085535526E-2  -1.005782745778561E-2  -2.854694239795208E-2  -1.094913482666016E-1   9.900974035263062E-1  
 5.500000000000000E7    -7.254765629768372E-1  -6.851826906204224E-1  -1.108026225119829E-2  -2.947253733873367E-2  -1.110448408871889E-2  -2.943514101207256E-2  -9.770026803016663E-2   9.926110506057739E-1  
 5.530000000000000E7    -7.481142878532410E-1  -6.603136062622070E-1  -1.212940458208323E-2  -3.035443648695946E-2  -1.228096056729555E-2  -3.029544278979302E-2  -8.674539625644684E-2   9.928783774375916E-1  
 5.560000000000000E7    -7.703681588172913E-1  -6.337503194808960E-1  -1.340674050152302E-2  -3.115243464708328E-2  -1.330600120127201E-2  -3.115434944629669E-2  -7.620176672935486E-2   9.939733743667603E-1  
 5.590000000000000E7    -7.918235063552856E-1  -6.084429621696472E-1  -1.458359789103270E-2  -3.195113688707352E-2  -1.461724005639553E-2  -3.195650503039360E-2  -6.398689746856690E-2   9.944388270378113E-1  
 5.620000000000000E7    -8.114844560623169E-1  -5.793225169181824E-1  -1.581733673810959E-2  -3.279713541269302E-2  -1.576346717774868E-2  -3.270023316144943E-2  -5.363946035504341E-2   9.955432415008545E-1  
 5.650000000000000E7    -8.297740221023560E-1  -5.530089735984802E-1  -1.705878227949143E-2  -3.345136716961861E-2  -1.711874827742577E-2  -3.350020572543144E-2  -4.185840487480164E-2   9.955354332923889E-1  
 5.680000000000000E7    -8.484209775924683E-1  -5.243527889251709E-1  -1.849439553916454E-2  -3.419478610157967E-2  -1.852762326598167E-2  -3.424346446990967E-2  -3.029095008969307E-2   9.955235123634338E-1  
 5.710000000000000E7    -8.660711646080017E-1  -4.941179752349854E-1  -1.993236318230629E-2  -3.485691174864769E-2  -2.003972046077251E-2  -3.494860604405403E-2  -1.885750517249107E-2   9.960989952087402E-1  
 5.740000000000000E7    -8.828816413879395E-1  -4.647341668605804E-1  -2.140027657151222E-2  -3.553148359060288E-2  -2.140269055962563E-2  -3.557216003537178E-2  -6.901722401380539E-3   9.960641860961914E-1  
 5.770000000000000E7    -8.962305784225464E-1  -4.360095262527466E-1  -2.276273444294930E-2  -3.625277802348137E-2  -2.275363169610500E-2  -3.622006252408028E-2   2.925850450992584E-3   9.954026341438294E-1  
 5.800000000000000E7    -9.109795093536377E-1  -4.040320813655853E-1  -2.451788075268269E-2  -3.679138049483299E-2  -2.451910451054573E-2  -3.665589541196823E-2   1.612028852105141E-2   9.968297481536865E-1  
 5.830000000000000E7    -9.237773418426514E-1  -3.730360567569733E-1  -2.600220218300819E-2  -3.724315762519836E-2  -2.606878802180290E-2  -3.733759373426437E-2   2.640096843242645E-2   9.964830875396729E-1  
 5.860000000000000E7    -9.372687935829163E-1  -3.424149751663208E-1  -2.762326039373875E-2  -3.775391727685928E-2  -2.773259393870831E-2  -3.785525634884834E-2   3.811599686741829E-2   9.952019453048706E-1  
 5.890000000000000E7    -9.471193552017212E-1  -3.102139234542847E-1  -2.937463112175465E-2  -3.816630318760872E-2  -2.934948168694973E-2  -3.844426199793816E-2   4.871939867734909E-2   9.945952296257019E-1  
 5.920000000000000E7    -9.570707082748413E-1  -2.768240272998810E-1  -3.115935623645783E-2  -3.863048553466797E-2  -3.118817880749703E-2  -3.857751190662384E-2   6.106368824839592E-2   9.946104288101196E-1  
 5.950000000000000E7    -9.655099511146545E-1  -2.446560710668564E-1  -3.287743031978607E-2  -3.892564401030541E-2  -3.283714130520821E-2  -3.902802988886833E-2   7.233785092830658E-2   9.919905066490173E-1  
 5.980000000000000E7    -9.733571410179138E-1  -2.114783525466919E-1  -3.484652563929558E-2  -3.918041288852692E-2  -3.465529158711433E-2  -3.931784629821777E-2   8.438846468925476E-2   9.914155602455139E-1  
 6.010000000000000E7    -9.787366390228272E-1  -1.794452965259552E-1  -3.651615604758263E-2  -3.966306149959564E-2  -3.645684570074081E-2  -3.969174250960350E-2   9.538090229034424E-2   9.911716580390930E-1  
 6.040000000000000E7    -9.846309423446655E-1  -1.452126801013947E-1  -3.858626261353493E-2  -3.978336229920387E-2  -3.854618594050407E-2  -3.989055752754211E-2   1.070859879255295E-1   9.901388883590698E-1  
 6.070000000000000E7    -9.900888204574585E-1  -1.130763739347458E-1  -4.055703431367874E-2  -4.007588326931000E-2  -4.041589796543121E-2  -4.020484164357185E-2   1.179890483617783E-1   9.883513450622559E-1  
 6.100000000000000E7    -9.925426840782166E-1  -7.955297827720642E-2  -4.257681220769882E-2  -3.996508195996285E-2  -4.249217733740807E-2  -4.006883874535561E-2   1.307785958051682E-1   9.865092635154724E-1  
 6.130000000000000E7    -9.948101043701172E-1  -4.485999047756195E-2  -4.464492201805115E-2  -4.011712223291397E-2  -4.468222707509995E-2  -4.007053375244141E-2   1.429550647735596E-1   9.858167767524719E-1  
 6.160000000000000E7    -9.952202439308167E-1  -1.206721365451813E-2  -4.644814506173134E-2  -4.007618129253388E-2  -4.658892005681992E-2  -4.005023092031479E-2   1.528629958629608E-1   9.829424619674683E-1  
 6.190000000000000E7    -9.948067069053650E-1   2.138566970825195E-2  -4.857292771339417E-2  -4.010424762964249E-2  -4.857710748910904E-2  -3.997434303164482E-2   1.636028438806534E-1   9.804508686065674E-1  
 6.220000000000000E7    -9.939029812812805E-1   5.482000112533569E-2  -5.056702345609665E-2  -3.989285975694656E-2  -5.084007233381271E-2  -3.997460380196571E-2   1.752666383981705E-1   9.797722697257996E-1  
 6.250000000000000E7    -9.912413954734802E-1   8.862224221229553E-2  -5.285962671041489E-2  -3.980249539017677E-2  -5.294964462518692E-2  -3.969226405024529E-2   1.866983771324158E-1   9.775563478469849E-1  
 6.280000000000000E7    -9.866543412208557E-1   1.223291680216789E-1  -5.525998771190643E-2  -3.953096270561218E-2  -5.512408912181854E-2  -3.963882103562355E-2   1.986200511455536E-1   9.754442572593689E-1  
 6.310000000000000E7    -9.819446802139282E-1   1.563812494277954E-1  -5.753628909587860E-2  -3.919213265180588E-2  -5.738350376486778E-2  -3.922776877880096E-2   2.098591774702072E-1   9.728239178657532E-1  
 6.340000000000000E7    -9.758843779563904E-1   1.892870366573334E-1  -5.983499065041542E-2  -3.873418644070625E-2  -5.968811362981796E-2  -3.872586786746979E-2   2.221574485301971E-1   9.703482389450073E-1  
 6.370000000000000E7    -9.691555500030518E-1   2.221812605857849E-1  -6.208511441946030E-2  -3.824850171804428E-2  -6.203883513808250E-2  -3.822312504053116E-2   2.325424402952194E-1   9.668890237808228E-1  
 6.400000000000000E7    -9.598752856254578E-1   2.540547549724579E-1  -6.433936953544617E-2  -3.754556179046631E-2  -6.439783424139023E-2  -3.748627752065659E-2   2.447368800640106E-1   9.644495844841003E-1  
 6.430000000000000E7    -9.502962231636047E-1   2.879029214382172E-1  -6.680768728256226E-2  -3.715949878096581E-2  -6.683559715747833E-2  -3.693127259612083E-2   2.560992240905762E-1   9.609555602073669E-1  
 6.460000000000000E7    -9.407343864440918E-1   3.199493885040283E-1  -6.912687420845032E-2  -3.626849129796028E-2  -6.905262172222138E-2  -3.638269752264023E-2   2.663840353488922E-1   9.573187232017517E-1  
 6.490000000000000E7    -9.302630424499512E-1   3.513219356536865E-1  -7.145235687494278E-2  -3.564797341823578E-2  -7.166118919849396E-2  -3.569003939628601E-2   2.779684662818909E-1   9.548762440681458E-1  
 6.520000000000000E7    -9.168391227722168E-1   3.822097182273865E-1  -7.414834201335907E-2  -3.484222292900085E-2  -7.400733232498169E-2  -3.468712791800499E-2   2.898223400115967E-1   9.519880414009094E-1  
 6.550000000000000E7    -9.035210609436035E-1   4.129049777984619E-1  -7.661093026399612E-2  -3.368280082941055E-2  -7.651435583829880E-2  -3.383515402674675E-2   3.002629578113556E-1   9.464564919471741E-1  
 6.580000000000000E7    -8.878810405731201E-1   4.436935186386108E-1  -7.897084951400757E-2  -3.254345431923866E-2  -7.894422113895416E-2  -3.269061446189880E-2   3.124102354049683E-1   9.441409707069397E-1  
 6.610000000000000E7    -8.714755773544312E-1   4.735347628593445E-1  -8.151014149188995E-2  -3.134546056389809E-2  -8.120901137590408E-2  -3.118227794766426E-2   3.243921399116516E-1   9.381400346755981E-1  
 6.640000000000000E7    -8.564115762710571E-1   5.029111504554749E-1  -8.407911658287048E-2  -3.032258525490761E-2  -8.413980156183243E-2  -3.037307038903236E-2   3.355426490306854E-1   9.343447685241699E-1  
 6.670000000000000E7    -8.377485871315002E-1   5.316769480705261E-1  -8.655396848917007E-2  -2.883827313780785E-2  -8.657024800777435E-2  -2.902242168784142E-2   3.459230661392212E-1   9.313591122627258E-1  
 6.700000000000000E7    -8.186584115028381E-1   5.600401163101196E-1  -8.910098671913147E-2  -2.759007737040520E-2  -8.883468061685562E-2  -2.751863189041615E-2   3.567962944507599E-1   9.256434440612793E-1  
 6.730000000000000E7    -7.986670136451721E-1   5.873614549636841E-1  -9.139863401651382E-2  -2.608837746083736E-2  -9.158313274383545E-2  -2.578116394579411E-2   3.695361018180847E-1   9.222877025604248E-1  
 6.760000000000000E7    -7.785974740982056E-1   6.141942143440247E-1  -9.422466903924942E-2  -2.414443343877792E-2  -9.413572400808334E-2  -2.425881847739220E-2   3.808761537075043E-1   9.168553352355957E-1  
 6.790000000000000E7    -7.562165856361389E-1   6.408480405807495E-1  -9.665332734584808E-2  -2.265994437038899E-2  -9.672311693429947E-2  -2.253671735525131E-2   3.908547759056091E-1   9.113253951072693E-1  
 6.820000000000000E7    -7.338421940803528E-1   6.652977466583252E-1  -9.906597435474396E-2  -2.080307714641094E-2  -9.911840409040451E-2  -2.082528360188007E-2   4.019617438316345E-1   9.070760011672974E-1  
 6.850000000000000E7    -7.106118202209473E-1   6.913177967071533E-1  -1.019528582692146E-1  -1.898310333490372E-2  -1.019029170274735E-1  -1.887589879333973E-2   4.123778939247131E-1   9.022629857063294E-1  
 6.880000000000000E7    -6.861751079559326E-1   7.144540548324585E-1  -1.044090986251831E-1  -1.687780395150185E-2  -1.040632054209709E-1  -1.681211963295937E-2   4.243953824043274E-1   8.957978487014771E-1  
 6.910000000000000E7    -6.609594225883484E-1   7.375730872154236E-1  -1.070227399468422E-1  -1.458337344229221E-2  -1.068987399339676E-1  -1.461468264460564E-2   4.358567297458649E-1   8.905967473983765E-1  
 6.940000000000000E7    -6.354494094848633E-1   7.598093152046204E-1  -1.095185950398445E-1  -1.254533231258392E-2  -1.096677780151367E-1  -1.236819569021463E-2   4.460749626159668E-1   8.849865198135376E-1  
 6.970000000000000E7    -6.072990894317627E-1   7.809501886367798E-1  -1.119118556380272E-1  -1.001363713294268E-2  -1.120878234505653E-1  -9.765922091901302E-3   4.572214186191559E-1   8.787565827369690E-1  
 7.000000000000000E7    -5.802925825119019E-1   8.021022677421570E-1  -1.145768314599991E-1  -7.490547839552164E-3  -1.144330352544785E-1  -7.462311536073685E-3   4.680316150188446E-1   8.737084269523621E-1  
