#  HZ   S   RI   R     50.00 
! Rohde & Schwarz ZVT8 8Ports - Version 4.11 - 1300.0000k08 SN: 100242
! Date: 2026-07-31 14:13:23
! Measurements: S11 S21 S12 S22 
! 
 1.000000000000000E7    -4.076265096664429E-1   9.096205234527588E-1   5.329116061329842E-2   5.362255498766899E-2   5.315820500254631E-2   5.367125570774078E-2  -9.155359864234924E-1   3.940055370330811E-1  
 1.030000000000000E7    -3.754830956459045E-1   9.222469329833984E-1   5.662896856665611E-2   5.388994887471199E-2   5.653037875890732E-2   5.432497337460518E-2  -9.088872075080872E-1   4.075921773910523E-1  
 1.060000000000000E7    -3.400726020336151E-1   9.352859258651733E-1   6.034799665212631E-2   5.518798157572746E-2   6.046725809574127E-2   5.488567054271698E-2  -9.046275615692139E-1   4.205576479434967E-1  
 1.090000000000000E7    -3.086008429527283E-1   9.454593062400818E-1   6.411033123731613E-2   5.545420944690704E-2   6.412615627050400E-2   5.560658127069473E-2  -8.976017236709595E-1   4.334003627300263E-1  
 1.120000000000000E7    -2.735682427883148E-1   9.552266597747803E-1   6.817927956581116E-2   5.649006366729736E-2   6.784322112798691E-2   5.619745701551437E-2  -8.911517858505249E-1   4.460796117782593E-1  
 1.150000000000000E7    -2.387089431285858E-1   9.651983976364136E-1   7.185386866331101E-2   5.638564005494118E-2   7.187856733798981E-2   5.638738349080086E-2  -8.837522268295288E-1   4.567941725254059E-1  
 1.180000000000000E7    -2.041357308626175E-1   9.708203673362732E-1   7.592660933732987E-2   5.666679516434670E-2   7.599422335624695E-2   5.653690174221993E-2  -8.774123191833496E-1   4.688033163547516E-1  
 1.210000000000000E7    -1.702084243297577E-1   9.779227375984192E-1   8.050096035003662E-2   5.707368999719620E-2   8.041327446699143E-2   5.693732574582100E-2  -8.687844276428223E-1   4.830114245414734E-1  
 1.240000000000000E7    -1.351256221532822E-1   9.824492931365967E-1   8.480391651391983E-2   5.713839828968048E-2   8.496560156345367E-2   5.675792694091797E-2  -8.611626029014587E-1   4.943410754203796E-1  
 1.270000000000000E7    -9.979282319545746E-2   9.860311150550842E-1   8.993978053331375E-2   5.664975196123123E-2   8.963882178068161E-2   5.652229487895966E-2  -8.524571657180786E-1   5.097191929817200E-1  
 1.300000000000000E7    -6.518033146858215E-2   9.891355037689209E-1   9.425611793994904E-2   5.638490617275238E-2   9.433628618717194E-2   5.643610656261444E-2  -8.437171578407288E-1   5.222033858299255E-1  
 1.330000000000000E7    -2.938553504645824E-2   9.908786416053772E-1   9.976969659328461E-2   5.593637377023697E-2   9.964677691459656E-2   5.562491342425346E-2  -8.347004652023315E-1   5.358629822731018E-1  
 1.360000000000000E7     7.538788020610809E-3   9.908479452133179E-1   1.047736629843712E-1   5.551280826330185E-2   1.050261110067368E-1   5.518510192632675E-2  -8.257077336311340E-1   5.478251576423645E-1  
 1.390000000000000E7     4.182379320263863E-2   9.888495206832886E-1   1.103529706597328E-1   5.434935539960861E-2   1.102528050541878E-1   5.459669977426529E-2  -8.159636855125427E-1   5.617032647132874E-1  
 1.420000000000000E7     7.878141105175018E-2   9.866846799850464E-1   1.156369298696518E-1   5.367085337638855E-2   1.158282980322838E-1   5.370066687464714E-2  -8.073437809944153E-1   5.746911764144898E-1  
 1.450000000000000E7     1.142381653189659E-1   9.813758134841919E-1   1.218741238117218E-1   5.220489203929901E-2   1.218217685818672E-1   5.227632075548172E-2  -7.941715121269226E-1   5.894043445587158E-1  
 1.480000000000000E7     1.511622071266174E-1   9.759234786033630E-1   1.278150081634522E-1   5.046032741665840E-2   1.279468238353729E-1   5.103485286235809E-2  -7.842529416084290E-1   6.028286814689636E-1  
 1.510000000000000E7     1.858023256063461E-1   9.686158895492554E-1   1.339776217937470E-1   4.881963506340981E-2   1.339542120695114E-1   4.893133416771889E-2  -7.696115374565125E-1   6.171371936798096E-1  
 1.540000000000000E7     2.206791043281555E-1   9.610465764999390E-1   1.405225396156311E-1   4.781355708837509E-2   1.406437605619431E-1   4.705281183123589E-2  -7.601997256278992E-1   6.301848888397217E-1  
 1.570000000000000E7     2.563650012016296E-1   9.521592855453491E-1   1.474996209144592E-1   4.494245350360870E-2   1.477214843034744E-1   4.472531005740166E-2  -7.455940246582031E-1   6.456882357597351E-1  
 1.600000000000000E7     2.923179864883423E-1   9.398499727249146E-1   1.543910205364227E-1   4.192463681101799E-2   1.548854410648346E-1   4.178160056471825E-2  -7.321553826332092E-1   6.584087610244751E-1  
 1.630000000000000E7     3.259192705154419E-1   9.272797703742981E-1   1.622263491153717E-1   3.869874030351639E-2   1.621222048997879E-1   3.894509375095367E-2  -7.166758179664612E-1   6.745371818542481E-1  
 1.660000000000000E7     3.602346479892731E-1   9.121119976043701E-1   1.700650751590729E-1   3.510726615786552E-2   1.698862612247467E-1   3.467598184943199E-2  -6.996513605117798E-1   6.885390281677246E-1  
 1.690000000000000E7     3.942129909992218E-1   8.968899250030518E-1   1.784087121486664E-1   3.171215206384659E-2   1.782579869031906E-1   3.139946237206459E-2  -6.832951903343201E-1   7.031447887420654E-1  
 1.720000000000000E7     4.300528168678284E-1   8.802719712257385E-1   1.861367821693420E-1   2.659596130251885E-2   1.866682916879654E-1   2.669256553053856E-2  -6.655166149139404E-1   7.178810238838196E-1  
 1.750000000000000E7     4.581043422222138E-1   8.638240098953247E-1   1.957529932260513E-1   2.275748178362846E-2   1.962238997220993E-1   2.227235771715641E-2  -6.466252207756043E-1   7.344772815704346E-1  
 1.780000000000000E7     4.935205876827240E-1   8.404091596603394E-1   2.040614932775497E-1   1.636281609535217E-2   2.047747224569321E-1   1.675591804087162E-2  -6.259000897407532E-1   7.470918893814087E-1  
 1.810000000000000E7     5.235031247138977E-1   8.206716775894165E-1   2.148607671260834E-1   1.037046499550343E-2   2.139831781387329E-1   9.486297145485878E-3  -6.032489538192749E-1   7.653837800025940E-1  
 1.840000000000000E7     5.562184453010559E-1   7.976707220077515E-1   2.250414490699768E-1   1.750320196151733E-3   2.244861274957657E-1   2.260670065879822E-3  -5.787157416343689E-1   7.800595164299011E-1  
 1.870000000000000E7     5.838395953178406E-1   7.733808755874634E-1   2.353565692901611E-1  -5.323546007275581E-3   2.348459213972092E-1  -5.934502929449081E-3  -5.526204109191895E-1   7.947275638580322E-1  
 1.900000000000000E7     6.123576760292053E-1   7.473433017730713E-1   2.461479455232620E-1  -1.422569248825312E-2   2.463375478982925E-1  -1.493620313704014E-2  -5.253478288650513E-1   8.098754286766052E-1  
 1.930000000000000E7     6.409721970558167E-1   7.194052338600159E-1   2.571805119514465E-1  -2.592911384999752E-2   2.581024765968323E-1  -2.517822757363319E-2  -4.942525923252106E-1   8.261108398437500E-1  
 1.960000000000000E7     6.679108738899231E-1   6.888347864151001E-1   2.689433395862579E-1  -3.763505816459656E-2   2.697499096393585E-1  -3.713702782988548E-2  -4.633108973503113E-1   8.402038216590881E-1  
 1.990000000000000E7     6.911347508430481E-1   6.579236388206482E-1   2.814152240753174E-1  -5.125661194324493E-2   2.823254466056824E-1  -5.154075101017952E-2  -4.238092005252838E-1   8.556401729583740E-1  
 2.020000000000000E7     7.147762179374695E-1   6.248290538787842E-1   2.947192788124085E-1  -6.650011986494064E-2   2.944387495517731E-1  -6.640350073575974E-2  -3.862484097480774E-1   8.667516708374023E-1  
 2.050000000000000E7     7.382503747940064E-1   5.897148251533508E-1   3.078582286834717E-1  -8.352278172969818E-2   3.064458966255188E-1  -8.424468338489533E-2  -3.427346050739288E-1   8.793678283691406E-1  
 2.080000000000000E7     7.568939924240112E-1   5.524465441703796E-1   3.213578760623932E-1  -1.042717769742012E-1   3.218150436878204E-1  -1.044956520199776E-1  -2.935636043548584E-1   8.912061452865601E-1  
 2.110000000000000E7     7.748296856880188E-1   5.147952437400818E-1   3.347463905811310E-1  -1.289073079824448E-1   3.352639675140381E-1  -1.288530975580216E-1  -2.394080162048340E-1   8.981474637985230E-1  
 2.140000000000000E7     7.892933487892151E-1   4.758573770523071E-1   3.476518690586090E-1  -1.564114987850189E-1   3.472514450550079E-1  -1.552177965641022E-1  -1.802174597978592E-1   9.027006626129150E-1  
 2.170000000000000E7     7.993552088737488E-1   4.357037246227264E-1   3.602428436279297E-1  -1.868249475955963E-1   3.608675301074982E-1  -1.861431747674942E-1  -1.139599159359932E-1   9.026103019714356E-1  
 2.200000000000000E7     8.085765242576599E-1   3.915331363677979E-1   3.707212209701538E-1  -2.235057801008225E-1   3.712493777275085E-1  -2.235823869705200E-1  -3.946311026811600E-2   8.945304751396179E-1  
 2.230000000000000E7     8.109054565429688E-1   3.484969735145569E-1   3.792037963867188E-1  -2.654023766517639E-1   3.791359066963196E-1  -2.648148238658905E-1   4.114497452974320E-2   8.790407180786133E-1  
 2.260000000000000E7     8.096948862075806E-1   3.041986525058746E-1   3.835048079490662E-1  -3.136195242404938E-1   3.855420351028442E-1  -3.148812055587769E-1   1.300607472658157E-1   8.506941199302673E-1  
 2.290000000000000E7     8.020004630088806E-1   2.607384622097015E-1   3.824154734611511E-1  -3.692434728145599E-1   3.834638297557831E-1  -3.693471252918243E-1   2.270186841487885E-1   8.065848946571350E-1  
 2.320000000000000E7     7.868402004241943E-1   2.203237116336823E-1   3.707370758056641E-1  -4.328582584857941E-1   3.701101243495941E-1  -4.334143996238709E-1   3.282275795936585E-1   7.434357404708862E-1  
 2.350000000000000E7     7.657092809677124E-1   1.824705153703690E-1   3.462749123573303E-1  -5.026712417602539E-1   3.470107316970825E-1  -5.020335316658020E-1   4.300329089164734E-1   6.522527337074280E-1  
 2.380000000000000E7     7.371208071708679E-1   1.510813534259796E-1   3.080700337886810E-1  -5.745722651481628E-1   3.076432049274445E-1  -5.751588344573975E-1   5.254385471343994E-1   5.296812057495117E-1  
 2.410000000000000E7     7.042691707611084E-1   1.292036920785904E-1   2.464144527912140E-1  -6.469815969467163E-1   2.456015646457672E-1  -6.459558010101318E-1   6.010481119155884E-1   3.729120194911957E-1  
 2.440000000000000E7     6.690393686294556E-1   1.219948083162308E-1   1.614132672548294E-1  -7.084445953369141E-1   1.607732474803925E-1  -7.109774947166443E-1   6.423379778862000E-1   1.837617158889771E-1  
 2.470000000000000E7     6.374136209487915E-1   1.276505142450333E-1   5.532594397664070E-2  -7.518542408943176E-1   5.593488737940788E-2  -7.528536915779114E-1   6.366810202598572E-1  -2.938998118042946E-2  
 2.500000000000000E7     6.128597259521484E-1   1.451821923255920E-1  -6.515987217426300E-2  -7.681486010551453E-1  -6.763599812984467E-2  -7.683970332145691E-1   5.678266286849976E-1  -2.414458692073822E-1  
 2.530000000000000E7     6.037640571594238E-1   1.750690191984177E-1  -1.916127502918243E-1  -7.492219209671021E-1  -1.891787499189377E-1  -7.485695481300354E-1   4.380694627761841E-1  -4.331007301807404E-1  
 2.560000000000000E7     6.114324331283569E-1   2.033196389675140E-1  -3.024970889091492E-1  -6.970509290695190E-1  -3.011646270751953E-1  -6.967762708663940E-1   2.615666091442108E-1  -5.775821208953857E-1  
 2.590000000000000E7     6.382484436035156E-1   2.249937802553177E-1  -3.892762959003449E-1  -6.179786920547485E-1  -3.911400437355042E-1  -6.176497936248779E-1   6.471134722232819E-2  -6.631057262420654E-1  
 2.620000000000000E7     6.745846271514893E-1   2.366098910570145E-1  -4.519695341587067E-1  -5.274778008460999E-1  -4.511342346668243E-1  -5.275062322616577E-1  -1.339203864336014E-1  -6.933940649032593E-1  
 2.650000000000000E7     7.146735191345215E-1   2.363575398921967E-1  -4.852627813816071E-1  -4.355796277523041E-1  -4.869078993797302E-1  -4.359688460826874E-1  -3.159732818603516E-1  -6.755277514457703E-1  
 2.680000000000000E7     7.560819983482361E-1   2.227769792079926E-1  -4.975076615810394E-1  -3.491579294204712E-1  -4.993200004100800E-1  -3.504747450351715E-1  -4.692414999008179E-1  -6.253122091293335E-1  
 2.710000000000000E7     7.954503893852234E-1   1.979901790618897E-1  -4.962317943572998E-1  -2.736507952213287E-1  -4.962752759456635E-1  -2.716639935970306E-1  -5.944250822067261E-1  -5.579345226287842E-1  
 2.740000000000000E7     8.307521939277649E-1   1.678081452846527E-1  -4.814049899578095E-1  -2.069550454616547E-1  -4.839297533035278E-1  -2.078574448823929E-1  -6.935279965400696E-1  -4.785187542438507E-1  
 2.770000000000000E7     8.596669435501099E-1   1.315268129110336E-1  -4.617841839790344E-1  -1.528229713439941E-1  -4.644556343555450E-1  -1.529538482427597E-1  -7.696716785430908E-1  -3.987691104412079E-1  
 2.800000000000000E7     8.844439983367920E-1   9.165506064891815E-2  -4.384436905384064E-1  -1.065547019243240E-1  -4.392553567886353E-1  -1.088361218571663E-1  -8.261805772781372E-1  -3.189037740230560E-1  
 2.830000000000000E7     9.024574756622315E-1   4.694241285324097E-2  -4.133346974849701E-1  -6.881839036941528E-2  -4.141865968704224E-1  -6.884936988353729E-2  -8.681790232658386E-1  -2.441596835851669E-1  
 2.860000000000000E7     9.172451496124268E-1   1.632317900657654E-3  -3.882412612438202E-1  -3.849651664495468E-2  -3.893182277679443E-1  -3.860451281070709E-2  -8.996532559394836E-1  -1.735430657863617E-1  
 2.890000000000000E7     9.266721010208130E-1  -4.394638165831566E-2  -3.639470040798187E-1  -1.348853204399347E-2  -3.637151718139648E-1  -1.343948114663363E-2  -9.200476408004761E-1  -1.074745953083038E-1  
 2.920000000000000E7     9.330751299858093E-1  -9.051298350095749E-2  -3.390257060527802E-1   7.237148471176624E-3  -3.395012915134430E-1   7.782992906868458E-3  -9.355069994926453E-1  -4.617651179432869E-2  
 2.950000000000000E7     9.355717301368713E-1  -1.359772384166718E-1  -3.171065747737885E-1   2.325321547687054E-2  -3.171030580997467E-1   2.333647385239601E-2  -9.448497295379639E-1   8.858246728777885E-3  
 2.980000000000000E7     9.345378875732422E-1  -1.823142617940903E-1  -2.950394749641419E-1   3.749181702733040E-2  -2.959383130073547E-1   3.713036328554153E-2  -9.494618773460388E-1   6.012230738997459E-2  
 3.010000000000000E7     9.300485253334045E-1  -2.285338342189789E-1  -2.752826809883118E-1   4.870625585317612E-2  -2.753387987613678E-1   4.795847088098526E-2  -9.511551856994629E-1   1.071173250675201E-1  
 3.040000000000000E7     9.233308434486389E-1  -2.751511037349701E-1  -2.557263374328613E-1   5.711113288998604E-2  -2.568571865558624E-1   5.782940611243248E-2  -9.501103758811951E-1   1.517524719238281E-1  
 3.070000000000000E7     9.111592769622803E-1  -3.194114863872528E-1  -2.374609708786011E-1   6.521959602832794E-2  -2.379392981529236E-1   6.502551585435867E-2  -9.475962519645691E-1   1.922486126422882E-1  
 3.100000000000000E7     8.986330628395081E-1  -3.645553886890411E-1  -2.210989296436310E-1   7.068021595478058E-2  -2.209364622831345E-1   7.074555009603500E-2  -9.434230923652649E-1   2.291943728923798E-1  
 3.130000000000000E7     8.840389251708984E-1  -4.074862599372864E-1  -2.052716612815857E-1   7.541183382272720E-2  -2.056284993886948E-1   7.531191408634186E-2  -9.371522068977356E-1   2.643352746963501E-1  
 3.160000000000000E7     8.651540279388428E-1  -4.504769742488861E-1  -1.903403252363205E-1   7.819645106792450E-2  -1.907479763031006E-1   7.885498553514481E-2  -9.309275150299072E-1   2.953175902366638E-1  
 3.190000000000000E7     8.449753522872925E-1  -4.918462634086609E-1  -1.762415319681168E-1   8.107372373342514E-2  -1.762434542179108E-1   8.102368563413620E-2  -9.231630563735962E-1   3.260816335678101E-1  
 3.220000000000000E7     8.237810730934143E-1  -5.337278246879578E-1  -1.629074811935425E-1   8.277709782123566E-2  -1.631443500518799E-1   8.293277025222778E-2  -9.153099656105042E-1   3.533841371536255E-1  
 3.250000000000000E7     7.987191677093506E-1  -5.727832913398743E-1  -1.507811248302460E-1   8.353088796138763E-2  -1.508294045925140E-1   8.401184529066086E-2  -9.070000648498535E-1   3.799934983253479E-1  
 3.280000000000000E7     7.706603407859802E-1  -6.107383966445923E-1  -1.390093564987183E-1   8.369711786508560E-2  -1.387609988451004E-1   8.392909169197083E-2  -8.976681828498840E-1   4.052452743053436E-1  
 3.310000000000000E7     7.422269582748413E-1  -6.474808454513550E-1  -1.275959014892578E-1   8.396587520837784E-2  -1.278727501630783E-1   8.412948995828629E-2  -8.888649344444275E-1   4.293404221534729E-1  
 3.340000000000000E7     7.113484740257263E-1  -6.841828823089600E-1  -1.173912957310677E-1   8.355552703142166E-2  -1.170859411358833E-1   8.345855027437210E-2  -8.777219653129578E-1   4.522449970245361E-1  
 3.370000000000000E7     6.785952448844910E-1  -7.176178097724915E-1  -1.071939021348953E-1   8.213102817535400E-2  -1.075759828090668E-1   8.204773068428040E-2  -8.689203858375549E-1   4.729136824607849E-1  
 3.400000000000000E7     6.431422829627991E-1  -7.513960599899292E-1  -9.782400727272034E-2   8.080732077360153E-2  -9.816649556159973E-2   8.084128797054291E-2  -8.580839633941650E-1   4.928007423877716E-1  
 3.430000000000000E7     6.063970327377319E-1  -7.829845547676086E-1  -8.906259387731552E-2   7.925851643085480E-2  -8.902875334024429E-2   7.879581302404404E-2  -8.481491804122925E-1   5.116866827011108E-1  
 3.460000000000000E7     5.668058991432190E-1  -8.126353025436401E-1  -8.069050312042236E-2   7.687898725271225E-2  -8.069881051778793E-2   7.691765576601028E-2  -8.388793468475342E-1   5.304102301597595E-1  
 3.490000000000000E7     5.263614058494568E-1  -8.406615257263184E-1  -7.268106937408447E-2   7.464577257633209E-2  -7.229975610971451E-2   7.391604036092758E-2  -8.269808292388916E-1   5.464133620262146E-1  
 3.520000000000000E7     4.841623604297638E-1  -8.668667674064636E-1  -6.499082595109940E-2   7.154690474271774E-2  -6.523082405328751E-2   7.119277864694595E-2  -8.176597356796265E-1   5.643424987792969E-1  
 3.550000000000000E7     4.384912848472595E-1  -8.903811573982239E-1  -5.813147872686386E-2   6.807184964418411E-2  -5.820249021053314E-2   6.820166110992432E-2  -8.077433109283447E-1   5.794056057929993E-1  
 3.580000000000000E7     3.921302258968353E-1  -9.125230908393860E-1  -5.122135579586029E-2   6.474824249744415E-2  -5.133843049407005E-2   6.470961123704910E-2  -7.960565090179443E-1   5.950381159782410E-1  
 3.610000000000000E7     3.443408012390137E-1  -9.318131208419800E-1  -4.523105546832085E-2   6.121227145195007E-2  -4.504391178488731E-2   6.109271571040154E-2  -7.867518663406372E-1   6.117024421691895E-1  
 3.640000000000000E7     2.944253087043762E-1  -9.492866992950440E-1  -3.916727378964424E-2   5.701772123575211E-2  -3.932285681366921E-2   5.718896165490151E-2  -7.759109735488892E-1   6.242346763610840E-1  
 3.670000000000000E7     2.446816712617874E-1  -9.644261598587036E-1  -3.380999714136124E-2   5.282440036535263E-2  -3.362847864627838E-2   5.286876484751701E-2  -7.662141323089600E-1   6.374767422676086E-1  
 3.700000000000000E7     1.906702369451523E-1  -9.768967032432556E-1  -2.863798663020134E-2   4.850100353360176E-2  -2.852758392691612E-2   4.854233190417290E-2  -7.545322179794312E-1   6.521517634391785E-1  
 3.730000000000000E7     1.371116638183594E-1  -9.856502413749695E-1  -2.358716353774071E-2   4.369672760367394E-2  -2.373389154672623E-2   4.377375543117523E-2  -7.430930733680725E-1   6.627317070960999E-1  
 3.760000000000000E7     8.248608559370041E-2  -9.925684928894043E-1  -1.925156824290752E-2   3.896768018603325E-2  -1.924053207039833E-2   3.910912200808525E-2  -7.329732179641724E-1   6.769816279411316E-1  
 3.790000000000000E7     2.635329216718674E-2  -9.958727359771729E-1  -1.553876232355833E-2   3.389908000826836E-2  -1.524322666227818E-2   3.379824012517929E-2  -7.219914793968201E-1   6.883065700531006E-1  
 3.820000000000000E7    -3.333703055977821E-2  -9.955734610557556E-1  -1.180096343159676E-2   2.862792089581490E-2  -1.176544930785894E-2   2.852585911750794E-2  -7.109079360961914E-1   6.981385350227356E-1  
 3.850000000000000E7    -9.185094386339188E-2  -9.911068677902222E-1  -8.616066537797451E-3   2.293956279754639E-2  -8.505139499902725E-3   2.303052321076393E-2  -7.018525004386902E-1   7.105471491813660E-1  
 3.880000000000000E7    -1.508233100175858E-1  -9.837301969528198E-1  -5.784912966191769E-3   1.725562848150730E-2  -5.800662562251091E-3   1.721524447202683E-2  -6.903662681579590E-1   7.217740416526794E-1  
 3.910000000000000E7    -2.121998369693756E-1  -9.726627469062805E-1  -3.488720627501607E-3   1.121138315647841E-2  -3.486095927655697E-3   1.129164919257164E-2  -6.797218322753906E-1   7.337388396263123E-1  
 3.940000000000000E7    -2.715134322643280E-1  -9.571144580841065E-1  -1.645930577069521E-3   5.133429076522589E-3  -1.623702002689242E-3   5.171180702745915E-3  -6.680949330329895E-1   7.420628666877747E-1  
 3.970000000000000E7    -3.337613642215729E-1  -9.392848610877991E-1  -1.676003885222599E-4  -1.134599442593753E-3  -1.363580522593111E-4  -1.169200055301189E-3  -6.562762260437012E-1   7.511706948280335E-1  
 4.000000000000000E7    -3.941949307918549E-1  -9.134393930435181E-1   6.887639174237847E-4  -7.597221527248621E-3   7.869920227676630E-4  -7.699300069361925E-3  -6.463636159896851E-1   7.615318298339844E-1  
 4.030000000000000E7    -4.549864828586578E-1  -8.856501579284668E-1   1.061297603882849E-3  -1.432534120976925E-2   1.055874628946185E-3  -1.425673440098763E-2  -6.354746222496033E-1   7.704936265945435E-1  
 4.060000000000000E7    -5.148255228996277E-1  -8.521276712417603E-1   1.007870188914239E-3  -2.109410427510738E-2   9.761070832610130E-4  -2.109877392649651E-2  -6.239340305328369E-1   7.786866426467896E-1  
 4.090000000000000E7    -5.729506015777588E-1  -8.126148581504822E-1   2.211830578744412E-4  -2.785802073776722E-2   3.040747542399913E-4  -2.787145599722862E-2  -6.133471727371216E-1   7.868635058403015E-1  
 4.120000000000000E7    -6.315778493881226E-1  -7.691159248352051E-1  -1.162008848041296E-3  -3.476370126008987E-2  -1.201490405946970E-3  -3.491107746958733E-2  -6.011697649955750E-1   7.953684926033020E-1  
 4.150000000000000E7    -6.865295171737671E-1  -7.189269065856934E-1  -3.266129409894347E-3  -4.187865182757378E-2  -3.220101352781057E-3  -4.186458140611649E-2  -5.896713733673096E-1   8.033009171485901E-1  
 4.180000000000000E7    -7.396899461746216E-1  -6.630781888961792E-1  -5.903982091695070E-3  -4.873833432793617E-2  -5.880824290215969E-3  -4.875471070408821E-2  -5.797436237335205E-1   8.103790879249573E-1  
 4.210000000000000E7    -7.898647189140320E-1  -6.027175188064575E-1  -9.372074156999588E-3  -5.578132346272469E-2  -9.370397776365280E-3  -5.589894577860832E-2  -5.680562257766724E-1   8.187465071678162E-1  
 4.240000000000000E7    -8.349277377128601E-1  -5.355925559997559E-1  -1.343314163386822E-2  -6.264821439981461E-2  -1.352452300488949E-2  -6.275366991758347E-2  -5.573618412017822E-1   8.262042403221130E-1  
 4.270000000000000E7    -8.769522309303284E-1  -4.612607955932617E-1  -1.869500242173672E-2  -6.941628456115723E-2  -1.853871345520020E-2  -6.928415596485138E-2  -5.448898673057556E-1   8.342791795730591E-1  
 4.300000000000000E7    -9.121769666671753E-1  -3.821745514869690E-1  -2.447669580578804E-2  -7.568328082561493E-2  -2.441313676536083E-2  -7.568061351776123E-2  -5.334637165069580E-1   8.412092328071594E-1  
 4.330000000000000E7    -9.446799159049988E-1  -2.992631196975708E-1  -3.112879768013954E-2  -8.170586824417114E-2  -3.113232925534248E-2  -8.207799494266510E-2  -5.218598842620850E-1   8.464990258216858E-1  
 4.360000000000000E7    -9.662016630172730E-1  -2.103985548019409E-1  -3.830444067716599E-2  -8.762641251087189E-2  -3.838275000452995E-2  -8.770272880792618E-2  -5.111495852470398E-1   8.527886271476746E-1  
 4.390000000000000E7    -9.801902770996094E-1  -1.147240549325943E-1  -4.673446714878082E-2  -9.258328378200531E-2  -4.728769138455391E-2  -9.226170182228088E-2  -4.992766082286835E-1   8.577679395675659E-1  
 4.420000000000000E7    -9.858438968658447E-1  -1.704716682434082E-2  -5.641710758209229E-2  -9.697511792182922E-2  -5.640676617622376E-2  -9.668469429016113E-2  -4.867858886718750E-1   8.629294037818909E-1  
 4.450000000000000E7    -9.808962345123291E-1   8.482459187507629E-2  -6.617943197488785E-2  -1.007186621427536E-1  -6.641420722007752E-2  -1.006071567535400E-1  -4.772163331508637E-1   8.686504960060120E-1  
 4.480000000000000E7    -9.642847776412964E-1   1.887251734733582E-1  -7.702861726284027E-2  -1.031593307852745E-1  -7.722768187522888E-2  -1.032065972685814E-1  -4.658275842666626E-1   8.731116056442261E-1  
 4.510000000000000E7    -9.367823600769043E-1   2.927521467208862E-1  -8.863690495491028E-2  -1.049291491508484E-1  -8.891850709915161E-2  -1.048260256648064E-1  -4.544240236282349E-1   8.784871101379395E-1  
 4.540000000000000E7    -8.966693282127380E-1   3.955364227294922E-1  -1.012235581874847E-1  -1.049474179744721E-1  -1.012044847011566E-1  -1.056072637438774E-1  -4.426406621932983E-1   8.830361962318420E-1  
 4.570000000000000E7    -8.428294062614441E-1   4.973128437995911E-1  -1.139919608831406E-1  -1.038539037108421E-1  -1.140678003430367E-1  -1.039602756500244E-1  -4.309064447879791E-1   8.865756988525391E-1  
 4.600000000000000E7    -7.776622772216797E-1   5.938292741775513E-1  -1.265610307455063E-1  -1.018670499324799E-1  -1.268406510353088E-1  -1.013211607933044E-1  -4.209346771240234E-1   8.904567956924439E-1  
 4.630000000000000E7    -6.962187886238098E-1   6.825971603393555E-1  -1.393737345933914E-1  -9.755224734544754E-2  -1.395519971847534E-1  -9.712528437376022E-2  -4.103458821773529E-1   8.935382366180420E-1  
 4.660000000000000E7    -6.026856303215027E-1   7.636954784393311E-1  -1.528118550777435E-1  -9.091589599847794E-2  -1.526685357093811E-1  -9.103929996490479E-2  -3.979957699775696E-1   8.976104855537415E-1  
 4.690000000000000E7    -5.000973939895630E-1   8.341761827468872E-1  -1.651670336723328E-1  -8.414576202630997E-2  -1.656481921672821E-1  -8.376639336347580E-2  -3.879642486572266E-1   9.008362889289856E-1  
 4.720000000000000E7    -3.862966299057007E-1   8.912250995635986E-1  -1.770630627870560E-1  -7.475578039884567E-2  -1.769521087408066E-1  -7.471729815006256E-2  -3.769014179706574E-1   9.033151865005493E-1  
 4.750000000000000E7    -2.640234231948853E-1   9.329009652137756E-1  -1.880896985530853E-1  -6.363043934106827E-2  -1.884615719318390E-1  -6.427016109228134E-2  -3.670062422752380E-1   9.066885709762573E-1  
 4.780000000000000E7    -1.371829658746719E-1   9.592250585556030E-1  -1.978612840175629E-1  -5.101135000586510E-2  -1.973969936370850E-1  -5.153152346611023E-2  -3.562240600585938E-1   9.081060886383057E-1  
 4.810000000000000E7    -6.750501692295075E-3   9.667928814888001E-1  -2.056935131549835E-1  -3.836305439472199E-2  -2.056637406349182E-1  -3.802766278386116E-2  -3.471969068050385E-1   9.116435647010803E-1  
 4.840000000000000E7     1.235183477401733E-1   9.567356705665588E-1  -2.122801095247269E-1  -2.372348681092262E-2  -2.122426778078079E-1  -2.377530746161938E-2  -3.372997045516968E-1   9.142145514488220E-1  
 4.870000000000000E7     2.501280605792999E-1   9.323590993881226E-1  -2.177204638719559E-1  -8.430134505033493E-3  -2.171065807342529E-1  -8.805687539279461E-3  -3.276197910308838E-1   9.168714880943298E-1  
 4.900000000000000E7     3.712344169616699E-1   8.894774317741394E-1  -2.204174548387528E-1   7.022662553936243E-3  -2.205290049314499E-1   6.948246620595455E-3  -3.186323046684265E-1   9.187674522399902E-1  
 4.930000000000000E7     4.847381412982941E-1   8.324902653694153E-1  -2.213468402624130E-1   2.262699604034424E-2  -2.214532196521759E-1   2.306212857365608E-2  -3.087357282638550E-1   9.223099350929260E-1  
 4.960000000000000E7     5.904389023780823E-1   7.632630467414856E-1  -2.214746326208115E-1   3.866631537675858E-2  -2.213605195283890E-1   3.830460831522942E-2  -2.995427548885346E-1   9.245110750198364E-1  
 4.990000000000000E7     6.823339462280273E-1   6.814376711845398E-1  -2.189689427614212E-1   5.405924469232559E-2  -2.191118150949478E-1   5.414855852723122E-2  -2.903513610363007E-1   9.267475008964539E-1  
 5.020000000000000E7     7.621055245399475E-1   5.894225239753723E-1  -2.147599756717682E-1   6.871169060468674E-2  -2.147733867168427E-1   6.852059811353684E-2  -2.815221548080444E-1   9.301596879959106E-1  
 5.050000000000000E7     8.288420438766480E-1   4.922334253787994E-1  -2.097875773906708E-1   8.269304782152176E-2  -2.101083546876907E-1   8.259972184896469E-2  -2.722472250461578E-1   9.337092041969299E-1  
 5.080000000000000E7     8.827351331710815E-1   3.892775774002075E-1  -2.031738311052322E-1   9.548231959342957E-2  -2.027434259653091E-1   9.558895230293274E-2  -2.628079652786255E-1   9.347081184387207E-1  
 5.110000000000000E7     9.215095639228821E-1   2.852281928062439E-1  -1.954523622989655E-1   1.074682027101517E-1  -1.959391236305237E-1   1.075827702879906E-1  -2.542057633399963E-1   9.383218288421631E-1  
 5.140000000000000E7     9.501371383666992E-1   1.794346570968628E-1  -1.874883472919464E-1   1.184342503547669E-1  -1.876396983861923E-1   1.188018098473549E-1  -2.440622001886368E-1   9.426912069320679E-1  
 5.170000000000000E7     9.636810421943665E-1   7.430382072925568E-2  -1.776068657636643E-1   1.283308565616608E-1  -1.781036257743835E-1   1.286930143833160E-1  -2.344885617494583E-1   9.435745477676392E-1  
 5.200000000000000E7     9.671856164932251E-1  -2.819079905748367E-2  -1.681397706270218E-1   1.365738511085510E-1  -1.684615910053253E-1   1.360130459070206E-1  -2.248949110507965E-1   9.461393356323242E-1  
 5.230000000000000E7     9.606490135192871E-1  -1.264771968126297E-1  -1.590151935815811E-1   1.440400481224060E-1  -1.589350253343582E-1   1.446603983640671E-1  -2.155310213565826E-1   9.497875571250916E-1  
 5.260000000000000E7     9.437309503555298E-1  -2.214109897613525E-1  -1.486641913652420E-1   1.509195566177368E-1  -1.487674266099930E-1   1.505743414163590E-1  -2.058273851871491E-1   9.525598287582398E-1  
 5.290000000000000E7     9.199833869934082E-1  -3.103410303592682E-1  -1.382956206798554E-1   1.556924283504486E-1  -1.383709013462067E-1   1.561395376920700E-1  -1.965463012456894E-1   9.547806978225708E-1  
 5.320000000000000E7     8.875798583030701E-1  -3.944407701492310E-1  -1.283169239759445E-1   1.601185053586960E-1  -1.287764608860016E-1   1.605736166238785E-1  -1.865088343620300E-1   9.580127000808716E-1  
 5.350000000000000E7     8.492777943611145E-1  -4.725223183631897E-1  -1.184195354580879E-1   1.637006551027298E-1  -1.186190918087959E-1   1.644735634326935E-1  -1.776238977909088E-1   9.607349038124085E-1  
 5.380000000000000E7     8.055163621902466E-1  -5.454081296920776E-1  -1.083584725856781E-1   1.667045056819916E-1  -1.077290996909142E-1   1.668746918439865E-1  -1.659183949232101E-1   9.625284671783447E-1  
 5.410000000000000E7     7.595260739326477E-1  -6.118911504745483E-1  -9.899569302797318E-2   1.688313037157059E-1  -9.873311221599579E-2   1.692291796207428E-1  -1.562247425317764E-1   9.649779796600342E-1  
 5.440000000000000E7     7.066634893417358E-1  -6.724358797073364E-1  -8.915303647518158E-2   1.701898425817490E-1  -8.928846567869186E-2   1.704071611166000E-1  -1.461662352085114E-1   9.672235846519470E-1  
 5.470000000000000E7     6.527060270309448E-1  -7.254455685615540E-1  -7.972130179405212E-2   1.704039573669434E-1  -8.009288460016251E-2   1.711092442274094E-1  -1.351103931665421E-1   9.691435098648071E-1  
 5.500000000000000E7     5.959894061088562E-1  -7.739287614822388E-1  -7.122608274221420E-2   1.711826920509338E-1  -7.096871733665466E-2   1.712895929813385E-1  -1.242065429687500E-1   9.724473357200623E-1  
 5.530000000000000E7     5.369303226470947E-1  -8.167263865470886E-1  -6.289177387952805E-2   1.707210838794708E-1  -6.281307339668274E-2   1.709976047277451E-1  -1.141533032059670E-1   9.734210371971130E-1  
 5.560000000000000E7     4.773081541061401E-1  -8.547100424766541E-1  -5.429932475090027E-2   1.703160405158997E-1  -5.456673353910446E-2   1.699279397726059E-1  -1.041707471013069E-1   9.756749272346497E-1  
 5.590000000000000E7     4.173312485218048E-1  -8.863551616668701E-1  -4.661712795495987E-2   1.687331795692444E-1  -4.663312435150147E-2   1.692385673522949E-1  -9.262880682945252E-2   9.771761894226074E-1  
 5.620000000000000E7     3.548109829425812E-1  -9.137281179428101E-1  -3.925154358148575E-2   1.675995886325836E-1  -3.874430060386658E-2   1.672951132059097E-1  -8.266990631818771E-2   9.791109561920166E-1  
 5.650000000000000E7     2.945847213268280E-1  -9.358913898468018E-1  -3.202676028013229E-2   1.651358455419540E-1  -3.195282071828842E-2   1.653278768062592E-1  -7.177630066871643E-2   9.798994660377502E-1  
 5.680000000000000E7     2.339538335800171E-1  -9.535906314849854E-1  -2.526762150228024E-2   1.634157299995422E-1  -2.521478198468685E-2   1.635213196277618E-1  -6.041669100522995E-2   9.805406332015991E-1  
 5.710000000000000E7     1.725061684846878E-1  -9.672997593879700E-1  -1.861337199807167E-2   1.610667854547501E-1  -1.882243528962135E-2   1.615575999021530E-1  -4.966328293085098E-2   9.823098182678223E-1  
 5.740000000000000E7     1.121038645505905E-1  -9.772249460220337E-1  -1.237232424318790E-2   1.586945503950119E-1  -1.249783299863339E-2   1.586158573627472E-1  -3.828796744346619E-2   9.832546710968018E-1  
 5.770000000000000E7     5.379293113946915E-2  -9.819533824920654E-1  -6.991609930992127E-3   1.557173728942871E-1  -6.873933598399162E-3   1.555325835943222E-1  -2.879716828465462E-2   9.837948083877564E-1  
 5.800000000000000E7    -5.070017650723457E-3  -9.842554330825806E-1  -1.064785406924784E-3   1.533300578594208E-1  -7.286982145160437E-4   1.532498002052307E-1  -1.608592644333839E-2   9.860213994979858E-1  
 5.830000000000000E7    -6.136959791183472E-2  -9.827144742012024E-1   3.895977977663279E-3   1.497902572154999E-1   3.980768378823996E-3   1.502844840288162E-1  -6.205474957823753E-3   9.862357974052429E-1  
 5.860000000000000E7    -1.167577132582665E-1  -9.798417687416077E-1   8.834313601255417E-3   1.467417031526566E-1   8.881269954144955E-3   1.471061259508133E-1   5.311740096658468E-3   9.858877658843994E-1  
 5.890000000000000E7    -1.718205213546753E-1  -9.710282087326050E-1   1.358222682029009E-2   1.436846703290939E-1   1.312070433050394E-2   1.436164379119873E-1   1.551939733326435E-2   9.859108328819275E-1  
 5.920000000000000E7    -2.251624614000320E-1  -9.612220525741577E-1   1.805928535759449E-2   1.402179896831513E-1   1.833009161055088E-2   1.404854953289032E-1   2.739840187132359E-2   9.872711896896362E-1  
 5.950000000000000E7    -2.759435176849365E-1  -9.474194049835205E-1   2.215302735567093E-2   1.366642117500305E-1   2.221080847084522E-2   1.368020027875900E-1   3.847245126962662E-2   9.855432510375977E-1  
 5.980000000000000E7    -3.265100419521332E-1  -9.325216412544251E-1   2.631419897079468E-2   1.332564800977707E-1   2.606312744319439E-2   1.332654207944870E-1   5.041614174842835E-2   9.858704209327698E-1  
 6.010000000000000E7    -3.731222450733185E-1  -9.129833579063416E-1   2.942278794944286E-2   1.299517005681992E-1   2.931795641779900E-2   1.296572536230087E-1   6.055284291505814E-2   9.864988923072815E-1  
 6.040000000000000E7    -4.208810627460480E-1  -8.939876556396484E-1   3.312441706657410E-2   1.264347136020660E-1   3.302838653326035E-2   1.265568733215332E-1   7.243447005748749E-2   9.864939451217651E-1  
 6.070000000000000E7    -4.642184972763062E-1  -8.734344244003296E-1   3.592818230390549E-2   1.229022070765495E-1   3.581052273511887E-2   1.226995959877968E-1   8.303675800561905E-2   9.852232933044434E-1  
 6.100000000000000E7    -5.065581202507019E-1  -8.485844135284424E-1   3.911055997014046E-2   1.188984736800194E-1   3.918347880244255E-2   1.191128343343735E-1   9.588022530078888E-2   9.847233891487122E-1  
 6.130000000000000E7    -5.484479069709778E-1  -8.242102861404419E-1   4.188840836286545E-2   1.156830415129662E-1   4.168431460857391E-2   1.158728897571564E-1   1.071325615048409E-1   9.843936562538147E-1  
 6.160000000000000E7    -5.874218940734863E-1  -7.965434789657593E-1   4.399776458740234E-2   1.118443235754967E-1   4.427845031023026E-2   1.120346337556839E-1   1.174092739820480E-1   9.822491407394409E-1  
 6.190000000000000E7    -6.247856020927429E-1  -7.673571109771729E-1   4.627179354429245E-2   1.082881242036820E-1   4.657207429409027E-2   1.081569418311119E-1   1.280814409255981E-1   9.804648756980896E-1  
 6.220000000000000E7    -6.599208712577820E-1  -7.380003929138184E-1   4.820053279399872E-2   1.045063212513924E-1   4.854828119277954E-2   1.048363298177719E-1   1.392953991889954E-1   9.808159470558167E-1  
 6.250000000000000E7    -6.941504478454590E-1  -7.061228752136231E-1   5.038080736994743E-2   1.010486558079720E-1   5.066650360822678E-2   1.011920347809792E-1   1.505688130855560E-1   9.794661998748779E-1  
 6.280000000000000E7    -7.256873846054077E-1  -6.735877990722656E-1   5.227962136268616E-2   9.761256724596024E-2   5.220532789826393E-2   9.765289723873138E-2   1.625882387161255E-1   9.781365394592285E-1  
 6.310000000000000E7    -7.571012973785400E-1  -6.391506791114807E-1   5.408872663974762E-2   9.415829181671143E-2   5.384425818920136E-2   9.402170777320862E-2   1.737260669469833E-1   9.763125181198120E-1  
 6.340000000000000E7    -7.844134569168091E-1  -6.044353246688843E-1   5.533625185489655E-2   9.055494517087936E-2   5.542336031794548E-2   9.037259966135025E-2   1.856598258018494E-1   9.748120903968811E-1  
 6.370000000000000E7    -8.108341693878174E-1  -5.695790052413940E-1   5.658635497093201E-2   8.690085262060165E-2   5.662206560373306E-2   8.693995326757431E-2   1.957731992006302E-1   9.720434546470642E-1  
 6.400000000000000E7    -8.354915380477905E-1  -5.324898362159729E-1   5.782105773687363E-2   8.336260914802551E-2   5.790268629789352E-2   8.333557099103928E-2   2.081571966409683E-1   9.705814719200134E-1  
 6.430000000000000E7    -8.590829372406006E-1  -4.949447214603424E-1   5.887765064835548E-2   8.027722686529160E-2   5.886197835206986E-2   7.996001839637756E-2   2.193348407745361E-1   9.678717255592346E-1  
 6.460000000000000E7    -8.800219297409058E-1  -4.579551219940186E-1   5.944307148456574E-2   7.671608030796051E-2   5.941656231880188E-2   7.667825371026993E-2   2.293264865875244E-1   9.650403857231140E-1  
 6.490000000000000E7    -8.986413478851318E-1  -4.209537208080292E-1   6.004242226481438E-2   7.336875051259995E-2   6.023011729121208E-2   7.352865487337112E-2   2.409177124500275E-1   9.636355042457581E-1  
 6.520000000000000E7    -9.157356619834900E-1  -3.819743394851685E-1   6.069986894726753E-2   7.025413215160370E-2   6.081154197454453E-2   7.010000944137573E-2   2.524414658546448E-1   9.612916707992554E-1  
 6.550000000000000E7    -9.310113191604614E-1  -3.434014916419983E-1   6.117552891373634E-2   6.690040975809097E-2   6.109720095992088E-2   6.687346100807190E-2   2.631745636463165E-1   9.566187262535095E-1  
 6.580000000000000E7    -9.452658891677856E-1  -3.031108677387238E-1   6.158890575170517E-2   6.344662606716156E-2   6.145873665809631E-2   6.354838609695435E-2   2.752676904201508E-1   9.551866650581360E-1  
 6.610000000000000E7    -9.561282992362976E-1  -2.624063193798065E-1   6.176274642348290E-2   6.029172986745834E-2   6.173189729452133E-2   6.004025042057037E-2   2.874405086040497E-1   9.503859281539917E-1  
 6.640000000000000E7    -9.679217338562012E-1  -2.241544723510742E-1   6.174603849649429E-2   5.739169567823410E-2   6.164472550153732E-2   5.748583376407623E-2   2.987071275711060E-1   9.476841688156128E-1  
 6.670000000000000E7    -9.757198095321655E-1  -1.831168234348297E-1   6.170860677957535E-2   5.426379665732384E-2   6.149500235915184E-2   5.438525974750519E-2   3.089579343795776E-1   9.450336694717407E-1  
 6.700000000000000E7    -9.824549555778503E-1  -1.426632553339005E-1   6.147024780511856E-2   5.130324885249138E-2   6.144019961357117E-2   5.124145001173019E-2   3.197644948959351E-1   9.403944015502930E-1  
 6.730000000000000E7    -9.876814484596252E-1  -1.024512872099876E-1   6.094812974333763E-2   4.844497516751289E-2   6.117164343595505E-2   4.820105805993080E-2   3.322447538375855E-1   9.376547932624817E-1  
 6.760000000000000E7    -9.912500977516174E-1  -6.333681195974350E-2   6.082136556506157E-2   4.545930400490761E-2   6.071272492408752E-2   4.536146298050880E-2   3.434363603591919E-1   9.331693053245544E-1  
 6.790000000000000E7    -9.930000305175781E-1  -2.281116694211960E-2   6.003768369555473E-2   4.276006668806076E-2   6.023120135068893E-2   4.265565425157547E-2   3.536894321441650E-1   9.289701581001282E-1  
 6.820000000000000E7    -9.932392239570618E-1   1.717221364378929E-2   5.953633412718773E-2   3.992216289043427E-2   5.949980765581131E-2   3.997664526104927E-2   3.649754226207733E-1   9.252814054489136E-1  
 6.850000000000000E7    -9.924746751785278E-1   5.687622353434563E-2   5.884457379579544E-2   3.740294277667999E-2   5.884762480854988E-2   3.748028352856636E-2   3.754779994487763E-1   9.214387536048889E-1  
 6.880000000000000E7    -9.895087480545044E-1   9.614697843790054E-2   5.811423435807228E-2   3.478097915649414E-2   5.802032724022865E-2   3.461109474301338E-2   3.873771727085114E-1   9.161265492439270E-1  
 6.910000000000000E7    -9.843083024024963E-1   1.349764168262482E-1   5.726518481969833E-2   3.225107491016388E-2   5.723664537072182E-2   3.225372359156609E-2   3.990371525287628E-1   9.118483066558838E-1  
 6.940000000000000E7    -9.793292284011841E-1   1.731187552213669E-1   5.616669729351997E-2   2.994846366345882E-2   5.622593313455582E-2   2.991981618106365E-2   4.089967310428619E-1   9.073258638381958E-1  
 6.970000000000000E7    -9.711300730705261E-1   2.123239487409592E-1   5.506925657391548E-2   2.747576870024204E-2   5.521709099411964E-2   2.740830183029175E-2   4.207715392112732E-1   9.018886089324951E-1  
 7.000000000000000E7    -9.628230929374695E-1   2.505527734756470E-1   5.393308773636818E-2   2.528123185038567E-2   5.399880185723305E-2   2.509900368750095E-2   4.314443767070770E-1   8.978410363197327E-1  
