#  HZ   S   RI   R     50.00 
! Rohde & Schwarz ZVT8 8Ports - Version 4.11 - 1300.0000k08 SN: 100242
! Date: 2026-07-31 14:14:40
! Measurements: S11 S21 S12 S22 
! 
 1.000000000000000E7    -4.083127379417419E-1   9.092994928359985E-1   5.298106372356415E-2   5.339646711945534E-2   5.284257233142853E-2   5.348201096057892E-2  -9.154311418533325E-1   3.941213190555573E-1  
 1.030000000000000E7    -3.765431940555573E-1   9.219155311584473E-1   5.638139322400093E-2   5.394201725721359E-2   5.630052089691162E-2   5.396834388375282E-2  -9.088883996009827E-1   4.076290726661682E-1  
 1.060000000000000E7    -3.411155939102173E-1   9.348211884498596E-1   6.007488071918488E-2   5.475141480565071E-2   6.002509221434593E-2   5.474117770791054E-2  -9.045484662055969E-1   4.202736020088196E-1  
 1.090000000000000E7    -3.097990751266480E-1   9.452163577079773E-1   6.367527693510056E-2   5.510620772838593E-2   6.365616619586945E-2   5.519885569810867E-2  -8.975780606269836E-1   4.334252774715424E-1  
 1.120000000000000E7    -2.748514115810394E-1   9.550344347953796E-1   6.768777966499329E-2   5.602049082517624E-2   6.732846796512604E-2   5.591338500380516E-2  -8.912813067436218E-1   4.460047483444214E-1  
 1.150000000000000E7    -2.402754426002502E-1   9.652529954910278E-1   7.128272205591202E-2   5.599278584122658E-2   7.136853784322739E-2   5.612737312912941E-2  -8.834455609321594E-1   4.567157030105591E-1  
 1.180000000000000E7    -2.059855461120606E-1   9.707874059677124E-1   7.527971267700195E-2   5.637775734066963E-2   7.529280334711075E-2   5.640502646565437E-2  -8.781293034553528E-1   4.689081013202667E-1  
 1.210000000000000E7    -1.719191074371338E-1   9.776888489723206E-1   7.965528219938278E-2   5.675134062767029E-2   7.966422289609909E-2   5.661543458700180E-2  -8.692229986190796E-1   4.824093878269196E-1  
 1.240000000000000E7    -1.369212865829468E-1   9.818544387817383E-1   8.392678201198578E-2   5.670372769236565E-2   8.401492238044739E-2   5.641994625329971E-2  -8.611199855804443E-1   4.940613508224487E-1  
 1.270000000000000E7    -1.021505296230316E-1   9.860262870788574E-1   8.905778080224991E-2   5.628724023699760E-2   8.885563910007477E-2   5.608831718564034E-2  -8.531066775321960E-1   5.096323490142822E-1  
 1.300000000000000E7    -6.745225936174393E-2   9.887074828147888E-1   9.332318603992462E-2   5.610301345586777E-2   9.348462522029877E-2   5.609396845102310E-2  -8.447422981262207E-1   5.216535329818726E-1  
 1.330000000000000E7    -3.159039467573166E-2   9.911175370216370E-1   9.856466203927994E-2   5.560037121176720E-2   9.855929762125015E-2   5.524689704179764E-2  -8.355316519737244E-1   5.356619954109192E-1  
 1.360000000000000E7     5.076106637716293E-3   9.912351369857788E-1   1.035782098770142E-1   5.524834990501404E-2   1.038857847452164E-1   5.456795543432236E-2  -8.261396884918213E-1   5.476298332214356E-1  
 1.390000000000000E7     3.904427587985992E-2   9.893090724945068E-1   1.091095879673958E-1   5.399940162897110E-2   1.089415550231934E-1   5.431560054421425E-2  -8.167638778686523E-1   5.612614154815674E-1  
 1.420000000000000E7     7.528407871723175E-2   9.870705008506775E-1   1.141964569687843E-1   5.321361124515533E-2   1.143405884504318E-1   5.328325554728508E-2  -8.082221746444702E-1   5.745077729225159E-1  
 1.450000000000000E7     1.106038168072701E-1   9.814445972442627E-1   1.201507300138474E-1   5.184135213494301E-2   1.201732084155083E-1   5.166712775826454E-2  -7.945923805236816E-1   5.892809033393860E-1  
 1.480000000000000E7     1.471911221742630E-1   9.771338105201721E-1   1.260521709918976E-1   5.022680759429932E-2   1.262361407279968E-1   5.062397569417954E-2  -7.847567796707153E-1   6.025836467742920E-1  
 1.510000000000000E7     1.819410473108292E-1   9.696531891822815E-1   1.319797337055206E-1   4.840697720646858E-2   1.319938451051712E-1   4.843768849968910E-2  -7.704641222953796E-1   6.166680455207825E-1  
 1.540000000000000E7     2.164805084466934E-1   9.619114995002747E-1   1.384251564741135E-1   4.733658581972122E-2   1.385543197393417E-1   4.675582051277161E-2  -7.611026763916016E-1   6.296632885932922E-1  
 1.570000000000000E7     2.522216439247131E-1   9.536826610565186E-1   1.450524330139160E-1   4.460235685110092E-2   1.453260332345963E-1   4.446094855666161E-2  -7.461250424385071E-1   6.448510885238648E-1  
 1.600000000000000E7     2.877364456653595E-1   9.419775605201721E-1   1.518077999353409E-1   4.185032844543457E-2   1.523550301790237E-1   4.173865169286728E-2  -7.327414155006409E-1   6.573944091796875E-1  
 1.630000000000000E7     3.211844563484192E-1   9.296182990074158E-1   1.597554236650467E-1   3.847326338291168E-2   1.593790352344513E-1   3.876753896474838E-2  -7.177837491035461E-1   6.738870143890381E-1  
 1.660000000000000E7     3.553475141525269E-1   9.148495793342590E-1   1.671483665704727E-1   3.510945290327072E-2   1.671024411916733E-1   3.453458473086357E-2  -7.008970379829407E-1   6.885124444961548E-1  
 1.690000000000000E7     3.886869847774506E-1   9.000409245491028E-1   1.749392747879028E-1   3.181616961956024E-2   1.750741153955460E-1   3.147577494382858E-2  -6.849067211151123E-1   7.021782994270325E-1  
 1.720000000000000E7     4.240004718303680E-1   8.839301466941834E-1   1.824562102556229E-1   2.676067315042019E-2   1.829935014247894E-1   2.707900479435921E-2  -6.666424870491028E-1   7.171224951744080E-1  
 1.750000000000000E7     4.522389471530914E-1   8.680327534675598E-1   1.919628977775574E-1   2.327770739793778E-2   1.922513544559479E-1   2.270990610122681E-2  -6.486629247665405E-1   7.336549162864685E-1  
 1.780000000000000E7     4.871445298194885E-1   8.451087474822998E-1   1.996802538633347E-1   1.709591969847679E-2   2.005088776350021E-1   1.746108010411263E-2  -6.279329061508179E-1   7.465134263038635E-1  
 1.810000000000000E7     5.171650648117065E-1   8.257490396499634E-1   2.104478627443314E-1   1.121534034609795E-2   2.093639969825745E-1   1.052050478756428E-2  -6.057530641555786E-1   7.648577690124512E-1  
 1.840000000000000E7     5.492042303085327E-1   8.034301996231079E-1   2.201223075389862E-1   2.953527495265007E-3   2.195040583610535E-1   3.421148285269737E-3  -5.816416740417481E-1   7.795849442481995E-1  
 1.870000000000000E7     5.772029161453247E-1   7.799351811408997E-1   2.301016449928284E-1  -3.820050507783890E-3   2.295242100954056E-1  -4.242319613695145E-3  -5.563700199127197E-1   7.940447330474854E-1  
 1.900000000000000E7     6.058579087257385E-1   7.547381520271301E-1   2.404578030109406E-1  -1.228975877165794E-2   2.403606325387955E-1  -1.282763201743364E-2  -5.287004709243774E-1   8.088178634643555E-1  
 1.930000000000000E7     6.340097188949585E-1   7.275136709213257E-1   2.510927319526672E-1  -2.342082187533379E-2   2.518035173416138E-1  -2.276096493005753E-2  -4.983443617820740E-1   8.255952000617981E-1  
 1.960000000000000E7     6.608901023864746E-1   6.981731653213501E-1   2.623613476753235E-1  -3.448745235800743E-2   2.632892727851868E-1  -3.415478765964508E-2  -4.682464897632599E-1   8.400050997734070E-1  
 1.990000000000000E7     6.844902634620667E-1   6.682929992675781E-1   2.743066251277924E-1  -4.739475995302200E-2   2.750317454338074E-1  -4.752099141478539E-2  -4.292650818824768E-1   8.553256988525391E-1  
 2.020000000000000E7     7.081543803215027E-1   6.362863183021545E-1   2.871165871620178E-1  -6.182551756501198E-2   2.867018878459930E-1  -6.160575896501541E-2  -3.922414183616638E-1   8.668518662452698E-1  
 2.050000000000000E7     7.317895293235779E-1   6.028343439102173E-1   2.998306453227997E-1  -7.789611816406250E-2   2.983036637306213E-1  -7.864198088645935E-2  -3.494955897331238E-1   8.798109292984009E-1  
 2.080000000000000E7     7.510892748832703E-1   5.667182803153992E-1   3.128631711006165E-1  -9.764224290847778E-2   3.132107257843018E-1  -9.760597348213196E-2  -3.012508153915405E-1   8.923341035842896E-1  
 2.110000000000000E7     7.697562575340271E-1   5.304312705993652E-1   3.259629309177399E-1  -1.207027509808540E-1   3.262206614017487E-1  -1.207387894392014E-1  -2.478154748678207E-1   9.002583026885986E-1  
 2.140000000000000E7     7.845928072929382E-1   4.930940866470337E-1   3.385793566703796E-1  -1.466365605592728E-1   3.381031751632690E-1  -1.454830020666122E-1  -1.899557709693909E-1   9.058887958526611E-1  
 2.170000000000000E7     7.957206368446350E-1   4.545054435729981E-1   3.509054481983185E-1  -1.750660836696625E-1   3.514444231987000E-1  -1.743668317794800E-1  -1.248542815446854E-1   9.069618582725525E-1  
 2.200000000000000E7     8.068379759788513E-1   4.116973578929901E-1   3.614800870418549E-1  -2.098993211984634E-1   3.619844019412994E-1  -2.095565795898438E-1  -5.124524980783463E-2   9.010212421417236E-1  
 2.230000000000000E7     8.104354143142700E-1   3.704228997230530E-1   3.704808354377747E-1  -2.490054666996002E-1   3.706392645835877E-1  -2.484139353036881E-1   2.797924727201462E-2   8.881524801254273E-1  
 2.260000000000000E7     8.117166161537170E-1   3.273924887180328E-1   3.758713603019714E-1  -2.944955825805664E-1   3.777889013290405E-1  -2.954649627208710E-1   1.163380071520805E-1   8.630303740501404E-1  
 2.290000000000000E7     8.067784309387207E-1   2.848383784294128E-1   3.763960301876068E-1  -3.469905257225037E-1   3.774912357330322E-1  -3.470900654792786E-1   2.131795287132263E-1   8.231029510498047E-1  
 2.320000000000000E7     7.947536706924439E-1   2.452178001403809E-1   3.677171170711517E-1  -4.073280692100525E-1   3.670589029788971E-1  -4.082778394222260E-1   3.152898550033569E-1   7.650768160820007E-1  
 2.350000000000000E7     7.772101759910584E-1   2.069620490074158E-1   3.471262156963348E-1  -4.744801521301270E-1   3.478954136371613E-1  -4.738201200962067E-1   4.192736744880676E-1   6.797825098037720E-1  
 2.380000000000000E7     7.524455189704895E-1   1.746580451726914E-1   3.141754567623138E-1  -5.441434979438782E-1   3.136862814426422E-1  -5.448316931724548E-1   5.194399356842041E-1   5.634005069732666E-1  
 2.410000000000000E7     7.233302593231201E-1   1.500485986471176E-1   2.589053511619568E-1  -6.161027550697327E-1   2.582124769687653E-1  -6.150564551353455E-1   6.026017069816589E-1   4.120966792106628E-1  
 2.440000000000000E7     6.909289956092835E-1   1.395196318626404E-1   1.808020919561386E-1  -6.796082258224487E-1   1.804273724555969E-1  -6.818054914474487E-1   6.550586223602295E-1   2.261476665735245E-1  
 2.470000000000000E7     6.603246927261353E-1   1.405476629734039E-1   8.120347559452057E-2  -7.269614934921265E-1   8.196917176246643E-2  -7.281272411346436E-1   6.623814702033997E-1   1.200651004910469E-2  
 2.500000000000000E7     6.355960965156555E-1   1.537647694349289E-1  -3.489451110363007E-2  -7.498386502265930E-1  -3.721293807029724E-2  -7.500327825546265E-1   6.063936948776245E-1  -2.072701603174210E-1  
 2.530000000000000E7     6.242648363113403E-1   1.793612390756607E-1  -1.598877608776093E-1  -7.384536266326904E-1  -1.575117707252502E-1  -7.380667328834534E-1   4.860665798187256E-1  -4.113223254680634E-1  
 2.560000000000000E7     6.292026042938232E-1   2.052208781242371E-1  -2.722232341766357E-1  -6.932439804077148E-1  -2.712020277976990E-1  -6.929125189781189E-1   3.131480216979981E-1  -5.712619423866272E-1  
 2.590000000000000E7     6.525237560272217E-1   2.261836230754852E-1  -3.624447286128998E-1  -6.182773113250732E-1  -3.642596006393433E-1  -6.184859871864319E-1   1.133509129285812E-1  -6.705693602561951E-1  
 2.620000000000000E7     6.867337226867676E-1   2.380390167236328E-1  -4.289497435092926E-1  -5.306544899940491E-1  -4.279812872409821E-1  -5.305495262145996E-1  -9.288020431995392E-2  -7.112885713577271E-1  
 2.650000000000000E7     7.245513796806335E-1   2.386206537485123E-1  -4.655904769897461E-1  -4.395489692687988E-1  -4.669767320156097E-1  -4.402980208396912E-1  -2.839190065860748E-1  -7.004077434539795E-1  
 2.680000000000000E7     7.643312215805054E-1   2.263112366199493E-1  -4.797687232494354E-1  -3.532972037792206E-1  -4.814051389694214E-1  -3.546949625015259E-1  -4.459275305271149E-1  -6.525507569313049E-1  
 2.710000000000000E7     8.027706146240234E-1   2.027559578418732E-1  -4.800696671009064E-1  -2.775382101535797E-1  -4.802241623401642E-1  -2.756212055683136E-1  -5.790711641311646E-1  -5.851950049400330E-1  
 2.740000000000000E7     8.370845913887024E-1   1.741482764482498E-1  -4.662034511566162E-1  -2.104725837707520E-1  -4.685413241386414E-1  -2.115547060966492E-1  -6.841246485710144E-1  -5.042943358421326E-1  
 2.770000000000000E7     8.655955791473389E-1   1.388880908489227E-1  -4.468900561332703E-1  -1.562851071357727E-1  -4.497781097888947E-1  -1.567252129316330E-1  -7.649112939834595E-1  -4.225038588047028E-1  
 2.800000000000000E7     8.896976709365845E-1   1.004748940467835E-1  -4.237762987613678E-1  -1.100314855575562E-1  -4.247303903102875E-1  -1.125180944800377E-1  -8.244890570640564E-1  -3.396803140640259E-1  
 2.830000000000000E7     9.078662395477295E-1   5.710944533348084E-2  -3.991902470588684E-1  -7.261119782924652E-2  -3.999772667884827E-1  -7.279804348945618E-2  -8.688890337944031E-1  -2.622384727001190E-1  
 2.860000000000000E7     9.225490093231201E-1   1.361873652786017E-2  -3.742004930973053E-1  -4.259690269827843E-2  -3.754571974277496E-1  -4.299715161323547E-2  -9.020052552223206E-1  -1.896867007017136E-1  
 2.890000000000000E7     9.326213598251343E-1  -3.029871545732021E-2  -3.501846492290497E-1  -1.821791380643845E-2  -3.498650491237640E-1  -1.828060671687126E-2  -9.236332178115845E-1  -1.212306991219521E-1  
 2.920000000000000E7     9.392268061637878E-1  -7.501055300235748E-2  -3.255833983421326E-1   2.142382320016623E-3  -3.258504867553711E-1   2.651088871061802E-3  -9.392917752265930E-1  -5.792301893234253E-2  
 2.950000000000000E7     9.422498941421509E-1  -1.186049282550812E-1  -3.037802577018738E-1   1.779029518365860E-2  -3.039514720439911E-1   1.791972294449806E-2  -9.494932889938355E-1  -1.328686252236366E-3  
 2.980000000000000E7     9.418644309043884E-1  -1.629879176616669E-1  -2.821144759654999E-1   3.140451386570931E-2  -2.831303179264069E-1   3.106721490621567E-2  -9.541708230972290E-1   5.150253698229790E-2  
 3.010000000000000E7     9.389408230781555E-1  -2.073888629674912E-1  -2.627765834331513E-1   4.222867637872696E-2  -2.626899480819702E-1   4.140278324484825E-2  -9.556081295013428E-1   9.963184595108032E-2  
 3.040000000000000E7     9.336351752281189E-1  -2.520837187767029E-1  -2.436616718769074E-1   5.022180452942848E-2  -2.448084801435471E-1   5.073241516947746E-2  -9.545060396194458E-1   1.450173556804657E-1  
 3.070000000000000E7     9.231736063957214E-1  -2.951278090476990E-1  -2.259489297866821E-1   5.790542438626289E-2  -2.262078672647476E-1   5.749447271227837E-2  -9.519252777099609E-1   1.869066059589386E-1  
 3.100000000000000E7     9.123505353927612E-1  -3.377764225006104E-1  -2.096979469060898E-1   6.293746829032898E-2  -2.097118049860001E-1   6.294654309749603E-2  -9.477514028549194E-1   2.244864404201508E-1  
 3.130000000000000E7     8.999074697494507E-1  -3.791949152946472E-1  -1.945623159408569E-1   6.722717732191086E-2  -1.947964429855347E-1   6.715656071901321E-2  -9.411503076553345E-1   2.604825496673584E-1  
 3.160000000000000E7     8.833037018775940E-1  -4.205015897750855E-1  -1.799732744693756E-1   6.979726254940033E-2  -1.804856657981873E-1   7.027967274188995E-2  -9.348410964012146E-1   2.919974923133850E-1  
 3.190000000000000E7     8.656586408615112E-1  -4.600024819374085E-1  -1.663867980241776E-1   7.226507365703583E-2  -1.663554012775421E-1   7.225783169269562E-2  -9.264636635780335E-1   3.231449127197266E-1  
 3.220000000000000E7     8.473488688468933E-1  -4.999710917472839E-1  -1.536385267972946E-1   7.372172176837921E-2  -1.537252366542816E-1   7.381311058998108E-2  -9.182602763175964E-1   3.511595726013184E-1  
 3.250000000000000E7     8.252288699150085E-1  -5.375052690505981E-1  -1.419193893671036E-1   7.419390231370926E-2  -1.420120447874069E-1   7.469251751899719E-2  -9.100694656372070E-1   3.779854178428650E-1  
 3.280000000000000E7     8.010653853416443E-1  -5.741184949874878E-1  -1.307164728641510E-1   7.420504093170166E-2  -1.305492967367172E-1   7.448276877403259E-2  -9.005070328712463E-1   4.037863612174988E-1  
 3.310000000000000E7     7.759348154067993E-1  -6.093806028366089E-1  -1.199552342295647E-1   7.425593584775925E-2  -1.202682256698608E-1   7.453047484159470E-2  -8.910927176475525E-1   4.279665052890778E-1  
 3.340000000000000E7     7.495229840278626E-1  -6.450710892677307E-1  -1.102957874536514E-1   7.371638715267181E-2  -1.100126877427101E-1   7.369785755872726E-2  -8.801179528236389E-1   4.507690072059631E-1  
 3.370000000000000E7     7.209684252738953E-1  -6.775993704795837E-1  -1.006666272878647E-1   7.228801399469376E-2  -1.009789928793907E-1   7.220206409692764E-2  -8.710623979568481E-1   4.720411598682404E-1  
 3.400000000000000E7     6.902924776077271E-1  -7.101688981056213E-1  -9.179583191871643E-2   7.089694589376450E-2  -9.206585586071014E-2   7.095021009445190E-2  -8.600012063980103E-1   4.921493232250214E-1  
 3.430000000000000E7     6.589682102203369E-1  -7.417426109313965E-1  -8.359183371067047E-2   6.933362036943436E-2  -8.360185474157333E-2   6.894911825656891E-2  -8.498610258102417E-1   5.112190246582031E-1  
 3.460000000000000E7     6.248710155487061E-1  -7.707158923149109E-1  -7.568485289812088E-2   6.702917814254761E-2  -7.580916583538055E-2   6.697796285152435E-2  -8.403013944625855E-1   5.294570922851563E-1  
 3.490000000000000E7     5.896880626678467E-1  -7.986317873001099E-1  -6.835453957319260E-2   6.481762975454330E-2  -6.804054975509644E-2   6.437592208385468E-2  -8.282878994941711E-1   5.458005070686340E-1  
 3.520000000000000E7     5.541456341743469E-1  -8.254761099815369E-1  -6.129699200391769E-2   6.183728575706482E-2  -6.138388440012932E-2   6.162188202142716E-2  -8.189510703086853E-1   5.639708042144775E-1  
 3.550000000000000E7     5.150186419487000E-1  -8.494175076484680E-1  -5.480751767754555E-2   5.873057246208191E-2  -5.484146624803543E-2   5.877317488193512E-2  -8.091298937797546E-1   5.790597796440125E-1  
 3.580000000000000E7     4.760506749153137E-1  -8.727480769157410E-1  -4.855190962553024E-2   5.562691017985344E-2  -4.863367974758148E-2   5.557020753622055E-2  -7.973234653472900E-1   5.947649478912354E-1  
 3.610000000000000E7     4.354152381420136E-1  -8.944622278213501E-1  -4.296731576323509E-2   5.234730616211891E-2  -4.277130961418152E-2   5.228848010301590E-2  -7.875995039939880E-1   6.114925146102905E-1  
 3.640000000000000E7     3.935866951942444E-1  -9.139885902404785E-1  -3.742696344852448E-2   4.858324676752091E-2  -3.758043050765991E-2   4.862060025334358E-2  -7.764957547187805E-1   6.240190863609314E-1  
 3.670000000000000E7     3.516613543033600E-1  -9.317590594291687E-1  -3.245917335152626E-2   4.497411102056503E-2  -3.237601742148399E-2   4.487610980868340E-2  -7.665870189666748E-1   6.373287439346314E-1  
 3.700000000000000E7     3.065876364707947E-1  -9.478847384452820E-1  -2.760936692357063E-2   4.099417105317116E-2  -2.760969847440720E-2   4.110746085643768E-2  -7.551055550575256E-1   6.517269015312195E-1  
 3.730000000000000E7     2.617118358612061E-1  -9.613095521926880E-1  -2.305625379085541E-2   3.682812675833702E-2  -2.314883843064308E-2   3.700905293226242E-2  -7.434406876564026E-1   6.627875566482544E-1  
 3.760000000000000E7     2.165843397378922E-1  -9.727051854133606E-1  -1.907957345247269E-2   3.276617825031281E-2  -1.913118734955788E-2   3.277994692325592E-2  -7.332540750503540E-1   6.767516136169434E-1  
 3.790000000000000E7     1.699822843074799E-1  -9.820874333381653E-1  -1.538965199142695E-2   2.829418331384659E-2  -1.536401454359293E-2   2.821273729205132E-2  -7.222679853439331E-1   6.882016658782959E-1  
 3.820000000000000E7     1.202579364180565E-1  -9.898914694786072E-1  -1.213841792196035E-2   2.380108647048473E-2  -1.195612363517284E-2   2.371995337307453E-2  -7.109783887863159E-1   6.986626386642456E-1  
 3.850000000000000E7     7.140546292066574E-2  -9.938209652900696E-1  -8.996340446174145E-3   1.905504614114761E-2  -8.913839235901833E-3   1.899928040802479E-2  -7.019454836845398E-1   7.104863524436951E-1  
 3.880000000000000E7     2.271725609898567E-2  -9.955452084541321E-1  -6.221040152013302E-3   1.425384171307087E-2  -6.216749548912048E-3   1.417222060263157E-2  -6.905177831649780E-1   7.219017148017883E-1  
 3.910000000000000E7    -2.804148755967617E-2  -9.963709712028503E-1  -3.842046950012445E-3   9.304811246693134E-3  -3.831601236015558E-3   9.253562428057194E-3  -6.797595024108887E-1   7.333112955093384E-1  
 3.940000000000000E7    -7.740589976310730E-2  -9.929109811782837E-1  -1.791725284419954E-3   4.153128713369370E-3  -1.828792621381581E-3   4.194300156086683E-3  -6.680215597152710E-1   7.420089840888977E-1  
 3.970000000000000E7    -1.285288333892822E-1  -9.896485805511475E-1  -8.627523493487388E-5  -1.031704130582511E-3  -1.818087548599578E-5  -1.071191625669599E-3  -6.561064124107361E-1   7.509600520133972E-1  
 4.000000000000000E7    -1.800142526626587E-1  -9.799461960792542E-1   1.364997355267406E-3  -6.338149774819613E-3   1.330741913989186E-3  -6.186719052493572E-3  -6.462154984474182E-1   7.614514827728272E-1  
 4.030000000000000E7    -2.308194637298584E-1  -9.698406457901001E-1   2.369472291320562E-3  -1.172583270817995E-2   2.363093663007021E-3  -1.175816450268030E-2  -6.357166171073914E-1   7.707064151763916E-1  
 4.060000000000000E7    -2.815103232860565E-1  -9.563316702842712E-1   3.170418320223689E-3  -1.716086268424988E-2   3.016603179275990E-3  -1.723069883882999E-2  -6.240057349205017E-1   7.787029147148132E-1  
 4.090000000000000E7    -3.324664533138275E-1  -9.385215044021606E-1   3.329744329676032E-3  -2.261718176305294E-2   3.238976234570146E-3  -2.267477102577686E-2  -6.137871146202087E-1   7.865797281265259E-1  
 4.120000000000000E7    -3.836416006088257E-1  -9.199734330177307E-1   3.319335402920842E-3  -2.818729169666767E-2   3.176407190039754E-3  -2.834406495094299E-2  -6.012951731681824E-1   7.955496907234192E-1  
 4.150000000000000E7    -4.335905015468597E-1  -8.969837427139282E-1   2.835516817867756E-3  -3.408134356141090E-2   2.729019382968545E-3  -3.398809581995010E-2  -5.900775194168091E-1   8.037021756172180E-1  
 4.180000000000000E7    -4.832282066345215E-1  -8.703625202178955E-1   1.814072718843818E-3  -3.977995365858078E-2   1.859313691966236E-3  -3.970996662974358E-2  -5.800386071205139E-1   8.107127547264099E-1  
 4.210000000000000E7    -5.320054292678833E-1  -8.417584896087647E-1   5.476325168274343E-4  -4.550926759839058E-2   5.743369692936540E-4  -4.554565995931625E-2  -5.683218240737915E-1   8.192073106765747E-1  
 4.240000000000000E7    -5.786796808242798E-1  -8.089594244956970E-1  -1.108174910768867E-3  -5.129396915435791E-2  -1.142526394687593E-3  -5.134648829698563E-2  -5.576328635215759E-1   8.269566297531128E-1  
 4.270000000000000E7    -6.260848641395569E-1  -7.718753218650818E-1  -3.432417986914516E-3  -5.714220926165581E-2  -3.350679995492101E-3  -5.698756873607636E-2  -5.457571148872376E-1   8.345687985420227E-1  
 4.300000000000000E7    -6.704156398773193E-1  -7.316585183143616E-1  -6.084218621253967E-3  -6.278840452432632E-2  -5.971731618046761E-3  -6.278156489133835E-2  -5.343636274337769E-1   8.421044945716858E-1  
 4.330000000000000E7    -7.152146697044373E-1  -6.918095350265503E-1  -9.103571996092796E-3  -6.837570667266846E-2  -9.009702131152153E-3  -6.852576136589050E-2  -5.228936672210693E-1   8.475362658500671E-1  
 4.360000000000000E7    -7.547780871391296E-1  -6.452354788780212E-1  -1.230826973915100E-2  -7.403565943241119E-2  -1.235383003950119E-2  -7.408653944730759E-2  -5.117220878601074E-1   8.539609909057617E-1  
 4.390000000000000E7    -7.944369912147522E-1  -5.940103530883789E-1  -1.660364307463169E-2  -7.963868975639343E-2  -1.706058159470558E-2  -7.963366806507111E-2  -5.002921223640442E-1   8.593895435333252E-1  
 4.420000000000000E7    -8.300616741180420E-1  -5.418251752853394E-1  -2.137675881385803E-2  -8.489263802766800E-2  -2.139010280370712E-2  -8.480330556631088E-2  -4.879501760005951E-1   8.650531172752380E-1  
 4.450000000000000E7    -8.634154796600342E-1  -4.848074316978455E-1  -2.620419487357140E-2  -9.023837745189667E-2  -2.634843625128269E-2  -9.022561460733414E-2  -4.777800142765045E-1   8.711839914321899E-1  
 4.480000000000000E7    -8.936155438423157E-1  -4.246531128883362E-1  -3.192384541034699E-2  -9.518898278474808E-2  -3.203304484486580E-2  -9.525351971387863E-2  -4.664327800273895E-1   8.761391043663025E-1  
 4.510000000000000E7    -9.202727079391480E-1  -3.624806106090546E-1  -3.814842179417610E-2  -9.996024519205093E-2  -3.821844235062599E-2  -1.000972911715508E-1  -4.550057053565979E-1   8.820345401763916E-1  
 4.540000000000000E7    -9.420064687728882E-1  -2.970804870128632E-1  -4.509074240922928E-2  -1.043918505311012E-1  -4.483180865645409E-2  -1.048345416784287E-1  -4.430509805679321E-1   8.875759243965149E-1  
 4.570000000000000E7    -9.605084657669067E-1  -2.283701151609421E-1  -5.245481431484222E-2  -1.086919903755188E-1  -5.248250812292099E-2  -1.089135482907295E-1  -4.314311742782593E-1   8.917531371116638E-1  
 4.600000000000000E7    -9.747545719146729E-1  -1.589900553226471E-1  -5.982082337141037E-2  -1.127985715866089E-1  -6.024137884378433E-2  -1.123905777931213E-1  -4.208110570907593E-1   8.961334228515625E-1  
 4.630000000000000E7    -9.810079336166382E-1  -8.325324207544327E-2  -6.835315376520157E-2  -1.158248782157898E-1  -6.863788515329361E-2  -1.155515387654305E-1  -4.091474115848541E-1   9.003093838691711E-1  
 4.660000000000000E7    -9.834528565406799E-1  -6.394341588020325E-3  -7.787447422742844E-2  -1.183759421110153E-1  -7.798029482364655E-2  -1.183640062808991E-1  -3.957493901252747E-1   9.046801328659058E-1  
 4.690000000000000E7    -9.803528785705566E-1   6.956267356872559E-2  -8.708969503641129E-2  -1.209603473544121E-1  -8.742185682058334E-2  -1.211896911263466E-1  -3.852236568927765E-1   9.086869359016419E-1  
 4.720000000000000E7    -9.703475832939148E-1   1.480088233947754E-1  -9.705719351768494E-2  -1.223877891898155E-1  -9.710144996643066E-2  -1.221848130226135E-1  -3.732291162014008E-1   9.117217063903809E-1  
 4.750000000000000E7    -9.536709785461426E-1   2.281695157289505E-1  -1.078052371740341E-1  -1.231122314929962E-1  -1.077201440930367E-1  -1.238353103399277E-1  -3.619796037673950E-1   9.158474802970886E-1  
 4.780000000000000E7    -9.308549761772156E-1   3.072161078453064E-1  -1.190666556358337E-1  -1.230757683515549E-1  -1.185956895351410E-1  -1.231483444571495E-1  -3.497332930564880E-1   9.173534512519836E-1  
 4.810000000000000E7    -8.974657058715820E-1   3.862528800964356E-1  -1.299222111701965E-1  -1.224372386932373E-1  -1.301649063825607E-1  -1.223626062273979E-1  -3.398365378379822E-1   9.208463430404663E-1  
 4.840000000000000E7    -8.581514358520508E-1   4.635929167270660E-1  -1.416943967342377E-1  -1.207210570573807E-1  -1.415709853172302E-1  -1.203153952956200E-1  -3.283796012401581E-1   9.237220883369446E-1  
 4.870000000000000E7    -8.118751645088196E-1   5.383149385452271E-1  -1.539737731218338E-1  -1.178375482559204E-1  -1.535896360874176E-1  -1.178538799285889E-1  -3.168628215789795E-1   9.257113933563232E-1  
 4.900000000000000E7    -7.568647861480713E-1   6.097868680953980E-1  -1.658129096031189E-1  -1.138574033975601E-1  -1.656170636415482E-1  -1.137878596782684E-1  -3.063059449195862E-1   9.275160431861877E-1  
 4.930000000000000E7    -6.938800811767578E-1   6.770144104957581E-1  -1.776949465274811E-1  -1.087531074881554E-1  -1.781127750873566E-1  -1.085027232766151E-1  -2.948404252529144E-1   9.299091100692749E-1  
 4.960000000000000E7    -6.259005665779114E-1   7.392246723175049E-1  -1.899708658456802E-1  -1.028511449694634E-1  -1.893646717071533E-1  -1.028148233890533E-1  -2.840234637260437E-1   9.312914609909058E-1  
 4.990000000000000E7    -5.483837127685547E-1   7.954270243644714E-1  -2.019917517900467E-1  -9.508939087390900E-2  -2.019715905189514E-1  -9.553103148937225E-2  -2.732774615287781E-1   9.325248003005981E-1  
 5.020000000000000E7    -4.634504914283752E-1   8.458559513092041E-1  -2.133825123310089E-1  -8.624106645584106E-2  -2.135349661111832E-1  -8.637972176074982E-2  -2.630306184291840E-1   9.342933297157288E-1  
 5.050000000000000E7    -3.743335902690888E-1   8.868169188499451E-1  -2.244663089513779E-1  -7.641800493001938E-2  -2.244839221239090E-1  -7.684215903282166E-2  -2.523942589759827E-1   9.366263747215271E-1  
 5.080000000000000E7    -2.788859605789185E-1   9.196774363517761E-1  -2.348126471042633E-1  -6.535031646490097E-2  -2.349104881286621E-1  -6.493688374757767E-2  -2.419488430023193E-1   9.354252815246582E-1  
 5.110000000000000E7    -1.797950565814972E-1   9.408438801765442E-1  -2.440156787633896E-1  -5.273016542196274E-2  -2.443217933177948E-1  -5.338233709335327E-2  -2.323426008224487E-1   9.371505379676819E-1  
 5.140000000000000E7    -7.956859469413757E-2   9.543784260749817E-1  -2.529288530349731E-1  -4.002084210515022E-2  -2.533592283725739E-1  -3.951635956764221E-2  -2.214113771915436E-1   9.394475221633911E-1  
 5.170000000000000E7     2.559136226773262E-2   9.549099802970886E-1  -2.601166665554047E-1  -2.446659281849861E-2  -2.611722648143768E-1  -2.497958205640316E-2  -2.112521231174469E-1   9.379514455795288E-1  
 5.200000000000000E7     1.300733834505081E-1   9.446876049041748E-1  -2.663829624652863E-1  -9.302068501710892E-3  -2.662885785102844E-1  -9.212866425514221E-3  -2.022416293621063E-1   9.381602406501770E-1  
 5.230000000000000E7     2.318357527256012E-1   9.238575696945190E-1  -2.715497016906738E-1   5.799869075417519E-3  -2.720069587230682E-1   6.162855774164200E-3  -1.927705407142639E-1   9.397214651107788E-1  
 5.260000000000000E7     3.317905664443970E-1   8.908845782279968E-1  -2.752121984958649E-1   2.293775975704193E-2  -2.751301527023315E-1   2.290652506053448E-2  -1.832913458347321E-1   9.406329989433289E-1  
 5.290000000000000E7     4.276225566864014E-1   8.479248285293579E-1  -2.763397395610809E-1   3.953754529356957E-2  -2.771255373954773E-1   4.007706418633461E-2  -1.747420728206635E-1   9.405012726783752E-1  
 5.320000000000000E7     5.185421109199524E-1   7.934952974319458E-1  -2.769584953784943E-1   5.674361437559128E-2  -2.775238454341888E-1   5.692576989531517E-2  -1.651726365089417E-1   9.416417479515076E-1  
 5.350000000000000E7     6.027553081512451E-1   7.315018177032471E-1  -2.765167653560638E-1   7.374963164329529E-2  -2.771443724632263E-1   7.365024089813232E-2  -1.577517837285996E-1   9.426069259643555E-1  
 5.380000000000000E7     6.812934279441834E-1   6.596540212631226E-1  -2.740575671195984E-1   9.140768647193909E-2  -2.737395763397217E-1   9.227094799280167E-2  -1.471674591302872E-1   9.421807527542114E-1  
 5.410000000000000E7     7.472993135452271E-1   5.817511081695557E-1  -2.697565555572510E-1   1.075939238071442E-1  -2.698511183261871E-1   1.079259663820267E-1  -1.389318704605103E-1   9.435570240020752E-1  
 5.440000000000000E7     8.064571022987366E-1   4.965593516826630E-1  -2.640483379364014E-1   1.241613253951073E-1  -2.641728520393372E-1   1.243008896708489E-1  -1.308156996965408E-1   9.439212083816528E-1  
 5.470000000000000E7     8.548761010169983E-1   4.066734313964844E-1  -2.561418414115906E-1   1.396842449903488E-1  -2.568621039390564E-1   1.397959440946579E-1  -1.210442781448364E-1   9.448428750038147E-1  
 5.500000000000000E7     8.926240205764771E-1   3.143429756164551E-1  -2.490303069353104E-1   1.548479497432709E-1  -2.491796761751175E-1   1.551548838615418E-1  -1.116891503334045E-1   9.468180537223816E-1  
 5.530000000000000E7     9.210302829742432E-1   2.185906171798706E-1  -2.398110032081604E-1   1.682687401771545E-1  -2.396615743637085E-1   1.683060228824616E-1  -1.033836305141449E-1   9.473307132720947E-1  
 5.560000000000000E7     9.394129514694214E-1   1.229344010353088E-1  -2.294816970825195E-1   1.819096505641937E-1  -2.292092293500900E-1   1.810632646083832E-1  -9.572857618331909E-2   9.482539296150208E-1  
 5.590000000000000E7     9.470893144607544E-1   2.680039405822754E-2  -2.178981006145477E-1   1.930847465991974E-1  -2.187000811100006E-1   1.930947005748749E-1  -8.575984835624695E-2   9.494214057922363E-1  
 5.620000000000000E7     9.459660649299622E-1  -6.699214130640030E-2  -2.069782912731171E-1   2.039983570575714E-1  -2.064125984907150E-1   2.046458721160889E-1  -7.791106402873993E-2   9.509832859039307E-1  
 5.650000000000000E7     9.361436367034912E-1  -1.594480276107788E-1  -1.941397190093994E-1   2.129074931144714E-1  -1.938266158103943E-1   2.136427760124207E-1  -6.855444610118866E-2   9.519450664520264E-1  
 5.680000000000000E7     9.170137643814087E-1  -2.472494244575501E-1  -1.817798614501953E-1   2.217076122760773E-1  -1.817623972892761E-1   2.215443104505539E-1  -5.921973288059235E-2   9.522278904914856E-1  
 5.710000000000000E7     8.905236721038818E-1  -3.323215842247009E-1  -1.683167219161987E-1   2.290521413087845E-1  -1.694430559873581E-1   2.289675921201706E-1  -5.001226812601090E-2   9.539263248443604E-1  
 5.740000000000000E7     8.576723933219910E-1  -4.132145345211029E-1  -1.554471999406815E-1   2.355530858039856E-1  -1.556515991687775E-1   2.355815768241882E-1  -4.019625484943390E-2   9.551136493682861E-1  
 5.770000000000000E7     8.177170157432556E-1  -4.885720014572144E-1  -1.426760256290436E-1   2.404395043849945E-1  -1.417557746171951E-1   2.402392029762268E-1  -3.254763409495354E-2   9.556210041046143E-1  
 5.800000000000000E7     7.732611298561096E-1  -5.590189099311829E-1  -1.293803751468658E-1   2.455082237720490E-1  -1.293129324913025E-1   2.457373291254044E-1  -2.086441963911057E-2   9.579309225082398E-1  
 5.830000000000000E7     7.238331437110901E-1  -6.226968169212341E-1  -1.162019744515419E-1   2.476920485496521E-1  -1.166182011365891E-1   2.485835552215576E-1  -1.246131211519241E-2   9.588658809661865E-1  
 5.860000000000000E7     6.715982556343079E-1  -6.816119551658630E-1  -1.036058589816093E-1   2.501473128795624E-1  -1.037908867001534E-1   2.507668435573578E-1  -2.409927546977997E-3   9.593787789344788E-1  
 5.890000000000000E7     6.135486960411072E-1  -7.353450655937195E-1  -9.071065485477448E-2   2.520157098770142E-1  -9.097538888454437E-2   2.513909041881561E-1   6.657766178250313E-3   9.602536559104919E-1  
 5.920000000000000E7     5.546093583106995E-1  -7.830662131309509E-1  -7.829259335994721E-2   2.528752684593201E-1  -7.834324985742569E-2   2.536527216434479E-1   1.691934652626514E-2   9.613636732101440E-1  
 5.950000000000000E7     4.923742115497589E-1  -8.237589001655579E-1  -6.601256132125855E-2   2.522917389869690E-1  -6.605181843042374E-2   2.528349161148071E-1   2.715872786939144E-2   9.606159925460815E-1  
 5.980000000000000E7     4.295783340930939E-1  -8.602526187896729E-1  -5.394794791936874E-2   2.521885335445404E-1  -5.434916913509369E-2   2.520926594734192E-1   3.766432031989098E-2   9.616672992706299E-1  
 6.010000000000000E7     3.643407225608826E-1  -8.889921903610230E-1  -4.352008178830147E-2   2.507265508174896E-1  -4.316369071602821E-2   2.501827180385590E-1   4.727274179458618E-2   9.631541371345520E-1  
 6.040000000000000E7     2.998434901237488E-1  -9.151100516319275E-1  -3.248915448784828E-2   2.491361051797867E-1  -3.256710618734360E-2   2.497216314077377E-1   5.822827294468880E-2   9.638318419456482E-1  
 6.070000000000000E7     2.358975261449814E-1  -9.348205924034119E-1  -2.238916233181953E-2   2.467143982648850E-1  -2.236436679959297E-2   2.464363873004913E-1   6.777541339397430E-2   9.633961319923401E-1  
 6.100000000000000E7     1.706821173429489E-1  -9.489054679870606E-1  -1.150700636208057E-2   2.434095889329910E-1  -1.178733538836241E-2   2.439520210027695E-1   7.967953383922577E-2   9.634670019149780E-1  
 6.130000000000000E7     1.066281199455261E-1  -9.603930115699768E-1  -2.449005376547575E-3   2.410064190626144E-1  -2.611643634736538E-3   2.411276698112488E-1   9.061049669981003E-2   9.639350771903992E-1  
 6.160000000000000E7     4.244099184870720E-2  -9.662756323814392E-1   6.483444478362799E-3   2.368514537811279E-1   6.609419826418161E-3   2.372093647718430E-1   9.984667599201202E-2   9.623658061027527E-1  
 6.190000000000000E7    -2.065398357808590E-2  -9.676293134689331E-1   1.522216759622097E-2   2.333068996667862E-1   1.587526500225067E-2   2.334209382534027E-1   1.099073663353920E-1   9.619456529617310E-1  
 6.220000000000000E7    -8.139484375715256E-2  -9.645228981971741E-1   2.326555736362934E-2   2.283576875925064E-1   2.372589334845543E-2   2.295618802309036E-1   1.205110996961594E-1   9.629518985748291E-1  
 6.250000000000000E7    -1.423883140087128E-1  -9.589767456054688E-1   3.134185448288918E-2   2.246737480163574E-1   3.196826204657555E-2   2.249947190284729E-1   1.314571201801300E-1   9.622560739517212E-1  
 6.280000000000000E7    -1.999765783548355E-1  -9.489497542381287E-1   3.914297372102737E-2   2.203745990991592E-1   3.916264697909355E-2   2.203957289457321E-1   1.425838172435761E-1   9.617776274681091E-1  
 6.310000000000000E7    -2.584917545318604E-1  -9.364138841629028E-1   4.663137719035149E-2   2.159981578588486E-1   4.630948603153229E-2   2.154471725225449E-1   1.534442305564880E-1   9.607408642768860E-1  
 6.340000000000000E7    -3.124793767929077E-1  -9.196962714195252E-1   5.306181311607361E-2   2.108466029167175E-1   5.333726853132248E-2   2.107054591178894E-1   1.647141277790070E-1   9.598122835159302E-1  
 6.370000000000000E7    -3.654837906360626E-1  -9.008221626281738E-1   5.952895805239677E-2   2.055872678756714E-1   5.960549414157867E-2   2.057070583105087E-1   1.750008165836334E-1   9.578581452369690E-1  
 6.400000000000000E7    -4.172801375389099E-1  -8.788968920707703E-1   6.605730950832367E-2   2.003197520971298E-1   6.603802740573883E-2   2.004691213369370E-1   1.863321959972382E-1   9.572569131851196E-1  
 6.430000000000000E7    -4.669708907604218E-1  -8.547160029411316E-1   7.130429148674011E-2   1.957103163003922E-1   7.156397402286530E-2   1.951414197683334E-1   1.974899470806122E-1   9.553406238555908E-1  
 6.460000000000000E7    -5.131379961967468E-1  -8.291078805923462E-1   7.629659026861191E-2   1.899728029966354E-1   7.627752423286438E-2   1.897397339344025E-1   2.074045538902283E-1   9.532055854797363E-1  
 6.490000000000000E7    -5.568369030952454E-1  -8.006536960601807E-1   8.091349899768829E-2   1.842900812625885E-1   8.118372410535812E-2   1.847259849309921E-1   2.186138480901718E-1   9.522840380668640E-1  
 6.520000000000000E7    -5.994019508361816E-1  -7.704118490219116E-1   8.591423183679581E-2   1.796830147504807E-1   8.608433604240418E-2   1.791068911552429E-1   2.296298146247864E-1   9.508964419364929E-1  
 6.550000000000000E7    -6.389986872673035E-1  -7.379559874534607E-1   9.035740792751312E-2   1.736825853586197E-1   9.020912647247315E-2   1.735980808734894E-1   2.405105680227280E-1   9.470089077949524E-1  
 6.580000000000000E7    -6.775130033493042E-1  -7.040254473686218E-1   9.475678205490112E-2   1.679047048091888E-1   9.452003985643387E-2   1.681257784366608E-1   2.519113719463348E-1   9.463192224502564E-1  
 6.610000000000000E7    -7.134457230567932E-1  -6.672771573066711E-1   9.849362075328827E-2   1.625144183635712E-1   9.886030107736588E-2   1.619338989257813E-1   2.640367448329926E-1   9.418995380401611E-1  
 6.640000000000000E7    -7.462356686592102E-1  -6.329048871994019E-1   1.016573384404182E-1   1.573372930288315E-1   1.012071818113327E-1   1.571399569511414E-1   2.750149071216583E-1   9.398460984230042E-1  
 6.670000000000000E7    -7.776774764060974E-1  -5.940842628479004E-1   1.050057262182236E-1   1.515177488327026E-1   1.046098992228508E-1   1.515472531318665E-1   2.850094139575958E-1   9.381434321403503E-1  
 6.700000000000000E7    -8.063496947288513E-1  -5.547438263893127E-1   1.077839136123657E-1   1.460458934307098E-1   1.078137829899788E-1   1.457537114620209E-1   2.959440350532532E-1   9.340274930000305E-1  
 6.730000000000000E7    -8.332523107528687E-1  -5.151087045669556E-1   1.100382208824158E-1   1.406266987323761E-1   1.110271215438843E-1   1.402608305215836E-1   3.080039918422699E-1   9.322056174278259E-1  
 6.760000000000000E7    -8.569339513778687E-1  -4.751593768596649E-1   1.131035238504410E-1   1.348067224025726E-1   1.129819005727768E-1   1.349532157182694E-1   3.193919360637665E-1   9.282121658325195E-1  
 6.790000000000000E7    -8.796262741088867E-1  -4.335330128669739E-1   1.148986443877220E-1   1.297025382518768E-1   1.152589470148087E-1   1.295614689588547E-1   3.291321396827698E-1   9.246553778648377E-1  
 6.820000000000000E7    -8.997465372085571E-1  -3.916101157665253E-1   1.170236915349960E-1   1.241613030433655E-1   1.170270144939423E-1   1.241955533623695E-1   3.401463627815247E-1   9.218105673789978E-1  
 6.850000000000000E7    -9.180202484130859E-1  -3.495661318302155E-1   1.188575774431229E-1   1.194622889161110E-1   1.187884807586670E-1   1.191804781556130E-1   3.510246276855469E-1   9.185717701911926E-1  
 6.880000000000000E7    -9.332550168037415E-1  -3.068087100982666E-1   1.204951554536820E-1   1.138244718313217E-1   1.204607561230660E-1   1.134054511785507E-1   3.624317646026611E-1   9.137895107269287E-1  
 6.910000000000000E7    -9.458285570144653E-1  -2.637549340724945E-1   1.219165623188019E-1   1.084361597895622E-1   1.218101084232330E-1   1.084684059023857E-1   3.742943704128265E-1   9.100936651229858E-1  
 6.940000000000000E7    -9.578797817230225E-1  -2.213916182518005E-1   1.226604506373406E-1   1.035676375031471E-1   1.228813305497170E-1   1.034928038716316E-1   3.840758204460144E-1   9.061803221702576E-1  
 6.970000000000000E7    -9.670773148536682E-1  -1.768672317266464E-1   1.236988902091980E-1   9.836077690124512E-2   1.241211965680122E-1   9.822689741849899E-2   3.957371711730957E-1   9.011791944503784E-1  
 7.000000000000000E7    -9.750517606735230E-1  -1.337181031703949E-1   1.247035562992096E-1   9.337639063596726E-2   1.248774677515030E-1   9.310538321733475E-2   4.061551690101624E-1   8.977198600769043E-1  
