#  HZ   S   RI   R     50.00 
! Rohde & Schwarz ZVT8 8Ports - Version 4.11 - 1300.0000k08 SN: 100242
! Date: 2026-07-31 14:20:05
! Measurements: S11 S21 S12 S22 
! 
 1.000000000000000E7    -4.030643999576569E-1   9.112359285354614E-1   5.435676127672195E-2   5.443281680345535E-2   5.431590601801872E-2   5.458615347743034E-2  -9.159942269325256E-1   3.929662108421326E-1  
 1.030000000000000E7    -3.705883324146271E-1   9.240044355392456E-1   5.791586637496948E-2   5.502746254205704E-2   5.790148675441742E-2   5.518016591668129E-2  -9.091695547103882E-1   4.063580632209778E-1  
 1.060000000000000E7    -3.345381319522858E-1   9.371739625930786E-1   6.195052713155747E-2   5.613622814416885E-2   6.193481013178825E-2   5.580946803092957E-2  -9.044517278671265E-1   4.190180003643036E-1  
 1.090000000000000E7    -3.021166026592255E-1   9.469550848007202E-1   6.563519686460495E-2   5.650383234024048E-2   6.571803987026215E-2   5.652230232954025E-2  -8.985052108764648E-1   4.318323135375977E-1  
 1.120000000000000E7    -2.662090063095093E-1   9.566448330879211E-1   6.992256641387940E-2   5.746089667081833E-2   6.956878304481506E-2   5.715513229370117E-2  -8.918936252593994E-1   4.446131587028503E-1  
 1.150000000000000E7    -2.309014201164246E-1   9.671230316162109E-1   7.381766289472580E-2   5.744051188230515E-2   7.364808768033981E-2   5.739118903875351E-2  -8.841034770011902E-1   4.545218646526337E-1  
 1.180000000000000E7    -1.958357542753220E-1   9.718912839889526E-1   7.814268022775650E-2   5.799135565757752E-2   7.808210700750351E-2   5.786506831645966E-2  -8.783630132675171E-1   4.666446745395660E-1  
 1.210000000000000E7    -1.611052751541138E-1   9.787779450416565E-1   8.299031853675842E-2   5.828573554754257E-2   8.270017057657242E-2   5.826487019658089E-2  -8.699134588241577E-1   4.805204868316650E-1  
 1.240000000000000E7    -1.249079108238220E-1   9.828549027442932E-1   8.737157285213471E-2   5.841011181473732E-2   8.756978809833527E-2   5.808390304446220E-2  -8.620880246162415E-1   4.920694530010223E-1  
 1.270000000000000E7    -8.902256935834885E-2   9.865672588348389E-1   9.283027797937393E-2   5.787342414259911E-2   9.245643019676209E-2   5.786654725670815E-2  -8.539226055145264E-1   5.071457028388977E-1  
 1.300000000000000E7    -5.304653942584992E-2   9.891975522041321E-1   9.768630564212799E-2   5.771171301603317E-2   9.778041392564774E-2   5.783047154545784E-2  -8.451799154281616E-1   5.190674066543579E-1  
 1.330000000000000E7    -1.634473539888859E-2   9.904723167419434E-1   1.031795293092728E-1   5.730920284986496E-2   1.032087802886963E-1   5.688600987195969E-2  -8.362265825271606E-1   5.326477289199829E-1  
 1.360000000000000E7     2.194900996983051E-2   9.898573160171509E-1   1.086802929639816E-1   5.695983022451401E-2   1.088804155588150E-1   5.624504387378693E-2  -8.272752761840820E-1   5.441737771034241E-1  
 1.390000000000000E7     5.756477639079094E-2   9.875851273536682E-1   1.145779192447662E-1   5.578031018376350E-2   1.143546402454376E-1   5.588063970208168E-2  -8.182651400566101E-1   5.570619702339172E-1  
 1.420000000000000E7     9.542375802993774E-2   9.842958450317383E-1   1.202284395694733E-1   5.510012432932854E-2   1.205319836735725E-1   5.495344847440720E-2  -8.097040653228760E-1   5.699644684791565E-1  
 1.450000000000000E7     1.317915022373200E-1   9.780629873275757E-1   1.268373727798462E-1   5.330708622932434E-2   1.268207430839539E-1   5.333263799548149E-2  -7.967215180397034E-1   5.843046903610230E-1  
 1.480000000000000E7     1.701007783412933E-1   9.715572595596314E-1   1.333250403404236E-1   5.158111453056335E-2   1.336005628108978E-1   5.208536610007286E-2  -7.871568202972412E-1   5.972042083740234E-1  
 1.510000000000000E7     2.063812464475632E-1   9.634450674057007E-1   1.400713175535202E-1   4.981973022222519E-2   1.400058865547180E-1   4.991431906819344E-2  -7.729656100273132E-1   6.107767820358276E-1  
 1.540000000000000E7     2.426588535308838E-1   9.540361166000366E-1   1.471443921327591E-1   4.857645928859711E-2   1.470193862915039E-1   4.786669462919235E-2  -7.639110684394836E-1   6.235852241516113E-1  
 1.570000000000000E7     2.798118889331818E-1   9.443329572677612E-1   1.544982194900513E-1   4.554916918277741E-2   1.546298116445541E-1   4.549533128738403E-2  -7.497215270996094E-1   6.387248635292053E-1  
 1.600000000000000E7     3.168213367462158E-1   9.302886128425598E-1   1.620617508888245E-1   4.254162311553955E-2   1.625141054391861E-1   4.245359078049660E-2  -7.371360659599304E-1   6.502152085304260E-1  
 1.630000000000000E7     3.527143299579620E-1   9.157976508140564E-1   1.708807200193405E-1   3.895946219563484E-2   1.703290939331055E-1   3.923751041293144E-2  -7.226773500442505E-1   6.659914255142212E-1  
 1.660000000000000E7     3.883284628391266E-1   8.986176252365112E-1   1.793738305568695E-1   3.518544882535934E-2   1.788213700056076E-1   3.450419008731842E-2  -7.062770128250122E-1   6.797513961791992E-1  
 1.690000000000000E7     4.232178032398224E-1   8.811336755752564E-1   1.880224049091339E-1   3.125873580574989E-2   1.880224645137787E-1   3.089450672268868E-2  -6.911481618881226E-1   6.931148171424866E-1  
 1.720000000000000E7     4.604653716087341E-1   8.617019057273865E-1   1.963513046503067E-1   2.572432346642017E-2   1.967682391405106E-1   2.623207680881023E-2  -6.743589043617249E-1   7.061336040496826E-1  
 1.750000000000000E7     4.904818534851074E-1   8.429047465324402E-1   2.070336043834686E-1   2.170549519360066E-2   2.071852535009384E-1   2.101277559995651E-2  -6.569280624389648E-1   7.222709059715271E-1  
 1.780000000000000E7     5.272128582000732E-1   8.166744112968445E-1   2.159026563167572E-1   1.473880559206009E-2   2.164874523878098E-1   1.511712372303009E-2  -6.377625465393066E-1   7.337417006492615E-1  
 1.810000000000000E7     5.586601495742798E-1   7.930073738098145E-1   2.279603183269501E-1   7.948704063892365E-3   2.265735864639282E-1   7.324639707803726E-3  -6.166127324104309E-1   7.506748437881470E-1  
 1.840000000000000E7     5.925664901733398E-1   7.661545276641846E-1   2.387688159942627E-1  -1.403419300913811E-3   2.378848642110825E-1  -8.049998432397842E-4  -5.944203734397888E-1   7.639765739440918E-1  
 1.870000000000000E7     6.216294169425964E-1   7.382794618606567E-1   2.499092072248459E-1  -9.261833503842354E-3   2.491912841796875E-1  -9.700778871774674E-3  -5.712934732437134E-1   7.772624492645264E-1  
 1.900000000000000E7     6.515466570854187E-1   7.076572775840759E-1   2.615572512149811E-1  -1.903810724616051E-2   2.613112628459930E-1  -1.970019191503525E-2  -5.458114743232727E-1   7.908289432525635E-1  
 1.930000000000000E7     6.806851625442505E-1   6.745302677154541E-1   2.733825743198395E-1  -3.171231597661972E-2   2.738366723060608E-1  -3.067743219435215E-2  -5.188288688659668E-1   8.054215312004089E-1  
 1.960000000000000E7     7.082145810127258E-1   6.391623616218567E-1   2.858406901359558E-1  -4.443315044045448E-2   2.862878441810608E-1  -4.377282410860062E-2  -4.916905462741852E-1   8.179019093513489E-1  
 1.990000000000000E7     7.319111227989197E-1   6.028233766555786E-1   2.990679740905762E-1  -5.897180736064911E-2   2.994305491447449E-1  -5.913369730114937E-2  -4.573457241058350E-1   8.316502571105957E-1  
 2.020000000000000E7     7.553932666778565E-1   5.636693239212036E-1   3.130977451801300E-1  -7.542944699525833E-2   3.123896121978760E-1  -7.509303092956543E-2  -4.252547919750214E-1   8.412191867828369E-1  
 2.050000000000000E7     7.786768078804016E-1   5.219103693962097E-1   3.267598450183868E-1  -9.373082220554352E-2   3.247435986995697E-1  -9.408199042081833E-2  -3.881547749042511E-1   8.523139953613281E-1  
 2.080000000000000E7     7.966245412826538E-1   4.775160253047943E-1   3.408491015434265E-1  -1.156908869743347E-1   3.409058451652527E-1  -1.155861020088196E-1  -3.473056554794312E-1   8.630366921424866E-1  
 2.110000000000000E7     8.128926157951355E-1   4.319264888763428E-1   3.544852733612061E-1  -1.413706243038178E-1   3.547044992446899E-1  -1.410879641771317E-1  -3.028773367404938E-1   8.694618940353394E-1  
 2.140000000000000E7     8.254764080047607E-1   3.850476443767548E-1   3.677887618541718E-1  -1.699037551879883E-1   3.669523894786835E-1  -1.680615991353989E-1  -2.551172971725464E-1   8.741376399993897E-1  
 2.170000000000000E7     8.334388732910156E-1   3.364288806915283E-1   3.807554244995117E-1  -2.007668018341065E-1   3.808746933937073E-1  -1.997665762901306E-1  -2.028040885925293E-1   8.753439188003540E-1  
 2.200000000000000E7     8.389562368392944E-1   2.829930782318115E-1   3.914701938629150E-1  -2.377356886863709E-1   3.918814957141876E-1  -2.374462783336639E-1  -1.447447240352631E-1   8.720253109931946E-1  
 2.230000000000000E7     8.369840383529663E-1   2.303356528282166E-1   4.006039202213287E-1  -2.787914872169495E-1   4.006273448467255E-1  -2.781254947185516E-1  -8.344782143831253E-2   8.630483150482178E-1  
 2.260000000000000E7     8.308188915252686E-1   1.759893298149109E-1   4.063176810741425E-1  -3.257169127464294E-1   4.084164500236511E-1  -3.268623650074005E-1  -1.703207939863205E-2   8.465442657470703E-1  
 2.290000000000000E7     8.172861337661743E-1   1.216513961553574E-1   4.079725146293640E-1  -3.790990710258484E-1   4.093052148818970E-1  -3.790002465248108E-1   5.560449510812759E-2   8.207992315292358E-1  
 2.320000000000000E7     7.948324680328369E-1   7.027201354503632E-2   4.021573066711426E-1  -4.395909011363983E-1   4.012010395526886E-1  -4.397755861282349E-1   1.307747513055801E-1   7.856195569038391E-1  
 2.350000000000000E7     7.648394107818604E-1   2.011605352163315E-2   3.866013586521149E-1  -5.062267780303955E-1   3.868385553359985E-1  -5.047702193260193E-1   2.080784142017365E-1   7.339442968368530E-1  
 2.380000000000000E7     7.263131141662598E-1  -2.511792629957199E-2   3.617801070213318E-1  -5.755947828292847E-1   3.615508377552033E-1  -5.760103464126587E-1   2.850039899349213E-1   6.654508709907532E-1  
 2.410000000000000E7     6.795611977577210E-1  -6.254769861698151E-2   3.196210861206055E-1  -6.498478651046753E-1   3.190859258174896E-1  -6.489870548248291E-1   3.559446036815643E-1   5.776764750480652E-1  
 2.440000000000000E7     6.262972354888916E-1  -8.616090565919876E-2   2.598896026611328E-1  -7.228059172630310E-1   2.595792412757874E-1  -7.238946557044983E-1   4.143918454647064E-1   4.690437018871307E-1  
 2.470000000000000E7     5.691915154457092E-1  -9.738136827945709E-2   1.804878562688828E-1  -7.893693447113037E-1   1.821569502353668E-1  -7.889572978019714E-1   4.578586518764496E-1   3.388022184371948E-1  
 2.500000000000000E7     5.108491182327271E-1  -9.425872564315796E-2   8.307947218418121E-2  -8.441809415817261E-1   8.090300858020783E-2  -8.443865180015564E-1   4.723447561264038E-1   1.956580877304077E-1  
 2.530000000000000E7     4.578776955604553E-1  -7.015639543533325E-2  -3.391044959425926E-2  -8.799799084663391E-1  -3.215875476598740E-2  -8.782492876052856E-1   4.533537626266480E-1   4.161838442087174E-2  
 2.560000000000000E7     4.193575978279114E-1  -3.474658355116844E-2  -1.575587540864945E-1  -8.885096311569214E-1  -1.570974290370941E-1  -8.870583772659302E-1   3.972302079200745E-1  -1.079088672995567E-1  
 2.590000000000000E7     4.025312960147858E-1   1.164289936423302E-2  -2.827541232109070E-1  -8.638926148414612E-1  -2.843458950519562E-1  -8.645123839378357E-1   3.097870945930481E-1  -2.398544251918793E-1  
 2.620000000000000E7     4.029311239719391E-1   5.978994071483612E-2  -4.021048545837402E-1  -8.144366145133972E-1  -4.003584980964661E-1  -8.137918114662170E-1   1.922122091054916E-1  -3.473599553108215E-1  
 2.650000000000000E7     4.203895926475525E-1   1.032419279217720E-1  -5.001711249351502E-1  -7.424114346504211E-1  -5.012931823730469E-1  -7.428436279296875E-1   5.692064762115479E-2  -4.202518165111542E-1  
 2.680000000000000E7     4.549736976623535E-1   1.354321837425232E-1  -5.781568288803101E-1  -6.550787687301636E-1  -5.789269208908081E-1  -6.563590168952942E-1  -8.170465379953384E-2  -4.577708840370178E-1  
 2.710000000000000E7     4.981465339660645E-1   1.512280255556107E-1  -6.346411108970642E-1  -5.630294084548950E-1  -6.357182264328003E-1  -5.605491995811462E-1  -2.130715399980545E-1  -4.690443575382233E-1  
 2.740000000000000E7     5.476468801498413E-1   1.562706530094147E-1  -6.690828800201416E-1  -4.674721062183380E-1  -6.709213256835938E-1  -4.683989882469177E-1  -3.354332447052002E-1  -4.506097733974457E-1  
 2.770000000000000E7     5.960810780525208E-1   1.435809880495071E-1  -6.865801811218262E-1  -3.783701360225678E-1  -6.893051862716675E-1  -3.796661496162415E-1  -4.402647018432617E-1  -4.184086918830872E-1  
 2.800000000000000E7     6.417293548583984E-1   1.208790689706802E-1  -6.910179257392883E-1  -2.944610714912415E-1  -6.908922791481018E-1  -2.978799343109131E-1  -5.311329960823059E-1  -3.723904788494110E-1  
 2.830000000000000E7     6.817950010299683E-1   8.577409386634827E-2  -6.855123639106751E-1  -2.195487022399902E-1  -6.859320998191834E-1  -2.193150818347931E-1  -6.036417484283447E-1  -3.223313987255096E-1  
 2.860000000000000E7     7.168071866035461E-1   4.206272214651108E-2  -6.727813482284546E-1  -1.526872813701630E-1  -6.736786365509033E-1  -1.532195359468460E-1  -6.640376448631287E-1  -2.673814296722412E-1  
 2.890000000000000E7     7.433968186378479E-1  -7.860075682401657E-3  -6.560451388359070E-1  -9.396287798881531E-2  -6.548267006874085E-1  -9.353329241275787E-2  -7.110125422477722E-1  -2.112522423267365E-1  
 2.920000000000000E7     7.644360065460205E-1  -6.261992454528809E-2  -6.342111229896545E-1  -4.063178598880768E-2  -6.341749429702759E-1  -3.965204209089279E-2  -7.495292425155640E-1  -1.566601097583771E-1  
 2.950000000000000E7     7.758353948593140E-1  -1.219596266746521E-1  -6.129774451255798E-1   5.189789459109306E-3  -6.122934818267822E-1   5.194703117012978E-3  -7.779335379600525E-1  -1.041565611958504E-1  
 2.980000000000000E7     7.802496552467346E-1  -1.842176020145416E-1  -5.888736248016357E-1   4.800897836685181E-2  -5.899834036827087E-1   4.744250327348709E-2  -7.992601990699768E-1  -5.360699445009232E-2  
 3.010000000000000E7     7.759708762168884E-1  -2.496175020933151E-1  -5.663536190986633E-1   8.615762740373612E-2  -5.658100247383118E-1   8.433979749679565E-2  -8.154109716415405E-1  -6.336875259876251E-3  
 3.040000000000000E7     7.646517157554627E-1  -3.174090981483460E-1  -5.412597060203552E-1   1.193904802203178E-1  -5.434229969978333E-1   1.204278618097305E-1  -8.259221911430359E-1   3.817294165492058E-2  
 3.070000000000000E7     7.426800131797791E-1  -3.843218684196472E-1  -5.172364711761475E-1   1.525606960058212E-1  -5.176738500595093E-1   1.516894698143005E-1  -8.343806266784668E-1   7.911001890897751E-2  
 3.100000000000000E7     7.122315764427185E-1  -4.534144997596741E-1  -4.940506219863892E-1   1.816520243883133E-1  -4.937354624271393E-1   1.813695877790451E-1  -8.392435312271118E-1   1.172488033771515E-1  
 3.130000000000000E7     6.736735701560974E-1  -5.212484598159790E-1  -4.707550108432770E-1   2.099983245134354E-1  -4.706833660602570E-1   2.096123844385147E-1  -8.398575782775879E-1   1.535871922969818E-1  
 3.160000000000000E7     6.227492690086365E-1  -5.888294577598572E-1  -4.461793303489685E-1   2.353593260049820E-1  -4.466043114662170E-1   2.366192787885666E-1  -8.395606875419617E-1   1.852033734321594E-1  
 3.190000000000000E7     5.606542825698853E-1  -6.533986330032349E-1  -4.212680160999298E-1   2.623971104621887E-1  -4.209351241588593E-1   2.618845403194428E-1  -8.374743461608887E-1   2.161287516355515E-1  
 3.220000000000000E7     4.869129061698914E-1  -7.162139415740967E-1  -3.953624367713928E-1   2.876369953155518E-1  -3.950672745704651E-1   2.879772782325745E-1  -8.340689539909363E-1   2.434483617544174E-1  
 3.250000000000000E7     3.978207111358643E-1  -7.715575695037842E-1  -3.686022460460663E-1   3.125378489494324E-1  -3.683924973011017E-1   3.135828375816345E-1  -8.298894166946411E-1   2.691183090209961E-1  
 3.280000000000000E7     2.927613258361816E-1  -8.182650804519653E-1  -3.395545482635498E-1   3.367221057415009E-1  -3.389605879783630E-1   3.374737203121185E-1  -8.243935108184815E-1   2.933389842510223E-1  
 3.310000000000000E7     1.729498803615570E-1  -8.530547618865967E-1  -3.063636720180512E-1   3.627848923206329E-1  -3.066167533397675E-1   3.635776638984680E-1  -8.186448812484741E-1   3.143197000026703E-1  
 3.340000000000000E7     3.400750458240509E-2  -8.700075745582581E-1  -2.705082297325134E-1   3.877337574958801E-1  -2.698303163051605E-1   3.871841430664063E-1  -8.123027682304382E-1   3.342400789260864E-1  
 3.370000000000000E7    -1.205270290374756E-1  -8.631905913352966E-1  -2.289538085460663E-1   4.093824326992035E-1  -2.299998253583908E-1   4.099349379539490E-1  -8.066385984420776E-1   3.509518504142761E-1  
 3.400000000000000E7    -2.896344661712647E-1  -8.223853111267090E-1  -1.820722371339798E-1   4.288615882396698E-1  -1.817862987518311E-1   4.296866655349731E-1  -8.013731241226196E-1   3.652966618537903E-1  
 3.430000000000000E7    -4.647493958473206E-1  -7.377157807350159E-1  -1.276194155216217E-1   4.438058435916901E-1  -1.287255287170410E-1   4.428548812866211E-1  -7.977727651596069E-1   3.792797923088074E-1  
 3.460000000000000E7    -6.338427662849426E-1  -6.027303934097290E-1  -6.806769222021103E-2   4.493921399116516E-1  -6.805475056171417E-2   4.488809108734131E-1  -7.973315715789795E-1   3.916577398777008E-1  
 3.490000000000000E7    -7.754686474800110E-1  -4.107260107994080E-1  -3.373183310031891E-3   4.441822469234467E-1  -5.068190395832062E-3   4.420359134674072E-1  -7.954373359680176E-1   4.040101170539856E-1  
 3.520000000000000E7    -8.692583441734314E-1  -1.687417775392532E-1   6.153549253940582E-2   4.221001863479614E-1   5.974194407463074E-2   4.225229322910309E-1  -7.986924648284912E-1   4.173532128334045E-1  
 3.550000000000000E7    -8.881421089172363E-1   1.086192056536675E-1   1.205581128597260E-1   3.850274384021759E-1   1.203103587031364E-1   3.844417631626129E-1  -8.031964302062988E-1   4.313208460807800E-1  
 3.580000000000000E7    -8.215184211730957E-1   3.862502872943878E-1   1.694084107875824E-1   3.338789343833923E-1   1.689497530460358E-1   3.341887295246124E-1  -8.064045310020447E-1   4.495631456375122E-1  
 3.610000000000000E7    -6.726723313331604E-1   6.283906698226929E-1   2.013022452592850E-1   2.756913304328919E-1   2.015025019645691E-1   2.751045823097229E-1  -8.112305998802185E-1   4.713718295097351E-1  
 3.640000000000000E7    -4.647718369960785E-1   8.121268749237061E-1   2.153345048427582E-1   2.138196378946304E-1   2.157010883092880E-1   2.130335718393326E-1  -8.122587203979492E-1   4.925228357315064E-1  
 3.670000000000000E7    -2.281752079725266E-1   9.200975298881531E-1   2.142240554094315E-1   1.575486809015274E-1   2.142429202795029E-1   1.572524607181549E-1  -8.110108375549316E-1   5.161988735198975E-1  
 3.700000000000000E7     8.324749767780304E-3   9.581884145736694E-1   2.018200755119324E-1   1.091034188866615E-1   2.023347020149231E-1   1.089079752564430E-1  -8.064925670623779E-1   5.414713621139526E-1  
 3.730000000000000E7     2.259939014911652E-1   9.403107166290283E-1   1.825348585844040E-1   7.044057548046112E-2   1.824103295803070E-1   7.120803743600845E-2  -7.984690070152283E-1   5.624265670776367E-1  
 3.760000000000000E7     4.109518826007843E-1   8.822666406631470E-1   1.607529670000076E-1   4.229693114757538E-2   1.607916653156281E-1   4.258145019412041E-2  -7.911021709442139E-1   5.859286785125732E-1  
 3.790000000000000E7     5.670019388198853E-1   7.990946173667908E-1   1.384503394365311E-1   2.206053584814072E-2   1.386690437793732E-1   2.211562916636467E-2  -7.804727554321289E-1   6.055944561958313E-1  
 3.820000000000000E7     6.901010870933533E-1   7.014714479446411E-1   1.173900440335274E-1   8.028132840991020E-3   1.169495582580566E-1   7.874402217566967E-3  -7.690803408622742E-1   6.232297420501709E-1  
 3.850000000000000E7     7.873898744583130E-1   5.969005823135376E-1   9.799028933048248E-2  -1.405193470418453E-3   9.787961095571518E-2  -1.616143621504307E-3  -7.593827843666077E-1   6.407794952392578E-1  
 3.880000000000000E7     8.594965934753418E-1   4.909791052341461E-1   8.097180724143982E-2  -7.506790570914745E-3   8.089000731706619E-2  -7.417901419103146E-3  -7.470189332962036E-1   6.578344106674194E-1  
 3.910000000000000E7     9.130038022994995E-1   3.873670995235443E-1   6.603187322616577E-2  -1.057814434170723E-2   6.624637544155121E-2  -1.067240349948406E-2  -7.355245351791382E-1   6.737565398216248E-1  
 3.940000000000000E7     9.492395520210266E-1   2.863450646400452E-1   5.328136309981346E-2  -1.184959057718515E-2   5.323338881134987E-2  -1.199268735945225E-2  -7.228000164031982E-1   6.862798929214478E-1  
 3.970000000000000E7     9.743125438690186E-1   1.913042813539505E-1   4.249051958322525E-2  -1.207531802356243E-2   4.241093248128891E-2  -1.207269355654717E-2  -7.098910808563232E-1   6.988676786422730E-1  
 4.000000000000000E7     9.887109398841858E-1   1.010346561670303E-1   3.334317728877068E-2  -1.149435341358185E-2   3.328140079975128E-2  -1.149629894644022E-2  -6.990076899528503E-1   7.122155427932739E-1  
 4.030000000000000E7     9.947175979614258E-1   1.617322862148285E-2   2.572789415717125E-2  -1.031590625643730E-2   2.559214085340500E-2  -1.028023101389408E-2  -6.874446868896484E-1   7.240092158317566E-1  
 4.060000000000000E7     9.929742813110352E-1  -6.385879963636398E-2   1.915511488914490E-2  -8.678930811583996E-3   1.899815909564495E-2  -8.791898377239704E-3  -6.747036576271057E-1   7.351511120796204E-1  
 4.090000000000000E7     9.863086342811585E-1  -1.396410614252091E-1   1.374342665076256E-2  -6.895309314131737E-3   1.351357251405716E-2  -6.875734310597181E-3  -6.636803746223450E-1   7.450697422027588E-1  
 4.120000000000000E7     9.737637042999268E-1  -2.098295241594315E-1   8.978544734418392E-3  -5.042535252869129E-3   9.088526479899883E-3  -5.044050049036741E-3  -6.510182619094849E-1   7.557055354118347E-1  
 4.150000000000000E7     9.566726684570313E-1  -2.745319306850433E-1   5.329397041350603E-3  -3.265233943238854E-3   5.367069039493799E-3  -3.201702609658241E-3  -6.393300294876099E-1   7.658097743988037E-1  
 4.180000000000000E7     9.375398159027100E-1  -3.376245498657227E-1   2.340015955269337E-3  -1.394790713675320E-3   2.314727287739515E-3  -1.353012863546610E-3  -6.290524601936340E-1   7.745995521545410E-1  
 4.210000000000000E7     9.149214029312134E-1  -3.949806392192841E-1  -2.831502933986485E-4   3.667693817988038E-4  -2.582037996035069E-4   3.997650637757033E-4  -6.169232130050659E-1   7.844473123550415E-1  
 4.240000000000000E7     8.891475796699524E-1  -4.483810365200043E-1  -2.365834312513471E-3   2.005041576921940E-3  -2.353131771087647E-3   2.060133265331388E-3  -6.068631410598755E-1   7.931653857231140E-1  
 4.270000000000000E7     8.614416122436523E-1  -4.992003440856934E-1  -3.841997822746635E-3   3.613457782194018E-3  -3.904421813786030E-3   3.516010707244277E-3  -5.941826701164246E-1   8.026646375656128E-1  
 4.300000000000000E7     8.328885436058044E-1  -5.478820800781250E-1  -5.146062001585960E-3   5.062404088675976E-3  -5.222558509558439E-3   5.102822091430426E-3  -5.830882191658020E-1   8.114222884178162E-1  
 4.330000000000000E7     8.031708598136902E-1  -5.910463333129883E-1  -6.053161807358265E-3   6.511861458420754E-3  -6.174751091748476E-3   6.367961410433054E-3  -5.712738633155823E-1   8.184469938278198E-1  
 4.360000000000000E7     7.697838544845581E-1  -6.331704258918762E-1  -6.805149372667074E-3   7.562716491520405E-3  -6.789087783545256E-3   7.586707826703787E-3  -5.608869791030884E-1   8.263461589813232E-1  
 4.390000000000000E7     7.368938922882080E-1  -6.732030510902405E-1  -7.299154065549374E-3   8.597445674240589E-3  -7.260924205183983E-3   8.623781614005566E-3  -5.488233566284180E-1   8.330377936363220E-1  
 4.420000000000000E7     7.012991905212402E-1  -7.078551054000855E-1  -7.604776881635189E-3   9.526154026389122E-3  -7.677027024328709E-3   9.627848863601685E-3  -5.371044278144836E-1   8.400813341140747E-1  
 4.450000000000000E7     6.660480499267578E-1  -7.413858771324158E-1  -7.764488924294710E-3   1.033699791878462E-2  -7.671995088458061E-3   1.037204451858997E-2  -5.273143053054810E-1   8.472989797592163E-1  
 4.480000000000000E7     6.300928592681885E-1  -7.723827958106995E-1  -7.765183225274086E-3   1.112804468721151E-2  -7.769946474581957E-3   1.099570933729410E-2  -5.161281228065491E-1   8.535374999046326E-1  
 4.510000000000000E7     5.941739678382874E-1  -8.012320995330811E-1  -7.696304935961962E-3   1.161213964223862E-2  -7.659110240638256E-3   1.168233342468739E-2  -5.049624443054199E-1   8.611527681350708E-1  
 4.540000000000000E7     5.561199188232422E-1  -8.274623155593872E-1  -7.424004841595888E-3   1.209994405508041E-2  -7.505312561988831E-3   1.208767760545015E-2  -4.933024942874908E-1   8.678252696990967E-1  
 4.570000000000000E7     5.178637504577637E-1  -8.524440526962280E-1  -7.200806401669979E-3   1.251967623829842E-2  -7.286468520760536E-3   1.243143156170845E-2  -4.821192026138306E-1   8.735156655311585E-1  
 4.600000000000000E7     4.812581539154053E-1  -8.728354573249817E-1  -6.918713916093111E-3   1.270061638206244E-2  -6.974956952035427E-3   1.281658560037613E-2  -4.718352556228638E-1   8.793797492980957E-1  
 4.630000000000000E7     4.407986998558044E-1  -8.948363661766052E-1  -6.553078070282936E-3   1.283709518611431E-2  -6.558751687407494E-3   1.292765140533447E-2  -4.607429802417755E-1   8.849782943725586E-1  
 4.660000000000000E7     4.016188085079193E-1  -9.140172600746155E-1  -6.090110633522272E-3   1.305638439953327E-2  -6.110896356403828E-3   1.291685085743666E-2  -4.483050405979157E-1   8.913707733154297E-1  
 4.690000000000000E7     3.624002933502197E-1  -9.292072653770447E-1  -5.650695879012346E-3   1.296885404735804E-2  -5.687857512384653E-3   1.303422171622515E-2  -4.377911984920502E-1   8.968497514724731E-1  
 4.720000000000000E7     3.221983015537262E-1  -9.436609745025635E-1  -5.212099291384220E-3   1.288427039980888E-2  -5.214009899646044E-3   1.283936295658350E-2  -4.257140755653381E-1   9.020149707794190E-1  
 4.750000000000000E7     2.837905585765839E-1  -9.565890431404114E-1  -4.799528047442436E-3   1.265111751854420E-2  -4.759280942380428E-3   1.264625322073698E-2  -4.154046177864075E-1   9.074001908302307E-1  
 4.780000000000000E7     2.445193678140640E-1  -9.671823382377625E-1  -4.285045899450779E-3   1.245965808629990E-2  -4.357632715255022E-3   1.239437051117420E-2  -4.032168090343475E-1   9.114558100700378E-1  
 4.810000000000000E7     2.045292109251022E-1  -9.762811660766602E-1  -3.908398095518351E-3   1.211412157863379E-2  -3.958896268159151E-3   1.212089415639639E-2  -3.933349251747131E-1   9.167153239250183E-1  
 4.840000000000000E7     1.651384085416794E-1  -9.842449426651001E-1  -3.430494805797935E-3   1.181687694042921E-2  -3.336684312671423E-3   1.184516213834286E-2  -3.821043074131012E-1   9.216718077659607E-1  
 4.870000000000000E7     1.250218152999878E-1  -9.901896119117737E-1  -2.876284765079618E-3   1.128698419779539E-2  -2.921741222962737E-3   1.133804302662611E-2  -3.708556294441223E-1   9.260017871856690E-1  
 4.900000000000000E7     8.554585278034210E-2  -9.951971769332886E-1  -2.574945567175746E-3   1.089750137180090E-2  -2.572905272245407E-3   1.084391213953495E-2  -3.598867356777191E-1   9.297302365303040E-1  
 4.930000000000000E7     4.621340706944466E-2  -9.975736141204834E-1  -2.201391849666834E-3   1.023614499717951E-2  -2.185256686061621E-3   1.031931582838297E-2  -3.481530547142029E-1   9.350002408027649E-1  
 4.960000000000000E7     6.795659661293030E-3  -9.965171217918396E-1  -1.685558119788766E-3   9.654100984334946E-3  -1.729475217871368E-3   9.706043638288975E-3  -3.373208940029144E-1   9.384631514549255E-1  
 4.990000000000000E7    -3.108349069952965E-2  -9.964373707771301E-1  -1.398713793605566E-3   9.072866290807724E-3  -1.354080392047763E-3   9.012538939714432E-3  -3.263664543628693E-1   9.419561028480530E-1  
 5.020000000000000E7    -6.860961019992828E-2  -9.957702159881592E-1  -1.127630006521940E-3   8.341497741639614E-3  -1.148315379396081E-3   8.346986956894398E-3  -3.154569566249847E-1   9.461693167686462E-1  
 5.050000000000000E7    -1.076201573014259E-1  -9.922035336494446E-1  -8.072890923358500E-4   7.619746960699558E-3  -8.228650549426675E-4   7.595038507133722E-3  -3.043282330036163E-1   9.512677192687988E-1  
 5.080000000000000E7    -1.446657180786133E-1  -9.877108335494995E-1  -5.707500968128443E-4   6.856202613562346E-3  -5.956277600489557E-4   6.863214541226625E-3  -2.924982309341431E-1   9.523449540138245E-1  
 5.110000000000000E7    -1.823660135269165E-1  -9.810799360275269E-1  -3.605510282795876E-4   6.097968202084303E-3  -3.765283618122339E-4   6.069978699088097E-3  -2.824556231498718E-1   9.570310115814209E-1  
 5.140000000000000E7    -2.192177623510361E-1  -9.731828570365906E-1  -2.258153836010024E-4   5.254192277789116E-3  -2.054663200397044E-4   5.224715918302536E-3  -2.699628770351410E-1   9.616507887840271E-1  
 5.170000000000000E7    -2.550653517246246E-1  -9.643833637237549E-1  -7.542935782112181E-5   4.391308873891830E-3  -5.912530468776822E-5   4.387009888887405E-3  -2.586447596549988E-1   9.627396464347839E-1  
 5.200000000000000E7    -2.909378409385681E-1  -9.558451175689697E-1  -1.583684934303165E-5   3.533681388944387E-3   3.235068288631737E-5   3.535401541739702E-3  -2.474051415920258E-1   9.645746350288391E-1  
 5.230000000000000E7    -3.263844549655914E-1  -9.430917501449585E-1   3.504577034618706E-5   2.596280071884394E-3   7.874783477745950E-5   2.609704853966832E-3  -2.363035678863525E-1   9.686297178268433E-1  
 5.260000000000000E7    -3.604453802108765E-1  -9.293842911720276E-1   4.105945117771626E-5   1.694660517387092E-3   5.200764280743897E-5   1.707949209958315E-3  -2.253523170948029E-1   9.717988967895508E-1  
 5.290000000000000E7    -3.954255282878876E-1  -9.161697626113892E-1   1.943423922057264E-5   7.825549691915512E-4  -1.944051473401487E-5   7.595318602398038E-4  -2.142648994922638E-1   9.735929369926453E-1  
 5.320000000000000E7    -4.279728829860687E-1  -9.022940397262573E-1  -6.874735117889941E-5  -1.844852668000385E-4  -7.283089507836849E-5  -2.013016637647525E-4  -2.027281820774078E-1   9.766666293144226E-1  
 5.350000000000000E7    -4.595468342304230E-1  -8.852369189262390E-1  -2.355806063860655E-4  -1.140788663178682E-3  -2.443999983370304E-4  -1.138456864282489E-3  -1.927900314331055E-1   9.792785048484802E-1  
 5.380000000000000E7    -4.903925061225891E-1  -8.676705956459045E-1  -4.238536639604718E-4  -2.118969103321433E-3  -4.353484837338328E-4  -2.099981764331460E-3  -1.798214167356491E-1   9.798009991645813E-1  
 5.410000000000000E7    -5.240057110786438E-1  -8.504549860954285E-1  -6.802558200433850E-4  -3.101166104897857E-3  -6.878862041048706E-4  -3.080890281125903E-3  -1.687045693397522E-1   9.827705621719360E-1  
 5.440000000000000E7    -5.536574125289917E-1  -8.297312855720520E-1  -9.761168039403856E-4  -4.091730806976557E-3  -9.970954852178693E-4  -4.093980416655541E-3  -1.578238010406494E-1   9.841827154159546E-1  
 5.470000000000000E7    -5.816921591758728E-1  -8.104606866836548E-1  -1.313136657699943E-3  -5.079215858131647E-3  -1.310660154558718E-3  -5.103484727442265E-3  -1.455037593841553E-1   9.859300255775452E-1  
 5.500000000000000E7    -6.113349795341492E-1  -7.890962362289429E-1  -1.716268947347999E-3  -6.081760860979557E-3  -1.706111012026668E-3  -6.073405966162682E-3  -1.338628828525543E-1   9.888839125633240E-1  
 5.530000000000000E7    -6.388689279556274E-1  -7.665733695030212E-1  -2.141152974218130E-3  -7.054802495986223E-3  -2.162773394957185E-3  -7.066633086651564E-3  -1.230200529098511E-1   9.892354011535645E-1  
 5.560000000000000E7    -6.666637659072876E-1  -7.425480484962463E-1  -2.658473560586572E-3  -8.066294714808464E-3  -2.644597319886088E-3  -8.017997257411480E-3  -1.121370270848274E-1   9.908404350280762E-1  
 5.590000000000000E7    -6.921486854553223E-1  -7.198032736778259E-1  -3.215671051293612E-3  -9.023080579936504E-3  -3.207930363714695E-3  -9.005532599985600E-3  -9.931236505508423E-2   9.920982122421265E-1  
 5.620000000000000E7    -7.175093293190002E-1  -6.927376389503479E-1  -3.804675769060850E-3  -9.999945759773254E-3  -3.803315339609981E-3  -9.978573769330978E-3  -8.913967013359070E-2   9.934877157211304E-1  
 5.650000000000000E7    -7.403883934020996E-1  -6.684952974319458E-1  -4.431317094713450E-3  -1.094185467809439E-2  -4.435769747942686E-3  -1.096391398459673E-2  -7.762394845485687E-2   9.939827919006348E-1  
 5.680000000000000E7    -7.640293836593628E-1  -6.417990326881409E-1  -5.186533555388451E-3  -1.189610548317432E-2  -5.161126144230366E-3  -1.187687274068594E-2  -6.545875966548920E-2   9.940442442893982E-1  
 5.710000000000000E7    -7.863827347755432E-1  -6.133555769920349E-1  -5.957758985459805E-3  -1.282757055014372E-2  -5.961415357887745E-3  -1.285553537309170E-2  -5.445514246821404E-2   9.953309893608093E-1  
 5.740000000000000E7    -8.083333969116211E-1  -5.855047106742859E-1  -6.776042282581329E-3  -1.376286149024963E-2  -6.748789455741644E-3  -1.376687083393335E-2  -4.238035157322884E-2   9.959549903869629E-1  
 5.770000000000000E7    -8.268756866455078E-1  -5.577242374420166E-1  -7.578922435641289E-3  -1.468287594616413E-2  -7.559550926089287E-3  -1.465858053416014E-2  -3.232962638139725E-2   9.956366419792175E-1  
 5.800000000000000E7    -8.464955687522888E-1  -5.272377729415894E-1  -8.566960692405701E-3  -1.556265633553267E-2  -8.586820214986801E-3  -1.554045919328928E-2  -1.915423944592476E-2   9.976940751075745E-1  
 5.830000000000000E7    -8.640789985656738E-1  -4.973481595516205E-1  -9.530094452202320E-3  -1.640183664858341E-2  -9.544571861624718E-3  -1.645784452557564E-2  -8.713446557521820E-3   9.974929094314575E-1  
 5.860000000000000E7    -8.819645643234253E-1  -4.677793979644775E-1  -1.049681939184666E-2  -1.724854670464993E-2  -1.054578647017479E-2  -1.726252026855946E-2   3.191709518432617E-3   9.967529177665710E-1  
 5.890000000000000E7    -8.967707157135010E-1  -4.362079501152039E-1  -1.163190416991711E-2  -1.807511411607266E-2  -1.156873907893896E-2  -1.811103336513042E-2   1.410256326198578E-2   9.966041445732117E-1  
 5.920000000000000E7    -9.118732810020447E-1  -4.036081433296204E-1  -1.275956351310015E-2  -1.880539767444134E-2  -1.275849528610706E-2  -1.880548149347305E-2   2.644643187522888E-2   9.971052408218384E-1  
 5.950000000000000E7    -9.250573515892029E-1  -3.718861937522888E-1  -1.390464603900909E-2  -1.955120451748371E-2  -1.388812065124512E-2  -1.958714425563812E-2   3.803394734859467E-2   9.951597452163696E-1  
 5.980000000000000E7    -9.377464652061462E-1  -3.392858207225800E-1  -1.517776958644390E-2  -2.024587243795395E-2  -1.513320021331310E-2  -2.024955116212368E-2   5.008493363857269E-2   9.947423934936523E-1  
 6.010000000000000E7    -9.472674727439880E-1  -3.073941171169281E-1  -1.639024540781975E-2  -2.105422317981720E-2  -1.634721271693707E-2  -2.101456001400948E-2   6.092717498540878E-2   9.950423836708069E-1  
 6.040000000000000E7    -9.582185149192810E-1  -2.729189395904541E-1  -1.775768958032131E-2  -2.165624871850014E-2  -1.776243932545185E-2  -2.166234329342842E-2   7.286930829286575E-2   9.948251843452454E-1  
 6.070000000000000E7    -9.677696824073792E-1  -2.412386834621429E-1  -1.914039812982082E-2  -2.230331674218178E-2  -1.908173598349094E-2  -2.232919819653034E-2   8.363860845565796E-2   9.931361079216003E-1  
 6.100000000000000E7    -9.747414588928223E-1  -2.074480503797531E-1  -2.059937641024590E-2  -2.277562394738197E-2  -2.056429162621498E-2  -2.279292978346348E-2   9.687481820583344E-2   9.922690391540527E-1  
 6.130000000000000E7    -9.820261001586914E-1  -1.727227717638016E-1  -2.208937704563141E-2  -2.334197238087654E-2  -2.204111032187939E-2  -2.340353280305862E-2   1.086957976222038E-1   9.915658235549927E-1  
 6.160000000000000E7    -9.867506027221680E-1  -1.392012834548950E-1  -2.349473536014557E-2  -2.385909855365753E-2  -2.356438152492046E-2  -2.385038696229458E-2   1.189183145761490E-1   9.885846972465515E-1  
 6.190000000000000E7    -9.907575845718384E-1  -1.050443202257156E-1  -2.506301365792751E-2  -2.432003244757652E-2  -2.504238486289978E-2  -2.419359609484673E-2   1.297689080238342E-1   9.868253469467163E-1  
 6.220000000000000E7    -9.941471219062805E-1  -7.128044962882996E-2  -2.659176848828793E-2  -2.466838806867600E-2  -2.673654630780220E-2  -2.473328448832035E-2   1.414099037647247E-1   9.866506457328796E-1  
 6.250000000000000E7    -9.959798455238342E-1  -3.648716211318970E-2  -2.831838093698025E-2  -2.505429834127426E-2  -2.835888974368572E-2  -2.503510564565659E-2   1.530157774686813E-1   9.849544763565064E-1  
 6.280000000000000E7    -9.960358738899231E-1  -2.132266759872437E-3  -3.009266592562199E-2  -2.537989243865013E-2  -2.997228689491749E-2  -2.540496177971363E-2   1.652811914682388E-1   9.830024838447571E-1  
 6.310000000000000E7    -9.953616857528687E-1   3.348894417285919E-2  -3.187055885791779E-2  -2.559060230851173E-2  -3.171194344758987E-2  -2.560063078999519E-2   1.763934493064880E-1   9.810464382171631E-1  
 6.340000000000000E7    -9.934315085411072E-1   6.702183187007904E-2  -3.354872763156891E-2  -2.571449801325798E-2  -3.355407714843750E-2  -2.576702646911144E-2   1.885765492916107E-1   9.788517951965332E-1  
 6.370000000000000E7    -9.906373023986816E-1   1.014384478330612E-1  -3.544142842292786E-2  -2.580484375357628E-2  -3.538821265101433E-2  -2.584823593497276E-2   1.991997808218002E-1   9.757182598114014E-1  
 6.400000000000000E7    -9.854256510734558E-1   1.352271288633347E-1  -3.731653839349747E-2  -2.583398856222630E-2  -3.726210817694664E-2  -2.586116269230843E-2   2.115183472633362E-1   9.743422269821167E-1  
 6.430000000000000E7    -9.803510308265686E-1   1.704338043928146E-1  -3.928452730178833E-2  -2.597931027412415E-2  -3.918236866593361E-2  -2.582640200853348E-2   2.229988873004913E-1   9.707930088043213E-1  
 6.460000000000000E7    -9.746341109275818E-1   2.038360536098480E-1  -4.110316932201386E-2  -2.591658383607864E-2  -4.105866700410843E-2  -2.589169330894947E-2   2.334525585174561E-1   9.677010774612427E-1  
 6.490000000000000E7    -9.678196907043457E-1   2.366205304861069E-1  -4.305215552449226E-2  -2.577690966427326E-2  -4.306271672248840E-2  -2.585455402731895E-2   2.448152601718903E-1   9.656327366828919E-1  
 6.520000000000000E7    -9.580398797988892E-1   2.694485485553742E-1  -4.520406201481819E-2  -2.570965886116028E-2  -4.505717009305954E-2  -2.545129321515560E-2   2.568738162517548E-1   9.631844162940979E-1  
 6.550000000000000E7    -9.483676552772522E-1   3.017815947532654E-1  -4.723075404763222E-2  -2.536110393702984E-2  -4.710521921515465E-2  -2.530762925744057E-2   2.676111161708832E-1   9.580314159393311E-1  
 6.580000000000000E7    -9.368346333503723E-1   3.348021507263184E-1  -4.931986704468727E-2  -2.487359754741192E-2  -4.921641200780869E-2  -2.496592700481415E-2   2.799214124679565E-1   9.562214612960815E-1  
 6.610000000000000E7    -9.237620234489441E-1   3.666071593761444E-1  -5.142217129468918E-2  -2.452024072408676E-2  -5.121980607509613E-2  -2.421260252594948E-2   2.921314835548401E-1   9.509662389755249E-1  
 6.640000000000000E7    -9.122925400733948E-1   3.983072042465210E-1  -5.354265496134758E-2  -2.410744875669479E-2  -5.348755046725273E-2  -2.411521039903164E-2   3.034064173698425E-1   9.475300908088684E-1  
 6.670000000000000E7    -8.970096111297607E-1   4.295217692852020E-1  -5.566658824682236E-2  -2.344516292214394E-2  -5.568637698888779E-2  -2.350329048931599E-2   3.139472305774689E-1   9.449073672294617E-1  
 6.700000000000000E7    -8.812720775604248E-1   4.601584970951080E-1  -5.784573778510094E-2  -2.280446514487267E-2  -5.765753239393234E-2  -2.278881892561913E-2   3.250122964382172E-1   9.399381875991821E-1  
 6.730000000000000E7    -8.649681806564331E-1   4.901649951934815E-1  -5.993059650063515E-2  -2.215922251343727E-2  -6.003939732909203E-2  -2.188845537602902E-2   3.375710546970367E-1   9.367451667785645E-1  
 6.760000000000000E7    -8.478428125381470E-1   5.196856856346130E-1  -6.238002330064774E-2  -2.119016274809837E-2  -6.212873384356499E-2  -2.118630334734917E-2   3.485857248306274E-1   9.317660331726074E-1  
 6.790000000000000E7    -8.283935189247131E-1   5.488706231117249E-1  -6.440109014511108E-2  -2.040888555347920E-2  -6.444028764963150E-2  -2.029085531830788E-2   3.590867519378662E-1   9.268391728401184E-1  
 6.820000000000000E7    -8.087598085403442E-1   5.761890411376953E-1  -6.668813526630402E-2  -1.939128898084164E-2  -6.661740690469742E-2  -1.937157474458218E-2   3.704307973384857E-1   9.231204986572266E-1  
 6.850000000000000E7    -7.891509532928467E-1   6.047793626785278E-1  -6.919223815202713E-2  -1.847494393587112E-2  -6.898831576108933E-2  -1.826471462845802E-2   3.813577890396118E-1   9.188458919525147E-1  
 6.880000000000000E7    -7.671580910682678E-1   6.310643553733826E-1  -7.142032682895660E-2  -1.720136404037476E-2  -7.111479341983795E-2  -1.696325279772282E-2   3.933008015155792E-1   9.129196405410767E-1  
 6.910000000000000E7    -7.444897890090942E-1   6.571985483169556E-1  -7.378925383090973E-2  -1.578586548566818E-2  -7.358869910240173E-2  -1.573675125837326E-2   4.049004316329956E-1   9.080802798271179E-1  
 6.940000000000000E7    -7.219758033752441E-1   6.827385425567627E-1  -7.604273408651352E-2  -1.450831349939108E-2  -7.606375217437744E-2  -1.450227200984955E-2   4.153027534484863E-1   9.033917784690857E-1  
 6.970000000000000E7    -6.967406272888184E-1   7.070935368537903E-1  -7.828428596258164E-2  -1.305358950048685E-2  -7.835181802511215E-2  -1.280364207923412E-2   4.269836246967316E-1   8.973364830017090E-1  
 7.000000000000000E7    -6.718403697013855E-1   7.316616773605347E-1  -8.070594817399979E-2  -1.140358299016953E-2  -8.055479079484940E-2  -1.147883851081133E-2   4.372308552265167E-1   8.927352428436279E-1  
