#  HZ   S   RI   R     50.00 
! Rohde & Schwarz ZVT8 8Ports - Version 4.11 - 1300.0000k08 SN: 100242
! Date: 2026-07-31 14:15:41
! Measurements: S11 S21 S12 S22 
! 
 1.000000000000000E7    -4.089514613151550E-1   9.089071154594421E-1   5.232338607311249E-2   5.276547372341156E-2   5.227863043546677E-2   5.305819213390350E-2  -9.163699150085449E-1   3.923254907131195E-1  
 1.030000000000000E7    -3.766402006149292E-1   9.212704300880432E-1   5.568663775920868E-2   5.314883962273598E-2   5.552418157458305E-2   5.357603356242180E-2  -9.097594022750855E-1   4.054980278015137E-1  
 1.060000000000000E7    -3.419353365898132E-1   9.349390864372253E-1   5.917795002460480E-2   5.430218577384949E-2   5.903726071119309E-2   5.408239364624023E-2  -9.057263135910034E-1   4.180735051631928E-1  
 1.090000000000000E7    -3.102309703826904E-1   9.449577331542969E-1   6.285192072391510E-2   5.452383682131767E-2   6.259468942880631E-2   5.454775318503380E-2  -8.994295001029968E-1   4.305302500724793E-1  
 1.120000000000000E7    -2.752907276153565E-1   9.545133113861084E-1   6.649989634752274E-2   5.536782741546631E-2   6.617993861436844E-2   5.509563907980919E-2  -8.932157754898071E-1   4.434114396572113E-1  
 1.150000000000000E7    -2.406062781810761E-1   9.649028778076172E-1   7.011809945106506E-2   5.539898201823235E-2   7.002795487642288E-2   5.543392151594162E-2  -8.848720192909241E-1   4.533682763576508E-1  
 1.180000000000000E7    -2.066156268119812E-1   9.705312252044678E-1   7.397795468568802E-2   5.572917312383652E-2   7.388565689325333E-2   5.550272390246391E-2  -8.798791170120239E-1   4.653307199478149E-1  
 1.210000000000000E7    -1.729199588298798E-1   9.777777194976807E-1   7.821325212717056E-2   5.585099756717682E-2   7.818716764450073E-2   5.579956620931625E-2  -8.712285757064819E-1   4.790970981121063E-1  
 1.240000000000000E7    -1.378667503595352E-1   9.820643067359924E-1   8.233569562435150E-2   5.596278980374336E-2   8.234746009111404E-2   5.568481236696243E-2  -8.641079664230347E-1   4.898974299430847E-1  
 1.270000000000000E7    -1.027428507804871E-1   9.856877326965332E-1   8.707646280527115E-2   5.528266355395317E-2   8.680669963359833E-2   5.517515167593956E-2  -8.558992743492127E-1   5.053135752677918E-1  
 1.300000000000000E7    -6.848707795143127E-2   9.891527891159058E-1   9.112109243869782E-2   5.511713400483131E-2   9.131614118814468E-2   5.517755448818207E-2  -8.470189571380615E-1   5.169958472251892E-1  
 1.330000000000000E7    -3.299385309219360E-2   9.913290739059448E-1   9.609550982713699E-2   5.472516641020775E-2   9.617087244987488E-2   5.439947545528412E-2  -8.387814164161682E-1   5.301063656806946E-1  
 1.360000000000000E7     3.756124526262283E-3   9.911360740661621E-1   1.008808165788651E-1   5.438064783811569E-2   1.013037636876106E-1   5.368047580122948E-2  -8.304216265678406E-1   5.418284535408020E-1  
 1.390000000000000E7     3.786177933216095E-2   9.895643591880798E-1   1.060035973787308E-1   5.286304652690888E-2   1.056917831301689E-1   5.333683267235756E-2  -8.212955594062805E-1   5.548471808433533E-1  
 1.420000000000000E7     7.427106052637100E-2   9.877531528472900E-1   1.108798757195473E-1   5.245707556605339E-2   1.110805049538612E-1   5.240007489919663E-2  -8.131299018859863E-1   5.674723386764526E-1  
 1.450000000000000E7     1.091235056519508E-1   9.822695851325989E-1   1.164685115218163E-1   5.083666741847992E-2   1.163145452737808E-1   5.089903250336647E-2  -8.007033467292786E-1   5.816178321838379E-1  
 1.480000000000000E7     1.458441615104675E-1   9.779423475265503E-1   1.219962313771248E-1   4.930788278579712E-2   1.220265775918961E-1   4.986394569277763E-2  -7.916478514671326E-1   5.941934585571289E-1  
 1.510000000000000E7     1.803912073373795E-1   9.709568619728088E-1   1.274162530899048E-1   4.776179417967796E-2   1.275829374790192E-1   4.790953546762466E-2  -7.784039974212647E-1   6.077216267585754E-1  
 1.540000000000000E7     2.144095897674561E-1   9.630758762359619E-1   1.331154704093933E-1   4.682509228587151E-2   1.334366500377655E-1   4.615451395511627E-2  -7.701334357261658E-1   6.198121309280396E-1  
 1.570000000000000E7     2.503220140933991E-1   9.550662040710449E-1   1.392640620470047E-1   4.410054907202721E-2   1.394436657428742E-1   4.396855458617210E-2  -7.564001083374023E-1   6.349557042121887E-1  
 1.600000000000000E7     2.855988144874573E-1   9.434626102447510E-1   1.454230546951294E-1   4.149401187896729E-2   1.458422988653183E-1   4.142060503363609E-2  -7.442209720611572E-1   6.465313434600830E-1  
 1.630000000000000E7     3.189253509044647E-1   9.313544034957886E-1   1.524913012981415E-1   3.852126747369766E-2   1.521811336278915E-1   3.875748440623283E-2  -7.306449413299561E-1   6.613333821296692E-1  
 1.660000000000000E7     3.531083762645721E-1   9.167318940162659E-1   1.591191142797470E-1   3.544517979025841E-2   1.589960902929306E-1   3.496853634715080E-2  -7.150040864944458E-1   6.756089925765991E-1  
 1.690000000000000E7     3.863497972488403E-1   9.027394652366638E-1   1.662309169769287E-1   3.226743265986443E-2   1.660851538181305E-1   3.199311345815659E-2  -7.013452053070068E-1   6.884685754776001E-1  
 1.720000000000000E7     4.215978682041168E-1   8.868525624275208E-1   1.726800501346588E-1   2.776434272527695E-2   1.731732487678528E-1   2.820375934243202E-2  -6.858851909637451E-1   7.018788456916809E-1  
 1.750000000000000E7     4.493114948272705E-1   8.716410994529724E-1   1.808069646358490E-1   2.489837259054184E-2   1.814410835504532E-1   2.440514042973518E-2  -6.703976988792419E-1   7.174515724182129E-1  
 1.780000000000000E7     4.844154119491577E-1   8.494222760200501E-1   1.877713799476624E-1   1.933783851563931E-2   1.884199082851410E-1   1.966718211770058E-2  -6.522076725959778E-1   7.290786504745483E-1  
 1.810000000000000E7     5.142601728439331E-1   8.308368921279907E-1   1.970413178205490E-1   1.444808952510357E-2   1.959822475910187E-1   1.379352621734142E-2  -6.332318782806397E-1   7.463145852088928E-1  
 1.840000000000000E7     5.468680858612061E-1   8.089691996574402E-1   2.053479999303818E-1   7.233509793877602E-3   2.046134024858475E-1   7.625622674822807E-3  -6.126214265823364E-1   7.596358656883240E-1  
 1.870000000000000E7     5.743765830993652E-1   7.866080403327942E-1   2.136120349168778E-1   1.542517915368080E-3   2.132174819707871E-1   1.279555261135101E-3  -5.918964147567749E-1   7.732903957366943E-1  
 1.900000000000000E7     6.032019853591919E-1   7.623910903930664E-1   2.222930490970612E-1  -5.274470895528793E-3   2.222342938184738E-1  -6.007442250847817E-3  -5.692838430404663E-1   7.870682477951050E-1  
 1.930000000000000E7     6.316416859626770E-1   7.362420558929443E-1   2.310215979814529E-1  -1.429569069296122E-2   2.318705618381500E-1  -1.368459220975637E-2  -5.451055765151978E-1   8.026940822601318E-1  
 1.960000000000000E7     6.591179370880127E-1   7.084465026855469E-1   2.404602468013763E-1  -2.319902181625366E-2   2.409515529870987E-1  -2.260222472250462E-2  -5.211815237998962E-1   8.154293298721314E-1  
 1.990000000000000E7     6.827286481857300E-1   6.802094578742981E-1   2.500473260879517E-1  -3.321508690714836E-2   2.508618831634522E-1  -3.317991271615028E-2  -4.906194210052490E-1   8.308668136596680E-1  
 2.020000000000000E7     7.074033021926880E-1   6.499848365783691E-1   2.605670690536499E-1  -4.410806670784950E-2   2.603434622287750E-1  -4.402206093072891E-2  -4.623775482177734E-1   8.418262004852295E-1  
 2.050000000000000E7     7.322472333908081E-1   6.183900237083435E-1   2.708704173564911E-1  -5.603366717696190E-2   2.694626450538635E-1  -5.651427432894707E-2  -4.303651452064514E-1   8.552218079566956E-1  
 2.080000000000000E7     7.531230449676514E-1   5.845205783843994E-1   2.814519405364990E-1  -7.025596499443054E-2   2.816390097141266E-1  -7.027516514062882E-2  -3.948364853858948E-1   8.690801858901978E-1  
 2.110000000000000E7     7.732711434364319E-1   5.510447621345520E-1   2.922296822071075E-1  -8.656531572341919E-2   2.925678789615631E-1  -8.677081763744354E-2  -3.563757538795471E-1   8.797502517700195E-1  
 2.140000000000000E7     7.913461327552795E-1   5.160144567489624E-1   3.030073344707489E-1  -1.046744138002396E-1   3.023034334182739E-1  -1.035880595445633E-1  -3.154389858245850E-1   8.899898529052734E-1  
 2.170000000000000E7     8.059850335121155E-1   4.804127514362335E-1   3.137146830558777E-1  -1.235480159521103E-1   3.139481246471405E-1  -1.228663846850395E-1  -2.702120244503021E-1   8.983794450759888E-1  
 2.200000000000000E7     8.211867809295654E-1   4.406948089599609E-1   3.237420320510864E-1  -1.462019681930542E-1   3.242544829845429E-1  -1.460381597280502E-1  -2.197616845369339E-1   9.039723873138428E-1  
 2.230000000000000E7     8.315789699554443E-1   4.018764197826386E-1   3.338116407394409E-1  -1.711381226778030E-1   3.337352275848389E-1  -1.705189645290375E-1  -1.665440201759338E-1   9.071781635284424E-1  
 2.260000000000000E7     8.406577110290527E-1   3.613808751106262E-1   3.424922823905945E-1  -1.994443386793137E-1   3.446308076381683E-1  -2.000568807125092E-1  -1.068206429481506E-1   9.063931107521057E-1  
 2.290000000000000E7     8.457589745521545E-1   3.200938999652863E-1   3.504512906074524E-1  -2.315053343772888E-1   3.515055775642395E-1  -2.313985377550125E-1  -4.108209908008575E-2   9.001128077507019E-1  
 2.320000000000000E7     8.464175462722778E-1   2.794903516769409E-1   3.560555279254913E-1  -2.690064311027527E-1   3.552963435649872E-1  -2.697744071483612E-1   2.980151027441025E-2   8.893945813179016E-1  
 2.350000000000000E7     8.437401056289673E-1   2.366715669631958E-1   3.575712740421295E-1  -3.114070594310761E-1   3.578020334243774E-1  -3.105474114418030E-1   1.065661460161209E-1   8.679037094116211E-1  
 2.380000000000000E7     8.366550803184509E-1   1.955884695053101E-1   3.563689291477203E-1  -3.562240004539490E-1   3.564891517162323E-1  -3.569683134555817E-1   1.896518170833588E-1   8.359181284904480E-1  
 2.410000000000000E7     8.257054090499878E-1   1.552772819995880E-1   3.478475511074066E-1  -4.087025523185730E-1   3.469312489032745E-1  -4.082414507865906E-1   2.765425741672516E-1   7.884671688079834E-1  
 2.440000000000000E7     8.077681064605713E-1   1.191217154264450E-1   3.304097056388855E-1  -4.655401408672333E-1   3.309067487716675E-1  -4.670739769935608E-1   3.663130998611450E-1   7.242036461830139E-1  
 2.470000000000000E7     7.856935262680054E-1   8.634285628795624E-2   3.020600974559784E-1  -5.259199738502502E-1   3.040393590927124E-1  -5.250244140625000E-1   4.566155076026917E-1   6.370451450347900E-1  
 2.500000000000000E7     7.586794495582581E-1   5.753117054700851E-2   2.620359063148499E-1  -5.874080061912537E-1   2.603914737701416E-1  -5.894234776496887E-1   5.396029353141785E-1   5.251464247703552E-1  
 2.530000000000000E7     7.265118360519409E-1   3.866869956254959E-2   2.040754407644272E-1  -6.504563093185425E-1   2.046741992235184E-1  -6.486553549766541E-1   6.074288487434387E-1   3.853207230567932E-1  
 2.560000000000000E7     6.946296691894531E-1   2.938817255198956E-2   1.299958974123001E-1  -7.025523781776428E-1   1.298326849937439E-1  -7.024980187416077E-1   6.502047777175903E-1   2.200734168291092E-1  
 2.590000000000000E7     6.666163206100464E-1   3.278623148798943E-2   3.497171774506569E-2  -7.379282116889954E-1   3.383976221084595E-2  -7.399102449417114E-1   6.561850905418396E-1   3.487181290984154E-2  
 2.620000000000000E7     6.446453928947449E-1   4.518593102693558E-2  -7.283635437488556E-2  -7.551831603050232E-1  -7.167335599660873E-2  -7.544661760330200E-1   6.142079234123230E-1  -1.596111953258514E-1  
 2.650000000000000E7     6.318541765213013E-1   6.512840837240219E-2  -1.817278414964676E-1  -7.444064021110535E-1  -1.832648962736130E-1  -7.455341815948486E-1   5.214585065841675E-1  -3.431720733642578E-1  
 2.680000000000000E7     6.341033577919006E-1   8.801433444023132E-2  -2.881343960762024E-1  -7.052786946296692E-1  -2.884416282176971E-1  -7.070379853248596E-1   3.833913207054138E-1  -4.972720742225647E-1  
 2.710000000000000E7     6.501198410987854E-1   1.047927960753441E-1  -3.786063194274902E-1  -6.436207890510559E-1  -3.806989490985870E-1  -6.424629092216492E-1   2.170684486627579E-1  -6.112095117568970E-1  
 2.740000000000000E7     6.763448715209961E-1   1.187939196825028E-1  -4.494156837463379E-1  -5.639386177062988E-1  -4.505039453506470E-1  -5.662790536880493E-1   3.207973763346672E-2  -6.753137707710266E-1  
 2.770000000000000E7     7.096779942512512E-1   1.193933859467506E-1  -4.947161972522736E-1  -4.783332049846649E-1  -4.970985352993012E-1  -4.806859493255615E-1  -1.467734873294830E-1  -6.948680281639099E-1  
 2.800000000000000E7     7.450675964355469E-1   1.109372377395630E-1  -5.206060409545898E-1  -3.921135067939758E-1  -5.198155045509338E-1  -3.954851925373077E-1  -3.130938112735748E-1  -6.764661669731140E-1  
 2.830000000000000E7     7.787820100784302E-1   9.100358188152313E-2  -5.278038978576660E-1  -3.125701248645783E-1  -5.286806225776672E-1  -3.126491010189056E-1  -4.544682502746582E-1  -6.321309208869934E-1  
 2.860000000000000E7     8.110504150390625E-1   6.293406337499619E-2  -5.216662287712097E-1  -2.410674244165421E-1  -5.226442813873291E-1  -2.418073266744614E-1  -5.737460851669312E-1  -5.703200101852417E-1  
 2.890000000000000E7     8.382394909858704E-1   2.903709933161736E-2  -5.071027874946594E-1  -1.798563450574875E-1  -5.066775083541870E-1  -1.794034540653229E-1  -6.696322560310364E-1  -4.973695874214172E-1  
 2.920000000000000E7     8.611872792243958E-1  -8.695263415575028E-3  -4.856694042682648E-1  -1.264556944370270E-1  -4.858670830726624E-1  -1.258110255002976E-1  -7.470784783363342E-1  -4.217546880245209E-1  
 2.950000000000000E7     8.785560131072998E-1  -4.933323711156845E-2  -4.618554115295410E-1  -8.379857987165451E-2  -4.617493152618408E-1  -8.376300334930420E-2  -8.052949905395508E-1  -3.468933999538422E-1  
 2.980000000000000E7     8.905374407768250E-1  -9.251645207405090E-2  -4.358544349670410E-1  -4.641490057110786E-2  -4.367663264274597E-1  -4.697806388139725E-2  -8.501996994018555E-1  -2.728776037693024E-1  
 3.010000000000000E7     8.984272480010986E-1  -1.378745287656784E-1  -4.107052385807037E-1  -1.616441272199154E-2  -4.100490510463715E-1  -1.742224767804146E-2  -8.836779594421387E-1  -2.035517841577530E-1  
 3.040000000000000E7     9.029920101165772E-1  -1.834202557802200E-1  -3.839662373065949E-1   8.084679953753948E-3  -3.860298097133637E-1   8.142925798892975E-3  -9.082632660865784E-1  -1.376827657222748E-1  
 3.070000000000000E7     9.007244706153870E-1  -2.286131381988525E-1  -3.592766225337982E-1   2.962271496653557E-2  -3.596293926239014E-1   2.883254736661911E-2  -9.263235330581665E-1  -7.650159299373627E-2  
 3.100000000000000E7     8.971682786941528E-1  -2.738219499588013E-1  -3.357127308845520E-1   4.548053815960884E-2  -3.355415463447571E-1   4.540359973907471E-2  -9.375131130218506E-1  -2.040264382958412E-2  
 3.130000000000000E7     8.904972076416016E-1  -3.175954818725586E-1  -3.134025335311890E-1   5.915088579058647E-2  -3.134542405605316E-1   5.890118330717087E-2  -9.443276524543762E-1   3.314705565571785E-2  
 3.160000000000000E7     8.795015215873718E-1  -3.618532121181488E-1  -2.914279699325562E-1   6.943801790475845E-2  -2.921706140041351E-1   6.997144967317581E-2  -9.473443627357483E-1   8.059706538915634E-2  
 3.190000000000000E7     8.663161396980286E-1  -4.041680395603180E-1  -2.713195979595184E-1   7.857213914394379E-2  -2.712762951850891E-1   7.849957048892975E-2  -9.479309320449829E-1   1.261169910430908E-1  
 3.220000000000000E7     8.517948985099793E-1  -4.467965662479401E-1  -2.520682513713837E-1   8.558269590139389E-2  -2.521789669990540E-1   8.573471754789352E-2  -9.460796117782593E-1   1.673264950513840E-1  
 3.250000000000000E7     8.335671424865723E-1  -4.878395199775696E-1  -2.344519495964050E-1   9.064098447561264E-2  -2.348419427871704E-1   9.124749898910523E-2  -9.429925680160523E-1   2.063261419534683E-1  
 3.280000000000000E7     8.120964765548706E-1  -5.269175171852112E-1  -2.175455987453461E-1   9.428030997514725E-2  -2.174843996763229E-1   9.490439295768738E-2  -9.379276037216187E-1   2.431208491325378E-1  
 3.310000000000000E7     7.904546260833740E-1  -5.650542378425598E-1  -2.017230689525604E-1   9.825073927640915E-2  -2.020434737205505E-1   9.851011633872986E-2  -9.320403337478638E-1   2.777885496616364E-1  
 3.340000000000000E7     7.659803628921509E-1  -6.029469370841980E-1  -1.872859150171280E-1   1.005476564168930E-1  -1.868306547403336E-1   1.006153672933579E-1  -9.242271780967712E-1   3.102760612964630E-1  
 3.370000000000000E7     7.394132614135742E-1  -6.380296945571899E-1  -1.728722155094147E-1   1.015467196702957E-1  -1.734461188316345E-1   1.013509482145309E-1  -9.170774817466736E-1   3.393113911151886E-1  
 3.400000000000000E7     7.104586958885193E-1  -6.732427477836609E-1  -1.596867293119431E-1   1.023015901446343E-1  -1.601388752460480E-1   1.024633198976517E-1  -9.074916839599609E-1   3.672878444194794E-1  
 3.430000000000000E7     6.808391809463501E-1  -7.070127725601196E-1  -1.475477516651154E-1   1.028301417827606E-1  -1.473292261362076E-1   1.022260487079620E-1  -8.986761569976807E-1   3.935723006725311E-1  
 3.460000000000000E7     6.481266617774963E-1  -7.387360930442810E-1  -1.358265280723572E-1   1.021902561187744E-1  -1.361123025417328E-1   1.019935384392738E-1  -8.903872370719910E-1   4.184005856513977E-1  
 3.490000000000000E7     6.146925687789917E-1  -7.685511112213135E-1  -1.250721663236618E-1   1.012963652610779E-1  -1.243755519390106E-1   1.007328256964684E-1  -8.790001869201660E-1   4.413691163063049E-1  
 3.520000000000000E7     5.799966454505920E-1  -7.977319955825806E-1  -1.143210530281067E-1   9.954728931188583E-2  -1.144703924655914E-1   9.904712438583374E-2  -8.702514171600342E-1   4.642811119556427E-1  
 3.550000000000000E7     5.418128967285156E-1  -8.240233659744263E-1  -1.046509817242622E-1   9.705273807048798E-2  -1.048988252878189E-1   9.735650569200516E-2  -8.606616854667664E-1   4.848642349243164E-1  
 3.580000000000000E7     5.039662122726440E-1  -8.496415019035339E-1  -9.525424242019653E-2   9.517155587673187E-2  -9.540840983390808E-2   9.499796479940414E-2  -8.492217063903809E-1   5.053982138633728E-1  
 3.610000000000000E7     4.639075100421906E-1  -8.734645247459412E-1  -8.699215203523636E-2   9.282390773296356E-2  -8.663075417280197E-2   9.260353446006775E-2  -8.401516079902649E-1   5.262261033058167E-1  
 3.640000000000000E7     4.228110313415527E-1  -8.950991034507752E-1  -7.857063412666321E-2   8.958058804273605E-2  -7.870855927467346E-2   8.963719755411148E-2  -8.288130164146423E-1   5.423558950424194E-1  
 3.670000000000000E7     3.817561268806458E-1  -9.146759510040283E-1  -7.095093280076981E-2   8.646279573440552E-2  -7.065510004758835E-2   8.638301491737366E-2  -8.183956742286682E-1   5.602022409439087E-1  
 3.700000000000000E7     3.370197415351868E-1  -9.324954748153687E-1  -6.345199048519135E-2   8.312237262725830E-2  -6.351544708013535E-2   8.326527476310730E-2  -8.070619702339172E-1   5.783105492591858E-1  
 3.730000000000000E7     2.929458916187286E-1  -9.480816721916199E-1  -5.634440854191780E-2   7.952804118394852E-2  -5.654916539788246E-2   7.968006283044815E-2  -7.954947948455811E-1   5.930763483047485E-1  
 3.760000000000000E7     2.481595724821091E-1  -9.616063237190247E-1  -5.008752271533012E-2   7.586303353309631E-2  -5.022561922669411E-2   7.598159462213516E-2  -7.853606343269348E-1   6.097996830940247E-1  
 3.790000000000000E7     2.018206417560577E-1  -9.731084704399109E-1  -4.421218484640122E-2   7.178778201341629E-2  -4.401450231671333E-2   7.176347076892853E-2  -7.741650938987732E-1   6.244335770606995E-1  
 3.820000000000000E7     1.525595635175705E-1  -9.828253984451294E-1  -3.865684941411018E-2   6.763701140880585E-2  -3.845897689461708E-2   6.761338561773300E-2  -7.628054022789002E-1   6.376118659973145E-1  
 3.850000000000000E7     1.035853773355484E-1  -9.883185625076294E-1  -3.334168344736099E-2   6.305428594350815E-2  -3.320690989494324E-2   6.310646981000900E-2  -7.535806894302368E-1   6.519433259963989E-1  
 3.880000000000000E7     5.523559823632240E-2  -9.925118684768677E-1  -2.844346873462200E-2   5.867984518408775E-2  -2.842558547854424E-2   5.835557729005814E-2  -7.419787645339966E-1   6.660706400871277E-1  
 3.910000000000000E7     3.965597599744797E-3  -9.948963522911072E-1  -2.389439754188061E-2   5.383257195353508E-2  -2.385248802602291E-2   5.379000678658485E-2  -7.311811447143555E-1   6.798870563507080E-1  
 3.940000000000000E7    -4.528949037194252E-2  -9.934513568878174E-1  -1.991482824087143E-2   4.891027137637138E-2  -1.983808353543282E-2   4.874359443783760E-2  -7.191032171249390E-1   6.907097697257996E-1  
 3.970000000000000E7    -9.650786221027374E-2  -9.921058416366577E-1  -1.623296737670898E-2   4.381769150495529E-2  -1.610616780817509E-2   4.386978596448898E-2  -7.069287896156311E-1   7.018924951553345E-1  
 4.000000000000000E7    -1.480029821395874E-1  -9.842182993888855E-1  -1.284577976912260E-2   3.856372088193893E-2  -1.276645809412003E-2   3.861225396394730E-2  -6.968569755554199E-1   7.145078182220459E-1  
 4.030000000000000E7    -1.989948302507401E-1  -9.761338233947754E-1  -9.929317981004715E-3   3.342695161700249E-2  -9.766022674739361E-3   3.317153453826904E-2  -6.858291625976563E-1   7.254501581192017E-1  
 4.060000000000000E7    -2.502941787242889E-1  -9.647734761238098E-1  -7.249807473272085E-3   2.777165174484253E-2  -7.310008164495230E-3   2.790497615933418E-2  -6.740881204605103E-1   7.356136441230774E-1  
 4.090000000000000E7    -3.017160296440125E-1  -9.487451314926148E-1  -5.034773610532284E-3   2.223833836615086E-2  -5.085760261863470E-3   2.216922119259834E-2  -6.634160876274109E-1   7.455402016639710E-1  
 4.120000000000000E7    -3.537010848522186E-1  -9.322962164878845E-1  -3.332580439746380E-3   1.645658165216446E-2  -3.273743903264403E-3   1.658299565315247E-2  -6.506403088569641E-1   7.562087774276733E-1  
 4.150000000000000E7    -4.040210545063019E-1  -9.111894369125366E-1  -1.893514068797231E-3   1.080670952796936E-2  -1.911664265207946E-3   1.082135271281004E-2  -6.393345594406128E-1   7.660984396934509E-1  
 4.180000000000000E7    -4.547798335552216E-1  -8.866971731185913E-1  -8.936619269661605E-4   5.073322448879480E-3  -9.002217557281256E-4   4.954435862600803E-3  -6.288147568702698E-1   7.744883894920349E-1  
 4.210000000000000E7    -5.042209029197693E-1  -8.598361015319824E-1  -2.760323986876756E-4  -9.446628973819315E-4  -3.170382697135210E-4  -9.789642645046115E-4  -6.170442700386047E-1   7.844582200050354E-1  
 4.240000000000000E7    -5.516812801361084E-1  -8.291027545928955E-1  -1.601266558282077E-4  -6.932991556823254E-3  -1.167604059446603E-4  -6.988034117966890E-3  -6.067241430282593E-1   7.937043905258179E-1  
 4.270000000000000E7    -6.005162596702576E-1  -7.940053939819336E-1  -5.152060184627771E-4  -1.298322528600693E-2  -4.621463594958186E-4  -1.300054695457220E-2  -5.940812826156616E-1   8.027474284172058E-1  
 4.300000000000000E7    -6.463084816932678E-1  -7.555432319641113E-1  -1.255951006896794E-3  -1.905805245041847E-2  -1.262657227925956E-3  -1.904913969337940E-2  -5.824329853057861E-1   8.112952709197998E-1  
 4.330000000000000E7    -6.920055150985718E-1  -7.176944017410278E-1  -2.500624861568213E-3  -2.513500116765499E-2  -2.451773732900620E-3  -2.505405992269516E-2  -5.706914663314819E-1   8.186379671096802E-1  
 4.360000000000000E7    -7.333449721336365E-1  -6.728075146675110E-1  -3.987568896263838E-3  -3.125023469328880E-2  -3.970318473875523E-3  -3.113671578466892E-2  -5.598749518394470E-1   8.263018727302551E-1  
 4.390000000000000E7    -7.749117612838745E-1  -6.232312321662903E-1  -6.338020786643028E-3  -3.723542019724846E-2  -6.398837082087994E-3  -3.719945624470711E-2  -5.477916002273560E-1   8.329869508743286E-1  
 4.420000000000000E7    -8.126032948493958E-1  -5.726771354675293E-1  -9.125692769885063E-3  -4.309254139661789E-2  -8.999178186058998E-3  -4.308686405420303E-2  -5.350220799446106E-1   8.401238918304443E-1  
 4.450000000000000E7    -8.480952382087708E-1  -5.175448060035706E-1  -1.205577049404383E-2  -4.905014857649803E-2  -1.223932951688767E-2  -4.903899133205414E-2  -5.246528387069702E-1   8.472202420234680E-1  
 4.480000000000000E7    -8.804453015327454E-1  -4.591264724731445E-1  -1.587866619229317E-2  -5.464530736207962E-2  -1.597401127219200E-2  -5.473058670759201E-2  -5.132900476455689E-1   8.537728786468506E-1  
 4.510000000000000E7    -9.094311594963074E-1  -3.981453776359558E-1  -2.014523744583130E-2  -6.040519475936890E-2  -2.021605893969536E-2  -6.034282594919205E-2  -5.013955235481262E-1   8.611308932304382E-1  
 4.540000000000000E7    -9.337471723556519E-1  -3.340755403041840E-1  -2.513344213366509E-2  -6.566636264324188E-2  -2.497281879186630E-2  -6.591005623340607E-2  -4.894083738327026E-1   8.671228289604187E-1  
 4.570000000000000E7    -9.550329446792603E-1  -2.660903036594391E-1  -3.072202950716019E-2  -7.095294445753098E-2  -3.060050681233406E-2  -7.114916294813156E-2  -4.772368073463440E-1   8.729701042175293E-1  
 4.600000000000000E7    -9.718618988990784E-1  -1.981060057878494E-1  -3.625877946615219E-2  -7.602581381797791E-2  -3.663279116153717E-2  -7.588916271924973E-2  -4.664804339408875E-1   8.782867193222046E-1  
 4.630000000000000E7    -9.819620847702026E-1  -1.229238137602806E-1  -4.300164803862572E-2  -8.035000413656235E-2  -4.313773289322853E-2  -8.020263910293579E-2  -4.547746181488037E-1   8.838283419609070E-1  
 4.660000000000000E7    -9.877692461013794E-1  -4.609064757823944E-2  -5.049700662493706E-2  -8.439171314239502E-2  -5.053707957267761E-2  -8.429981768131256E-2  -4.413730502128601E-1   8.895307183265686E-1  
 4.690000000000000E7    -9.878351688385010E-1   2.928590774536133E-2  -5.780408903956413E-2  -8.836739510297775E-2  -5.820134282112122E-2  -8.835007250308991E-2  -4.303511977195740E-1   8.946779370307922E-1  
 4.720000000000000E7    -9.815199971199036E-1   1.083216965198517E-1  -6.625299155712128E-2  -9.122675657272339E-2  -6.633230298757553E-2  -9.120154380798340E-2  -4.180025160312653E-1   8.987730145454407E-1  
 4.750000000000000E7    -9.683130383491516E-1   1.887746602296829E-1  -7.539608329534531E-2  -9.391147643327713E-2  -7.520311325788498E-2  -9.416402131319046E-2  -4.063525795936585E-1   9.034744501113892E-1  
 4.780000000000000E7    -9.492811560630798E-1   2.687111496925354E-1  -8.490391820669174E-2  -9.567449241876602E-2  -8.464843779802322E-2  -9.571291506290436E-2  -3.937057852745056E-1   9.064937829971314E-1  
 4.810000000000000E7    -9.197521805763245E-1   3.493559360504150E-1  -9.444574266672134E-2  -9.682711213827133E-2  -9.453844279050827E-2  -9.683682024478912E-2  -3.831203579902649E-1   9.108742475509644E-1  
 4.840000000000000E7    -8.842213153839111E-1   4.288895726203919E-1  -1.048631370067596E-1  -9.735337644815445E-2  -1.046883836388588E-1  -9.702290594577789E-2  -3.714159727096558E-1   9.147101640701294E-1  
 4.870000000000000E7    -8.414064645767212E-1   5.054153800010681E-1  -1.156494393944740E-1  -9.662608057260513E-2  -1.152871623635292E-1  -9.658616781234741E-2  -3.597545921802521E-1   9.181165099143982E-1  
 4.900000000000000E7    -7.899855375289917E-1   5.799894928932190E-1  -1.265607029199600E-1  -9.514503926038742E-2  -1.263031810522080E-1  -9.511700272560120E-2  -3.481824994087219E-1   9.208096861839294E-1  
 4.930000000000000E7    -7.297818064689636E-1   6.500496864318848E-1  -1.373243927955627E-1  -9.238475561141968E-2  -1.378507465124130E-1  -9.227000176906586E-2  -3.362965583801270E-1   9.244855046272278E-1  
 4.960000000000000E7    -6.648543477058411E-1   7.160562276840210E-1  -1.487631350755692E-1  -8.901580423116684E-2  -1.483732163906097E-1  -8.895827829837799E-2  -3.249346017837524E-1   9.268199205398560E-1  
 4.990000000000000E7    -5.896209478378296E-1   7.760507464408875E-1  -1.603095829486847E-1  -8.409433811903000E-2  -1.602200269699097E-1  -8.425600826740265E-2  -3.135769069194794E-1   9.287797212600708E-1  
 5.020000000000000E7    -5.075247287750244E-1   8.308113217353821E-1  -1.713349223136902E-1  -7.800588756799698E-2  -1.715345829725266E-1  -7.794915139675140E-2  -3.026755154132843E-1   9.317302107810974E-1  
 5.050000000000000E7    -4.196744263172150E-1   8.765269517898560E-1  -1.822708994150162E-1  -7.086887210607529E-2  -1.820061802864075E-1  -7.112760841846466E-2  -2.913629412651062E-1   9.345997571945190E-1  
 5.080000000000000E7    -3.250093162059784E-1   9.141605496406555E-1  -1.926250457763672E-1  -6.250109523534775E-2  -1.928070783615112E-1  -6.206760555505753E-2  -2.804171144962311E-1   9.343124032020569E-1  
 5.110000000000000E7    -2.261758148670197E-1   9.405902028083801E-1  -2.023162692785263E-1  -5.270587280392647E-2  -2.024793773889542E-1  -5.311362445354462E-2  -2.703132331371307E-1   9.371266365051270E-1  
 5.140000000000000E7    -1.255916208028793E-1   9.591216444969177E-1  -2.116916775703430E-1  -4.253623634576798E-2  -2.121291756629944E-1  -4.213798791170120E-2  -2.587046027183533E-1   9.404549002647400E-1  
 5.170000000000000E7    -1.890955865383148E-2   9.649015069007874E-1  -2.198573201894760E-1  -2.984974533319473E-2  -2.205262482166290E-1  -3.018513694405556E-2  -2.479612082242966E-1   9.391331672668457E-1  
 5.200000000000000E7     8.715627342462540E-2   9.595759510993958E-1  -2.270347923040390E-1  -1.723307557404041E-2  -2.269181013107300E-1  -1.696779206395149E-2  -2.376237809658051E-1   9.400389790534973E-1  
 5.230000000000000E7     1.912145018577576E-1   9.431993961334229E-1  -2.333529144525528E-1  -4.268843680620194E-3  -2.336695641279221E-1  -3.845177590847015E-3  -2.273328602313995E-1   9.420000314712524E-1  
 5.260000000000000E7     2.939461469650269E-1   9.145675897598267E-1  -2.386987954378128E-1   1.048422418534756E-2  -2.383875101804733E-1   1.037235371768475E-2  -2.177312225103378E-1   9.437217712402344E-1  
 5.290000000000000E7     3.933086991310120E-1   8.748139142990112E-1  -2.411937713623047E-1   2.505672164261341E-2  -2.419508397579193E-1   2.547576650977135E-2  -2.079479694366455E-1   9.439547061920166E-1  
 5.320000000000000E7     4.885731935501099E-1   8.238319158554077E-1  -2.436637729406357E-1   4.052608832716942E-2  -2.440070360898972E-1   4.055770859122276E-2  -1.976874172687531E-1   9.457154273986816E-1  
 5.350000000000000E7     5.766361355781555E-1   7.643207311630249E-1  -2.447965145111084E-1   5.570669472217560E-2  -2.452222704887390E-1   5.562107264995575E-2  -1.893054842948914E-1   9.465895891189575E-1  
 5.380000000000000E7     6.599075198173523E-1   6.945457458496094E-1  -2.443703860044479E-1   7.186318933963776E-2  -2.439851760864258E-1   7.251229882240295E-2  -1.781705021858215E-1   9.466472864151001E-1  
 5.410000000000000E7     7.301486134529114E-1   6.175527572631836E-1  -2.418985813856125E-1   8.676788210868835E-2  -2.421538978815079E-1   8.699116110801697E-2  -1.692629456520081E-1   9.481728672981262E-1  
 5.440000000000000E7     7.940372228622437E-1   5.331040024757385E-1  -2.383725345134735E-1   1.023790836334229E-1  -2.384009510278702E-1   1.024270206689835E-1  -1.600701510906220E-1   9.488884210586548E-1  
 5.470000000000000E7     8.466202020645142E-1   4.432263076305389E-1  -2.325904071331024E-1   1.169205605983734E-1  -2.331458330154419E-1   1.170690134167671E-1  -1.498124152421951E-1   9.502111673355103E-1  
 5.500000000000000E7     8.886159658432007E-1   3.500972390174866E-1  -2.272977530956268E-1   1.314764022827148E-1  -2.275382876396179E-1   1.316019892692566E-1  -1.401410847902298E-1   9.520781636238098E-1  
 5.530000000000000E7     9.209511280059815E-1   2.528861761093140E-1  -2.200576514005661E-1   1.444326937198639E-1  -2.197984457015991E-1   1.444766223430634E-1  -1.309798955917358E-1   9.525012373924255E-1  
 5.560000000000000E7     9.428538680076599E-1   1.558560281991959E-1  -2.116259932518005E-1   1.575834751129150E-1  -2.114673256874085E-1   1.568787246942520E-1  -1.227509230375290E-1   9.540106058120728E-1  
 5.590000000000000E7     9.534219503402710E-1   5.794371664524078E-2  -2.021022439002991E-1   1.686888784170151E-1  -2.026826441287994E-1   1.687436997890472E-1  -1.122325509786606E-1   9.544829130172730E-1  
 5.620000000000000E7     9.550552964210510E-1  -3.817448765039444E-2  -1.929282248020172E-1   1.795091032981873E-1  -1.923668235540390E-1   1.800900697708130E-1  -1.041119843721390E-1   9.562554955482483E-1  
 5.650000000000000E7     9.476039409637451E-1  -1.330384165048599E-1  -1.815449297428131E-1   1.886304765939713E-1  -1.814316958189011E-1   1.892050504684448E-1  -9.420621395111084E-2   9.571256041526794E-1  
 5.680000000000000E7     9.305788874626160E-1  -2.231894433498383E-1  -1.710626631975174E-1   1.975013017654419E-1  -1.709461361169815E-1   1.974379122257233E-1  -8.437976986169815E-2   9.578461050987244E-1  
 5.710000000000000E7     9.057993888854981E-1  -3.109512925148010E-1  -1.591181904077530E-1   2.051827907562256E-1  -1.600554138422012E-1   2.051405161619186E-1  -7.474986463785172E-2   9.594863653182983E-1  
 5.740000000000000E7     8.739787340164185E-1  -3.945098519325256E-1  -1.476142406463623E-1   2.120574712753296E-1  -1.478700935840607E-1   2.119131386280060E-1  -6.498519331216812E-2   9.604554176330566E-1  
 5.770000000000000E7     8.345336914062500E-1  -4.722918570041657E-1  -1.361486166715622E-1   2.173587530851364E-1  -1.352250874042511E-1   2.171381562948227E-1  -5.668444186449051E-2   9.609766006469727E-1  
 5.800000000000000E7     7.908532619476318E-1  -5.448130369186401E-1  -1.241902783513069E-1   2.228426933288574E-1  -1.241239160299301E-1   2.228320538997650E-1  -4.512740671634674E-2   9.633993506431580E-1  
 5.830000000000000E7     7.414080500602722E-1  -6.106688976287842E-1  -1.121281087398529E-1   2.255629450082779E-1  -1.124718710780144E-1   2.263542860746384E-1  -3.633501008152962E-2   9.643226265907288E-1  
 5.860000000000000E7     6.892921328544617E-1  -6.717869639396668E-1  -1.005971357226372E-1   2.284978926181793E-1  -1.007098108530045E-1   2.290805280208588E-1  -2.569470740854740E-2   9.646317958831787E-1  
 5.890000000000000E7     6.309362053871155E-1  -7.275922894477844E-1  -8.870898187160492E-2   2.309793978929520E-1  -8.898571133613586E-2   2.302455306053162E-1  -1.653974875807762E-2   9.653971195220947E-1  
 5.920000000000000E7     5.717391371726990E-1  -7.768149375915527E-1  -7.730283588171005E-2   2.324200570583344E-1  -7.736685872077942E-2   2.331139296293259E-1  -5.751708522439003E-3   9.669257998466492E-1  
 5.950000000000000E7     5.088788866996765E-1  -8.194156885147095E-1  -6.595802307128906E-2   2.325174361467362E-1  -6.599193066358566E-2   2.329197227954865E-1   4.372125491499901E-3   9.662928581237793E-1  
 5.980000000000000E7     4.453496932983398E-1  -8.573421835899353E-1  -5.464851856231690E-2   2.329118102788925E-1  -5.492995679378510E-2   2.328419834375382E-1   1.529537513852119E-2   9.670844674110413E-1  
 6.010000000000000E7     3.797141015529633E-1  -8.874261975288391E-1  -4.504134505987167E-2   2.321155369281769E-1  -4.440534487366676E-2   2.316582351922989E-1   2.492287755012512E-2   9.686074256896973E-1  
 6.040000000000000E7     3.141911029815674E-1  -9.147824048995972E-1  -3.462339937686920E-2   2.311455458402634E-1  -3.476836904883385E-2   2.315256893634796E-1   3.556011989712715E-2   9.691513180732727E-1  
 6.070000000000000E7     2.494753897190094E-1  -9.353441596031189E-1  -2.511645667254925E-2   2.293890416622162E-1  -2.493133023381233E-2   2.288939356803894E-1   4.557839035987854E-2   9.688262939453125E-1  
 6.100000000000000E7     1.831372380256653E-1  -9.502727985382080E-1  -1.463850587606430E-2   2.267822772264481E-1  -1.494935341179371E-2   2.272708714008331E-1   5.753865465521812E-2   9.691275954246521E-1  
 6.130000000000000E7     1.184323877096176E-1  -9.629689455032349E-1  -6.246746517717838E-3   2.248978316783905E-1  -6.318476051092148E-3   2.248204201459885E-1   6.860333681106567E-2   9.694482088088989E-1  
 6.160000000000000E7     5.350952222943306E-2  -9.690336585044861E-1   2.179277129471302E-3   2.213653177022934E-1   2.448615618050098E-3   2.218124121427536E-1   7.797370105981827E-2   9.682894349098206E-1  
 6.190000000000000E7    -1.035911962389946E-2  -9.708332419395447E-1   1.056995801627636E-2   2.183413356542587E-1   1.116930786520243E-2   2.185065895318985E-1   8.817423880100250E-2   9.675229787826538E-1  
 6.220000000000000E7    -7.194606959819794E-2  -9.686139225959778E-1   1.823445782065392E-2   2.142295688390732E-1   1.872464455664158E-2   2.153709977865219E-1   9.871545433998108E-2   9.688088893890381E-1  
 6.250000000000000E7    -1.334262341260910E-1  -9.634543657302856E-1   2.589954808354378E-2   2.111119031906128E-1   2.653573825955391E-2   2.113328576087952E-1   1.094955950975418E-1   9.680866599082947E-1  
 6.280000000000000E7    -1.920899897813797E-1  -9.534685611724854E-1   3.335814177989960E-2   2.073081582784653E-1   3.354756906628609E-2   2.073706388473511E-1   1.209930032491684E-1   9.677629470825195E-1  
 6.310000000000000E7    -2.512303590774536E-1  -9.413211345672607E-1   4.062855243682861E-2   2.035917192697525E-1   4.042948782444000E-2   2.028909921646118E-1   1.317480206489563E-1   9.670391678810120E-1  
 6.340000000000000E7    -3.059547245502472E-1  -9.246364831924439E-1   4.688774794340134E-2   1.988956630229950E-1   4.708448424935341E-2   1.987776011228561E-1   1.430605649948120E-1   9.663564562797546E-1  
 6.370000000000000E7    -3.597880899906158E-1  -9.063632488250732E-1   5.313924700021744E-2   1.942283809185028E-1   5.317972972989082E-2   1.942258626222611E-1   1.535600572824478E-1   9.640600085258484E-1  
 6.400000000000000E7    -4.120869934558868E-1  -8.841342329978943E-1   5.937175452709198E-2   1.894871145486832E-1   5.943995714187622E-2   1.895176619291306E-1   1.649756282567978E-1   9.638855457305908E-1  
 6.430000000000000E7    -4.624515473842621E-1  -8.603407740592957E-1   6.439229846000671E-2   1.853472143411636E-1   6.470094621181488E-2   1.847697198390961E-1   1.760359704494476E-1   9.619116187095642E-1  
 6.460000000000000E7    -5.090638399124146E-1  -8.344549536705017E-1   6.926833838224411E-2   1.800860613584518E-1   6.938388198614121E-2   1.798825711011887E-1   1.861006617546082E-1   9.599650502204895E-1  
 6.490000000000000E7    -5.532301068305969E-1  -8.055678009986877E-1   7.383988797664642E-2   1.749801039695740E-1   7.409628480672836E-2   1.752708852291107E-1   1.972258836030960E-1   9.589676260948181E-1  
 6.520000000000000E7    -5.962355732917786E-1  -7.752378582954407E-1   7.870461791753769E-2   1.708817183971405E-1   7.881558686494827E-2   1.701880395412445E-1   2.084057331085205E-1   9.580406546592712E-1  
 6.550000000000000E7    -6.361600756645203E-1  -7.429609298706055E-1   8.318915963172913E-2   1.652683764696121E-1   8.288256824016571E-2   1.651068031787872E-1   2.193227857351303E-1   9.541502594947815E-1  
 6.580000000000000E7    -6.755480766296387E-1  -7.089404463768005E-1   8.747854828834534E-2   1.601026952266693E-1   8.705054968595505E-2   1.601479649543762E-1   2.306122183799744E-1   9.537100791931152E-1  
 6.610000000000000E7    -7.111168503761292E-1  -6.720612049102783E-1   9.107273072004318E-2   1.550217568874359E-1   9.130661189556122E-2   1.543614119291306E-1   2.425140738487244E-1   9.496308565139771E-1  
 6.640000000000000E7    -7.447049617767334E-1  -6.374304890632629E-1   9.417552500963211E-2   1.502330005168915E-1   9.391969442367554E-2   1.500576883554459E-1   2.542634606361389E-1   9.478510618209839E-1  
 6.670000000000000E7    -7.767416238784790E-1  -5.984110832214356E-1   9.759329259395599E-2   1.447513699531555E-1   9.714016318321228E-2   1.448615044355393E-1   2.640687823295593E-1   9.460690617561340E-1  
 6.700000000000000E7    -8.053519129753113E-1  -5.590920448303223E-1   1.003731638193131E-1   1.397813260555267E-1   1.003046929836273E-1   1.395434886217117E-1   2.750111520290375E-1   9.424246549606323E-1  
 6.730000000000000E7    -8.325554728507996E-1  -5.191664099693298E-1   1.025391221046448E-1   1.347541809082031E-1   1.033837422728539E-1   1.344039142131805E-1   2.868556380271912E-1   9.403125047683716E-1  
 6.760000000000000E7    -8.563981056213379E-1  -4.791809320449829E-1   1.057910397648811E-1   1.293167769908905E-1   1.054828166961670E-1   1.294775307178497E-1   2.982603609561920E-1   9.368852376937866E-1  
 6.790000000000000E7    -8.789774179458618E-1  -4.374966919422150E-1   1.073597073554993E-1   1.245842352509499E-1   1.077828332781792E-1   1.244384869933128E-1   3.083147704601288E-1   9.334480166435242E-1  
 6.820000000000000E7    -8.995282649993897E-1  -3.949864804744721E-1   1.095869615674019E-1   1.193356290459633E-1   1.095530614256859E-1   1.193761155009270E-1   3.194911479949951E-1   9.307094812393189E-1  
 6.850000000000000E7    -9.182863831520081E-1  -3.530315160751343E-1   1.115656048059464E-1   1.150055304169655E-1   1.113845258951187E-1   1.147697418928146E-1   3.300784230232239E-1   9.275400042533875E-1  
 6.880000000000000E7    -9.335367679595947E-1  -3.098708391189575E-1   1.131313741207123E-1   1.096327006816864E-1   1.131520047783852E-1   1.094218492507935E-1   3.415651321411133E-1   9.229993820190430E-1  
 6.910000000000000E7    -9.461339116096497E-1  -2.666123211383820E-1   1.146875098347664E-1   1.047101393342018E-1   1.145549118518829E-1   1.046666577458382E-1   3.533471226692200E-1   9.195305705070496E-1  
 6.940000000000000E7    -9.585915803909302E-1  -2.240307480096817E-1   1.156354397535324E-1   1.000841036438942E-1   1.157203540205956E-1   1.000227630138397E-1   3.634449541568756E-1   9.158475399017334E-1  
 6.970000000000000E7    -9.677594900131226E-1  -1.794885694980621E-1   1.166809052228928E-1   9.521366655826569E-2   1.169933974742889E-1   9.500636905431747E-2   3.751661777496338E-1   9.113267064094544E-1  
 7.000000000000000E7    -9.757007956504822E-1  -1.364312916994095E-1   1.176932454109192E-1   9.059207886457443E-2   1.178023144602776E-1   9.023431688547134E-2   3.858939111232758E-1   9.078699946403503E-1  
