#  HZ   S   RI   R     50.00 
! Rohde & Schwarz ZVT8 8Ports - Version 4.11 - 1300.0000k08 SN: 100242
! Date: 2026-07-31 14:07:44
! Measurements: S11 S21 S12 S22 
! 
 1.000000000000000E7    -3.973188698291779E-1   9.140205383300781E-1   5.700901523232460E-2   5.657374113798142E-2   5.681952461600304E-2   5.664714425802231E-2  -9.148279428482056E-1   3.962407112121582E-1  
 1.030000000000000E7    -3.639039993286133E-1   9.261922836303711E-1   6.099985912442207E-2   5.717378854751587E-2   6.094135344028473E-2   5.745651945471764E-2  -9.076111912727356E-1   4.097138643264771E-1  
 1.060000000000000E7    -3.272082209587097E-1   9.390935301780701E-1   6.513458490371704E-2   5.849669873714447E-2   6.531248241662979E-2   5.829671397805214E-2  -9.027962088584900E-1   4.225378334522247E-1  
 1.090000000000000E7    -2.940907776355743E-1   9.495919346809387E-1   6.946960091590881E-2   5.909233167767525E-2   6.940142065286636E-2   5.918171629309654E-2  -8.960891962051392E-1   4.358323812484741E-1  
 1.120000000000000E7    -2.573863565921783E-1   9.587792158126831E-1   7.438150793313980E-2   6.026508659124374E-2   7.402774691581726E-2   6.001724302768707E-2  -8.893145322799683E-1   4.487417340278626E-1  
 1.150000000000000E7    -2.204532176256180E-1   9.687566757202148E-1   7.885303348302841E-2   6.043035537004471E-2   7.878741621971130E-2   6.049343198537827E-2  -8.812772631645203E-1   4.595338702201843E-1  
 1.180000000000000E7    -1.842083036899567E-1   9.737696647644043E-1   8.376376330852509E-2   6.080250069499016E-2   8.375284075737000E-2   6.087661162018776E-2  -8.752296566963196E-1   4.718133807182312E-1  
 1.210000000000000E7    -1.481223255395889E-1   9.807867407798767E-1   8.929783850908279E-2   6.143806129693985E-2   8.901155740022659E-2   6.130035221576691E-2  -8.659499883651733E-1   4.859222471714020E-1  
 1.240000000000000E7    -1.105439513921738E-1   9.842108488082886E-1   9.475259482860565E-2   6.185651570558548E-2   9.486965090036392E-2   6.138023734092712E-2  -8.580974340438843E-1   4.977191686630249E-1  
 1.270000000000000E7    -7.280147820711136E-2   9.867290258407593E-1   1.009010672569275E-1   6.139815598726273E-2   1.006379798054695E-1   6.115324050188065E-2  -8.489637970924377E-1   5.137636065483093E-1  
 1.300000000000000E7    -3.546032309532166E-2   9.891296029090881E-1   1.067011877894402E-1   6.129680573940277E-2   1.067594066262245E-1   6.125611439347267E-2  -8.398656845092773E-1   5.261996388435364E-1  
 1.330000000000000E7     2.858854830265045E-3   9.894889593124390E-1   1.135135591030121E-1   6.078017875552177E-2   1.135188564658165E-1   6.037558242678642E-2  -8.297348618507385E-1   5.406106710433960E-1  
 1.360000000000000E7     4.274124652147293E-2   9.877815842628479E-1   1.201859489083290E-1   6.050274148583412E-2   1.207059472799301E-1   5.973255634307861E-2  -8.199844956398010E-1   5.529922246932983E-1  
 1.390000000000000E7     8.014702051877976E-2   9.837012887001038E-1   1.277354657649994E-1   5.920161306858063E-2   1.274660825729370E-1   5.952248722314835E-2  -8.095781207084656E-1   5.672498345375061E-1  
 1.420000000000000E7     1.202625855803490E-1   9.798263907432556E-1   1.348319798707962E-1   5.838439241051674E-2   1.352330595254898E-1   5.820850282907486E-2  -7.996733188629150E-1   5.804677009582520E-1  
 1.450000000000000E7     1.589292287826538E-1   9.716485142707825E-1   1.432270556688309E-1   5.646924674510956E-2   1.432379186153412E-1   5.651627853512764E-2  -7.855776548385620E-1   5.957654118537903E-1  
 1.480000000000000E7     1.993204504251480E-1   9.634025692939758E-1   1.517588943243027E-1   5.440724641084671E-2   1.518997848033905E-1   5.492640286684036E-2  -7.742037773132324E-1   6.088848114013672E-1  
 1.510000000000000E7     2.383646965026856E-1   9.530947804450989E-1   1.606169939041138E-1   5.229371786117554E-2   1.606725752353668E-1   5.239022523164749E-2  -7.585859894752502E-1   6.239508390426636E-1  
 1.540000000000000E7     2.772998809814453E-1   9.409468173980713E-1   1.700751483440399E-1   5.042874440550804E-2   1.700717359781265E-1   4.977033659815788E-2  -7.475304603576660E-1   6.375782489776611E-1  
 1.570000000000000E7     3.177901804447174E-1   9.279933571815491E-1   1.800358444452286E-1   4.660750553011894E-2   1.805695891380310E-1   4.657156020402908E-2  -7.310566306114197E-1   6.537843942642212E-1  
 1.600000000000000E7     3.572831153869629E-1   9.100469946861267E-1   1.904050260782242E-1   4.269435256719589E-2   1.911431849002838E-1   4.238875955343247E-2  -7.158575654029846E-1   6.661943793296814E-1  
 1.630000000000000E7     3.957538008689880E-1   8.913372159004211E-1   2.025652676820755E-1   3.753227740526199E-2   2.024272531270981E-1   3.814154863357544E-2  -6.982349157333374E-1   6.830794215202332E-1  
 1.660000000000000E7     4.345685839653015E-1   8.696157336235046E-1   2.146589607000351E-1   3.210693597793579E-2   2.144129574298859E-1   3.169303759932518E-2  -6.780614256858826E-1   6.976912617683411E-1  
 1.690000000000000E7     4.727597832679749E-1   8.460748195648193E-1   2.276420891284943E-1   2.626888826489449E-2   2.274088412523270E-1   2.572788298130035E-2  -6.588131189346314E-1   7.122614979743958E-1  
 1.720000000000000E7     5.128270983695984E-1   8.202341794967651E-1   2.400574237108231E-1   1.776638440787792E-2   2.410788238048554E-1   1.832053810358048E-2  -6.374564170837402E-1   7.271403074264526E-1  
 1.750000000000000E7     5.459328889846802E-1   7.944217920303345E-1   2.562341690063477E-1   1.091468147933483E-2   2.565342485904694E-1   1.012705825269222E-2  -6.147342324256897E-1   7.435053586959839E-1  
 1.780000000000000E7     5.844838619232178E-1   7.588240504264832E-1   2.701117098331451E-1  -2.402290701866150E-4   2.709941565990448E-1   1.064799726009369E-4  -5.890037417411804E-1   7.559665441513062E-1  
 1.810000000000000E7     6.184754371643066E-1   7.257128953933716E-1   2.881700396537781E-1  -1.226536370813847E-2   2.867612242698669E-1  -1.303585246205330E-2  -5.606659650802612E-1   7.738020420074463E-1  
 1.840000000000000E7     6.540654897689819E-1   6.869663000106812E-1   3.051561415195465E-1  -2.836777828633785E-2   3.044309914112091E-1  -2.727394923567772E-2  -5.299457907676697E-1   7.866258621215820E-1  
 1.870000000000000E7     6.845397353172302E-1   6.463421583175659E-1   3.234884142875671E-1  -4.354605451226234E-2   3.227004706859589E-1  -4.409920796751976E-2  -4.969262778759003E-1   7.993363142013550E-1  
 1.900000000000000E7     7.146717905998230E-1   6.011877655982971E-1   3.427887260913849E-1  -6.268829852342606E-2   3.423909842967987E-1  -6.388236582279205E-2  -4.602589011192322E-1   8.115036487579346E-1  
 1.930000000000000E7     7.419115900993347E-1   5.507668852806091E-1   3.616720736026764E-1  -8.788915723562241E-2   3.629146516323090E-1  -8.710550516843796E-2  -4.190862178802490E-1   8.235106468200684E-1  
 1.960000000000000E7     7.658833265304565E-1   4.960998892784119E-1   3.818598389625549E-1  -1.151293069124222E-1   3.831315040588379E-1  -1.146107167005539E-1  -3.769353330135346E-1   8.319746851921082E-1  
 1.990000000000000E7     7.834756374359131E-1   4.388326704502106E-1   4.026954174041748E-1  -1.478146165609360E-1   4.036925733089447E-1  -1.487720906734467E-1  -3.249496221542358E-1   8.382005095481873E-1  
 2.020000000000000E7     7.967619299888611E-1   3.747805058956146E-1   4.232935309410095E-1  -1.869226247072220E-1   4.230730831623077E-1  -1.864410638809204E-1  -2.724237740039825E-1   8.382122516632080E-1  
 2.050000000000000E7     8.050615787506104E-1   3.055789172649384E-1   4.423933625221252E-1  -2.324698418378830E-1   4.401481151580811E-1  -2.321105301380158E-1  -2.124072909355164E-1   8.348154425621033E-1  
 2.080000000000000E7     8.012087345123291E-1   2.332898378372192E-1   4.578152596950531E-1  -2.879129648208618E-1   4.585675299167633E-1  -2.884759306907654E-1  -1.452937722206116E-1   8.235224485397339E-1  
 2.110000000000000E7     7.875413894653320E-1   1.587563008069992E-1   4.675822257995606E-1  -3.537954390048981E-1   4.680939614772797E-1  -3.539474308490753E-1  -7.486139982938767E-2   8.003237247467041E-1  
 2.140000000000000E7     7.604526281356812E-1   8.370017260313034E-2   4.689120948314667E-1  -4.288865923881531E-1   4.696098864078522E-1  -4.270670711994171E-1  -3.837049007415772E-6   7.655792832374573E-1  
 2.170000000000000E7     7.168829441070557E-1   9.538613259792328E-3   4.593689143657684E-1  -5.133264660835266E-1   4.605262875556946E-1  -5.129868388175964E-1   7.663258165121079E-2   7.120919227600098E-1  
 2.200000000000000E7     6.553676724433899E-1  -5.858224630355835E-2   4.303279817104340E-1  -6.069364547729492E-1   4.310949444770813E-1  -6.077098846435547E-1   1.499132663011551E-1   6.393175125122070E-1  
 2.230000000000000E7     5.758806467056274E-1  -1.120465248823166E-1   3.792879879474640E-1  -7.051991224288940E-1   3.802880942821503E-1  -7.052530050277710E-1   2.130152732133865E-1   5.445446968078613E-1  
 2.260000000000000E7     4.805534183979034E-1  -1.458544433116913E-1   2.996627688407898E-1  -8.018952608108521E-1   3.008025586605072E-1  -8.036167621612549E-1   2.552065551280975E-1   4.280150234699249E-1  
 2.290000000000000E7     3.769311606884003E-1  -1.489818692207336E-1   1.907366216182709E-1  -8.851548433303833E-1   1.916154474020004E-1  -8.862016201019287E-1   2.727693021297455E-1   2.930269539356232E-1  
 2.320000000000000E7     2.800575792789459E-1  -1.181815415620804E-1   5.520467832684517E-2  -9.423682689666748E-1   5.434501171112061E-2  -9.429580569267273E-1   2.548153698444367E-1   1.578541249036789E-1  
 2.350000000000000E7     1.990340054035187E-1  -5.835358798503876E-2  -9.696851670742035E-2  -9.647901058197022E-1  -9.635517746210098E-2  -9.654359221458435E-1   1.966313272714615E-1   2.642198093235493E-2  
 2.380000000000000E7     1.417400240898132E-1   2.299013920128346E-2  -2.498674839735031E-1  -9.486174583435059E-1  -2.504417002201080E-1  -9.490821361541748E-1   1.052503213286400E-1  -8.264786750078201E-2  
 2.410000000000000E7     1.208929792046547E-1   1.129353120923042E-1  -3.918059766292572E-1  -8.969817161560059E-1  -3.917118012905121E-1  -8.963645100593567E-1  -5.066637881100178E-3  -1.582089960575104E-1  
 2.440000000000000E7     1.336425840854645E-1   1.977514326572418E-1  -5.095812082290649E-1  -8.167361617088318E-1  -5.116072893142700E-1  -8.178894519805908E-1  -1.241143941879273E-1  -1.959583759307861E-1  
 2.470000000000000E7     1.701129376888275E-1   2.683674693107605E-1  -6.036539077758789E-1  -7.219340205192566E-1  -6.036437153816223E-1  -7.210367918014526E-1  -2.401809096336365E-1  -2.072612345218658E-1  
 2.500000000000000E7     2.226578444242477E-1   3.218802809715271E-1  -6.710283756256104E-1  -6.193828582763672E-1  -6.730107069015503E-1  -6.193812489509583E-1  -3.389537334442139E-1  -1.897734552621841E-1  
 2.530000000000000E7     2.880246639251709E-1   3.543340265750885E-1  -7.165390849113464E-1  -5.174616575241089E-1  -7.154316902160645E-1  -5.188007354736328E-1  -4.244355559349060E-1  -1.551732718944550E-1  
 2.560000000000000E7     3.522749245166779E-1   3.646543025970459E-1  -7.449361681938171E-1  -4.221739470958710E-1  -7.441188097000122E-1  -4.232866466045380E-1  -4.924580156803131E-1  -1.095283553004265E-1  
 2.590000000000000E7     4.167381823062897E-1   3.534063398838043E-1  -7.612773180007935E-1  -3.339503407478333E-1  -7.621632814407349E-1  -3.338772952556610E-1  -5.422803759574890E-1  -6.329886615276337E-2  
 2.620000000000000E7     4.767105877399445E-1   3.292623162269592E-1  -7.703764438629150E-1  -2.504800260066986E-1  -7.697132825851440E-1  -2.510872483253479E-1  -5.791638493537903E-1  -1.232328452169895E-2  
 2.650000000000000E7     5.280556082725525E-1   2.920479178428650E-1  -7.705889940261841E-1  -1.746847331523895E-1  -7.727292180061340E-1  -1.741231381893158E-1  -6.021902561187744E-1   3.919485956430435E-2  
 2.680000000000000E7     5.709047317504883E-1   2.414410859346390E-1  -7.701494097709656E-1  -1.028367280960083E-1  -7.728909254074097E-1  -1.022828370332718E-1  -6.136863231658936E-1   8.761368691921234E-2  
 2.710000000000000E7     6.019875407218933E-1   1.804120242595673E-1  -7.703897356987000E-1  -3.078500926494598E-2  -7.698122859001160E-1  -2.954491600394249E-2  -6.170356869697571E-1   1.308476626873016E-1  
 2.740000000000000E7     6.230903863906860E-1   1.089434549212456E-1  -7.656698822975159E-1   3.820601478219032E-2  -7.686803936958313E-1   3.970077633857727E-2  -6.076134443283081E-1   1.724628061056137E-1  
 2.770000000000000E7     6.260075569152832E-1   2.903434447944164E-2  -7.628719210624695E-1   1.118801534175873E-1  -7.655635476112366E-1   1.133682951331139E-1  -5.926494002342224E-1   2.069564908742905E-1  
 2.800000000000000E7     6.116109490394592E-1  -5.905340611934662E-2  -7.568166255950928E-1   1.912672817707062E-1  -7.595157027244568E-1   1.895685344934464E-1  -5.671727657318115E-1   2.367093861103058E-1  
 2.830000000000000E7     5.700118541717529E-1  -1.549284607172012E-1  -7.464120984077454E-1   2.799670398235321E-1  -7.475990653038025E-1   2.809983491897583E-1  -5.363216996192932E-1   2.528776228427887E-1  
 2.860000000000000E7     4.933169782161713E-1  -2.517552077770233E-1  -7.270545363426209E-1   3.818865418434143E-1  -7.284197211265564E-1   3.840945959091187E-1  -4.938164353370667E-1   2.596637606620789E-1  
 2.890000000000000E7     3.706443309783936E-1  -3.371159732341766E-1  -6.886889338493347E-1   5.020749568939209E-1  -6.881986856460571E-1   5.019466876983643E-1  -4.460786283016205E-1   2.453779727220535E-1  
 2.920000000000000E7     1.954849809408188E-1  -3.933924138545990E-1  -6.153653264045715E-1   6.352244019508362E-1  -6.142272353172302E-1   6.362954378128052E-1  -3.999621868133545E-1   2.048394680023193E-1  
 2.950000000000000E7    -3.535009175539017E-2  -3.697872459888458E-1  -4.845724105834961E-1   7.715135216712952E-1  -4.850430190563202E-1   7.718555331230164E-1  -3.673414885997772E-1   1.293664276599884E-1  
 2.980000000000000E7    -2.750805616378784E-1  -2.269941419363022E-1  -2.838834226131439E-1   8.688305020332336E-1  -2.835456430912018E-1   8.708518743515015E-1  -3.774286210536957E-1   2.304447442293167E-2  
 3.010000000000000E7    -4.331351220607758E-1   5.399473011493683E-2  -3.536894172430039E-2   8.763080835342407E-1  -3.541405498981476E-2   8.766440749168396E-1  -4.508540928363800E-1  -8.034447580575943E-2  
 3.040000000000000E7    -4.251624047756195E-1   3.917800784111023E-1   1.868622601032257E-1   7.674303054809570E-1   1.882823705673218E-1   7.679865956306458E-1  -5.813781619071960E-1  -1.345272958278656E-1  
 3.070000000000000E7    -2.590228021144867E-1   6.624684929847717E-1   3.249362707138062E-1   5.944683551788330E-1   3.228844404220581E-1   5.950126051902771E-1  -7.143864631652832E-1  -1.198356375098229E-1  
 3.100000000000000E7    -2.440202981233597E-2   8.108392953872681E-1   3.676908016204834E-1   4.207033216953278E-1   3.683046698570252E-1   4.206902980804443E-1  -8.186422586441040E-1  -5.950418114662170E-2  
 3.130000000000000E7     2.027407884597778E-1   8.521015644073486E-1   3.551743328571320E-1   2.813588678836823E-1   3.547876477241516E-1   2.818020284175873E-1  -8.852277398109436E-1   2.117773517966270E-2  
 3.160000000000000E7     3.938874900341034E-1   8.305691480636597E-1   3.170377612113953E-1   1.833428293466568E-1   3.174828886985779E-1   1.841718703508377E-1  -9.197901487350464E-1   9.894427657127380E-2  
 3.190000000000000E7     5.416361093521118E-1   7.745670676231384E-1   2.732844948768616E-1   1.162571012973785E-1   2.734669744968414E-1   1.162861660122871E-1  -9.354618787765503E-1   1.699120402336121E-1  
 3.220000000000000E7     6.567541956901550E-1   7.046539187431335E-1   2.309788316488266E-1   7.163180410861969E-2   2.314665168523789E-1   7.151419669389725E-2  -9.384529590606690E-1   2.307967841625214E-1  
 3.250000000000000E7     7.446581721305847E-1   6.287214756011963E-1   1.940281540155411E-1   4.238544031977654E-2   1.944952309131622E-1   4.230404645204544E-2  -9.352607727050781E-1   2.836453616619110E-1  
 3.280000000000000E7     8.113699555397034E-1   5.504832267761231E-1   1.619135886430740E-1   2.298119850456715E-2   1.620844602584839E-1   2.224801294505596E-2  -9.268680810928345E-1   3.294210731983185E-1  
 3.310000000000000E7     8.624868392944336E-1   4.765549898147583E-1   1.352680027484894E-1   9.481007233262062E-3   1.354853212833405E-1   9.615677408874035E-3  -9.172291755676270E-1   3.694990575313568E-1  
 3.340000000000000E7     9.028784632682800E-1   4.057771265506744E-1   1.131640374660492E-1   1.170686329714954E-3   1.129557341337204E-1   1.032629865221679E-3  -9.045305252075195E-1   4.052230417728424E-1  
 3.370000000000000E7     9.318143725395203E-1   3.364024162292481E-1   9.406972676515579E-2  -4.225392360240221E-3   9.403145313262940E-2  -4.060675390064716E-3  -8.932094573974609E-1   4.354415833950043E-1  
 3.400000000000000E7     9.551280736923218E-1   2.706451117992401E-1   7.845701277256012E-2  -7.451001554727554E-3   7.849978655576706E-2  -7.346689701080322E-3  -8.794864416122437E-1   4.634937345981598E-1  
 3.430000000000000E7     9.721005558967590E-1   2.086738049983978E-1   6.533521413803101E-2  -9.552929550409317E-3   6.533700972795487E-2  -9.412676095962524E-3  -8.667737245559692E-1   4.883851706981659E-1  
 3.460000000000000E7     9.839028120040894E-1   1.479381024837494E-1   5.429958552122116E-2  -1.033401768654585E-2   5.435297265648842E-2  -1.021802518516779E-2  -8.554168939590454E-1   5.119285583496094E-1  
 3.490000000000000E7     9.920256137847900E-1   8.993715792894363E-2   4.515833035111427E-2  -1.060485932976008E-2   4.490378499031067E-2  -1.046352088451386E-2  -8.410741090774536E-1   5.320944786071777E-1  
 3.520000000000000E7     9.964412450790405E-1   3.567954525351524E-2   3.727563843131065E-2  -1.026879437267780E-2   3.723914548754692E-2  -1.023214776068926E-2  -8.300840854644775E-1   5.530263781547546E-1  
 3.550000000000000E7     9.955068230628967E-1  -1.910445094108582E-2   3.063740208745003E-2  -9.610146284103394E-3   3.070709668099880E-2  -9.622609242796898E-3  -8.181376457214356E-1   5.707436800003052E-1  
 3.580000000000000E7     9.942742586135864E-1  -6.980611383914948E-2   2.510572411119938E-2  -8.826179429888725E-3   2.507414110004902E-2  -8.936996571719647E-3  -8.046699166297913E-1   5.885171890258789E-1  
 3.610000000000000E7     9.907788038253784E-1  -1.189894378185272E-1   2.052350714802742E-2  -8.101132698357105E-3   2.054651267826557E-2  -8.131625130772591E-3  -7.938139438629150E-1   6.066355705261231E-1  
 3.640000000000000E7     9.837908148765564E-1  -1.669300198554993E-1   1.655023545026779E-2  -7.223107386380434E-3   1.655378565192223E-2  -7.129945792257786E-3  -7.817064523696899E-1   6.203742027282715E-1  
 3.670000000000000E7     9.753268361091614E-1  -2.121019512414932E-1   1.322902459651232E-2  -6.293393671512604E-3   1.332049723714590E-2  -6.244052667170763E-3  -7.706483602523804E-1   6.346507072448731E-1  
 3.700000000000000E7     9.644124507904053E-1  -2.565326690673828E-1   1.046922430396080E-2  -5.404234398156405E-3   1.048514246940613E-2  -5.323001649230719E-3  -7.581025958061218E-1   6.498096585273743E-1  
 3.730000000000000E7     9.515851140022278E-1  -3.002695739269257E-1   8.143155835568905E-3  -4.466946702450514E-3   8.036953397095203E-3  -4.416945856064558E-3  -7.459510564804077E-1   6.616339683532715E-1  
 3.760000000000000E7     9.376749992370606E-1  -3.400231301784515E-1   6.220400799065828E-3  -3.616104368120432E-3   6.241666153073311E-3  -3.604771336540580E-3  -7.349132895469666E-1   6.758326292037964E-1  
 3.790000000000000E7     9.222100973129273E-1  -3.807664513587952E-1   4.652955103665590E-3  -2.800030168145895E-3   4.594821017235518E-3  -2.967644482851028E-3  -7.234638929367065E-1   6.879658699035645E-1  
 3.820000000000000E7     9.059711694717407E-1  -4.202960729598999E-1   3.362036310136318E-3  -2.321017440408468E-3   3.350047394633293E-3  -2.194206696003676E-3  -7.121887207031250E-1   6.981140971183777E-1  
 3.850000000000000E7     8.867759704589844E-1  -4.581449031829834E-1   2.368974266573787E-3  -1.560906181111932E-3   2.303710207343102E-3  -1.425263704732060E-3  -7.022955417633057E-1   7.099568843841553E-1  
 3.880000000000000E7     8.670256733894348E-1  -4.937062263488770E-1   1.371708000078797E-3  -1.094835926778615E-3   1.513686962425709E-3  -1.178538892418146E-3  -6.906505823135376E-1   7.217524647712708E-1  
 3.910000000000000E7     8.470404148101807E-1  -5.290545225143433E-1   8.510245243087411E-4  -6.945086643099785E-4   8.203391334973276E-4  -5.557582480832934E-4  -6.798068284988403E-1   7.334597110748291E-1  
 3.940000000000000E7     8.241759538650513E-1  -5.610108971595764E-1   3.493797557894141E-4  -2.155491092707962E-4   3.122228663414717E-4  -2.060075057670474E-4  -6.684449315071106E-1   7.420129179954529E-1  
 3.970000000000000E7     8.029700517654419E-1  -5.940988063812256E-1   3.274859045632184E-5   1.134796984842978E-4  -6.601132918149233E-5  -4.371578324935399E-5  -6.563242673873901E-1   7.509999275207520E-1  
 4.000000000000000E7     7.780669331550598E-1  -6.249089837074280E-1  -2.976432442665100E-4   2.469671308062971E-4  -3.205431858077645E-4   2.745334350038320E-4  -6.465563178062439E-1   7.614886760711670E-1  
 4.030000000000000E7     7.538091540336609E-1  -6.544681787490845E-1  -4.642896819859743E-4   4.487202386371791E-4  -4.405799263622612E-4   4.447408718988299E-4  -6.358375549316406E-1   7.704228162765503E-1  
 4.060000000000000E7     7.281110286712647E-1  -6.827223896980286E-1  -5.197742138989270E-4   4.797787696588785E-4  -5.811232258565724E-4   5.389729049056768E-4  -6.241047382354736E-1   7.790700197219849E-1  
 4.090000000000000E7     7.013303041458130E-1  -7.105492353439331E-1  -4.651304334402084E-4   6.422239239327610E-4  -4.902657237835228E-4   6.628704722970724E-4  -6.140313148498535E-1   7.869648337364197E-1  
 4.120000000000000E7     6.744361519813538E-1  -7.368063926696777E-1  -4.163109697401524E-4   4.214693326503038E-4  -4.348520305939019E-4   5.029565654695034E-4  -6.023099422454834E-1   7.953898906707764E-1  
 4.150000000000000E7     6.466704607009888E-1  -7.603623270988464E-1  -3.842498117592186E-4   3.958557208534330E-4  -3.453618846833706E-4   3.690214361995459E-4  -5.910962224006653E-1   8.039090633392334E-1  
 4.180000000000000E7     6.173823475837708E-1  -7.848168015480042E-1  -2.259354369016364E-4   3.329787577968091E-4  -1.003897705231793E-4   2.216582215623930E-4  -5.815022587776184E-1   8.108981847763062E-1  
 4.210000000000000E7     5.880076289176941E-1  -8.068106770515442E-1   9.609541393729160E-7   4.264626113581471E-5  -4.719116986962035E-5   4.445850208867341E-6  -5.700428485870361E-1   8.194081187248230E-1  
 4.240000000000000E7     5.583468079566956E-1  -8.268774747848511E-1   1.257825497305021E-4  -2.727452665567398E-4   1.393530255882070E-4  -2.496409579180181E-4  -5.601764321327210E-1   8.270667791366577E-1  
 4.270000000000000E7     5.267178416252136E-1  -8.470041751861572E-1   3.756094083655626E-4  -5.784397362731397E-4   4.187504819128662E-4  -6.908640498295426E-4  -5.483201742172241E-1   8.348223567008972E-1  
 4.300000000000000E7     4.948714673519135E-1  -8.661618232727051E-1   5.842915270477533E-4  -9.663434466347098E-4   5.823964020237327E-4  -1.008835737593472E-3  -5.377034544944763E-1   8.424058556556702E-1  
 4.330000000000000E7     4.656806588172913E-1  -8.839820027351379E-1   7.493256125599146E-4  -1.545341452583671E-3   7.512911688536406E-4  -1.454022130928934E-3  -5.264237523078919E-1   8.483228683471680E-1  
 4.360000000000000E7     4.322154819965363E-1  -8.996405005455017E-1   9.223903180100024E-4  -1.954736886546016E-3   1.039204886183143E-3  -1.930523314513266E-3  -5.165132880210877E-1   8.549596071243286E-1  
 4.390000000000000E7     3.988401889801025E-1  -9.158976078033447E-1   1.195434364490211E-3  -2.495343564078212E-3   1.288814470171928E-3  -2.544397488236427E-3  -5.049884319305420E-1   8.604732155799866E-1  
 4.420000000000000E7     3.660840988159180E-1  -9.281111955642700E-1   1.457320526242256E-3  -3.029329469427466E-3   1.432370743714273E-3  -3.027299419045448E-3  -4.935654401779175E-1   8.664893507957459E-1  
 4.450000000000000E7     3.324905633926392E-1  -9.406926631927490E-1   1.503975479863584E-3  -3.675598884001374E-3   1.665209769271314E-3  -3.679868066683412E-3  -4.840264916419983E-1   8.730482459068298E-1  
 4.480000000000000E7     2.990154623985291E-1  -9.521086215972900E-1   1.843162346631289E-3  -4.279122222214937E-3   1.689900411292911E-3  -4.280705470591784E-3  -4.731546342372894E-1   8.780993819236755E-1  
 4.510000000000000E7     2.664464116096497E-1  -9.623922705650330E-1   1.942064147442579E-3  -5.047919694334269E-3   1.948715304024518E-3  -5.002869293093681E-3  -4.628113508224487E-1   8.853139877319336E-1  
 4.540000000000000E7     2.318739145994186E-1  -9.704617261886597E-1   1.940632588230074E-3  -5.702897906303406E-3   2.094933995977044E-3  -5.742502864450216E-3  -4.511879682540894E-1   8.905344605445862E-1  
 4.570000000000000E7     1.973361521959305E-1  -9.785083532333374E-1   2.194672590121627E-3  -6.561099551618099E-3   2.171363681554794E-3  -6.624842993915081E-3  -4.401211142539978E-1   8.957917690277100E-1  
 4.600000000000000E7     1.653388738632202E-1  -9.841745495796204E-1   2.187378937378526E-3  -7.225675974041224E-3   2.216669265180826E-3  -7.330440916121006E-3  -4.302755594253540E-1   9.008529186248779E-1  
 4.630000000000000E7     1.282642632722855E-1  -9.899181723594666E-1   2.195783425122500E-3  -8.132019080221653E-3   2.258840249851346E-3  -8.102227002382278E-3  -4.195781052112579E-1   9.057101607322693E-1  
 4.660000000000000E7     9.341031312942505E-2  -9.945840835571289E-1   2.294086385518313E-3  -9.000455960631371E-3   2.359179547056556E-3  -9.008053690195084E-3  -4.068949520587921E-1   9.109817743301392E-1  
 4.690000000000000E7     5.966531857848167E-2  -9.964193701744080E-1   2.326870802789927E-3  -9.815257973968983E-3   2.233394421637058E-3  -9.823018684983254E-3  -3.970052301883698E-1   9.163933992385864E-1  
 4.720000000000000E7     2.429873868823052E-2  -9.972536563873291E-1   2.244634320959449E-3  -1.070866920053959E-2   2.082942752167583E-3  -1.073114201426506E-2  -3.854539096355438E-1   9.197195768356323E-1  
 4.750000000000000E7    -9.147353470325470E-3  -9.984211325645447E-1   2.167610218748450E-3  -1.169575098901987E-2   2.175279660150409E-3  -1.153506711125374E-2  -3.745961487293243E-1   9.252495169639587E-1  
 4.780000000000000E7    -4.272356256842613E-2  -9.973828792572022E-1   2.074544318020344E-3  -1.254541520029306E-2   2.022871747612953E-3  -1.259014569222927E-2  -3.630141615867615E-1   9.282304048538208E-1  
 4.810000000000000E7    -7.809440046548843E-2  -9.949956536293030E-1   1.899116206914187E-3  -1.353689190000296E-2   1.868695369921625E-3  -1.344253402203322E-2  -3.535378575325012E-1   9.331077337265015E-1  
 4.840000000000000E7    -1.121276393532753E-1  -9.924327731132507E-1   1.729244831949472E-3  -1.443715207278729E-2   1.616946654394269E-3  -1.447567157447338E-2  -3.422169983386993E-1   9.371131062507629E-1  
 4.870000000000000E7    -1.464135497808456E-1  -9.875997900962830E-1   1.383571419864893E-3  -1.535028498619795E-2   1.398215536028147E-3  -1.536057982593775E-2  -3.313973844051361E-1   9.412575364112854E-1  
 4.900000000000000E7    -1.806144416332245E-1  -9.827886819839478E-1   1.208221772685647E-3  -1.635643839836121E-2   1.206792658194900E-3  -1.644248329102993E-2  -3.207348287105560E-1   9.444414973258972E-1  
 4.930000000000000E7    -2.144982814788818E-1  -9.755402207374573E-1   7.848620880395174E-4  -1.740086078643799E-2   7.579880184493959E-4  -1.744320802390575E-2  -3.086563646793366E-1   9.487202763557434E-1  
 4.960000000000000E7    -2.465359717607498E-1  -9.658720493316650E-1   3.467768547125161E-4  -1.834157481789589E-2   3.463930916041136E-4  -1.828605309128761E-2  -2.980843186378479E-1   9.519218206405640E-1  
 4.990000000000000E7    -2.790716886520386E-1  -9.575648307800293E-1  -8.918577805161476E-7  -1.935870945453644E-2   4.472793079912663E-5  -1.936206780374050E-2  -2.872175872325897E-1   9.546526074409485E-1  
 5.020000000000000E7    -3.113374710083008E-1  -9.489476680755615E-1  -4.892646102234721E-4  -2.034429274499416E-2  -3.761867992579937E-4  -2.045172825455666E-2  -2.764389812946320E-1   9.582754969596863E-1  
 5.050000000000000E7    -3.442395627498627E-1  -9.368746280670166E-1  -9.380688425153494E-4  -2.144521474838257E-2  -9.570883121341467E-4  -2.137620374560356E-2  -2.653980255126953E-1   9.622027873992920E-1  
 5.080000000000000E7    -3.751034736633301E-1  -9.253672361373901E-1  -1.528129214420915E-3  -2.240795642137528E-2  -1.429356285370886E-3  -2.239377424120903E-2  -2.539955973625183E-1   9.632583260536194E-1  
 5.110000000000000E7    -4.071486592292786E-1  -9.112382531166077E-1  -2.165098907426000E-3  -2.337314188480377E-2  -2.069912152364850E-3  -2.337268739938736E-2  -2.437375038862228E-1   9.668459296226502E-1  
 5.140000000000000E7    -4.376354217529297E-1  -8.964943885803223E-1  -2.733175875619054E-3  -2.437407150864601E-2  -2.773538697510958E-3  -2.442243136465550E-2  -2.317515015602112E-1   9.716325998306274E-1  
 5.170000000000000E7    -4.671401977539063E-1  -8.816041350364685E-1  -3.462738823145628E-3  -2.535589598119259E-2  -3.414567327126861E-3  -2.539821341633797E-2  -2.202679216861725E-1   9.720481038093567E-1  
 5.200000000000000E7    -4.972431659698486E-1  -8.665012121200562E-1  -4.190295934677124E-3  -2.634626068174839E-2  -4.107114858925343E-3  -2.647039480507374E-2  -2.095377445220947E-1   9.733961820602417E-1  
 5.230000000000000E7    -5.259557366371155E-1  -8.480326533317566E-1  -4.929706454277039E-3  -2.733191289007664E-2  -4.972121212631464E-3  -2.736291661858559E-2  -1.984616965055466E-1   9.770473837852478E-1  
 5.260000000000000E7    -5.535549521446228E-1  -8.287975788116455E-1  -5.840202793478966E-3  -2.830185368657112E-2  -5.784426815807819E-3  -2.836569957435131E-2  -1.871435642242432E-1   9.793956279754639E-1  
 5.290000000000000E7    -5.822619199752808E-1  -8.097679615020752E-1  -6.661683320999146E-3  -2.920269221067429E-2  -6.675910670310259E-3  -2.925651893019676E-2  -1.766137480735779E-1   9.806808829307556E-1  
 5.320000000000000E7    -6.087285876274109E-1  -7.909810543060303E-1  -7.594216614961624E-3  -3.021423332393169E-2  -7.677981629967690E-3  -3.026601113379002E-2  -1.652083545923233E-1   9.833109974861145E-1  
 5.350000000000000E7    -6.343521475791931E-1  -7.695460319519043E-1  -8.561139926314354E-3  -3.113054484128952E-2  -8.573606610298157E-3  -3.116400539875031E-2  -1.549274325370789E-1   9.856763482093811E-1  
 5.380000000000000E7    -6.587781906127930E-1  -7.478611469268799E-1  -9.561835788190365E-3  -3.210654109716415E-2  -9.588215500116348E-3  -3.205749765038490E-2  -1.422795802354813E-1   9.860880970954895E-1  
 5.410000000000000E7    -6.861883997917175E-1  -7.252932786941528E-1  -1.070563867688179E-2  -3.297875821590424E-2  -1.074424013495445E-2  -3.297503292560577E-2  -1.316197365522385E-1   9.880393743515015E-1  
 5.440000000000000E7    -7.094329595565796E-1  -7.008389234542847E-1  -1.184654422104359E-2  -3.384425863623619E-2  -1.186660490930080E-2  -3.387444466352463E-2  -1.207031533122063E-1   9.892906546592712E-1  
 5.470000000000000E7    -7.313377261161804E-1  -6.779400110244751E-1  -1.299084443598986E-2  -3.460736200213432E-2  -1.308777928352356E-2  -3.474007174372673E-2  -1.084711179137230E-1   9.901562929153442E-1  
 5.500000000000000E7    -7.543567419052124E-1  -6.524426937103272E-1  -1.430572848767042E-2  -3.556188941001892E-2  -1.427142880856991E-2  -3.552905842661858E-2  -9.675352275371552E-2   9.926111698150635E-1  
 5.530000000000000E7    -7.755938768386841E-1  -6.271629929542542E-1  -1.548409275710583E-2  -3.636065870523453E-2  -1.560615748167038E-2  -3.634522110223770E-2  -8.580077439546585E-2   9.924337267875671E-1  
 5.560000000000000E7    -7.967988252639771E-1  -5.996170639991760E-1  -1.689986325800419E-2  -3.713558614253998E-2  -1.686608232557774E-2  -3.715146332979202E-2  -7.515101134777069E-2   9.938396811485291E-1  
 5.590000000000000E7    -8.165724277496338E-1  -5.737159848213196E-1  -1.825778745114803E-2  -3.785796836018562E-2  -1.836728677153587E-2  -3.787459433078766E-2  -6.266707181930542E-2   9.945002794265747E-1  
 5.620000000000000E7    -8.350735306739807E-1  -5.440878272056580E-1  -1.972520351409912E-2  -3.858595713973045E-2  -1.958105713129044E-2  -3.851450607180595E-2  -5.239059031009674E-2   9.953837990760803E-1  
 5.650000000000000E7    -8.522547483444214E-1  -5.173340439796448E-1  -2.106312476098537E-2  -3.920790553092957E-2  -2.111477963626385E-2  -3.932875022292137E-2  -4.069060832262039E-2   9.953307509422302E-1  
 5.680000000000000E7    -8.695291876792908E-1  -4.880580604076386E-1  -2.260009758174419E-2  -3.990438953042030E-2  -2.269233763217926E-2  -3.990544006228447E-2  -2.922337502241135E-2   9.949776530265808E-1  
 5.710000000000000E7    -8.851067423820496E-1  -4.574426412582398E-1  -2.434932813048363E-2  -4.049994051456451E-2  -2.436488308012486E-2  -4.055595770478249E-2  -1.774584874510765E-2   9.957848191261292E-1  
 5.740000000000000E7    -9.007857441902161E-1  -4.275332093238831E-1  -2.593439258635044E-2  -4.098014906048775E-2  -2.590331993997097E-2  -4.111151769757271E-2  -5.658272653818131E-3   9.954469799995422E-1  
 5.770000000000000E7    -9.130477905273438E-1  -3.984410166740418E-1  -2.743559330701828E-2  -4.156807437539101E-2  -2.738702856004238E-2  -4.170011356472969E-2   4.022929817438126E-3   9.950873851776123E-1  
 5.800000000000000E7    -9.261170029640198E-1  -3.665008246898651E-1  -2.935837581753731E-2  -4.208195954561234E-2  -2.937534637749195E-2  -4.198022186756134E-2   1.763911917805672E-2   9.965213537216187E-1  
 5.830000000000000E7    -9.379178285598755E-1  -3.351300060749054E-1  -3.097805008292198E-2  -4.255402833223343E-2  -3.107288107275963E-2  -4.258161410689354E-2   2.777317166328430E-2   9.958127140998840E-1  
 5.860000000000000E7    -9.497880935668945E-1  -3.041352629661560E-1  -3.283124789595604E-2  -4.287683591246605E-2  -3.288528695702553E-2  -4.302753135561943E-2   3.947903960943222E-2   9.946387410163879E-1  
 5.890000000000000E7    -9.581702947616577E-1  -2.717384696006775E-1  -3.469415754079819E-2  -4.332666844129562E-2  -3.461378440260887E-2  -4.348707571625710E-2   5.011847615242004E-2   9.938818812370300E-1  
 5.920000000000000E7    -9.667124748229981E-1  -2.384206801652908E-1  -3.669333457946777E-2  -4.351866990327835E-2  -3.671884536743164E-2  -4.338697716593742E-2   6.233529746532440E-2   9.942491054534912E-1  
 5.950000000000000E7    -9.738410711288452E-1  -2.058167904615402E-1  -3.845231235027313E-2  -4.368041828274727E-2  -3.856119886040688E-2  -4.376303032040596E-2   7.350902259349823E-2   9.916048645973206E-1  
 5.980000000000000E7    -9.806280136108398E-1  -1.728231012821198E-1  -4.064185917377472E-2  -4.387028515338898E-2  -4.047011211514473E-2  -4.394303634762764E-2   8.606514334678650E-2   9.908926486968994E-1  
 6.010000000000000E7    -9.844782948493958E-1  -1.407880336046219E-1  -4.240076988935471E-2  -4.416264221072197E-2  -4.238969460129738E-2  -4.418128356337547E-2   9.655256569385529E-2   9.906982183456421E-1  
 6.040000000000000E7    -9.888286590576172E-1  -1.064013689756393E-1  -4.460077732801437E-2  -4.417890310287476E-2  -4.462952911853790E-2  -4.429528862237930E-2   1.084718555212021E-1   9.896003007888794E-1  
 6.070000000000000E7    -9.929626584053040E-1  -7.439461350440979E-2  -4.666234552860260E-2  -4.434645548462868E-2  -4.656487703323364E-2  -4.441886767745018E-2   1.192365884780884E-1   9.875670671463013E-1  
 6.100000000000000E7    -9.940715432167053E-1  -4.086875915527344E-2  -4.885348677635193E-2  -4.414538294076920E-2  -4.899129271507263E-2  -4.422392323613167E-2   1.323214322328568E-1   9.860101342201233E-1  
 6.130000000000000E7    -9.951555728912354E-1  -6.083607673645020E-3  -5.105283483862877E-2  -4.422472044825554E-2  -5.101851373910904E-2  -4.427832365036011E-2   1.437475383281708E-1   9.851257205009460E-1  
 6.160000000000000E7    -9.944408535957336E-1   2.636906504631043E-2  -5.305618792772293E-2  -4.409670084714890E-2  -5.320506542921066E-2  -4.409076645970345E-2   1.542185992002487E-1   9.818779826164246E-1  
 6.190000000000000E7    -9.925835132598877E-1   5.939036607742310E-2  -5.527560412883759E-2  -4.389985278248787E-2  -5.524202436208725E-2  -4.366086423397064E-2   1.650556027889252E-1   9.796868562698364E-1  
 6.220000000000000E7    -9.902061820030212E-1   9.284158796072006E-2  -5.746147036552429E-2  -4.355421662330627E-2  -5.781446024775505E-2  -4.359517246484757E-2   1.767520159482956E-1   9.789736270904541E-1  
 6.250000000000000E7    -9.866303801536560E-1   1.261637955904007E-1  -5.984928831458092E-2  -4.328747093677521E-2  -6.006595492362976E-2  -4.325106739997864E-2   1.879856884479523E-1   9.766121506690979E-1  
 6.280000000000000E7    -9.806689023971558E-1   1.595727652311325E-1  -6.239999830722809E-2  -4.278490319848061E-2  -6.227784603834152E-2  -4.297482594847679E-2   1.999670118093491E-1   9.746257662773132E-1  
 6.310000000000000E7    -9.744650721549988E-1   1.930356919765472E-1  -6.489264219999313E-2  -4.237176105380058E-2  -6.467773020267487E-2  -4.234623536467552E-2   2.114441245794296E-1   9.718364477157593E-1  
 6.340000000000000E7    -9.676335453987122E-1   2.259438037872315E-1  -6.722219288349152E-2  -4.174481332302094E-2  -6.718084961175919E-2  -4.172628000378609E-2   2.232846766710281E-1   9.694882631301880E-1  
 6.370000000000000E7    -9.589641094207764E-1   2.582110762596130E-1  -6.957797706127167E-2  -4.095036163926125E-2  -6.958537548780441E-2  -4.104603454470635E-2   2.340117692947388E-1   9.656355977058411E-1  
 6.400000000000000E7    -9.490028023719788E-1   2.898803055286408E-1  -7.204688340425491E-2  -4.019581899046898E-2  -7.208978384733200E-2  -4.008232057094574E-2   2.462067008018494E-1   9.633927941322327E-1  
 6.430000000000000E7    -9.382708668708801E-1   3.233337700366974E-1  -7.460934668779373E-2  -3.955344855785370E-2  -7.455989718437195E-2  -3.930317610502243E-2   2.573845088481903E-1   9.599385261535645E-1  
 6.460000000000000E7    -9.275087714195252E-1   3.548170328140259E-1  -7.693801820278168E-2  -3.861832618713379E-2  -7.696386426687241E-2  -3.861780837178230E-2   2.676929831504822E-1   9.562799930572510E-1  
 6.490000000000000E7    -9.158231616020203E-1   3.856708109378815E-1  -7.934360206127167E-2  -3.761156648397446E-2  -7.970435917377472E-2  -3.777549788355827E-2   2.792029082775116E-1   9.536162018775940E-1  
 6.520000000000000E7    -9.009866118431091E-1   4.160330295562744E-1  -8.219405263662338E-2  -3.671096637845039E-2  -8.205629885196686E-2  -3.655707836151123E-2   2.910549640655518E-1   9.507696628570557E-1  
 6.550000000000000E7    -8.868708610534668E-1   4.460200667381287E-1  -8.476838469505310E-2  -3.539939969778061E-2  -8.466441184282303E-2  -3.545913472771645E-2   3.018355369567871E-1   9.451125860214233E-1  
 6.580000000000000E7    -8.702017068862915E-1   4.761327505111694E-1  -8.730193972587585E-2  -3.390077129006386E-2  -8.730277419090271E-2  -3.418310359120369E-2   3.138640224933624E-1   9.426532983779907E-1  
 6.610000000000000E7    -8.527169227600098E-1   5.049443244934082E-1  -8.990601450204849E-2  -3.270534425973892E-2  -8.957400918006897E-2  -3.236959129571915E-2   3.257147073745728E-1   9.367122650146484E-1  
 6.640000000000000E7    -8.363038301467896E-1   5.342606902122498E-1  -9.259231388568878E-2  -3.135522827506065E-2  -9.267867356538773E-2  -3.147049993276596E-2   3.370963037014008E-1   9.328459501266480E-1  
 6.670000000000000E7    -8.166689276695252E-1   5.620133876800537E-1  -9.509821981191635E-2  -2.958569303154945E-2  -9.515276551246643E-2  -2.989918179810047E-2   3.477145731449127E-1   9.299849271774292E-1  
 6.700000000000000E7    -7.967792749404907E-1   5.895879268646240E-1  -9.775917977094650E-2  -2.808716520667076E-2  -9.744314104318619E-2  -2.807167917490006E-2   3.584232330322266E-1   9.243396520614624E-1  
 6.730000000000000E7    -7.757920026779175E-1   6.162704229354858E-1  -1.001175269484520E-1  -2.655987441539764E-2  -1.002644971013069E-1  -2.618415281176567E-2   3.707494437694550E-1   9.207091331481934E-1  
 6.760000000000000E7    -7.543928027153015E-1   6.423679590225220E-1  -1.030163615942001E-1  -2.426523901522160E-2  -1.028834581375122E-1  -2.446900866925716E-2   3.820843696594238E-1   9.152484536170960E-1  
 6.790000000000000E7    -7.312445044517517E-1   6.677436828613281E-1  -1.054725870490074E-1  -2.256636135280132E-2  -1.056599467992783E-1  -2.244999073445797E-2   3.921175897121429E-1   9.097908735275269E-1  
 6.820000000000000E7    -7.077822685241699E-1   6.914724707603455E-1  -1.079730689525604E-1  -2.037375606596470E-2  -1.080788299441338E-1  -2.050996944308281E-2   4.033180177211762E-1   9.053459167480469E-1  
 6.850000000000000E7    -6.839738488197327E-1   7.163459658622742E-1  -1.109153181314468E-1  -1.847533322870731E-2  -1.108088418841362E-1  -1.832318305969238E-2   4.142183065414429E-1   9.005364179611206E-1  
 6.880000000000000E7    -6.583930253982544E-1   7.387686371803284E-1  -1.134797483682632E-1  -1.599052734673023E-2  -1.131120994687080E-1  -1.590686105191708E-2   4.256552755832672E-1   8.940132260322571E-1  
 6.910000000000000E7    -6.322978734970093E-1   7.610735893249512E-1  -1.161604747176170E-1  -1.346302963793278E-2  -1.160787642002106E-1  -1.357662957161665E-2   4.372971355915070E-1   8.888688683509827E-1  
 6.940000000000000E7    -6.061398386955261E-1   7.821393609046936E-1  -1.186415478587151E-1  -1.120346132665873E-2  -1.187006235122681E-1  -1.112607307732105E-2   4.470676481723785E-1   8.831751346588135E-1  
 6.970000000000000E7    -5.773165225982666E-1   8.020554184913635E-1  -1.210435107350349E-1  -8.484382182359695E-3  -1.212108805775642E-1  -8.094932883977890E-3   4.586964845657349E-1   8.766545653343201E-1  
 7.000000000000000E7    -5.493624806404114E-1   8.222743272781372E-1  -1.237630769610405E-1  -5.748457275331020E-3  -1.235962659120560E-1  -5.623864009976387E-3   4.695153534412384E-1   8.713839054107666E-1  
