#  HZ   S   RI   R     50.00 
! Rohde & Schwarz ZVT8 8Ports - Version 4.11 - 1300.0000k08 SN: 100242
! Date: 2026-07-31 14:06:21
! Measurements: S11 S21 S12 S22 
! 
 1.000000000000000E7    -3.951633572578430E-1   9.145352244377136E-1   5.756521597504616E-2   5.709563195705414E-2   5.753245577216148E-2   5.732470378279686E-2  -9.140498638153076E-1   3.962229788303375E-1  
 1.030000000000000E7    -3.615647256374359E-1   9.272088408470154E-1   6.183381378650665E-2   5.782337859272957E-2   6.153593584895134E-2   5.802706629037857E-2  -9.072158336639404E-1   4.099008142948151E-1  
 1.060000000000000E7    -3.242480158805847E-1   9.402581453323364E-1   6.616719812154770E-2   5.915906652808189E-2   6.612151116132736E-2   5.901627987623215E-2  -9.026829004287720E-1   4.231188297271729E-1  
 1.090000000000000E7    -2.907682955265045E-1   9.503831863403320E-1   7.051724940538406E-2   5.976882204413414E-2   7.052744925022125E-2   5.987720191478729E-2  -8.961340785026550E-1   4.362231492996216E-1  
 1.120000000000000E7    -2.541502118110657E-1   9.594277143478394E-1   7.559242844581604E-2   6.092310324311256E-2   7.517528533935547E-2   6.066634133458138E-2  -8.889322280883789E-1   4.489528238773346E-1  
 1.150000000000000E7    -2.168818414211273E-1   9.696168899536133E-1   8.030690252780914E-2   6.099460273981094E-2   8.015210181474686E-2   6.121987476944923E-2  -8.808314800262451E-1   4.596824944019318E-1  
 1.180000000000000E7    -1.803006231784821E-1   9.745774865150452E-1   8.524920046329498E-2   6.161579117178917E-2   8.549670130014420E-2   6.176114082336426E-2  -8.748655319213867E-1   4.722694158554077E-1  
 1.210000000000000E7    -1.435508430004120E-1   9.807606339454651E-1   9.098190814256668E-2   6.231367588043213E-2   9.097138792276382E-2   6.202297657728195E-2  -8.657717704772949E-1   4.866664409637451E-1  
 1.240000000000000E7    -1.059339046478272E-1   9.842608571052551E-1   9.658779948949814E-2   6.260401755571365E-2   9.691858291625977E-2   6.219942495226860E-2  -8.573650717735291E-1   4.986604154109955E-1  
 1.270000000000000E7    -6.761427223682404E-2   9.869922995567322E-1   1.031785160303116E-1   6.219464167952538E-2   1.028639003634453E-1   6.206886097788811E-2  -8.482661247253418E-1   5.146378278732300E-1  
 1.300000000000000E7    -2.979316934943199E-2   9.890605807304382E-1   1.093073561787605E-1   6.237968802452087E-2   1.094606295228005E-1   6.207343563437462E-2  -8.388487100601196E-1   5.274381041526794E-1  
 1.330000000000000E7     1.001223549246788E-2   9.893759489059448E-1   1.164589449763298E-1   6.195757165551186E-2   1.164593100547791E-1   6.142905354499817E-2  -8.288199305534363E-1   5.418081879615784E-1  
 1.360000000000000E7     5.014930665493012E-2   9.870155453681946E-1   1.234937161207199E-1   6.148329749703407E-2   1.238187402486801E-1   6.085955724120140E-2  -8.185403943061829E-1   5.538178086280823E-1  
 1.390000000000000E7     8.896908164024353E-2   9.827446937561035E-1   1.315591186285019E-1   6.012870743870735E-2   1.311556994915009E-1   6.026891246438026E-2  -8.077759742736816E-1   5.684320330619812E-1  
 1.420000000000000E7     1.292943507432938E-1   9.781404733657837E-1   1.391206681728363E-1   5.938851088285446E-2   1.394399404525757E-1   5.908184871077538E-2  -7.981278896331787E-1   5.815204977989197E-1  
 1.450000000000000E7     1.689981222152710E-1   9.694004654884338E-1   1.480209231376648E-1   5.718913674354553E-2   1.481109112501144E-1   5.739612132310867E-2  -7.834780216217041E-1   5.968288183212280E-1  
 1.480000000000000E7     2.106896191835403E-1   9.601470232009888E-1   1.571775376796722E-1   5.521784722805023E-2   1.574438065290451E-1   5.589233338832855E-2  -7.719690203666687E-1   6.103152036666870E-1  
 1.510000000000000E7     2.507828474044800E-1   9.486005902290344E-1   1.667314916849136E-1   5.275790393352509E-2   1.667577475309372E-1   5.291475728154182E-2  -7.561166882514954E-1   6.253207921981812E-1  
 1.540000000000000E7     2.902090549468994E-1   9.354326128959656E-1   1.769394874572754E-1   5.092771723866463E-2   1.770705133676529E-1   5.014564841985703E-2  -7.447848320007324E-1   6.394286751747131E-1  
 1.570000000000000E7     3.318941891193390E-1   9.212106466293335E-1   1.879071146249771E-1   4.659704118967056E-2   1.883999109268189E-1   4.659330844879150E-2  -7.274754643440247E-1   6.554238796234131E-1  
 1.600000000000000E7     3.730439543724060E-1   9.020441770553589E-1   1.992807686328888E-1   4.241294786334038E-2   2.000709772109985E-1   4.195495694875717E-2  -7.116840481758118E-1   6.682047247886658E-1  
 1.630000000000000E7     4.125279486179352E-1   8.813105821609497E-1   2.126408219337463E-1   3.673543408513069E-2   2.122722715139389E-1   3.709840402007103E-2  -6.932991147041321E-1   6.849646568298340E-1  
 1.660000000000000E7     4.527219831943512E-1   8.574203252792358E-1   2.259596139192581E-1   3.054421581327915E-2   2.256790995597839E-1   2.989547140896320E-2  -6.723697185516357E-1   7.002475261688232E-1  
 1.690000000000000E7     4.919183552265167E-1   8.314132690429688E-1   2.404642403125763E-1   2.398099005222321E-2   2.402574121952057E-1   2.356102317571640E-2  -6.522427797317505E-1   7.142071723937988E-1  
 1.720000000000000E7     5.335167646408081E-1   8.025520443916321E-1   2.542982399463654E-1   1.436847075819969E-2   2.551515996456146E-1   1.489304751157761E-2  -6.298093199729919E-1   7.289905548095703E-1  
 1.750000000000000E7     5.682597160339356E-1   7.727363109588623E-1   2.722731232643127E-1   6.023243069648743E-3   2.727768719196320E-1   5.133148282766342E-3  -6.055926680564880E-1   7.452397346496582E-1  
 1.780000000000000E7     6.076512932777405E-1   7.337630987167358E-1   2.878810763359070E-1  -6.801418960094452E-3   2.891151309013367E-1  -6.601741537451744E-3  -5.782972574234009E-1   7.575725317001343E-1  
 1.810000000000000E7     6.429840922355652E-1   6.951626539230347E-1   3.083766400814056E-1  -2.111543715000153E-2   3.068627119064331E-1  -2.193813584744930E-2  -5.482483506202698E-1   7.746960520744324E-1  
 1.840000000000000E7     6.789895892143250E-1   6.508691310882568E-1   3.277504146099091E-1  -4.012498259544373E-2   3.270328938961029E-1  -3.909681737422943E-2  -5.157186985015869E-1   7.869983911514282E-1  
 1.870000000000000E7     7.095772027969360E-1   6.031087636947632E-1   3.485857248306274E-1  -5.927280336618424E-2   3.476744890213013E-1  -5.989526584744453E-2  -4.794410765171051E-1   7.988258600234985E-1  
 1.900000000000000E7     7.390285730361939E-1   5.500773787498474E-1   3.702985346317291E-1  -8.311361074447632E-2   3.698726296424866E-1  -8.419475704431534E-2  -4.397832751274109E-1   8.087586760520935E-1  
 1.930000000000000E7     7.643243670463562E-1   4.904724657535553E-1   3.914443850517273E-1  -1.138749718666077E-1   3.929818272590637E-1  -1.132139042019844E-1  -3.952570557594299E-1   8.182824254035950E-1  
 1.960000000000000E7     7.849333882331848E-1   4.254020452499390E-1   4.137959182262421E-1  -1.485909968614578E-1   4.152404665946960E-1  -1.484147310256958E-1  -3.490068912506104E-1   8.233560919761658E-1  
 1.990000000000000E7     7.971294522285461E-1   3.559359312057495E-1   4.360554516315460E-1  -1.907577514648438E-1   4.371087253093720E-1  -1.917186081409454E-1  -2.920780479907990E-1   8.241845965385437E-1  
 2.020000000000000E7     8.015875220298767E-1   2.789913713932037E-1   4.569466710090637E-1  -2.413734644651413E-1   4.569489359855652E-1  -2.408724725246429E-1  -2.349448353052139E-1   8.173145055770874E-1  
 2.050000000000000E7     7.970568537712097E-1   1.953451335430145E-1   4.741229116916657E-1  -3.013057112693787E-1   4.721578061580658E-1  -3.005183339118958E-1  -1.704819500446320E-1   8.042886853218079E-1  
 2.080000000000000E7     7.751741409301758E-1   1.095414757728577E-1   4.840344786643982E-1  -3.735774755477905E-1   4.845788478851318E-1  -3.745741546154022E-1  -9.975060075521469E-2   7.787753939628601E-1  
 2.110000000000000E7     7.367189526557922E-1   2.326242998242378E-2   4.823294281959534E-1  -4.586494863033295E-1   4.829309582710266E-1  -4.594109058380127E-1  -2.848673984408379E-2   7.382954359054565E-1  
 2.140000000000000E7     6.778499484062195E-1  -5.904619023203850E-2   4.648863077163696E-1  -5.536922812461853E-1   4.660539329051971E-1  -5.522429347038269E-1   4.303704574704170E-2   6.805921196937561E-1  
 2.170000000000000E7     5.951024293899536E-1  -1.324342936277390E-1   4.270897209644318E-1  -6.564546823501587E-1   4.285230636596680E-1  -6.567717194557190E-1   1.074022948741913E-1   6.001973152160645E-1  
 2.200000000000000E7     4.895806014537811E-1  -1.855018585920334E-1   3.587855100631714E-1  -7.614623904228210E-1   3.595505654811859E-1  -7.625694870948792E-1   1.566555351018906E-1   5.001444220542908E-1  
 2.230000000000000E7     3.684091567993164E-1  -2.073442041873932E-1   2.591376304626465E-1  -8.577959537506104E-1   2.600800395011902E-1  -8.585668802261353E-1   1.811656653881073E-1   3.815425932407379E-1  
 2.260000000000000E7     2.405478507280350E-1  -1.915067136287689E-1   1.269287317991257E-1  -9.330413937568665E-1   1.282953917980194E-1  -9.344101548194885E-1   1.694059520959854E-1   2.557253539562225E-1  
 2.290000000000000E7     1.257078349590302E-1  -1.329136937856674E-1  -2.704814076423645E-2  -9.733725786209106E-1  -2.711302042007446E-2  -9.744871854782105E-1   1.242287456989288E-1   1.311647891998291E-1  
 2.320000000000000E7     4.314370825886726E-2  -4.156379774212837E-2  -1.881309896707535E-1  -9.707106351852417E-1  -1.891177147626877E-1  -9.715773463249207E-1   4.849352687597275E-2   3.265025094151497E-2  
 2.350000000000000E7    -2.843738999217749E-3   6.704182922840118E-2  -3.418255746364594E-1  -9.275732040405273E-1  -3.413357436656952E-1  -9.284551739692688E-1  -5.300223827362061E-2  -3.872231766581535E-2  
 2.380000000000000E7    -1.337658055126667E-2   1.784204542636871E-1  -4.726828038692474E-1  -8.528864979743958E-1  -4.731785655021668E-1  -8.534826636314392E-1  -1.626598834991455E-1  -7.492479681968689E-2  
 2.410000000000000E7     1.237847190350294E-2   2.766219079494476E-1  -5.768380165100098E-1  -7.590206861495972E-1  -5.774304270744324E-1  -7.588731050491333E-1  -2.650457322597504E-1  -7.927230000495911E-2  
 2.440000000000000E7     6.343080103397369E-2   3.530420660972595E-1  -6.512962579727173E-1  -6.569095849990845E-1  -6.534563302993774E-1  -6.570455431938171E-1  -3.540389239788055E-1  -5.612730234861374E-2  
 2.470000000000000E7     1.274280846118927E-1   4.074927866458893E-1  -7.060027122497559E-1  -5.535774230957031E-1  -7.051776051521301E-1  -5.521605610847473E-1  -4.293285906314850E-1  -1.971007697284222E-2  
 2.500000000000000E7     1.969822645187378E-1   4.419530630111694E-1  -7.397338747978210E-1  -4.547293782234192E-1  -7.417916059494019E-1  -4.541639089584351E-1  -4.814361929893494E-1   2.800083905458450E-2  
 2.530000000000000E7     2.701518237590790E-1   4.549389779567719E-1  -7.612811923027039E-1  -3.624919056892395E-1  -7.605535984039307E-1  -3.635477423667908E-1  -5.194686055183411E-1   8.148477226495743E-2  
 2.560000000000000E7     3.353246450424194E-1   4.494389295578003E-1  -7.737562656402588E-1  -2.777065932750702E-1  -7.732445001602173E-1  -2.787478566169739E-1  -5.416420102119446E-1   1.367272138595581E-1  
 2.590000000000000E7     3.954991400241852E-1   4.255923628807068E-1  -7.824764251708984E-1  -1.983013153076172E-1  -7.840873599052429E-1  -1.986977159976959E-1  -5.504499077796936E-1   1.867752075195313E-1  
 2.620000000000000E7     4.489147961139679E-1   3.911607563495636E-1  -7.890812158584595E-1  -1.211717128753662E-1  -7.885689735412598E-1  -1.218030452728272E-1  -5.460994839668274E-1   2.374379634857178E-1  
 2.650000000000000E7     4.912137389183044E-1   3.452891707420349E-1  -7.909507155418396E-1  -4.761700332164764E-2  -7.929750680923462E-1  -4.654345661401749E-2  -5.286411046981812E-1   2.845802009105682E-1  
 2.680000000000000E7     5.214282274246216E-1   2.875678539276123E-1  -7.953131794929504E-1   2.892933972179890E-2  -7.971137762069702E-1   2.934454008936882E-2  -4.983728528022766E-1   3.253942728042603E-1  
 2.710000000000000E7     5.356190204620361E-1   2.218599319458008E-1  -7.998353838920593E-1   1.137913167476654E-1  -7.990804910659790E-1   1.149789243936539E-1  -4.572028815746307E-1   3.586534261703491E-1  
 2.740000000000000E7     5.326041579246521E-1   1.454482525587082E-1  -8.001625537872315E-1   2.051340341567993E-1  -8.017743825912476E-1   2.070762515068054E-1  -3.962938785552979E-1   3.812141418457031E-1  
 2.770000000000000E7     5.000940561294556E-1   6.656384468078613E-2  -7.939411401748657E-1   3.157879710197449E-1  -7.960183620452881E-1   3.178041279315949E-1  -3.228940963745117E-1   3.865167200565338E-1  
 2.800000000000000E7     4.339684247970581E-1  -1.174247730523348E-2  -7.699986696243286E-1   4.482103884220123E-1  -7.728424072265625E-1   4.469866752624512E-1  -2.300427854061127E-1   3.655373752117157E-1  
 2.830000000000000E7     3.203197717666626E-1  -7.040683925151825E-2  -7.112231850624085E-1   6.047572493553162E-1  -7.113753557205200E-1   6.056630611419678E-1  -1.340436339378357E-1   2.970442771911621E-1  
 2.860000000000000E7     1.556719243526459E-1  -7.370952516794205E-2  -5.858826637268066E-1   7.750788927078247E-1  -5.852596759796143E-1   7.771962285041809E-1  -4.550959914922714E-2   1.650887280702591E-1  
 2.890000000000000E7    -2.514517121016979E-2   2.644525282084942E-2  -3.673947155475617E-1   9.124548435211182E-1  -3.667519688606262E-1   9.123417735099793E-1  -2.526159025728703E-2  -3.504314646124840E-2  
 2.920000000000000E7    -1.432306170463562E-1   2.395131140947342E-1  -7.833707332611084E-2   9.400825500488281E-1  -7.658203691244125E-2   9.403160214424133E-1  -1.264297664165497E-1  -2.508958876132965E-1  
 2.950000000000000E7    -1.111818403005600E-1   4.995731711387634E-1   1.839652508497238E-1   8.196642994880676E-1   1.840799897909164E-1   8.200331926345825E-1  -3.380496203899384E-1  -3.858456015586853E-1  
 2.980000000000000E7     4.212081804871559E-2   6.891047954559326E-1   3.340950012207031E-1   6.192101836204529E-1   3.339878916740418E-1   6.195891499519348E-1  -5.712817907333374E-1  -3.919062912464142E-1  
 3.010000000000000E7     2.380027174949646E-1   7.721030712127686E-1   3.758362829685211E-1   4.276807308197022E-1   3.746807575225830E-1   4.269334971904755E-1  -7.481663823127747E-1  -3.119963109493256E-1  
 3.040000000000000E7     4.140344262123108E-1   7.773910760879517E-1   3.545449376106262E-1   2.814333736896515E-1   3.553998768329620E-1   2.823293805122376E-1  -8.598695397377014E-1  -1.996275037527084E-1  
 3.070000000000000E7     5.564056634902954E-1   7.363152503967285E-1   3.137502074241638E-1   1.805381774902344E-1   3.132269978523254E-1   1.817793846130371E-1  -9.209190607070923E-1  -9.139996021986008E-2  
 3.100000000000000E7     6.646367311477661E-1   6.786336302757263E-1   2.669706642627716E-1   1.150868535041809E-1   2.670167982578278E-1   1.150389462709427E-1  -9.518980979919434E-1   4.447821527719498E-3  
 3.130000000000000E7     7.454821467399597E-1   6.127018332481384E-1   2.240577191114426E-1   7.158131152391434E-2   2.239445894956589E-1   7.186651229858398E-2  -9.638448953628540E-1   8.764389157295227E-2  
 3.160000000000000E7     8.098046779632568E-1   5.450795292854309E-1   1.865828782320023E-1   4.330468177795410E-2   1.870155930519104E-1   4.328807815909386E-2  -9.652770161628723E-1   1.557952314615250E-1  
 3.190000000000000E7     8.575423955917358E-1   4.796631634235382E-1   1.554028689861298E-1   2.425542473793030E-2   1.553700864315033E-1   2.415262348949909E-2  -9.604377150535584E-1   2.156166881322861E-1  
 3.220000000000000E7     8.959305882453919E-1   4.162331521511078E-1   1.291783750057221E-1   1.178354769945145E-2   1.292554736137390E-1   1.161734201014042E-2  -9.521006941795349E-1   2.655881047248840E-1  
 3.250000000000000E7     9.256267547607422E-1   3.548655211925507E-1   1.074340045452118E-1   3.736814716830850E-3   1.077661141753197E-1   3.577468451112509E-3  -9.422593712806702E-1   3.102955222129822E-1  
 3.280000000000000E7     9.469538927078247E-1   2.944337427616119E-1   8.930054306983948E-2  -1.447180518880487E-3   8.942570537328720E-2  -1.855913084000349E-3  -9.301980733871460E-1   3.495087921619415E-1  
 3.310000000000000E7     9.646005034446716E-1   2.382041066884995E-1   7.432875782251358E-2  -5.088283214718103E-3   7.447250932455063E-2  -5.047803279012442E-3  -9.180012941360474E-1   3.850708305835724E-1  
 3.340000000000000E7     9.785052537918091E-1   1.840392947196960E-1   6.197128444910049E-2  -7.063865661621094E-3   6.175628304481506E-2  -7.112099323421717E-3  -9.043237566947937E-1   4.167485833168030E-1  
 3.370000000000000E7     9.862973093986511E-1   1.308785527944565E-1   5.127734690904617E-2  -7.983706891536713E-3   5.132559686899185E-2  -7.943483069539070E-3  -8.923602104187012E-1   4.444581866264343E-1  
 3.400000000000000E7     9.927143454551697E-1   7.996097952127457E-2   4.255603626370430E-2  -8.441330865025520E-3   4.260994493961334E-2  -8.423024788498879E-3  -8.789087533950806E-1   4.699143171310425E-1  
 3.430000000000000E7     9.966741800308228E-1   3.079073131084442E-2   3.527862578630447E-2  -8.433999493718147E-3   3.518488630652428E-2  -8.397479541599751E-3  -8.657841086387634E-1   4.935376644134522E-1  
 3.460000000000000E7     9.963607788085938E-1  -1.768362335860729E-2   2.889731898903847E-2  -8.184802718460560E-3   2.907499298453331E-2  -8.043906651437283E-3  -8.544502258300781E-1   5.155773162841797E-1  
 3.490000000000000E7     9.950733780860901E-1  -6.424108892679215E-2   2.385133318603039E-2  -7.517086807638407E-3   2.370011620223522E-2  -7.527638226747513E-3  -8.404357433319092E-1   5.348486900329590E-1  
 3.520000000000000E7     9.919880628585815E-1  -1.090388074517250E-1   1.937935501337051E-2  -6.862515117973089E-3   1.934840530157089E-2  -6.782440468668938E-3  -8.290473222732544E-1   5.552133917808533E-1  
 3.550000000000000E7     9.848785996437073E-1  -1.540717184543610E-1   1.559716649353504E-2  -6.113735493272543E-3   1.557770278304815E-2  -6.166751030832529E-3  -8.174446821212769E-1   5.724762082099915E-1  
 3.580000000000000E7     9.782449603080750E-1  -1.964598596096039E-1   1.248612441122532E-2  -5.386352539062500E-3   1.267210487276316E-2  -5.452405661344528E-3  -8.040925264358521E-1   5.897989869117737E-1  
 3.610000000000000E7     9.695678949356079E-1  -2.378760874271393E-1   9.915422648191452E-3  -4.592433571815491E-3   9.976060129702091E-3  -4.652892705053091E-3  -7.936382293701172E-1   6.072579026222229E-1  
 3.640000000000000E7     9.586501717567444E-1  -2.788149416446686E-1   7.763970643281937E-3  -3.897773567587137E-3   7.709197700023651E-3  -3.891780041158199E-3  -7.812796235084534E-1   6.208931803703308E-1  
 3.670000000000000E7     9.470193386077881E-1  -3.169336915016174E-1   5.953947547823191E-3  -3.240578109398484E-3   5.972757004201412E-3  -3.219324862584472E-3  -7.700864076614380E-1   6.350681185722351E-1  
 3.700000000000000E7     9.329189658164978E-1  -3.553740978240967E-1   4.641517065465450E-3  -2.616883954033256E-3   4.599728621542454E-3  -2.569216536357999E-3  -7.580818533897400E-1   6.505132317543030E-1  
 3.730000000000000E7     9.176961779594421E-1  -3.931520283222199E-1   3.427630988880992E-3  -2.017075428739190E-3   3.292282344773412E-3  -1.990646123886108E-3  -7.456920742988586E-1   6.615992188453674E-1  
 3.760000000000000E7     9.018796086311340E-1  -4.274589419364929E-1   2.379836281761527E-3  -1.602787524461746E-3   2.381493803113699E-3  -1.598043134436011E-3  -7.349103689193726E-1   6.760624647140503E-1  
 3.790000000000000E7     8.840005993843079E-1  -4.627881944179535E-1   1.652479404583573E-3  -1.134058227762580E-3   1.735794823616743E-3  -1.179304206743836E-3  -7.233030796051025E-1   6.880620718002319E-1  
 3.820000000000000E7     8.661389946937561E-1  -4.977264702320099E-1   1.109699252992868E-3  -7.412306149490178E-4   1.045413897372782E-3  -7.645112345926464E-4  -7.119719982147217E-1   6.984354257583618E-1  
 3.850000000000000E7     8.452256321907044E-1  -5.309062600135803E-1   6.491547683253884E-4  -4.330729425419122E-4   6.046040216460824E-4  -4.922121879644692E-4  -7.025706171989441E-1   7.100153565406799E-1  
 3.880000000000000E7     8.244674205780029E-1  -5.619085431098938E-1   3.351407358422875E-4  -2.658800221979618E-4   2.579035935923457E-4  -3.287078579887748E-4  -6.906018853187561E-1   7.218217253684998E-1  
 3.910000000000000E7     8.033677339553833E-1  -5.937935113906860E-1   1.570891763549298E-4  -1.338948641205207E-4   1.010440246318467E-4  -1.512712769908831E-4  -6.801943182945252E-1   7.334885597229004E-1  
 3.940000000000000E7     7.799866199493408E-1  -6.216995120048523E-1   1.442057873646263E-5  -5.550974310608581E-5   9.022815902426373E-6   2.061694976873696E-5  -6.684436202049255E-1   7.418229579925537E-1  
 3.970000000000000E7     7.572187185287476E-1  -6.510304212570190E-1  -8.708184032002464E-5  -2.792504801618634E-6   9.310359746450558E-5  -1.039550988934934E-5  -6.564618945121765E-1   7.510741353034973E-1  
 4.000000000000000E7     7.317315340042114E-1  -6.784982085227966E-1  -1.698878622846678E-5  -2.497916830179747E-5   2.987384868902154E-5  -3.162105713272467E-5  -6.467170715332031E-1   7.615811228752136E-1  
 4.030000000000000E7     7.072955965995789E-1  -7.049505710601807E-1   8.604842150816694E-5  -9.345733997179195E-5   1.533399045001715E-4  -1.816256990423426E-4  -6.357071399688721E-1   7.703737020492554E-1  
 4.060000000000000E7     6.811310648918152E-1  -7.299714088439941E-1   2.096232783515006E-4  -3.206348046660423E-4   2.965511230286211E-4  -2.835407212842256E-4  -6.244460940361023E-1   7.787658572196960E-1  
 4.090000000000000E7     6.536509394645691E-1  -7.545269131660461E-1   3.164907102473080E-4  -5.336087197065353E-4   4.241833230480552E-4  -5.030097090639174E-4  -6.137107610702515E-1   7.868611812591553E-1  
 4.120000000000000E7     6.264619827270508E-1  -7.782874107360840E-1   5.843124818056822E-4  -8.214968256652355E-4   6.141733611002564E-4  -8.154504466801882E-4  -6.020198464393616E-1   7.955452203750610E-1  
 4.150000000000000E7     5.987578034400940E-1  -7.987480759620667E-1   8.480560500174761E-4  -1.167975831776857E-3   8.009392768144608E-4  -1.174971810542047E-3  -5.912140011787415E-1   8.036822080612183E-1  
 4.180000000000000E7     5.690383315086365E-1  -8.205458521842957E-1   9.846956236287952E-4  -1.536883763037622E-3   1.066127326339483E-3  -1.555038848891854E-3  -5.817939639091492E-1   8.110337853431702E-1  
 4.210000000000000E7     5.399990677833557E-1  -8.399538993835449E-1   1.283790217712522E-3  -1.926572178490460E-3   1.279125455766916E-3  -1.942440285347402E-3  -5.701148509979248E-1   8.192266821861267E-1  
 4.240000000000000E7     5.100424885749817E-1  -8.574727177619934E-1   1.544593716971576E-3  -2.433307003229857E-3   1.431875047273934E-3  -2.397070871666074E-3  -5.599055290222168E-1   8.270279765129089E-1  
 4.270000000000000E7     4.786519110202789E-1  -8.751912117004395E-1   1.705091446638107E-3  -2.939480356872082E-3   1.699763699434698E-3  -3.008501837030053E-3  -5.481254458427429E-1   8.347501158714294E-1  
 4.300000000000000E7     4.468065500259399E-1  -8.921247124671936E-1   1.900049624964595E-3  -3.614928806200624E-3   1.965623348951340E-3  -3.534533316269517E-3  -5.377017855644226E-1   8.423047065734863E-1  
 4.330000000000000E7     4.178258776664734E-1  -9.077336192131043E-1   2.230460522696376E-3  -4.140466917306185E-3   2.125458326190710E-3  -4.244926385581493E-3  -5.263131856918335E-1   8.482269644737244E-1  
 4.360000000000000E7     3.845948278903961E-1  -9.207134246826172E-1   2.357109449803829E-3  -4.847688134759665E-3   2.387818880379200E-3  -4.799033515155315E-3  -5.160665512084961E-1   8.548804521560669E-1  
 4.390000000000000E7     3.513664603233337E-1  -9.351565837860107E-1   2.628298476338387E-3  -5.390825681388378E-3   2.634746721014381E-3  -5.495886318385601E-3  -5.050584077835083E-1   8.605965971946716E-1  
 4.420000000000000E7     3.189173340797424E-1  -9.455347061157227E-1   2.668905071914196E-3  -6.254066247493029E-3   2.721057273447514E-3  -6.267966236919165E-3  -4.934046268463135E-1   8.666004538536072E-1  
 4.450000000000000E7     2.857047617435455E-1  -9.559332728385925E-1   2.850455930456519E-3  -6.936540361493826E-3   2.857717452570796E-3  -6.936945486813784E-3  -4.839209318161011E-1   8.730407953262329E-1  
 4.480000000000000E7     2.527766525745392E-1  -9.655338525772095E-1   3.011690219864249E-3  -7.726430427283049E-3   3.050032537430525E-3  -7.800666149705648E-3  -4.730760455131531E-1   8.782644271850586E-1  
 4.510000000000000E7     2.201950401067734E-1  -9.738234281539917E-1   3.151643555611372E-3  -8.462461642920971E-3   3.192625707015395E-3  -8.556655608117580E-3  -4.624585807323456E-1   8.850831389427185E-1  
 4.540000000000000E7     1.862544715404511E-1  -9.802275300025940E-1   3.094604238867760E-3  -9.404894895851612E-3   3.139174077659845E-3  -9.316814132034779E-3  -4.509544372558594E-1   8.908829092979431E-1  
 4.570000000000000E7     1.522691100835800E-1  -9.868094921112061E-1   3.132265759631991E-3  -1.017573475837708E-2   3.204520326107740E-3  -1.024519838392735E-2  -4.396701753139496E-1   8.961044549942017E-1  
 4.600000000000000E7     1.207679137587547E-1  -9.907394051551819E-1   3.196767764165998E-3  -1.113764848560095E-2   3.108777804300189E-3  -1.106210052967072E-2  -4.300536811351776E-1   9.008186459541321E-1  
 4.630000000000000E7     8.408524841070175E-2  -9.947236180305481E-1   3.039021510630846E-3  -1.197623182088137E-2   2.986296778544784E-3  -1.206277869641781E-2  -4.191570580005646E-1   9.057642221450806E-1  
 4.660000000000000E7     4.948907718062401E-2  -9.977233409881592E-1   3.113429294899106E-3  -1.291240192949772E-2   3.055517328903079E-3  -1.303706970065832E-2  -4.067105650901794E-1   9.114153385162354E-1  
 4.690000000000000E7     1.657810993492603E-2  -9.978313446044922E-1   2.976816147565842E-3  -1.388379186391830E-2   3.000420285388827E-3  -1.388157717883587E-2  -3.965483009815216E-1   9.163913130760193E-1  
 4.720000000000000E7    -1.792997121810913E-2  -9.974687099456787E-1   2.700371202081442E-3  -1.483994815498591E-2   2.730932552367449E-3  -1.484058331698179E-2  -3.849721550941467E-1   9.202575087547302E-1  
 4.750000000000000E7    -5.123580247163773E-2  -9.970207214355469E-1   2.569437259808183E-3  -1.581064984202385E-2   2.651272108778358E-3  -1.575986668467522E-2  -3.746349513530731E-1   9.253327846527100E-1  
 4.780000000000000E7    -8.441554009914398E-2  -9.948636293411255E-1   2.342001069337130E-3  -1.686453633010387E-2   2.398244338110089E-3  -1.685714721679688E-2  -3.628528714179993E-1   9.284732937812805E-1  
 4.810000000000000E7    -1.187979578971863E-1  -9.911067485809326E-1   2.114390255883336E-3  -1.774781569838524E-2   2.032541204243898E-3  -1.780051924288273E-2  -3.527266383171082E-1   9.329216480255127E-1  
 4.840000000000000E7    -1.521448343992233E-1  -9.872702360153198E-1   1.891651889309287E-3  -1.884852349758148E-2   1.689969561994076E-3  -1.891439035534859E-2  -3.417380452156067E-1   9.376114010810852E-1  
 4.870000000000000E7    -1.860562115907669E-1  -9.808972477912903E-1   1.408043899573386E-3  -1.989329606294632E-2   1.386366435326636E-3  -1.984235458076000E-2  -3.307680487632752E-1   9.410325288772583E-1  
 4.900000000000000E7    -2.193302363157272E-1  -9.750017523765564E-1   1.017554546706379E-3  -2.089449577033520E-2   1.023383578285575E-3  -2.087577618658543E-2  -3.197552561759949E-1   9.443040490150452E-1  
 4.930000000000000E7    -2.521950900554657E-1  -9.663379788398743E-1   5.862597026862204E-4  -2.187519334256649E-2   6.316197686828673E-4  -2.206295914947987E-2  -3.081972599029541E-1   9.487203955650330E-1  
 4.960000000000000E7    -2.836621105670929E-1  -9.551950097084045E-1   6.045424379408360E-5  -2.286498434841633E-2   6.191665306687355E-6  -2.292379550635815E-2  -2.975743412971497E-1   9.518885612487793E-1  
 4.990000000000000E7    -3.154871463775635E-1  -9.458897113800049E-1  -5.168361822143197E-4  -2.397491224110127E-2  -4.476268077269197E-4  -2.393696829676628E-2  -2.868141829967499E-1   9.549251198768616E-1  
 5.020000000000000E7    -3.467632234096527E-1  -9.362776875495911E-1  -1.081043388694525E-3  -2.501997165381908E-2  -1.001884462311864E-3  -2.497914806008339E-2  -2.761484086513519E-1   9.586799144744873E-1  
 5.050000000000000E7    -3.786114752292633E-1  -9.236097931861877E-1  -1.651962753385305E-3  -2.604302018880844E-2  -1.757122576236725E-3  -2.607218548655510E-2  -2.647973597049713E-1   9.625036120414734E-1  
 5.080000000000000E7    -4.089348614215851E-1  -9.106961488723755E-1  -2.225717296823859E-3  -2.695872262120247E-2  -2.273755846545100E-3  -2.712645567953587E-2  -2.534942030906677E-1   9.634646773338318E-1  
 5.110000000000000E7    -4.397525191307068E-1  -8.957604169845581E-1  -3.124574199318886E-3  -2.801124192774296E-2  -2.985557541251183E-3  -2.808318845927715E-2  -2.432635426521301E-1   9.674791693687439E-1  
 5.140000000000000E7    -4.694490730762482E-1  -8.800500035285950E-1  -3.802418243139982E-3  -2.916581928730011E-2  -3.809801535680890E-3  -2.907764911651611E-2  -2.312125861644745E-1   9.718526601791382E-1  
 5.170000000000000E7    -4.981050193309784E-1  -8.639051914215088E-1  -4.648020025342703E-3  -3.003731556236744E-2  -4.624086432158947E-3  -3.008783981204033E-2  -2.195814251899719E-1   9.718193411827087E-1  
 5.200000000000000E7    -5.277161598205566E-1  -8.484874367713928E-1  -5.464948713779450E-3  -3.110682591795921E-2  -5.412504542618990E-3  -3.112120740115643E-2  -2.085318565368652E-1   9.734988212585449E-1  
 5.230000000000000E7    -5.554402470588684E-1  -8.287960290908814E-1  -6.311607081443071E-3  -3.197083622217178E-2  -6.415809970349073E-3  -3.204992040991783E-2  -1.979904770851135E-1   9.770686626434326E-1  
 5.260000000000000E7    -5.823054313659668E-1  -8.085886836051941E-1  -7.395023480057716E-3  -3.304056078195572E-2  -7.374390494078398E-3  -3.300945460796356E-2  -1.863864958286285E-1   9.792999625205994E-1  
 5.290000000000000E7    -6.099649667739868E-1  -7.889017462730408E-1  -8.409353904426098E-3  -3.381306678056717E-2  -8.359109982848167E-3  -3.394043445587158E-2  -1.755401790142059E-1   9.808527827262878E-1  
 5.320000000000000E7    -6.356377005577087E-1  -7.695443034172058E-1  -9.485658258199692E-3  -3.482333943247795E-2  -9.497057646512985E-3  -3.491995856165886E-2  -1.640990376472473E-1   9.829994440078735E-1  
 5.350000000000000E7    -6.598603129386902E-1  -7.473489642143250E-1  -1.055166125297546E-2  -3.575392812490463E-2  -1.052176021039486E-2  -3.577863425016403E-2  -1.543376892805100E-1   9.850848913192749E-1  
 5.380000000000000E7    -6.835701465606690E-1  -7.250782847404480E-1  -1.161347981542349E-2  -3.675096482038498E-2  -1.167991012334824E-2  -3.662550821900368E-2  -1.413725614547730E-1   9.858559966087341E-1  
 5.410000000000000E7    -7.097615003585815E-1  -7.018299698829651E-1  -1.292989496141672E-2  -3.755908831954002E-2  -1.301706396043301E-2  -3.755817934870720E-2  -1.309007108211517E-1   9.880105257034302E-1  
 5.440000000000000E7    -7.321952581405640E-1  -6.766941547393799E-1  -1.424515526741743E-2  -3.843361511826515E-2  -1.418877672404051E-2  -3.843249380588532E-2  -1.198803931474686E-1   9.887923598289490E-1  
 5.470000000000000E7    -7.531427145004273E-1  -6.530641317367554E-1  -1.543489936739206E-2  -3.904989734292030E-2  -1.555691566318274E-2  -3.924021124839783E-2  -1.075126454234123E-1   9.899047613143921E-1  
 5.500000000000000E7    -7.755372524261475E-1  -6.273475885391235E-1  -1.691976189613342E-2  -4.005159065127373E-2  -1.681347377598286E-2  -4.004423692822456E-2  -9.580491483211517E-2   9.920379519462585E-1  
 5.530000000000000E7    -7.958918213844299E-1  -6.012411713600159E-1  -1.828018389642239E-2  -4.073929041624069E-2  -1.833403110504150E-2  -4.080006107687950E-2  -8.486434072256088E-2   9.922524690628052E-1  
 5.560000000000000E7    -8.160267472267151E-1  -5.733382105827332E-1  -1.988209597766399E-2  -4.156878218054771E-2  -1.968857459723949E-2  -4.155923053622246E-2  -7.419358193874359E-2   9.934521913528442E-1  
 5.590000000000000E7    -8.344360589981079E-1  -5.469100475311279E-1  -2.127499505877495E-2  -4.223006218671799E-2  -2.130680531263351E-2  -4.226116463541985E-2  -6.186656653881073E-2   9.940267205238342E-1  
 5.620000000000000E7    -8.520788550376892E-1  -5.168446302413940E-1  -2.277760021388531E-2  -4.289889335632324E-2  -2.266495674848557E-2  -4.285795241594315E-2  -5.169752612709999E-2   9.950901865959168E-1  
 5.650000000000000E7    -8.679480552673340E-1  -4.896947145462036E-1  -2.431711740791798E-2  -4.346969351172447E-2  -2.436913549900055E-2  -4.357817023992539E-2  -3.994719311594963E-2   9.949682950973511E-1  
 5.680000000000000E7    -8.841668367385864E-1  -4.601449370384216E-1  -2.602294087409973E-2  -4.407861083745956E-2  -2.603298239409924E-2  -4.409325495362282E-2  -2.850113436579704E-2   9.945217967033386E-1  
 5.710000000000000E7    -8.990783691406250E-1  -4.294041693210602E-1  -2.781224623322487E-2  -4.448366165161133E-2  -2.785525284707546E-2  -4.469705745577812E-2  -1.684838160872459E-2   9.954355955123901E-1  
 5.740000000000000E7    -9.137192964553833E-1  -3.991136848926544E-1  -2.956119552254677E-2  -4.506337270140648E-2  -2.948026731610298E-2  -4.520272463560104E-2  -4.989922046661377E-3   9.954962730407715E-1  
 5.770000000000000E7    -9.247215986251831E-1  -3.696929514408112E-1  -3.115720860660076E-2  -4.563765227794647E-2  -3.114017285406590E-2  -4.571383073925972E-2   4.946134984493256E-3   9.948783516883850E-1  
 5.800000000000000E7    -9.370685815811157E-1  -3.371968269348145E-1  -3.319749608635902E-2  -4.615265130996704E-2  -3.321758285164833E-2  -4.592082276940346E-2   1.812919229269028E-2   9.960328936576843E-1  
 5.830000000000000E7    -9.474813938140869E-1  -3.058554232120514E-1  -3.503866493701935E-2  -4.634771123528481E-2  -3.501120209693909E-2  -4.649381712079048E-2   2.841264754533768E-2   9.958386421203613E-1  
 5.860000000000000E7    -9.585131406784058E-1  -2.742566466331482E-1  -3.702263161540031E-2  -4.667445272207260E-2  -3.705571219325066E-2  -4.681292921304703E-2   4.041136056184769E-2   9.944092631340027E-1  
 5.890000000000000E7    -9.655959010124207E-1  -2.420391589403153E-1  -3.887819126248360E-2  -4.701253771781921E-2  -3.888129442930222E-2  -4.721323400735855E-2   5.112185329198837E-2   9.936822652816773E-1  
 5.920000000000000E7    -9.730861186981201E-1  -2.085431963205338E-1  -4.088618606328964E-2  -4.719970375299454E-2  -4.101060703396797E-2  -4.704079777002335E-2   6.348364055156708E-2   9.937565922737122E-1  
 5.950000000000000E7    -9.794221520423889E-1  -1.761750429868698E-1  -4.299732670187950E-2  -4.723338782787323E-2  -4.293271899223328E-2  -4.731224477291107E-2   7.448396086692810E-2   9.912647604942322E-1  
 5.980000000000000E7    -9.849051833152771E-1  -1.428341418504715E-1  -4.514592885971069E-2  -4.722343757748604E-2  -4.493513703346252E-2  -4.734303802251816E-2   8.679340779781342E-2   9.902619123458862E-1  
 6.010000000000000E7    -9.880171418190002E-1  -1.109924018383026E-1  -4.705171287059784E-2  -4.759478569030762E-2  -4.705454409122467E-2  -4.768259823322296E-2   9.743818640708923E-2   9.901887178421021E-1  
 6.040000000000000E7    -9.912722110748291E-1  -7.603855431079865E-2  -4.936948046088219E-2  -4.746824502944946E-2  -4.934602603316307E-2  -4.752914607524872E-2   1.093705147504807E-1   9.892384409904480E-1  
 6.070000000000000E7    -9.943514466285706E-1  -4.454237222671509E-2  -5.164569988846779E-2  -4.754894226789475E-2  -5.151943117380142E-2  -4.760246351361275E-2   1.204924285411835E-1   9.872487187385559E-1  
 6.100000000000000E7    -9.944095015525818E-1  -1.099328696727753E-2  -5.386622250080109E-2  -4.716589301824570E-2  -5.391217023134232E-2  -4.730737209320068E-2   1.332848817110062E-1   9.855178594589233E-1  
 6.130000000000000E7    -9.946294426918030E-1   2.329213917255402E-2  -5.627172067761421E-2  -4.719927906990051E-2  -5.625965446233749E-2  -4.722737520933151E-2   1.451939195394516E-1   9.846373796463013E-1  
 6.160000000000000E7    -9.926882982254028E-1   5.594882369041443E-2  -5.829721689224243E-2  -4.687275364995003E-2  -5.838079378008843E-2  -4.680925980210304E-2   1.549439132213593E-1   9.813616275787354E-1  
 6.190000000000000E7    -9.899394512176514E-1   8.905523270368576E-2  -6.066205352544785E-2  -4.656240344047546E-2  -6.057034805417061E-2  -4.645384103059769E-2   1.661588698625565E-1   9.790965318679810E-1  
 6.220000000000000E7    -9.867508411407471E-1   1.225989088416100E-1  -6.287469714879990E-2  -4.621057584881783E-2  -6.328023225069046E-2  -4.616618528962135E-2   1.773760914802551E-1   9.784415960311890E-1  
 6.250000000000000E7    -9.819144606590271E-1   1.554842591285706E-1  -6.548020988702774E-2  -4.579192027449608E-2  -6.561908125877380E-2  -4.573763906955719E-2   1.888783425092697E-1   9.760690927505493E-1  
 6.280000000000000E7    -9.750124812126160E-1   1.882412582635880E-1  -6.801606714725494E-2  -4.508752748370171E-2  -6.788346916437149E-2  -4.535296559333801E-2   2.012054324150085E-1   9.740092754364014E-1  
 6.310000000000000E7    -9.677782654762268E-1   2.219511121511459E-1  -7.052157074213028E-2  -4.449221491813660E-2  -7.043776661157608E-2  -4.454907402396202E-2   2.125560939311981E-1   9.709870219230652E-1  
 6.340000000000000E7    -9.598947167396545E-1   2.544740736484528E-1  -7.304988056421280E-2  -4.387337714433670E-2  -7.296825200319290E-2  -4.383997991681099E-2   2.245126515626907E-1   9.685659408569336E-1  
 6.370000000000000E7    -9.509071111679077E-1   2.865595519542694E-1  -7.560405880212784E-2  -4.295659065246582E-2  -7.551209628582001E-2  -4.304802790284157E-2   2.347951084375382E-1   9.648008942604065E-1  
 6.400000000000000E7    -9.392166137695313E-1   3.178960978984833E-1  -7.810590416193008E-2  -4.194690287113190E-2  -7.796548306941986E-2  -4.195855557918549E-2   2.473575323820114E-1   9.626354575157166E-1  
 6.430000000000000E7    -9.278491735458374E-1   3.506821990013123E-1  -8.068662881851196E-2  -4.124640673398972E-2  -8.065745979547501E-2  -4.096687212586403E-2   2.584019303321838E-1   9.590495228767395E-1  
 6.460000000000000E7    -9.162524938583374E-1   3.817981779575348E-1  -8.321523666381836E-2  -4.011234641075134E-2  -8.320613950490952E-2  -4.019754379987717E-2   2.687610089778900E-1   9.555506110191345E-1  
 6.490000000000000E7    -9.034708142280579E-1   4.123522639274597E-1  -8.573962748050690E-2  -3.910101205110550E-2  -8.596920967102051E-2  -3.915776312351227E-2   2.802551388740540E-1   9.528788328170776E-1  
 6.520000000000000E7    -8.878301382064819E-1   4.420645833015442E-1  -8.853999525308609E-2  -3.806283324956894E-2  -8.848664164543152E-2  -3.778185695409775E-2   2.923595607280731E-1   9.498279690742493E-1  
 6.550000000000000E7    -8.727656602859497E-1   4.717846810817719E-1  -9.128475934267044E-2  -3.643576055765152E-2  -9.115159511566162E-2  -3.664142638444901E-2   3.029431104660034E-1   9.442434906959534E-1  
 6.580000000000000E7    -8.552249073982239E-1   5.012328028678894E-1  -9.385864436626434E-2  -3.489485755562782E-2  -9.382841736078262E-2  -3.513812646269798E-2   3.147719800472260E-1   9.417380094528198E-1  
 6.610000000000000E7    -8.367342352867127E-1   5.297362804412842E-1  -9.647203981876373E-2  -3.335386514663696E-2  -9.610228985548019E-2  -3.310911357402802E-2   3.268949985504150E-1   9.358552694320679E-1  
 6.640000000000000E7    -8.198099136352539E-1   5.579942464828491E-1  -9.917908161878586E-2  -3.200816363096237E-2  -9.934771806001663E-2  -3.198996931314468E-2   3.383599221706390E-1   9.320408701896668E-1  
 6.670000000000000E7    -7.993559837341309E-1   5.852966904640198E-1  -1.018023118376732E-1  -3.001472353935242E-2  -1.019174084067345E-1  -3.027358092367649E-2   3.486562967300415E-1   9.285281896591187E-1  
 6.700000000000000E7    -7.783758044242859E-1   6.123008728027344E-1  -1.044834330677986E-1  -2.834776043891907E-2  -1.043202504515648E-1  -2.835907228291035E-2   3.597586750984192E-1   9.229531288146973E-1  
 6.730000000000000E7    -7.567946314811707E-1   6.382140517234802E-1  -1.069722548127174E-1  -2.654365450143814E-2  -1.070892661809921E-1  -2.620539069175720E-2   3.718635141849518E-1   9.192650318145752E-1  
 6.760000000000000E7    -7.348216772079468E-1   6.637833714485169E-1  -1.099777519702911E-1  -2.415542677044869E-2  -1.097899228334427E-1  -2.427996508777142E-2   3.830948472023010E-1   9.139316082000732E-1  
 6.790000000000000E7    -7.109760046005249E-1   6.885306835174561E-1  -1.124921664595604E-1  -2.236089110374451E-2  -1.125797927379608E-1  -2.215191721916199E-2   3.932024240493774E-1   9.085706472396851E-1  
 6.820000000000000E7    -6.867744326591492E-1   7.114785909652710E-1  -1.150606349110603E-1  -1.993583701550961E-2  -1.150616556406021E-1  -1.998708210885525E-2   4.044876098632813E-1   9.039645195007324E-1  
 6.850000000000000E7    -6.619865298271179E-1   7.356114983558655E-1  -1.180754899978638E-1  -1.778708770871162E-2  -1.180162057280541E-1  -1.764643006026745E-2   4.154182672500610E-1   8.990797400474548E-1  
 6.880000000000000E7    -6.359960436820984E-1   7.570496201515198E-1  -1.206043064594269E-1  -1.515259034931660E-2  -1.201995164155960E-1  -1.509016286581755E-2   4.266898930072784E-1   8.928047418594360E-1  
 6.910000000000000E7    -6.092004776000977E-1   7.787309885025024E-1  -1.233527138829231E-1  -1.241062302142382E-2  -1.231845989823341E-1  -1.254343986511231E-2   4.383357167243958E-1   8.873291611671448E-1  
 6.940000000000000E7    -5.825222730636597E-1   7.989526987075806E-1  -1.258704215288162E-1  -9.957360103726387E-3  -1.259684264659882E-1  -9.733890183269978E-3   4.485087990760803E-1   8.816621899604797E-1  
 6.970000000000000E7    -5.528506636619568E-1   8.182455301284790E-1  -1.282615661621094E-1  -7.034119218587875E-3  -1.284527331590653E-1  -6.622161716222763E-3   4.597463011741638E-1   8.753069043159485E-1  
 7.000000000000000E7    -5.242080688476563E-1   8.373302221298218E-1  -1.310506314039230E-1  -4.025502596050501E-3  -1.308493018150330E-1  -3.895407542586327E-3   4.706420898437500E-1   8.697538375854492E-1  
