#  HZ   S   RI   R     50.00 
! Rohde & Schwarz ZVT8 8Ports - Version 4.11 - 1300.0000k08 SN: 100242
! Date: 2026-07-31 14:12:20
! Measurements: S11 S21 S12 S22 
! 
 1.000000000000000E7    -4.043529331684113E-1   9.107670187950134E-1   5.449775606393814E-2   5.445738136768341E-2   5.434367805719376E-2   5.474982410669327E-2  -9.152416586875916E-1   3.944939374923706E-1  
 1.030000000000000E7    -3.718776702880859E-1   9.238213300704956E-1   5.805690586566925E-2   5.504940450191498E-2   5.792544409632683E-2   5.519199371337891E-2  -9.084118008613586E-1   4.084397554397583E-1  
 1.060000000000000E7    -3.359009325504303E-1   9.366061091423035E-1   6.180002167820931E-2   5.621379613876343E-2   6.199676543474197E-2   5.603587999939919E-2  -9.038577079772949E-1   4.212814271450043E-1  
 1.090000000000000E7    -3.040026426315308E-1   9.467114210128784E-1   6.582727283239365E-2   5.653215572237968E-2   6.575918197631836E-2   5.659502744674683E-2  -8.969927430152893E-1   4.343635737895966E-1  
 1.120000000000000E7    -2.684289813041687E-1   9.564671516418457E-1   6.998948752880096E-2   5.765577405691147E-2   6.977199763059616E-2   5.728846043348312E-2  -8.906925916671753E-1   4.468413591384888E-1  
 1.150000000000000E7    -2.333547025918961E-1   9.668452143669128E-1   7.397489249706268E-2   5.751578137278557E-2   7.376618683338165E-2   5.770545452833176E-2  -8.825750946998596E-1   4.573272764682770E-1  
 1.180000000000000E7    -1.982256174087524E-1   9.715139865875244E-1   7.821698486804962E-2   5.792201310396195E-2   7.831653952598572E-2   5.802500620484352E-2  -8.771553635597229E-1   4.701405465602875E-1  
 1.210000000000000E7    -1.635503172874451E-1   9.785154461860657E-1   8.319063484668732E-2   5.827378481626511E-2   8.313916623592377E-2   5.820788815617561E-2  -8.679233193397522E-1   4.839147329330444E-1  
 1.240000000000000E7    -1.278405934572220E-1   9.828597903251648E-1   8.758368343114853E-2   5.847045779228210E-2   8.781249076128006E-2   5.811895430088043E-2  -8.599525094032288E-1   4.952754974365234E-1  
 1.270000000000000E7    -9.225212037563324E-2   9.866266846656799E-1   9.307950735092163E-2   5.810678377747536E-2   9.275065362453461E-2   5.788500607013702E-2  -8.518061041831970E-1   5.108933448791504E-1  
 1.300000000000000E7    -5.637705326080322E-2   9.893562793731690E-1   9.803438931703568E-2   5.785041302442551E-2   9.802810847759247E-2   5.780371651053429E-2  -8.426007628440857E-1   5.233172774314880E-1  
 1.330000000000000E7    -2.005365490913391E-2   9.909408688545227E-1   1.034319475293160E-1   5.752787739038467E-2   1.034915149211884E-1   5.706648156046867E-2  -8.336468935012817E-1   5.372482538223267E-1  
 1.360000000000000E7     1.793246902525425E-2   9.902243018150330E-1   1.090602129697800E-1   5.718632414937019E-2   1.095890626311302E-1   5.648036673665047E-2  -8.245542645454407E-1   5.492934584617615E-1  
 1.390000000000000E7     5.294115841388702E-2   9.876675605773926E-1   1.151606738567352E-1   5.569452047348023E-2   1.149283424019814E-1   5.608238279819489E-2  -8.144295811653137E-1   5.634884238243103E-1  
 1.420000000000000E7     9.035283327102661E-2   9.850505590438843E-1   1.210601776838303E-1   5.498021468520165E-2   1.212090998888016E-1   5.504715070128441E-2  -8.051343560218811E-1   5.763579607009888E-1  
 1.450000000000000E7     1.264659315347672E-1   9.790517091751099E-1   1.276310086250305E-1   5.354870110750198E-2   1.276971846818924E-1   5.359701812267304E-2  -7.917465567588806E-1   5.911256074905396E-1  
 1.480000000000000E7     1.646860092878342E-1   9.727789759635925E-1   1.344074159860611E-1   5.163621157407761E-2   1.345531940460205E-1   5.222750082612038E-2  -7.816528081893921E-1   6.048122048377991E-1  
 1.510000000000000E7     2.001532167196274E-1   9.647980332374573E-1   1.412152349948883E-1   4.994001984596252E-2   1.413606107234955E-1   4.987366497516632E-2  -7.667007446289063E-1   6.191075444221497E-1  
 1.540000000000000E7     2.357046455144882E-1   9.554924368858337E-1   1.484474688768387E-1   4.874430596828461E-2   1.486764103174210E-1   4.812100529670715E-2  -7.570618987083435E-1   6.325930953025818E-1  
 1.570000000000000E7     2.728540599346161E-1   9.461683630943298E-1   1.561868041753769E-1   4.564429819583893E-2   1.562898308038712E-1   4.547321051359177E-2  -7.413130998611450E-1   6.478569507598877E-1  
 1.600000000000000E7     3.096007704734802E-1   9.324656128883362E-1   1.638549268245697E-1   4.263359680771828E-2   1.645242422819138E-1   4.232028126716614E-2  -7.276479005813599E-1   6.604762077331543E-1  
 1.630000000000000E7     3.444495201110840E-1   9.184405803680420E-1   1.728432476520538E-1   3.888948634266853E-2   1.726562827825546E-1   3.908264636993408E-2  -7.117274999618530E-1   6.767897605895996E-1  
 1.660000000000000E7     3.798273801803589E-1   9.015434384346008E-1   1.816444694995880E-1   3.466673567891121E-2   1.815086007118225E-1   3.425795212388039E-2  -6.937099099159241E-1   6.919363737106323E-1  
 1.690000000000000E7     4.146547913551331E-1   8.848913311958313E-1   1.909043043851852E-1   3.097628802061081E-2   1.908633708953857E-1   3.043541684746742E-2  -6.768890619277954E-1   7.057775259017944E-1  
 1.720000000000000E7     4.514108896255493E-1   8.661625981330872E-1   1.997065395116806E-1   2.502795308828354E-2   2.002903968095779E-1   2.525285817682743E-2  -6.583777070045471E-1   7.204036116600037E-1  
 1.750000000000000E7     4.807263612747192E-1   8.480820655822754E-1   2.108082622289658E-1   2.071478962898254E-2   2.114579677581787E-1   1.998289860785008E-2  -6.388447880744934E-1   7.377671599388123E-1  
 1.780000000000000E7     5.167182683944702E-1   8.219619989395142E-1   2.203557044267654E-1   1.325765624642372E-2   2.209750264883041E-1   1.367738470435143E-2  -6.172539591789246E-1   7.498685121536255E-1  
 1.810000000000000E7     5.479187965393066E-1   7.999935746192932E-1   2.329657971858978E-1   6.151231005787849E-3   2.316844463348389E-1   5.284303799271584E-3  -5.931944847106934E-1   7.681486010551453E-1  
 1.840000000000000E7     5.809532403945923E-1   7.730614542961121E-1   2.443411946296692E-1  -3.847537562251091E-3   2.438601106405258E-1  -3.247901797294617E-3  -5.675956010818481E-1   7.822982668876648E-1  
 1.870000000000000E7     6.095241308212280E-1   7.461941242218018E-1   2.565279901027679E-1  -1.232201326638460E-2   2.558622360229492E-1  -1.298042293637991E-2  -5.402017235755920E-1   7.969573736190796E-1  
 1.900000000000000E7     6.386691927909851E-1   7.163674831390381E-1   2.690121233463287E-1  -2.321169152855873E-2   2.690840959548950E-1  -2.382334694266319E-2  -5.105696916580200E-1   8.115276694297791E-1  
 1.930000000000000E7     6.669696569442749E-1   6.842272877693176E-1   2.817555963993073E-1  -3.722331300377846E-2   2.828285694122315E-1  -3.640177473425865E-2  -4.777045845985413E-1   8.272207379341126E-1  
 1.960000000000000E7     6.941335201263428E-1   6.496902704238892E-1   2.955597937107086E-1  -5.143822729587555E-2   2.962986528873444E-1  -5.092974379658699E-2  -4.444282650947571E-1   8.406781554222107E-1  
 1.990000000000000E7     7.166936993598938E-1   6.142282485961914E-1   3.098149299621582E-1  -6.811621785163879E-2   3.108364045619965E-1  -6.834830343723297E-2  -4.029856324195862E-1   8.546943664550781E-1  
 2.020000000000000E7     7.397067546844482E-1   5.759975910186768E-1   3.252242803573608E-1  -8.732865005731583E-2   3.249031007289887E-1  -8.698220551013947E-2  -3.620084524154663E-1   8.646096587181091E-1  
 2.050000000000000E7     7.617638111114502E-1   5.351125597953796E-1   3.403882086277008E-1  -1.087712943553925E-1   3.385066688060761E-1  -1.092422306537628E-1  -3.152071237564087E-1   8.746070265769959E-1  
 2.080000000000000E7     7.778427004814148E-1   4.918811023235321E-1   3.552746474742889E-1  -1.347137540578842E-1   3.558926880359650E-1  -1.349798142910004E-1  -2.622535228729248E-1   8.837416172027588E-1  
 2.110000000000000E7     7.926434278488159E-1   4.479109346866608E-1   3.700231313705444E-1  -1.656883060932159E-1   3.705078661441803E-1  -1.658973991870880E-1  -2.036753594875336E-1   8.868347406387329E-1  
 2.140000000000000E7     8.029134273529053E-1   4.020326733589172E-1   3.834502696990967E-1  -2.010181993246079E-1   3.832007646560669E-1  -1.993963718414307E-1  -1.402965784072876E-1   8.860611319541931E-1  
 2.170000000000000E7     8.079093098640442E-1   3.547006547451019E-1   3.959838747978210E-1  -2.401379346847534E-1   3.966300189495087E-1  -2.393898367881775E-1  -6.909571588039398E-2   8.786830306053162E-1  
 2.200000000000000E7     8.091311454772949E-1   3.036600351333618E-1   4.045921266078949E-1  -2.868409454822540E-1   4.053770005702972E-1  -2.868215739727020E-1   9.094193577766419E-3   8.615882396697998E-1  
 2.230000000000000E7     8.024996519088745E-1   2.541238069534302E-1   4.094139635562897E-1  -3.400845527648926E-1   4.097453653812408E-1  -3.396854400634766E-1   9.331693500280380E-2   8.340770006179810E-1  
 2.260000000000000E7     7.898107171058655E-1   2.041579931974411E-1   4.073539674282074E-1  -4.012767076492310E-1   4.093423783779144E-1  -4.028311371803284E-1   1.836128979921341E-1   7.902789115905762E-1  
 2.290000000000000E7     7.682079076766968E-1   1.569096148014069E-1   3.958001732826233E-1  -4.702375829219818E-1   3.968840241432190E-1  -4.706243872642517E-1   2.792592048645020E-1   7.265446186065674E-1  
 2.320000000000000E7     7.371022105216980E-1   1.163507699966431E-1   3.686924874782562E-1  -5.459674596786499E-1   3.678727149963379E-1  -5.468128919601440E-1   3.729313015937805E-1   6.410924196243286E-1  
 2.350000000000000E7     6.987473964691162E-1   8.254706859588623E-2   3.228581249713898E-1  -6.256465315818787E-1   3.241246938705444E-1  -6.252610683441162E-1   4.588606655597687E-1   5.251510739326477E-1  
 2.380000000000000E7     6.527180075645447E-1   6.001501902937889E-2   2.586513161659241E-1  -7.022423148155212E-1   2.581286132335663E-1  -7.028968334197998E-1   5.270108580589294E-1   3.782531619071960E-1  
 2.410000000000000E7     6.053351759910584E-1   5.336176976561546E-2   1.672160178422928E-1  -7.700586318969727E-1   1.666156053543091E-1  -7.689327597618103E-1   5.627061128616333E-1   2.050663232803345E-1  
 2.440000000000000E7     5.620027780532837E-1   6.577993929386139E-2   5.366649106144905E-2  -8.158028721809387E-1   5.272124335169792E-2  -8.181691169738770E-1   5.526098608970642E-1   1.462294347584248E-2  
 2.470000000000000E7     5.295320749282837E-1   9.211940318346024E-2  -7.472634315490723E-2  -8.335933685302734E-1  -7.441344112157822E-2  -8.347592949867249E-1   4.927239120006561E-1  -1.803176403045654E-1  
 2.500000000000000E7     5.115513801574707E-1   1.295753270387650E-1  -2.061234116554260E-1  -8.176701664924622E-1  -2.084388434886932E-1  -8.176869153976440E-1   3.793019950389862E-1  -3.496353626251221E-1  
 2.530000000000000E7     5.154585838317871E-1   1.730937063694000E-1  -3.298536837100983E-1  -7.661515474319458E-1  -3.274699151515961E-1  -7.663255929946899E-1   2.237249761819840E-1  -4.828143715858460E-1  
 2.560000000000000E7     5.377520322799683E-1   2.072518467903137E-1  -4.284354150295258E-1  -6.899543404579163E-1  -4.268532991409302E-1  -6.902282834053040E-1   4.729723185300827E-2  -5.656482577323914E-1  
 2.590000000000000E7     5.776348710060120E-1   2.286806404590607E-1  -4.981079101562500E-1  -5.969361066818237E-1  -4.999760389328003E-1  -5.969077348709106E-1  -1.271136552095413E-1  -6.000877022743225E-1  
 2.620000000000000E7     6.247438788414002E-1   2.368668764829636E-1  -5.448421239852905E-1  -4.999131858348846E-1  -5.438976883888245E-1  -5.001737475395203E-1  -2.918016314506531E-1  -5.937502980232239E-1  
 2.650000000000000E7     6.721189022064209E-1   2.315185815095902E-1  -5.651439428329468E-1  -4.074130356311798E-1  -5.671010017395020E-1  -4.078606963157654E-1  -4.351628124713898E-1  -5.559045672416687E-1  
 2.680000000000000E7     7.192131876945496E-1   2.119022458791733E-1  -5.690981149673462E-1  -3.230693638324738E-1  -5.710963010787964E-1  -3.240863680839539E-1  -5.522159337997437E-1  -4.994110167026520E-1  
 2.710000000000000E7     7.616394162178040E-1   1.807693094015122E-1  -5.634803771972656E-1  -2.493814080953598E-1  -5.632933974266052E-1  -2.474105656147003E-1  -6.479088068008423E-1  -4.346056580543518E-1  
 2.740000000000000E7     7.996118664741516E-1   1.441056877374649E-1  -5.459191799163818E-1  -1.846023052930832E-1  -5.485974550247192E-1  -1.851691752672195E-1  -7.225947380065918E-1  -3.628992736339569E-1  
 2.770000000000000E7     8.300042152404785E-1   1.005901917815208E-1  -5.254853963851929E-1  -1.310442388057709E-1  -5.284413695335388E-1  -1.309874504804611E-1  -7.808970212936401E-1  -2.936655879020691E-1  
 2.800000000000000E7     8.553940653800964E-1   5.331950262188911E-2  -5.018367767333984E-1  -8.409923315048218E-2  -5.031768679618835E-1  -8.687100559473038E-2  -8.241880536079407E-1  -2.244279235601425E-1  
 2.830000000000000E7     8.726687431335449E-1   1.018179580569267E-3  -4.768311977386475E-1  -4.539188742637634E-2  -4.780323207378388E-1  -4.512839391827583E-2  -8.569023609161377E-1  -1.606913357973099E-1  
 2.860000000000000E7     8.862209916114807E-1  -5.307531356811523E-2  -4.521766304969788E-1  -1.295077055692673E-2  -4.534565210342407E-1  -1.290979422628880E-2  -8.815948963165283E-1  -9.993331134319305E-2  
 2.890000000000000E7     8.927752971649170E-1  -1.080338507890701E-1  -4.281589090824127E-1   1.465496886521578E-2  -4.278111159801483E-1   1.445549819618464E-2  -8.978132009506226E-1  -4.330806434154511E-2  
 2.920000000000000E7     8.957015275955200E-1  -1.638318747282028E-1  -4.029436111450195E-1   3.793807700276375E-2  -4.033352434635162E-1   3.850051388144493E-2  -9.100539684295654E-1   9.532121941447258E-3  
 2.950000000000000E7     8.928040862083435E-1  -2.198222130537033E-1  -3.809706270694733E-1   5.732028186321259E-2  -3.810416758060455E-1   5.741098523139954E-2  -9.180236458778381E-1   5.769861489534378E-2  
 2.980000000000000E7     8.848159909248352E-1  -2.769612967967987E-1  -3.581176996231079E-1   7.481627166271210E-2  -3.592350184917450E-1   7.462117820978165E-2  -9.215537309646606E-1   1.024063676595688E-1  
 3.010000000000000E7     8.721340298652649E-1  -3.341511487960815E-1  -3.375899195671082E-1   8.966436237096787E-2  -3.376031517982483E-1   8.859395235776901E-2  -9.230932593345642E-1   1.439571380615234E-1  
 3.040000000000000E7     8.550494313240051E-1  -3.922640085220337E-1  -3.168194890022278E-1   1.016033217310906E-1  -3.182256519794464E-1   1.023757681250572E-1  -9.217702746391296E-1   1.831502914428711E-1  
 3.070000000000000E7     8.309287428855896E-1  -4.480543732643127E-1  -2.971755266189575E-1   1.133342534303665E-1  -2.975669503211975E-1   1.130326092243195E-1  -9.200021028518677E-1   2.194840461015701E-1  
 3.100000000000000E7     8.029950857162476E-1  -5.042874813079834E-1  -2.789564728736877E-1   1.224115043878555E-1  -2.789082229137421E-1   1.224058046936989E-1  -9.166460633277893E-1   2.525360882282257E-1  
 3.130000000000000E7     7.715863585472107E-1  -5.594667792320252E-1  -2.612669765949249E-1   1.308201104402542E-1  -2.615156471729279E-1   1.306760460138321E-1  -9.106297492980957E-1   2.842434346675873E-1  
 3.160000000000000E7     7.327854633331299E-1  -6.135619282722473E-1  -2.439561188220978E-1   1.371249407529831E-1  -2.444678544998169E-1   1.378871947526932E-1  -9.054940342903137E-1   3.123223185539246E-1  
 3.190000000000000E7     6.894807815551758E-1  -6.654358506202698E-1  -2.272700667381287E-1   1.436296403408051E-1  -2.272751331329346E-1   1.434705704450607E-1  -8.986590504646301E-1   3.400489687919617E-1  
 3.220000000000000E7     6.415663361549377E-1  -7.177649736404419E-1  -2.110199034214020E-1   1.488076001405716E-1  -2.110115736722946E-1   1.490077823400497E-1  -8.917028307914734E-1   3.651615381240845E-1  
 3.250000000000000E7     5.864309668540955E-1  -7.655585408210754E-1  -1.956904828548431E-1   1.529532521963120E-1  -1.957446485757828E-1   1.536797732114792E-1  -8.850513696670532E-1   3.896363079547882E-1  
 3.280000000000000E7     5.246980190277100E-1  -8.104984164237976E-1  -1.803915202617645E-1   1.562728732824326E-1  -1.802979409694672E-1   1.567703038454056E-1  -8.768423795700073E-1   4.130142629146576E-1  
 3.310000000000000E7     4.578769505023956E-1  -8.526678681373596E-1  -1.649676561355591E-1   1.599694937467575E-1  -1.652620732784271E-1   1.605181396007538E-1  -8.687396645545960E-1   4.351037442684174E-1  
 3.340000000000000E7     3.827410936355591E-1  -8.913696408271790E-1  -1.504022926092148E-1   1.629735976457596E-1  -1.499740034341812E-1   1.627845913171768E-1  -8.591242432594299E-1   4.566262960433960E-1  
 3.370000000000000E7     3.016278147697449E-1  -9.236904978752136E-1  -1.353958547115326E-1   1.641878038644791E-1  -1.359837800264359E-1   1.645240187644959E-1  -8.515486121177673E-1   4.760745763778687E-1  
 3.400000000000000E7     2.113845348358154E-1  -9.494308829307556E-1  -1.206320822238922E-1   1.653722077608109E-1  -1.210219413042069E-1   1.659692674875259E-1  -8.421553969383240E-1   4.943098723888397E-1  
 3.430000000000000E7     1.138846054673195E-1  -9.675788283348084E-1  -1.059790924191475E-1   1.661371588706970E-1  -1.061289012432098E-1   1.656165868043900E-1  -8.331205844879150E-1   5.119482278823853E-1  
 3.460000000000000E7     8.618406951427460E-3  -9.749418497085571E-1  -9.129156172275543E-2   1.653922200202942E-1  -9.138380736112595E-2   1.655318140983582E-1  -8.248683810234070E-1   5.299110412597656E-1  
 3.490000000000000E7    -1.037142425775528E-1  -9.704546928405762E-1  -7.645909488201141E-2   1.643886864185333E-1  -7.659605890512466E-2   1.632157564163208E-1  -8.149022459983826E-1   5.449171066284180E-1  
 3.520000000000000E7    -2.223876416683197E-1  -9.515203237533569E-1  -6.169643998146057E-2   1.611339747905731E-1  -6.237914040684700E-2   1.610099524259567E-1  -8.069671392440796E-1   5.622711777687073E-1  
 3.550000000000000E7    -3.477539420127869E-1  -9.133760929107666E-1  -4.738022387027741E-2   1.570619046688080E-1  -4.724238812923431E-2   1.572365611791611E-1  -7.980162501335144E-1   5.769355893135071E-1  
 3.580000000000000E7    -4.749341011047363E-1  -8.552618622779846E-1  -3.254478424787521E-2   1.517586708068848E-1  -3.281351178884506E-2   1.518557965755463E-1  -7.878444790840149E-1   5.920000672340393E-1  
 3.610000000000000E7    -6.004937291145325E-1  -7.719380259513855E-1  -1.856704428792000E-2   1.452655494213104E-1  -1.858624629676342E-2   1.449042558670044E-1  -7.795442938804627E-1   6.080635190010071E-1  
 3.640000000000000E7    -7.210142612457275E-1  -6.624928116798401E-1  -5.034271627664566E-3   1.360379755496979E-1  -4.782089963555336E-3   1.364932954311371E-1  -7.697957754135132E-1   6.207065582275391E-1  
 3.670000000000000E7    -8.276551961898804E-1  -5.242702960968018E-1   7.486519403755665E-3   1.255056411027908E-1   7.546553853899241E-3   1.251228302717209E-1  -7.611021399497986E-1   6.338337063789368E-1  
 3.700000000000000E7    -9.136191010475159E-1  -3.556450605392456E-1   1.877755299210548E-2   1.126758828759193E-1   1.882988587021828E-2   1.129035875201225E-1  -7.508085370063782E-1   6.486924886703491E-1  
 3.730000000000000E7    -9.668881297111511E-1  -1.638142764568329E-1   2.764849364757538E-2   9.787305444478989E-2   2.756962552666664E-2   9.808278828859329E-2  -7.407895326614380E-1   6.596543788909912E-1  
 3.760000000000000E7    -9.804793000221252E-1   4.678050428628922E-2   3.390228748321533E-2   8.237156271934509E-2   3.379749879240990E-2   8.248598128557205E-2  -7.313868999481201E-1   6.742442846298218E-1  
 3.790000000000000E7    -9.472259283065796E-1   2.635151743888855E-1   3.660553693771362E-2   6.611965596675873E-2   3.651141375303268E-2   6.615385413169861E-2  -7.208127379417419E-1   6.864166259765625E-1  
 3.820000000000000E7    -8.611744642257690E-1   4.731796383857727E-1   3.608454763889313E-2   5.005588382482529E-2   3.613487258553505E-2   4.988645017147064E-2  -7.104234695434570E-1   6.968455314636231E-1  
 3.850000000000000E7    -7.310706377029419E-1   6.598062515258789E-1   3.216852247714996E-2   3.513792157173157E-2   3.242149204015732E-2   3.507447242736816E-2  -7.017738819122315E-1   7.096074223518372E-1  
 3.880000000000000E7    -5.614557266235352E-1   8.097450733184815E-1   2.588419243693352E-2   2.208693698048592E-2   2.594967186450958E-2   2.213426679372788E-2  -6.901878714561462E-1   7.213745117187500E-1  
 3.910000000000000E7    -3.660584390163422E-1   9.143714308738709E-1   1.732913218438625E-2   1.185043342411518E-2   1.741884648799896E-2   1.193358004093170E-2  -6.796883940696716E-1   7.333210110664368E-1  
 3.940000000000000E7    -1.597206592559815E-1   9.730437994003296E-1   7.876888848841190E-3   4.569406621158123E-3   7.967853918671608E-3   4.554288927465677E-3  -6.681336164474487E-1   7.418681979179382E-1  
 3.970000000000000E7     4.374524950981140E-2   9.850438237190247E-1  -1.843850361183286E-3  -3.332347841933370E-5  -1.860087621025741E-3  -4.979351069778204E-5  -6.563357114791870E-1   7.512308359146118E-1  
 4.000000000000000E7     2.319282740354538E-1   9.589624404907227E-1  -1.115511730313301E-2  -2.189669758081436E-3  -1.111979596316814E-2  -2.070629503577948E-3  -6.465333700180054E-1   7.612549066543579E-1  
 4.030000000000000E7     4.018988013267517E-1   9.033540487289429E-1  -1.957078836858273E-2  -2.202280564233661E-3  -1.947811432182789E-2  -2.210778649896383E-3  -6.358594298362732E-1   7.703373432159424E-1  
 4.060000000000000E7     5.485959053039551E-1   8.231367468833923E-1  -2.671995013952255E-2  -8.606193587183952E-4  -2.654983475804329E-2  -8.522362913936377E-4  -6.242359876632690E-1   7.785857915878296E-1  
 4.090000000000000E7     6.711206436157227E-1   7.291424870491028E-1  -3.236212208867073E-2   1.610951498150826E-3  -3.254108503460884E-2   1.641738228499889E-3  -6.141681671142578E-1   7.860510945320129E-1  
 4.120000000000000E7     7.686624526977539E-1   6.249390840530396E-1  -3.700919076800346E-2   4.642335232347250E-3  -3.711602464318276E-2   4.714314825832844E-3  -6.023189425468445E-1   7.944158911705017E-1  
 4.150000000000000E7     8.445008993148804E-1   5.159053802490234E-1  -4.067797586321831E-2   8.103602565824986E-3  -4.059507325291634E-2   8.061010390520096E-3  -5.916570425033569E-1   8.024188280105591E-1  
 4.180000000000000E7     9.034992456436157E-1   4.072498381137848E-1  -4.314003512263298E-2   1.182137802243233E-2  -4.306652769446373E-2   1.175846159458160E-2  -5.820719599723816E-1   8.093265891075134E-1  
 4.210000000000000E7     9.450650811195374E-1   3.008497953414917E-1  -4.468748718500137E-2   1.522749103605747E-2  -4.481757432222366E-2   1.535829901695252E-2  -5.709764957427979E-1   8.177402019500732E-1  
 4.240000000000000E7     9.719788432121277E-1   1.971110105514526E-1  -4.558753594756126E-2   1.857338473200798E-2  -4.564774036407471E-2   1.866145804524422E-2  -5.611424446105957E-1   8.252049684524536E-1  
 4.270000000000000E7     9.867444038391113E-1   9.889309853315353E-2  -4.603224992752075E-2   2.195913903415203E-2  -4.582310840487480E-2   2.192296832799912E-2  -5.495517253875732E-1   8.325505256652832E-1  
 4.300000000000000E7     9.936758875846863E-1   4.489008337259293E-3  -4.575770348310471E-2   2.503928728401661E-2  -4.560311883687973E-2   2.485099807381630E-2  -5.390479564666748E-1   8.398974537849426E-1  
 4.330000000000000E7     9.893621206283569E-1  -8.322440087795258E-2  -4.499237611889839E-2   2.755290828645229E-2  -4.504584521055222E-2   2.755429781973362E-2  -5.281105637550354E-1   8.456990122795105E-1  
 4.360000000000000E7     9.792784452438355E-1  -1.678215861320496E-1  -4.411429539322853E-2   2.980063669383526E-2  -4.394262284040451E-2   2.998076379299164E-2  -5.181270241737366E-1   8.518984913825989E-1  
 4.390000000000000E7     9.637767076492310E-1  -2.453629523515701E-1  -4.295536875724793E-2   3.216323256492615E-2  -4.289630427956581E-2   3.198869153857231E-2  -5.076068043708801E-1   8.575634360313416E-1  
 4.420000000000000E7     9.407583475112915E-1  -3.186403512954712E-1  -4.127480089664459E-2   3.412848711013794E-2  -4.151346534490585E-2   3.385208174586296E-2  -4.959546327590942E-1   8.637049794197083E-1  
 4.450000000000000E7     9.156886935234070E-1  -3.858118653297424E-1  -4.001704603433609E-2   3.554636240005493E-2  -3.982390835881233E-2   3.565260022878647E-2  -4.868528246879578E-1   8.699707388877869E-1  
 4.480000000000000E7     8.871632814407349E-1  -4.486303329467773E-1  -3.823697939515114E-2   3.700584918260574E-2  -3.826396912336350E-2   3.708484396338463E-2  -4.761949479579926E-1   8.751525282859802E-1  
 4.510000000000000E7     8.562867641448975E-1  -5.061722397804260E-1  -3.660269454121590E-2   3.814369812607765E-2  -3.650661185383797E-2   3.814930096268654E-2  -4.656366407871246E-1   8.818314075469971E-1  
 4.540000000000000E7     8.212153911590576E-1  -5.603752136230469E-1  -3.449623659253120E-2   3.927757963538170E-2  -3.458402678370476E-2   3.923654556274414E-2  -4.545336067676544E-1   8.875405788421631E-1  
 4.570000000000000E7     7.846168279647827E-1  -6.113982200622559E-1  -3.274686262011528E-2   4.000250250101090E-2  -3.275422006845474E-2   3.986727446317673E-2  -4.437240958213806E-1   8.922572135925293E-1  
 4.600000000000000E7     7.475415468215942E-1  -6.556541323661804E-1  -3.102929703891277E-2   4.031293466687203E-2  -3.100634738802910E-2   4.046834632754326E-2  -4.342952668666840E-1   8.973886966705322E-1  
 4.630000000000000E7     7.073085308074951E-1  -7.002563476562500E-1  -2.902792580425739E-2   4.089095443487167E-2  -2.893384173512459E-2   4.095041751861572E-2  -4.235976934432983E-1   9.024606943130493E-1  
 4.660000000000000E7     6.673447489738464E-1  -7.396394610404968E-1  -2.701638452708721E-2   4.133570194244385E-2  -2.723415195941925E-2   4.129533842206001E-2  -4.113286435604096E-1   9.077672958374023E-1  
 4.690000000000000E7     6.252514123916626E-1  -7.747628092765808E-1  -2.524911239743233E-2   4.128458723425865E-2  -2.528426423668861E-2   4.125964269042015E-2  -4.015375971794128E-1   9.130210280418396E-1  
 4.720000000000000E7     5.817841887474060E-1  -8.070821166038513E-1  -2.335653081536293E-2   4.133413732051849E-2  -2.343941293656826E-2   4.139264672994614E-2  -3.900639712810516E-1   9.171192049980164E-1  
 4.750000000000000E7     5.402339100837708E-1  -8.365008234977722E-1  -2.155103348195553E-2   4.124095663428307E-2  -2.162894234061241E-2   4.117568209767342E-2  -3.800368905067444E-1   9.222593307495117E-1  
 4.780000000000000E7     4.969728291034699E-1  -8.626216650009155E-1  -1.977692730724812E-2   4.103771597146988E-2  -1.993369311094284E-2   4.093997925519943E-2  -3.681356310844421E-1   9.249508976936340E-1  
 4.810000000000000E7     4.528832435607910E-1  -8.868017196655273E-1  -1.819798536598682E-2   4.057691991329193E-2  -1.824473589658737E-2   4.056836664676666E-2  -3.587602972984314E-1   9.297325015068054E-1  
 4.840000000000000E7     4.093664586544037E-1  -9.083244800567627E-1  -1.666405424475670E-2   4.021063446998596E-2  -1.654890552163124E-2   4.023155570030212E-2  -3.476601541042328E-1   9.343551397323608E-1  
 4.870000000000000E7     3.647891879081726E-1  -9.272269010543823E-1  -1.509178895503283E-2   3.974337503314018E-2  -1.506849937140942E-2   3.964472562074661E-2  -3.368719220161438E-1   9.386489391326904E-1  
 4.900000000000000E7     3.207105696201325E-1  -9.441491961479187E-1  -1.348619908094406E-2   3.899158164858818E-2  -1.344824861735106E-2   3.906840458512306E-2  -3.265443146228790E-1   9.413976073265076E-1  
 4.930000000000000E7     2.760246098041534E-1  -9.583430886268616E-1  -1.201620232313871E-2   3.841514140367508E-2  -1.196807995438576E-2   3.839842975139618E-2  -3.152962625026703E-1   9.459713697433472E-1  
 4.960000000000000E7     2.311160266399384E-1  -9.683331251144409E-1  -1.050298102200031E-2   3.760131075978279E-2  -1.045449078083038E-2   3.755699470639229E-2  -3.043440580368042E-1   9.487555027008057E-1  
 4.990000000000000E7     1.880757510662079E-1  -9.783958196640015E-1  -9.213548153638840E-3   3.670012205839157E-2  -9.123371914029121E-3   3.674181550741196E-2  -2.935468554496765E-1   9.522577524185181E-1  
 5.020000000000000E7     1.453076303005219E-1  -9.864013195037842E-1  -7.898548617959023E-3   3.573614731431007E-2  -8.060035295784473E-3   3.585709258913994E-2  -2.831247746944428E-1   9.558812379837036E-1  
 5.050000000000000E7     1.012887954711914E-1  -9.916444420814514E-1  -6.853215862065554E-3   3.490891307592392E-2  -6.757068913429976E-3   3.486174717545509E-2  -2.720685899257660E-1   9.602603912353516E-1  
 5.080000000000000E7     5.842449516057968E-2  -9.953866004943848E-1  -5.708025302737951E-3   3.381159529089928E-2  -5.699226632714272E-3   3.386782482266426E-2  -2.610415518283844E-1   9.608525037765503E-1  
 5.110000000000000E7     1.530586555600166E-2  -9.969686269760132E-1  -4.523440729826689E-3   3.278535231947899E-2  -4.498124122619629E-3   3.282236680388451E-2  -2.508589029312134E-1   9.651119709014893E-1  
 5.140000000000000E7    -2.771980315446854E-2  -9.960905909538269E-1  -3.506469074636698E-3   3.170434758067131E-2  -3.487325273454189E-3   3.170823678374291E-2  -2.388729155063629E-1   9.693589806556702E-1  
 5.170000000000000E7    -6.864557415246964E-2  -9.942383766174316E-1  -2.469632076099515E-3   3.056001290678978E-2  -2.647798042744398E-3   3.062173724174500E-2  -2.278073281049728E-1   9.701617956161499E-1  
 5.200000000000000E7    -1.100270301103592E-1  -9.919636845588684E-1  -1.606347505003214E-3   2.939243428409100E-2  -1.849081367254257E-3   2.944533899426460E-2  -2.167381495237351E-1   9.718041419982910E-1  
 5.230000000000000E7    -1.507033556699753E-1  -9.857127666473389E-1  -9.235905599780381E-4   2.823877334594727E-2  -9.123947238549590E-4   2.820182777941227E-2  -2.059366405010223E-1   9.753283262252808E-1  
 5.260000000000000E7    -1.908915340900421E-1  -9.777045845985413E-1  -1.871275017037988E-4   2.702879346907139E-2  -2.205851487815380E-4   2.701494842767716E-2  -1.948280334472656E-1   9.780272841453552E-1  
 5.290000000000000E7    -2.309691160917282E-1  -9.703535437583923E-1   5.489191971719265E-4   2.572559565305710E-2   4.735369002446532E-4   2.570207417011261E-2  -1.841676384210587E-1   9.792870879173279E-1  
 5.320000000000000E7    -2.687723934650421E-1  -9.609926342964172E-1   1.113389735110104E-3   2.443913556635380E-2   1.112767262384296E-3   2.449065819382668E-2  -1.727323532104492E-1   9.818665981292725E-1  
 5.350000000000000E7    -3.062981069087982E-1  -9.488500952720642E-1   1.568745472468436E-3   2.316142618656158E-2   1.608902006410062E-3   2.316780574619770E-2  -1.633348912000656E-1   9.844072461128235E-1  
 5.380000000000000E7    -3.426790237426758E-1  -9.353315830230713E-1   1.993926474824548E-3   2.184885554015636E-2   2.074090763926506E-3   2.179038152098656E-2  -1.505082100629807E-1   9.848333001136780E-1  
 5.410000000000000E7    -3.811738789081574E-1  -9.228420257568359E-1   2.468812279403210E-3   2.053987048566341E-2   2.517389133572578E-3   2.053857035934925E-2  -1.399094462394714E-1   9.870342612266541E-1  
 5.440000000000000E7    -4.167920649051666E-1  -9.061555862426758E-1   2.796950517222285E-3   1.921686716377735E-2   2.815653802827001E-3   1.919372193515301E-2  -1.291751265525818E-1   9.887359142303467E-1  
 5.470000000000000E7    -4.500377774238586E-1  -8.897749781608582E-1   3.044262994080782E-3   1.781548559665680E-2   3.084594383835793E-3   1.788644306361675E-2  -1.170678585767746E-1   9.897115826606751E-1  
 5.500000000000000E7    -4.849764704704285E-1  -8.724040389060974E-1   3.249441739171743E-3   1.657994464039803E-2   3.238373668864369E-3   1.653247512876988E-2  -1.053743362426758E-1   9.922401309013367E-1  
 5.530000000000000E7    -5.177284479141235E-1  -8.529139757156372E-1   3.352545201778412E-3   1.518968492746353E-2   3.398879664018750E-3   1.521319150924683E-2  -9.472967684268951E-2   9.924750924110413E-1  
 5.560000000000000E7    -5.507595539093018E-1  -8.321731090545654E-1   3.439036197960377E-3   1.388178300112486E-2   3.381806192919612E-3   1.378894597291946E-2  -8.434059470891953E-2   9.937610030174255E-1  
 5.590000000000000E7    -5.813196301460266E-1  -8.120490312576294E-1   3.381004091352224E-3   1.250636950135231E-2   3.437845036387444E-3   1.250164490193129E-2  -7.195504009723663E-2   9.942686557769775E-1  
 5.620000000000000E7    -6.121875047683716E-1  -7.874957323074341E-1   3.321883501484990E-3   1.115933619439602E-2   3.319747047498822E-3   1.110218185931444E-2  -6.121529266238213E-2   9.956888556480408E-1  
 5.650000000000000E7    -6.402763724327087E-1  -7.652847170829773E-1   3.138969652354717E-3   9.783060289919376E-3   3.157171420753002E-3   9.790459647774696E-3  -4.996733367443085E-2   9.956315159797669E-1  
 5.680000000000000E7    -6.686511635780335E-1  -7.409166097640991E-1   2.940888516604900E-3   8.483777754008770E-3   2.933242823928595E-3   8.469096384942532E-3  -3.846848383545876E-2   9.958851337432861E-1  
 5.710000000000000E7    -6.965011358261108E-1  -7.146744132041931E-1   2.701559104025364E-3   7.147946394979954E-3   2.693641930818558E-3   7.114520762115717E-3  -2.724573761224747E-2   9.968234896659851E-1  
 5.740000000000000E7    -7.231286168098450E-1  -6.883541345596314E-1   2.326917136088014E-3   5.856972187757492E-3   2.352230018004775E-3   5.855037830770016E-3  -1.528032124042511E-2   9.966797232627869E-1  
 5.770000000000000E7    -7.461318969726563E-1  -6.616476178169251E-1   1.921525108627975E-3   4.579366650432348E-3   1.918592955917120E-3   4.547252319753170E-3  -5.358606576919556E-3   9.967477321624756E-1  
 5.800000000000000E7    -7.708531022071838E-1  -6.326947808265686E-1   1.426574657671154E-3   3.268605563789606E-3   1.427730545401573E-3   3.280542325228453E-3   7.611066102981567E-3   9.979294538497925E-1  
 5.830000000000000E7    -7.933217287063599E-1  -6.045007705688477E-1   8.940521511249244E-4   2.017574850469828E-3   9.328275918960571E-4   2.028528368100524E-3   1.787725836038590E-2   9.976974129676819E-1  
 5.860000000000000E7    -8.161937594413757E-1  -5.760272741317749E-1   2.884702989831567E-4   7.992134196683765E-4   2.725209051277489E-4   7.948440616019070E-4   2.956731617450714E-2   9.965861439704895E-1  
 5.890000000000000E7    -8.355420231819153E-1  -5.448645949363709E-1  -3.572988498490304E-4  -4.317766870371997E-4  -3.395254316274077E-4  -4.042675136588514E-4   4.008182883262634E-2   9.961530566215515E-1  
 5.920000000000000E7    -8.553225398063660E-1  -5.135002136230469E-1  -1.121034845709801E-3  -1.622003386728466E-3  -1.112672849558294E-3  -1.609395840205252E-3   5.255578085780144E-2   9.964790940284729E-1  
 5.950000000000000E7    -8.727967739105225E-1  -4.824574887752533E-1  -1.882053213194013E-3  -2.708166837692261E-3  -1.889422652311623E-3  -2.755802124738693E-3   6.345807760953903E-2   9.940398931503296E-1  
 5.980000000000000E7    -8.901144266128540E-1  -4.503988027572632E-1  -2.738552400842309E-3  -3.871189197525382E-3  -2.696534618735313E-3  -3.872899804264307E-3   7.578087598085403E-2   9.935328364372253E-1  
 6.010000000000000E7    -9.040275812149048E-1  -4.185061752796173E-1  -3.628402017056942E-3  -4.982965532690287E-3  -3.609115257859230E-3  -4.980004858225584E-3   8.633825182914734E-2   9.936059713363648E-1  
 6.040000000000000E7    -9.196222424507141E-1  -3.845286965370178E-1  -4.614423029124737E-3  -6.057735998183489E-3  -4.609851166605949E-3  -6.050770170986652E-3   9.812493622303009E-2   9.928953051567078E-1  
 6.070000000000000E7    -9.336080551147461E-1  -3.530013859272003E-1  -5.659671500325203E-3  -7.080660201609135E-3  -5.613704212009907E-3  -7.070909719914198E-3   1.088398918509483E-1   9.909353852272034E-1  
 6.100000000000000E7    -9.449225068092346E-1  -3.190695643424988E-1  -6.727044936269522E-3  -8.035757578909397E-3  -6.760467775166035E-3  -8.080890402197838E-3   1.219930499792099E-1   9.902084469795227E-1  
 6.130000000000000E7    -9.563989043235779E-1  -2.848578095436096E-1  -7.870906963944435E-3  -9.019265882670879E-3  -7.907275110483170E-3  -9.037242271006107E-3   1.336616575717926E-1   9.887837767601013E-1  
 6.160000000000000E7    -9.653529524803162E-1  -2.505296468734741E-1  -9.057664312422276E-3  -9.933820925652981E-3  -9.098559617996216E-3  -9.901400655508041E-3   1.437962204217911E-1   9.861185550689697E-1  
 6.190000000000000E7    -9.731678962707520E-1  -2.162574976682663E-1  -1.030075456947088E-2  -1.083888113498688E-2  -1.032764185220003E-2  -1.078665629029274E-2   1.548318564891815E-1   9.840756654739380E-1  
 6.220000000000000E7    -9.806979298591614E-1  -1.818672567605972E-1  -1.157386321574450E-2  -1.162164192646742E-2  -1.162739656865597E-2  -1.167382299900055E-2   1.661558151245117E-1   9.836229085922241E-1  
 6.250000000000000E7    -9.864614009857178E-1  -1.464908719062805E-1  -1.296679489314556E-2  -1.242568809539080E-2  -1.300342194736004E-2  -1.239583827555180E-2   1.774002909660339E-1   9.814011454582214E-1  
 6.280000000000000E7    -9.906055927276611E-1  -1.115399599075317E-1  -1.444718148559332E-2  -1.319297309964895E-2  -1.438521035015583E-2  -1.321978308260441E-2   1.895978897809982E-1   9.796092510223389E-1  
 6.310000000000000E7    -9.937081933021545E-1  -7.518522441387177E-2  -1.589259319007397E-2  -1.383173279464245E-2  -1.587680727243424E-2  -1.383861526846886E-2   2.006980180740356E-1   9.769282937049866E-1  
 6.340000000000000E7    -9.958106875419617E-1  -4.061928391456604E-2  -1.740216836333275E-2  -1.449988968670368E-2  -1.740584336221218E-2  -1.445084996521473E-2   2.127304524183273E-1   9.749913215637207E-1  
 6.370000000000000E7    -9.967225790023804E-1  -5.524069070816040E-3  -1.897828280925751E-2  -1.502108480781317E-2  -1.898756623268127E-2  -1.502684317529202E-2   2.232818603515625E-1   9.713972806930542E-1  
 6.400000000000000E7    -9.953541159629822E-1   2.987021207809448E-2  -2.062124200165272E-2  -1.550815906375647E-2  -2.060173451900482E-2  -1.547495275735855E-2   2.353705018758774E-1   9.695765376091003E-1  
 6.430000000000000E7    -9.937003254890442E-1   6.591340154409409E-2  -2.227153070271015E-2  -1.603466644883156E-2  -2.228334732353687E-2  -1.595834642648697E-2   2.468609809875488E-1   9.661411643028259E-1  
 6.460000000000000E7    -9.916012287139893E-1   1.006630808115006E-1  -2.391283214092255E-2  -1.641847379505634E-2  -2.395144477486610E-2  -1.637355983257294E-2   2.571050226688385E-1   9.629433751106262E-1  
 6.490000000000000E7    -9.879389405250549E-1   1.346385031938553E-1  -2.565448731184006E-2  -1.675174012780190E-2  -2.573731914162636E-2  -1.679945737123489E-2   2.684262096881867E-1   9.605410099029541E-1  
 6.520000000000000E7    -9.816979765892029E-1   1.690879464149475E-1  -2.753970585763454E-2  -1.709391362965107E-2  -2.752033807337284E-2  -1.701800338923931E-2   2.803429067134857E-1   9.578481912612915E-1  
 6.550000000000000E7    -9.753553867340088E-1   2.029047608375549E-1  -2.938905917108059E-2  -1.720806956291199E-2  -2.931877598166466E-2  -1.726615242660046E-2   2.910607457160950E-1   9.524899721145630E-1  
 6.580000000000000E7    -9.673545956611633E-1   2.378601133823395E-1  -3.127802908420563E-2  -1.729473285377026E-2  -3.121935203671455E-2  -1.739189028739929E-2   3.029493689537048E-1   9.502332210540772E-1  
 6.610000000000000E7    -9.572058320045471E-1   2.716315090656281E-1  -3.317229449748993E-2  -1.737259142100811E-2  -3.308402374386787E-2  -1.727712899446487E-2   3.149104118347168E-1   9.447541832923889E-1  
 6.640000000000000E7    -9.489220976829529E-1   3.048124313354492E-1  -3.520819544792175E-2  -1.737947575747967E-2  -3.515474870800972E-2  -1.750735938549042E-2   3.260552883148193E-1   9.414353966712952E-1  
 6.670000000000000E7    -9.366485476493835E-1   3.380192518234253E-1  -3.709440305829048E-2  -1.723903976380825E-2  -3.710893169045448E-2  -1.739839091897011E-2   3.366205692291260E-1   9.382331371307373E-1  
 6.700000000000000E7    -9.240611791610718E-1   3.706051111221314E-1  -3.918514400720596E-2  -1.714352890849114E-2  -3.905057162046433E-2  -1.712867617607117E-2   3.475902080535889E-1   9.329572916030884E-1  
 6.730000000000000E7    -9.103533029556274E-1   4.024779796600342E-1  -4.115227609872818E-2  -1.688013784587383E-2  -4.122785106301308E-2  -1.676327176392078E-2   3.601604998111725E-1   9.297397136688232E-1  
 6.760000000000000E7    -8.958733677864075E-1   4.337835311889648E-1  -4.328840225934982E-2  -1.645508408546448E-2  -4.322655871510506E-2  -1.657385565340519E-2   3.713855445384979E-1   9.245887398719788E-1  
 6.790000000000000E7    -8.796763420104981E-1   4.651822447776794E-1  -4.535549134016037E-2  -1.626140810549259E-2  -4.534688219428062E-2  -1.611441746354103E-2   3.816137909889221E-1   9.193077683448792E-1  
 6.820000000000000E7    -8.624090552330017E-1   4.949533045291901E-1  -4.740193113684654E-2  -1.561233960092068E-2  -4.748822376132011E-2  -1.566766761243343E-2   3.926081061363220E-1   9.153044819831848E-1  
 6.850000000000000E7    -8.453038334846497E-1   5.257256031036377E-1  -4.970474168658257E-2  -1.521178893744946E-2  -4.978094622492790E-2  -1.510802283883095E-2   4.034126102924347E-1   9.107878208160400E-1  
 6.880000000000000E7    -8.259342312812805E-1   5.546206831932068E-1  -5.191401392221451E-2  -1.438137423247099E-2  -5.174352973699570E-2  -1.434267684817314E-2   4.150932431221008E-1   9.048448801040649E-1  
 6.910000000000000E7    -8.057188987731934E-1   5.831595659255981E-1  -5.421422794461250E-2  -1.371308416128159E-2  -5.407416075468063E-2  -1.362015865743160E-2   4.264626801013947E-1   8.999653458595276E-1  
 6.940000000000000E7    -7.854557633399963E-1   6.109375357627869E-1  -5.628682300448418E-2  -1.297969836741686E-2  -5.639211088418961E-2  -1.288515888154507E-2   4.366763532161713E-1   8.949190378189087E-1  
 6.970000000000000E7    -7.625993490219116E-1   6.380941867828369E-1  -5.859394371509552E-2  -1.194194890558720E-2  -5.865022167563438E-2  -1.181675493717194E-2   4.481860995292664E-1   8.887151479721069E-1  
 7.000000000000000E7    -7.400119900703430E-1   6.648468971252441E-1  -6.091585755348206E-2  -1.088167633861303E-2  -6.083294376730919E-2  -1.088727079331875E-2   4.590083956718445E-1   8.837120532989502E-1  
