#  HZ   S   RI   R     50.00 
! Rohde & Schwarz ZVT8 8Ports - Version 4.11 - 1300.0000k08 SN: 100242
! Date: 2026-07-31 14:17:19
! Measurements: S11 S21 S12 S22 
! 
 1.000000000000000E7    -4.061194956302643E-1   9.101111888885498E-1   5.337253212928772E-2   5.350645631551743E-2   5.302311107516289E-2   5.372832715511322E-2  -9.161176681518555E-1   3.924885988235474E-1  
 1.030000000000000E7    -3.740290701389313E-1   9.224478602409363E-1   5.676084011793137E-2   5.398272722959518E-2   5.644333735108376E-2   5.403525009751320E-2  -9.095879793167114E-1   4.061183929443359E-1  
 1.060000000000000E7    -3.385811746120453E-1   9.360691308975220E-1   6.034334003925324E-2   5.502026900649071E-2   6.048643216490746E-2   5.485318228602409E-2  -9.054630398750305E-1   4.184119403362274E-1  
 1.090000000000000E7    -3.065820932388306E-1   9.461218714714050E-1   6.388971209526062E-2   5.527811124920845E-2   6.391666084527969E-2   5.546511709690094E-2  -8.987109065055847E-1   4.312746226787567E-1  
 1.120000000000000E7    -2.717349231243134E-1   9.557488560676575E-1   6.806690990924835E-2   5.617193505167961E-2   6.761781126260757E-2   5.596501380205154E-2  -8.928111791610718E-1   4.439944624900818E-1  
 1.150000000000000E7    -2.365571260452271E-1   9.662169218063355E-1   7.173439115285873E-2   5.613099783658981E-2   7.158598303794861E-2   5.627734586596489E-2  -8.845718502998352E-1   4.543693959712982E-1  
 1.180000000000000E7    -2.021355181932449E-1   9.713392257690430E-1   7.564917206764221E-2   5.656661093235016E-2   7.572652399539948E-2   5.654989928007126E-2  -8.791718482971191E-1   4.662619531154633E-1  
 1.210000000000000E7    -1.679644137620926E-1   9.778813719749451E-1   8.014613389968872E-2   5.686986446380615E-2   8.002662658691406E-2   5.663971602916718E-2  -8.703240156173706E-1   4.796055853366852E-1  
 1.240000000000000E7    -1.321395337581635E-1   9.821423888206482E-1   8.429619669914246E-2   5.697485059499741E-2   8.463043719530106E-2   5.646709725260735E-2  -8.631124496459961E-1   4.906598329544067E-1  
 1.270000000000000E7    -9.720869362354279E-2   9.862691760063171E-1   8.943412452936173E-2   5.647309124469757E-2   8.911205083131790E-2   5.635813996195793E-2  -8.551099300384522E-1   5.059044361114502E-1  
 1.300000000000000E7    -6.193242222070694E-2   9.890397191047669E-1   9.382165223360062E-2   5.625639855861664E-2   9.380745142698288E-2   5.633598938584328E-2  -8.462803363800049E-1   5.177341699600220E-1  
 1.330000000000000E7    -2.607432939112186E-2   9.908986687660217E-1   9.907532483339310E-2   5.584678426384926E-2   9.899447858333588E-2   5.544640496373177E-2  -8.377614617347717E-1   5.311041474342346E-1  
 1.360000000000000E7     1.115132868289948E-2   9.906700849533081E-1   1.039961576461792E-1   5.541935190558434E-2   1.044207438826561E-1   5.468501523137093E-2  -8.290746808052063E-1   5.423848628997803E-1  
 1.390000000000000E7     4.568241164088249E-2   9.887388348579407E-1   1.095898300409317E-1   5.419087409973145E-2   1.091807782649994E-1   5.447081476449966E-2  -8.200855255126953E-1   5.558269023895264E-1  
 1.420000000000000E7     8.283153921365738E-2   9.862455725669861E-1   1.146641597151756E-1   5.335342884063721E-2   1.149568185210228E-1   5.345211550593376E-2  -8.117244243621826E-1   5.679885149002075E-1  
 1.450000000000000E7     1.183854639530182E-1   9.807364344596863E-1   1.206148341298103E-1   5.187278240919113E-2   1.205467730760574E-1   5.186977237462997E-2  -7.993420958518982E-1   5.827818512916565E-1  
 1.480000000000000E7     1.555283069610596E-1   9.757108688354492E-1   1.264295727014542E-1   5.042162910103798E-2   1.265775263309479E-1   5.094866454601288E-2  -7.899787425994873E-1   5.953093171119690E-1  
 1.510000000000000E7     1.908715516328812E-1   9.679501056671143E-1   1.326503157615662E-1   4.867406561970711E-2   1.323750615119934E-1   4.869187250733376E-2  -7.762655019760132E-1   6.089512109756470E-1  
 1.540000000000000E7     2.253524214029312E-1   9.596962332725525E-1   1.387128978967667E-1   4.757765680551529E-2   1.388789862394333E-1   4.689425602555275E-2  -7.678403854370117E-1   6.215779185295105E-1  
 1.570000000000000E7     2.621325552463532E-1   9.511995911598206E-1   1.453597247600555E-1   4.463599622249603E-2   1.455277204513550E-1   4.466160014271736E-2  -7.537692785263062E-1   6.363254189491272E-1  
 1.600000000000000E7     2.981698215007782E-1   9.386003017425537E-1   1.521244794130325E-1   4.216337203979492E-2   1.525432318449020E-1   4.182380065321922E-2  -7.414765357971191E-1   6.481381654739380E-1  
 1.630000000000000E7     3.327513039112091E-1   9.255374073982239E-1   1.598718166351318E-1   3.865503147244453E-2   1.593841761350632E-1   3.925199434161186E-2  -7.275810837745667E-1   6.632319092750549E-1  
 1.660000000000000E7     3.669869303703308E-1   9.099664688110352E-1   1.670048683881760E-1   3.532791510224342E-2   1.667624413967133E-1   3.496106341481209E-2  -7.114381790161133E-1   6.773244738578796E-1  
 1.690000000000000E7     4.011006653308868E-1   8.943014144897461E-1   1.747644394636154E-1   3.224187344312668E-2   1.746185868978500E-1   3.174372389912605E-2  -6.973357796669006E-1   6.901976466178894E-1  
 1.720000000000000E7     4.368053674697876E-1   8.773406744003296E-1   1.819799542427063E-1   2.717361226677895E-2   1.823160499334335E-1   2.755043841898441E-2  -6.814281940460205E-1   7.036056518554688E-1  
 1.750000000000000E7     4.656533002853394E-1   8.611258268356323E-1   1.911262869834900E-1   2.397502958774567E-2   1.914091259241104E-1   2.325881645083427E-2  -6.651114225387573E-1   7.194939255714417E-1  
 1.780000000000000E7     5.013243556022644E-1   8.371674418449402E-1   1.988508254289627E-1   1.764266937971115E-2   1.992086321115494E-1   1.797905564308167E-2  -6.465398669242859E-1   7.310113906860352E-1  
 1.810000000000000E7     5.318014621734619E-1   8.168240785598755E-1   2.090582251548767E-1   1.220463588833809E-2   2.076539695262909E-1   1.150819472968578E-2  -6.270166635513306E-1   7.480233311653137E-1  
 1.840000000000000E7     5.645599961280823E-1   7.933433651924133E-1   2.181602865457535E-1   4.490958526730537E-3   2.173600345849991E-1   4.759766161441803E-3  -6.057852506637573E-1   7.614890933036804E-1  
 1.870000000000000E7     5.927051305770874E-1   7.687592506408691E-1   2.274907082319260E-1  -2.020495012402535E-3   2.268190532922745E-1  -2.476781606674194E-3  -5.838776826858521E-1   7.747230529785156E-1  
 1.900000000000000E7     6.219087839126587E-1   7.425387501716614E-1   2.372017502784729E-1  -9.830974042415619E-3   2.371135354042053E-1  -1.039652898907661E-2  -5.605949163436890E-1   7.883992195129395E-1  
 1.930000000000000E7     6.507564187049866E-1   7.140297293663025E-1   2.471608221530914E-1  -2.023179084062576E-2   2.477046400308609E-1  -1.951789669692516E-2  -5.349257588386536E-1   8.038995265960693E-1  
 1.960000000000000E7     6.783867478370667E-1   6.834367513656616E-1   2.576293647289276E-1  -3.044967167079449E-2   2.579985558986664E-1  -2.992904372513294E-2  -5.099822878837585E-1   8.170039653778076E-1  
 1.990000000000000E7     7.020544409751892E-1   6.522323489189148E-1   2.684080600738525E-1  -4.194167628884316E-2   2.691200673580170E-1  -4.200406000018120E-2  -4.782360494136810E-1   8.315927386283875E-1  
 2.020000000000000E7     7.265926599502564E-1   6.190922856330872E-1   2.802808582782745E-1  -5.478329584002495E-2   2.797351777553558E-1  -5.430311709642410E-2  -4.490270018577576E-1   8.421382904052734E-1  
 2.050000000000000E7     7.508041262626648E-1   5.843063592910767E-1   2.917075157165527E-1  -6.869627535343170E-2   2.900375127792358E-1  -6.909570097923279E-2  -4.149111509323120E-1   8.546890020370483E-1  
 2.080000000000000E7     7.709235548973084E-1   5.467441678047180E-1   3.036020100116730E-1  -8.551472425460815E-2   3.038264811038971E-1  -8.540827035903931E-2  -3.777089118957520E-1   8.678410053253174E-1  
 2.110000000000000E7     7.899389266967773E-1   5.093811154365540E-1   3.155636489391327E-1  -1.048905998468399E-1   3.156925737857819E-1  -1.047427505254746E-1  -3.372281789779663E-1   8.772063255310059E-1  
 2.140000000000000E7     8.061958551406860E-1   4.704893231391907E-1   3.274051249027252E-1  -1.263393759727478E-1   3.267142176628113E-1  -1.249072551727295E-1  -2.942368686199188E-1   8.858636617660523E-1  
 2.170000000000000E7     8.190565109252930E-1   4.307189583778381E-1   3.390794694423676E-1  -1.488451212644577E-1   3.392833173274994E-1  -1.480886638164520E-1  -2.459968924522400E-1   8.920518159866333E-1  
 2.200000000000000E7     8.316681385040283E-1   3.866158425807953E-1   3.497750163078308E-1  -1.758627146482468E-1   3.499644100666046E-1  -1.758134067058563E-1  -1.926500797271729E-1   8.946073055267334E-1  
 2.230000000000000E7     8.384933471679688E-1   3.431701064109802E-1   3.599506020545960E-1  -2.061415761709213E-1   3.597822487354279E-1  -2.054447382688522E-1  -1.363870501518250E-1   8.943820595741272E-1  
 2.260000000000000E7     8.432429432868958E-1   2.981545329093933E-1   3.683556616306305E-1  -2.402511835098267E-1   3.705400526523590E-1  -2.408483922481537E-1  -7.453392446041107E-2   8.889885544776917E-1  
 2.290000000000000E7     8.434115648269653E-1   2.524786889553070E-1   3.754040598869324E-1  -2.791628837585449E-1   3.764530122280121E-1  -2.788830399513245E-1  -5.812525749206543E-3   8.769196867942810E-1  
 2.320000000000000E7     8.375220298767090E-1   2.075164318084717E-1   3.783394992351532E-1  -3.240241110324860E-1   3.776632547378540E-1  -3.246702551841736E-1   6.766350567340851E-2   8.590008616447449E-1  
 2.350000000000000E7     8.273286819458008E-1   1.613363623619080E-1   3.759346306324005E-1  -3.747827112674713E-1   3.763566017150879E-1  -3.736512064933777E-1   1.460143923759460E-1   8.283153176307678E-1  
 2.380000000000000E7     8.114407062530518E-1   1.176977455615997E-1   3.692144155502319E-1  -4.280862510204315E-1   3.690859079360962E-1  -4.287998080253601E-1   2.296144813299179E-1   7.847535610198975E-1  
 2.410000000000000E7     7.896966338157654E-1   7.596695423126221E-2   3.518391251564026E-1  -4.890372753143311E-1   3.511157333850861E-1  -4.886705279350281E-1   3.141407072544098E-1   7.238448262214661E-1  
 2.440000000000000E7     7.608479857444763E-1   4.151806235313416E-2   3.230431973934174E-1  -5.536897778511047E-1   3.231354057788849E-1  -5.552200078964233E-1   3.974198400974274E-1   6.437777280807495E-1  
 2.470000000000000E7     7.271950840950012E-1   1.224956382066011E-2   2.798651754856110E-1  -6.199919581413269E-1   2.816554009914398E-1  -6.192918419837952E-1   4.767539799213409E-1   5.398243665695190E-1  
 2.500000000000000E7     6.882394552230835E-1  -9.900469332933426E-3   2.219152152538300E-1  -6.843722462654114E-1   2.199632823467255E-1  -6.857278347015381E-1   5.410585403442383E-1   4.124334454536438E-1  
 2.530000000000000E7     6.462998390197754E-1  -1.779214665293694E-2   1.431561112403870E-1  -7.447753548622131E-1   1.441183090209961E-1  -7.426527738571167E-1   5.829128623008728E-1   2.601934373378754E-1  
 2.560000000000000E7     6.079414486885071E-1  -1.433679088950157E-2   4.894759505987167E-2  -7.880838513374329E-1   4.879065603017807E-2  -7.873572111129761E-1   5.920475721359253E-1   8.990377932786942E-2  
 2.590000000000000E7     5.787345170974731E-1   3.734698519110680E-3  -6.220110133290291E-2  -8.066675066947937E-1  -6.381461769342423E-2  -8.086445927619934E-1   5.615177750587463E-1  -8.688934892416000E-2  
 2.620000000000000E7     5.602427124977112E-1   3.007093258202076E-2  -1.808858960866928E-1  -8.028152585029602E-1  -1.796825528144836E-1  -8.023485541343689E-1   4.848474264144898E-1  -2.590484619140625E-1  
 2.650000000000000E7     5.547837615013123E-1   6.093063950538635E-2  -2.928773760795593E-1  -7.695867419242859E-1  -2.943142056465149E-1  -7.706656455993652E-1   3.659922480583191E-1  -4.076463282108307E-1  
 2.680000000000000E7     5.673398971557617E-1   9.077010303735733E-2  -3.939374387264252E-1  -7.101904749870300E-1  -3.941628634929657E-1  -7.120408415794373E-1   2.169617116451263E-1  -5.191296935081482E-1  
 2.710000000000000E7     5.930408239364624E-1   1.101951897144318E-1  -4.748396277427673E-1  -6.340898275375366E-1  -4.766708910465241E-1  -6.318231225013733E-1   5.468884482979775E-2  -5.917728543281555E-1  
 2.740000000000000E7     6.283186078071594E-1   1.233363300561905E-1  -5.338262915611267E-1  -5.445228815078735E-1  -5.348869562149048E-1  -5.464782714843750E-1  -1.128365248441696E-1  -6.200855374336243E-1  
 2.770000000000000E7     6.682138442993164E-1   1.211166381835938E-1  -5.682403445243835E-1  -4.553034305572510E-1  -5.709580183029175E-1  -4.573574364185333E-1  -2.665380239486694E-1  -6.159198880195618E-1  
 2.800000000000000E7     7.084988355636597E-1   1.085480079054833E-1  -5.854447484016419E-1  -3.678474128246307E-1  -5.845915675163269E-1  -3.715303540229797E-1  -4.054700732231140E-1  -5.830779075622559E-1  
 2.830000000000000E7     7.456899881362915E-1   8.433134108781815E-2  -5.865699052810669E-1  -2.889496088027954E-1  -5.873166322708130E-1  -2.888420522212982E-1  -5.211703777313232E-1  -5.337046384811401E-1  
 2.860000000000000E7     7.805585265159607E-1   5.140031501650810E-2  -5.768256187438965E-1  -2.185960114002228E-1  -5.777088999748230E-1  -2.192856222391129E-1  -6.182901859283447E-1  -4.728417992591858E-1  
 2.890000000000000E7     8.085094690322876E-1   1.276064850389957E-2  -5.599700808525085E-1  -1.583160609006882E-1  -5.590442419052124E-1  -1.577296108007431E-1  -6.956752538681030E-1  -4.050648212432861E-1  
 2.920000000000000E7     8.323735594749451E-1  -3.017897158861160E-2  -5.371518135070801E-1  -1.049240529537201E-1  -5.372427105903626E-1  -1.044204682111740E-1  -7.588902711868286E-1  -3.366293609142304E-1  
 2.950000000000000E7     8.494184017181397E-1  -7.650165259838104E-2  -5.132083892822266E-1  -6.205621734261513E-2  -5.126600861549377E-1  -6.203533709049225E-2  -8.065355420112610E-1  -2.695973515510559E-1  
 2.980000000000000E7     8.602454066276550E-1  -1.248981207609177E-1  -4.862305223941803E-1  -2.363744191825390E-2  -4.875693917274475E-1  -2.447354234755039E-2  -8.435586690902710E-1  -2.042447179555893E-1  
 3.010000000000000E7     8.666142225265503E-1  -1.757444143295288E-1  -4.610742032527924E-1   7.749725133180618E-3  -4.603610932826996E-1   6.686667911708355E-3  -8.712159991264343E-1  -1.422383785247803E-1  
 3.040000000000000E7     8.683704733848572E-1  -2.273989915847778E-1  -4.338193535804749E-1   3.385137021541596E-2  -4.357661902904511E-1   3.403517976403236E-2  -8.913745284080505E-1  -8.372625708580017E-2  
 3.070000000000000E7     8.628218770027161E-1  -2.784574329853058E-1  -4.084292650222778E-1   5.720918625593185E-2  -4.087790548801422E-1   5.668440461158752E-2  -9.067539572715759E-1  -2.914737164974213E-2  
 3.100000000000000E7     8.550406694412231E-1  -3.302700519561768E-1  -3.844286203384399E-1   7.535483688116074E-2  -3.840765357017517E-1   7.517544180154800E-2  -9.169610142707825E-1   2.086962945759296E-2  
 3.130000000000000E7     8.432364463806152E-1  -3.804067373275757E-1  -3.611391186714172E-1   9.121323376893997E-2  -3.612435758113861E-1   9.098586440086365E-2  -9.225420355796814E-1   6.931228935718536E-2  
 3.160000000000000E7     8.259031772613525E-1  -4.307789802551270E-1  -3.380473852157593E-1   1.034407988190651E-1  -3.389400839805603E-1   1.042180359363556E-1  -9.254925847053528E-1   1.118910089135170E-1  
 3.190000000000000E7     8.053336143493652E-1  -4.795295298099518E-1  -3.167777061462402E-1   1.151395142078400E-1  -3.165867626667023E-1   1.149113699793816E-1  -9.256416559219360E-1   1.531317383050919E-1  
 3.220000000000000E7     7.826690673828125E-1  -5.289162397384644E-1  -2.961575686931610E-1   1.244676783680916E-1  -2.962012290954590E-1   1.246267557144165E-1  -9.248428940773010E-1   1.910614520311356E-1  
 3.250000000000000E7     7.546478509902954E-1  -5.753002166748047E-1  -2.768941521644592E-1   1.316618621349335E-1  -2.770644426345825E-1   1.322632431983948E-1  -9.220210909843445E-1   2.267377525568008E-1  
 3.280000000000000E7     7.224293947219849E-1  -6.204447746276856E-1  -2.583371698856354E-1   1.372025012969971E-1  -2.580806314945221E-1   1.379075497388840E-1  -9.175548553466797E-1   2.607830762863159E-1  
 3.310000000000000E7     6.881331801414490E-1  -6.638468503952026E-1  -2.403191328048706E-1   1.432507783174515E-1  -2.409362345933914E-1   1.436642259359360E-1  -9.124323129653931E-1   2.926830351352692E-1  
 3.340000000000000E7     6.496731042861939E-1  -7.067811489105225E-1  -2.239356935024262E-1   1.478656232357025E-1  -2.234506458044052E-1   1.476239711046219E-1  -9.054010510444641E-1   3.227705657482147E-1  
 3.370000000000000E7     6.083850860595703E-1  -7.462207674980164E-1  -2.073466181755066E-1   1.505057662725449E-1  -2.079504877328873E-1   1.501859128475189E-1  -8.986504673957825E-1   3.501091897487640E-1  
 3.400000000000000E7     5.625309944152832E-1  -7.851504087448120E-1  -1.919221580028534E-1   1.531357765197754E-1  -1.923596709966660E-1   1.532319486141205E-1  -8.902996778488159E-1   3.764083385467529E-1  
 3.430000000000000E7     5.138680934906006E-1  -8.209435343742371E-1  -1.772129237651825E-1   1.552336513996124E-1  -1.772142797708511E-1   1.544270217418671E-1  -8.823905587196350E-1   4.010549783706665E-1  
 3.460000000000000E7     4.610327184200287E-1  -8.534424304962158E-1  -1.628492921590805E-1   1.559816598892212E-1  -1.631132215261459E-1   1.559034138917923E-1  -8.750739097595215E-1   4.245870113372803E-1  
 3.490000000000000E7     4.056081473827362E-1  -8.836340308189392E-1  -1.494234204292297E-1   1.568799912929535E-1  -1.485852152109146E-1   1.554807722568512E-1  -8.645327687263489E-1   4.460814297199249E-1  
 3.520000000000000E7     3.466731905937195E-1  -9.112324714660645E-1  -1.357173323631287E-1   1.560343205928803E-1  -1.361009478569031E-1   1.552469730377197E-1  -8.568211793899536E-1   4.681280255317688E-1  
 3.550000000000000E7     2.827689647674561E-1  -9.335672855377197E-1  -1.234350353479385E-1   1.544600725173950E-1  -1.231733262538910E-1   1.546821743249893E-1  -8.478848934173584E-1   4.876821339130402E-1  
 3.580000000000000E7     2.161737680435181E-1  -9.530010819435120E-1  -1.106141135096550E-1   1.533268094062805E-1  -1.107223555445671E-1   1.531481593847275E-1  -8.375470638275147E-1   5.075964331626892E-1  
 3.610000000000000E7     1.460724771022797E-1  -9.671525955200195E-1  -9.922305494546890E-2   1.516462415456772E-1  -9.887173771858215E-2   1.512856185436249E-1  -8.289468288421631E-1   5.275148153305054E-1  
 3.640000000000000E7     7.250981777906418E-2  -9.773966073989868E-1  -8.767779916524887E-2   1.486111581325531E-1  -8.774402737617493E-2   1.489696502685547E-1  -8.186309933662415E-1   5.435582995414734E-1  
 3.670000000000000E7    -2.999365329742432E-3  -9.816451668739319E-1  -7.662492245435715E-2   1.457228362560272E-1  -7.622480392456055E-2   1.454091966152191E-1  -8.095723986625671E-1   5.602340102195740E-1  
 3.700000000000000E7    -8.391686528921127E-2  -9.789515733718872E-1  -6.556286662817001E-2   1.420869827270508E-1  -6.572402268648148E-2   1.421777009963989E-1  -7.990880012512207E-1   5.779643058776856E-1  
 3.730000000000000E7    -1.656920611858368E-1  -9.695526957511902E-1  -5.465555191040039E-2   1.375228762626648E-1  -5.504771322011948E-2   1.377745419740677E-1  -7.881125807762146E-1   5.922185182571411E-1  
 3.760000000000000E7    -2.502123415470123E-1  -9.521543979644775E-1  -4.504422843456268E-2   1.330827623605728E-1  -4.517413675785065E-2   1.332933008670807E-1  -7.786997556686401E-1   6.088159680366516E-1  
 3.790000000000000E7    -3.361013233661652E-1  -9.262450933456421E-1  -3.585262596607208E-2   1.276205331087112E-1  -3.564293682575226E-2   1.274902522563934E-1  -7.681177854537964E-1   6.231825947761536E-1  
 3.820000000000000E7    -4.259324371814728E-1  -8.891933560371399E-1  -2.670611999928951E-2   1.217882111668587E-1  -2.652334980666637E-2   1.216603443026543E-1  -7.578557729721069E-1   6.359462141990662E-1  
 3.850000000000000E7    -5.128120183944702E-1  -8.419010639190674E-1  -1.851906999945641E-2   1.146849170327187E-1  -1.814925298094750E-2   1.146357581019402E-1  -7.488421797752380E-1   6.502926349639893E-1  
 3.880000000000000E7    -5.991199016571045E-1  -7.833375334739685E-1  -1.015959586948156E-2   1.074930205941200E-1  -1.071234792470932E-2   1.072696000337601E-1  -7.381893396377564E-1   6.642387509346008E-1  
 3.910000000000000E7    -6.837834119796753E-1  -7.109239101409912E-1  -3.021646291017532E-3   9.897813200950623E-2  -3.091211896389723E-3   9.902379661798477E-2  -7.280629277229309E-1   6.784139871597290E-1  
 3.940000000000000E7    -7.628819942474365E-1  -6.265844702720642E-1   2.992584602907300E-3   9.033330529928207E-2   2.921849256381393E-3   9.026837348937988E-2  -7.166589498519898E-1   6.890754699707031E-1  
 3.970000000000000E7    -8.362395167350769E-1  -5.273857712745667E-1   8.370483294129372E-3   8.079190552234650E-2   8.651748299598694E-3   8.068887889385223E-2  -7.050413489341736E-1   7.009575366973877E-1  
 4.000000000000000E7    -8.961519002914429E-1  -4.133930206298828E-1   1.248455420136452E-2   7.055535912513733E-2   1.261477451771498E-2   7.063360512256622E-2  -6.958097219467163E-1   7.131039500236511E-1  
 4.030000000000000E7    -9.459828138351440E-1  -2.869232594966888E-1   1.543613057583571E-2   6.024237349629402E-2   1.521470118314028E-2   5.997676402330399E-2  -6.845972537994385E-1   7.243148684501648E-1  
 4.060000000000000E7    -9.775121808052063E-1  -1.469931155443192E-1   1.670335419476032E-2   4.922803863883019E-2   1.688018068671227E-2   4.908746480941773E-2  -6.733466982841492E-1   7.348167300224304E-1  
 4.090000000000000E7    -9.878887534141541E-1   2.478115260601044E-3   1.646449603140354E-2   3.803797066211700E-2   1.644635014235973E-2   3.817934542894363E-2  -6.629377007484436E-1   7.448153495788574E-1  
 4.120000000000000E7    -9.753953218460083E-1   1.596039682626724E-1   1.437531225383282E-2   2.730385959148407E-2   1.460577547550201E-2   2.721397206187248E-2  -6.504898071289063E-1   7.556830644607544E-1  
 4.150000000000000E7    -9.343835115432739E-1   3.192257285118103E-1   1.084519922733307E-2   1.699045859277248E-2   1.083918567746878E-2   1.685236953198910E-2  -6.392320394515991E-1   7.656337022781372E-1  
 4.180000000000000E7    -8.661158084869385E-1   4.736528396606445E-1   5.406962241977453E-3   7.527285255491734E-3   5.307309329509735E-3   7.548746652901173E-3  -6.291710138320923E-1   7.742583155632019E-1  
 4.210000000000000E7    -7.704157829284668E-1   6.182444095611572E-1  -1.664633629843593E-3  -6.763975834473968E-4  -1.650892780162394E-3  -7.036817260086536E-4  -6.173321604728699E-1   7.846179008483887E-1  
 4.240000000000000E7    -6.465384960174561E-1   7.459331750869751E-1  -9.932249784469605E-3  -7.169413845986128E-3  -9.862449951469898E-3  -7.237997837364674E-3  -6.066314578056335E-1   7.934878468513489E-1  
 4.270000000000000E7    -5.007146596908569E-1   8.501029610633850E-1  -1.922994107007980E-2  -1.191098429262638E-2  -1.911689527332783E-2  -1.187655795365572E-2  -5.941420197486877E-1   8.025050759315491E-1  
 4.300000000000000E7    -3.394259810447693E-1   9.268255233764648E-1  -2.873364090919495E-2  -1.460796594619751E-2  -2.882895804941654E-2  -1.451658830046654E-2  -5.823053717613220E-1   8.109567165374756E-1  
 4.330000000000000E7    -1.656647324562073E-1   9.724608659744263E-1  -3.843597322702408E-2  -1.514999195933342E-2  -3.850887343287468E-2  -1.508782431483269E-2  -5.708410143852234E-1   8.176569938659668E-1  
 4.360000000000000E7     8.861809968948364E-3   9.871338009834290E-1  -4.770694673061371E-2  -1.397983171045780E-2  -4.763049259781838E-2  -1.377320941537619E-2  -5.602344274520874E-1   8.251538872718811E-1  
 4.390000000000000E7     1.778744310140610E-1   9.699732065200806E-1  -5.614649504423142E-2  -1.107510644942522E-2  -5.576911568641663E-2  -1.086920127272606E-2  -5.484691858291626E-1   8.316916823387146E-1  
 4.420000000000000E7     3.391286134719849E-1   9.252179861068726E-1  -6.331684440374374E-2  -6.484549492597580E-3  -6.314840912818909E-2  -6.489019840955734E-3  -5.362330675125122E-1   8.384137749671936E-1  
 4.450000000000000E7     4.838205575942993E-1   8.590127229690552E-1  -6.919758766889572E-2  -1.322916708886623E-3  -6.928414851427078E-2  -1.008545979857445E-3  -5.265726447105408E-1   8.449442982673645E-1  
 4.480000000000000E7     6.102253198623657E-1   7.743967175483704E-1  -7.384337484836578E-2   4.700875841081142E-3  -7.387908548116684E-2   4.814057610929012E-3  -5.158745050430298E-1   8.511962294578552E-1  
 4.510000000000000E7     7.171509861946106E-1   6.764303445816040E-1  -7.731378078460693E-2   1.107264496386051E-2  -7.716628909111023E-2   1.124532800167799E-2  -5.050656199455261E-1   8.579237461090088E-1  
 4.540000000000000E7     8.051064014434815E-1   5.697381496429443E-1  -7.945993542671204E-2   1.801366731524468E-2  -7.939018309116364E-2   1.790808327496052E-2  -4.932214915752411E-1   8.638878464698792E-1  
 4.570000000000000E7     8.745974898338318E-1   4.561890363693237E-1  -8.026589453220367E-2   2.447480335831642E-2  -8.011512458324432E-2   2.426356449723244E-2  -4.823727011680603E-1   8.695353865623474E-1  
 4.600000000000000E7     9.251750111579895E-1   3.434254527091980E-1  -8.044137805700302E-2   3.018582984805107E-2  -8.023006469011307E-2   3.012296371161938E-2  -4.722777009010315E-1   8.752018809318543E-1  
 4.630000000000000E7     9.604794383049011E-1   2.304892539978027E-1  -7.961214333772659E-2   3.608562052249908E-2  -7.953822612762451E-2   3.611927852034569E-2  -4.619163572788239E-1   8.804131150245667E-1  
 4.660000000000000E7     9.807797074317932E-1   1.206529140472412E-1  -7.792057096958160E-2   4.169970005750656E-2  -7.807027548551559E-2   4.147131368517876E-2  -4.495414197444916E-1   8.865793347358704E-1  
 4.690000000000000E7     9.884590506553650E-1   1.378412172198296E-2  -7.598044723272324E-2   4.642833769321442E-2  -7.571653276681900E-2   4.651302471756935E-2  -4.393961131572723E-1   8.922450542449951E-1  
 4.720000000000000E7     9.850241541862488E-1  -8.799305558204651E-2  -7.331319153308868E-2   5.095707252621651E-2  -7.333046197891235E-2   5.100305750966072E-2  -4.278269708156586E-1   8.965241909027100E-1  
 4.750000000000000E7     9.719880223274231E-1  -1.818616986274719E-1  -7.046417891979218E-2   5.496111512184143E-2  -7.027020305395126E-2   5.480705201625824E-2  -4.177442491054535E-1   9.023464918136597E-1  
 4.780000000000000E7     9.511090517044067E-1  -2.709807157516480E-1  -6.718797236680985E-2   5.850099772214890E-2  -6.724327802658081E-2   5.802396684885025E-2  -4.058343768119812E-1   9.058515429496765E-1  
 4.810000000000000E7     9.243949651718140E-1  -3.536469340324402E-1  -6.411631405353546E-2   6.115645542740822E-2  -6.397277116775513E-2   6.101058423519135E-2  -3.965269625186920E-1   9.110099673271179E-1  
 4.840000000000000E7     8.915089368820190E-1  -4.296355247497559E-1  -6.081425771117210E-2   6.365890055894852E-2  -6.063339114189148E-2   6.360251456499100E-2  -3.853565156459808E-1   9.159217476844788E-1  
 4.870000000000000E7     8.547503352165222E-1  -5.010843276977539E-1  -5.725769698619843E-2   6.600189208984375E-2  -5.718407034873962E-2   6.578900665044785E-2  -3.748042285442352E-1   9.204862117767334E-1  
 4.900000000000000E7     8.140819072723389E-1  -5.656493306159973E-1  -5.375569686293602E-2   6.766989082098007E-2  -5.355459824204445E-2   6.774778664112091E-2  -3.642422854900360E-1   9.243137240409851E-1  
 4.930000000000000E7     7.702235579490662E-1  -6.249863505363464E-1  -4.999329894781113E-2   6.913428008556366E-2  -5.010466277599335E-2   6.899619847536087E-2  -3.523222208023071E-1   9.292355179786682E-1  
 4.960000000000000E7     7.220584750175476E-1  -6.790636777877808E-1  -4.648955911397934E-2   7.034876942634583E-2  -4.652531445026398E-2   7.038611173629761E-2  -3.420275151729584E-1   9.330070018768311E-1  
 4.990000000000000E7     6.748273968696594E-1  -7.269011735916138E-1  -4.299128428101540E-2   7.122153788805008E-2  -4.303184896707535E-2   7.101846486330032E-2  -3.310097754001617E-1   9.368263483047485E-1  
 5.020000000000000E7     6.254736185073853E-1  -7.702543139457703E-1  -3.965884447097778E-2   7.167512178421021E-2  -3.995111584663391E-2   7.154913246631622E-2  -3.206918537616730E-1   9.410147070884705E-1  
 5.050000000000000E7     5.740204453468323E-1  -8.094968199729919E-1  -3.638306260108948E-2   7.213504612445831E-2  -3.639871254563332E-2   7.205902785062790E-2  -3.096085190773010E-1   9.457474350929260E-1  
 5.080000000000000E7     5.225795507431030E-1  -8.440153598785400E-1  -3.327609598636627E-2   7.212358713150024E-2  -3.324993699789047E-2   7.193140685558319E-2  -2.984012365341187E-1   9.470763206481934E-1  
 5.110000000000000E7     4.701349139213562E-1  -8.744283914566040E-1  -2.995800971984863E-2   7.200247049331665E-2  -3.010312654078007E-2   7.204428315162659E-2  -2.883833646774292E-1   9.515684843063355E-1  
 5.140000000000000E7     4.169106483459473E-1  -9.015432000160217E-1  -2.695799432694912E-2   7.185301184654236E-2  -2.698766440153122E-2   7.196749001741409E-2  -2.765150964260101E-1   9.567567706108093E-1  
 5.170000000000000E7     3.650993108749390E-1  -9.233253002166748E-1  -2.383932471275330E-2   7.143839448690414E-2  -2.395277097821236E-2   7.137342542409897E-2  -2.651057839393616E-1   9.578776955604553E-1  
 5.200000000000000E7     3.128205537796021E-1  -9.436746835708618E-1  -2.119944244623184E-2   7.085359841585159E-2  -2.153268828988075E-2   7.073695212602615E-2  -2.542792260646820E-1   9.599071741104126E-1  
 5.230000000000000E7     2.598524391651154E-1  -9.591947793960571E-1  -1.847710274159908E-2   7.004431635141373E-2  -1.845187693834305E-2   7.023034244775772E-2  -2.436689287424088E-1   9.642709493637085E-1  
 5.260000000000000E7     2.076932787895203E-1  -9.710807800292969E-1  -1.583954878151417E-2   6.946774572134018E-2  -1.593532785773277E-2   6.937693059444428E-2  -2.323983162641525E-1   9.673163890838623E-1  
 5.290000000000000E7     1.564061343669891E-1  -9.819107055664063E-1  -1.335255336016417E-2   6.827276945114136E-2  -1.341564673930407E-2   6.841713190078735E-2  -2.217490226030350E-1   9.693727493286133E-1  
 5.320000000000000E7     1.065869182348251E-1  -9.889953136444092E-1  -1.107713300734758E-2   6.737510859966278E-2  -1.098581217229366E-2   6.744786351919174E-2  -2.102569788694382E-1   9.723931550979614E-1  
 5.350000000000000E7     5.614078789949417E-2  -9.923144578933716E-1  -8.892470970749855E-3   6.623138487339020E-2  -8.723026141524315E-3   6.628052145242691E-2  -2.004716098308563E-1   9.751750826835632E-1  
 5.380000000000000E7     7.131416350603104E-3  -9.933784008026123E-1  -6.641305051743984E-3   6.505388766527176E-2  -6.479677278548479E-3   6.491181254386902E-2  -1.877028048038483E-1   9.764957427978516E-1  
 5.410000000000000E7    -4.248150810599327E-2  -9.950847029685974E-1  -4.580515436828136E-3   6.387471407651901E-2  -4.383702762424946E-3   6.386575102806091E-2  -1.773306131362915E-1   9.790282845497131E-1  
 5.440000000000000E7    -9.081919491291046E-2  -9.909590482711792E-1  -2.482410054653883E-3   6.244932115077972E-2  -2.480546478182077E-3   6.246604397892952E-2  -1.663769036531448E-1   9.808465838432312E-1  
 5.470000000000000E7    -1.359308958053589E-1  -9.851426482200623E-1  -6.844545714557171E-4   6.089792773127556E-2  -6.344225257635117E-4   6.103707477450371E-2  -1.542285084724426E-1   9.824786782264710E-1  
 5.500000000000000E7    -1.825713068246841E-1  -9.788395166397095E-1   1.063817180693150E-3   5.967506766319275E-2   1.093149883672595E-3   5.957241728901863E-2  -1.424477845430374E-1   9.853056669235230E-1  
 5.530000000000000E7    -2.273104190826416E-1  -9.691755771636963E-1   2.530467230826616E-3   5.810589715838432E-2   2.845312003046274E-3   5.809586122632027E-2  -1.315899938344955E-1   9.862111210823059E-1  
 5.560000000000000E7    -2.721052765846252E-1  -9.576318264007568E-1   4.315664526075125E-3   5.669603496789932E-2   4.245447926223278E-3   5.650392919778824E-2  -1.212021410465241E-1   9.882075786590576E-1  
 5.590000000000000E7    -3.139308393001556E-1  -9.455070495605469E-1   5.706910043954849E-3   5.492644011974335E-2   5.736865568906069E-3   5.497528240084648E-2  -1.090104877948761E-1   9.893160462379456E-1  
 5.620000000000000E7    -3.566455543041229E-1  -9.293849468231201E-1   6.994282826781273E-3   5.334253609180450E-2   7.068675477057695E-3   5.309593304991722E-2  -9.885483235120773E-2   9.910620450973511E-1  
 5.650000000000000E7    -3.957933783531189E-1  -9.137272834777832E-1   8.219010196626186E-3   5.154903233051300E-2   8.245878852903843E-3   5.166022852063179E-2  -8.706124126911163E-2   9.917049407958984E-1  
 5.680000000000000E7    -4.354660511016846E-1  -8.960403203964233E-1   9.387029334902763E-3   4.999024048447609E-2   9.464034810662270E-3   4.989176243543625E-2  -7.532017678022385E-2   9.920390844345093E-1  
 5.710000000000000E7    -4.745246171951294E-1  -8.759560585021973E-1   1.057128887623549E-2   4.825013130903244E-2   1.061447430402041E-2   4.838891327381134E-2  -6.397319585084915E-2   9.932219982147217E-1  
 5.740000000000000E7    -5.120398998260498E-1  -8.553099036216736E-1   1.145088765770197E-2   4.658640548586845E-2   1.144947484135628E-2   4.661608487367630E-2  -5.205301195383072E-2   9.943059086799622E-1  
 5.770000000000000E7    -5.458235144615173E-1  -8.331750631332398E-1   1.221148017793894E-2   4.484893754124641E-2   1.213770639151335E-2   4.474882408976555E-2  -4.238543659448624E-2   9.944199323654175E-1  
 5.800000000000000E7    -5.813295245170593E-1  -8.085857033729553E-1   1.303524710237980E-2   4.318355396389961E-2   1.317745447158814E-2   4.291542991995812E-2  -2.901172451674938E-2   9.963146448135376E-1  
 5.830000000000000E7    -6.141501069068909E-1  -7.842542529106140E-1   1.369229331612587E-2   4.126169532537460E-2   1.380603015422821E-2   4.129628464579582E-2  -1.879610307514668E-2   9.963968992233276E-1  
 5.860000000000000E7    -6.467878818511963E-1  -7.598878741264343E-1   1.428696420043707E-2   3.954755887389183E-2   1.432682666927576E-2   3.959870710968971E-2  -7.045958191156387E-3   9.958695769309998E-1  
 5.890000000000000E7    -6.765245199203491E-1  -7.318794727325440E-1   1.481468509882689E-2   3.777480497956276E-2   1.475435309112072E-2   3.794056549668312E-2   3.805715590715408E-3   9.961155056953430E-1  
 5.920000000000000E7    -7.061641216278076E-1  -7.034131288528442E-1   1.523293647915125E-2   3.611899167299271E-2   1.535989902913570E-2   3.604430332779884E-2   1.583027839660645E-2   9.968392252922058E-1  
 5.950000000000000E7    -7.334000468254089E-1  -6.743215322494507E-1   1.551127526909113E-2   3.418909385800362E-2   1.555303297936916E-2   3.432318940758705E-2   2.736862376332283E-2   9.948170185089111E-1  
 5.980000000000000E7    -7.604110240936279E-1  -6.445726752281189E-1   1.579622738063335E-2   3.247921541333199E-2   1.568279415369034E-2   3.254680335521698E-2   3.935635462403297E-2   9.947050213813782E-1  
 6.010000000000000E7    -7.837097644805908E-1  -6.136919856071472E-1   1.596302725374699E-2   3.103126771748066E-2   1.585796102881432E-2   3.079584985971451E-2   5.002621933817864E-2   9.952256679534912E-1  
 6.040000000000000E7    -8.089619874954224E-1  -5.819271802902222E-1   1.598597131669521E-2   2.918420173227787E-2   1.601479575037956E-2   2.911368757486343E-2   6.198985502123833E-2   9.953457713127136E-1  
 6.070000000000000E7    -8.310494422912598E-1  -5.516157746315002E-1   1.590026915073395E-2   2.754629217088223E-2   1.587324962019920E-2   2.753035910427570E-2   7.264830172061920E-2   9.938691854476929E-1  
 6.100000000000000E7    -8.512393236160278E-1  -5.183424949645996E-1   1.592220366001129E-2   2.573275938630104E-2   1.591631583869457E-2   2.572279796004295E-2   8.581300079822540E-2   9.928154349327087E-1  
 6.130000000000000E7    -8.718205094337463E-1  -4.846557378768921E-1   1.582089439034462E-2   2.412268519401550E-2   1.582952775061131E-2   2.420954406261444E-2   9.766232222318649E-2   9.925214648246765E-1  
 6.160000000000000E7    -8.891797661781311E-1  -4.507414400577545E-1   1.538544055074453E-2   2.248477749526501E-2   1.546859554946423E-2   2.243864163756371E-2   1.075824573636055E-1   9.901228547096252E-1  
 6.190000000000000E7    -9.054209589958191E-1  -4.159284830093384E-1   1.507764589041472E-2   2.084356546401978E-2   1.506734639406204E-2   2.084290795028210E-2   1.185784712433815E-1   9.884749054908752E-1  
 6.220000000000000E7    -9.210041761398315E-1  -3.815230727195740E-1   1.458804868161678E-2   1.929637230932713E-2   1.468778587877750E-2   1.937054283916950E-2   1.298329830169678E-1   9.885878562927246E-1  
 6.250000000000000E7    -9.353364706039429E-1  -3.458383083343506E-1   1.419153343886137E-2   1.780447363853455E-2   1.422575023025274E-2   1.779154129326344E-2   1.417537927627564E-1   9.872573018074036E-1  
 6.280000000000000E7    -9.468678236007690E-1  -3.099908530712128E-1   1.367999520152807E-2   1.629398576915264E-2   1.363220252096653E-2   1.630619913339615E-2   1.536844521760941E-1   9.855073690414429E-1  
 6.310000000000000E7    -9.585705995559692E-1  -2.726067006587982E-1   1.306954771280289E-2   1.481828000396490E-2   1.302544306963682E-2   1.476762536913157E-2   1.648048311471939E-1   9.835737943649292E-1  
 6.340000000000000E7    -9.675728678703308E-1  -2.369519174098969E-1   1.235763914883137E-2   1.337513048201799E-2   1.234670169651508E-2   1.334772445261478E-2   1.769650876522064E-1   9.821130037307739E-1  
 6.370000000000000E7    -9.764065146446228E-1  -2.005215883255005E-1   1.158498134464026E-2   1.193485409021378E-2   1.160209719091654E-2   1.193985342979431E-2   1.878440380096436E-1   9.789975881576538E-1  
 6.400000000000000E7    -9.823911786079407E-1  -1.635333001613617E-1   1.076525729149580E-2   1.055195182561874E-2   1.078209932893515E-2   1.051728427410126E-2   1.999048590660095E-1   9.775707721710205E-1  
 6.430000000000000E7    -9.882309436798096E-1  -1.256277859210968E-1   9.888288564980030E-3   9.270292706787586E-3   9.858081117272377E-3   9.169529192149639E-3   2.113582938909531E-1   9.747872352600098E-1  
 6.460000000000000E7    -9.929091334342957E-1  -8.962662518024445E-2   8.896777406334877E-3   7.985488511621952E-3   8.843439631164074E-3   7.960579358041287E-3   2.214816212654114E-1   9.715571999549866E-1  
 6.490000000000000E7    -9.960452914237976E-1  -5.375364422798157E-2   7.857356220483780E-3   6.732370238751173E-3   7.868341170251370E-3   6.759796757251024E-3   2.331510037183762E-1   9.701216816902161E-1  
 6.520000000000000E7    -9.964365959167481E-1  -1.632051169872284E-2   6.807561498135328E-3   5.594122223556042E-3   6.785859353840351E-3   5.538019351661205E-3   2.452381253242493E-1   9.677755236625671E-1  
 6.550000000000000E7    -9.965202212333679E-1   1.951730996370316E-2   5.630011670291424E-3   4.402062855660915E-3   5.611762404441834E-3   4.432162735611200E-3   2.559413313865662E-1   9.628900885581970E-1  
 6.580000000000000E7    -9.950789213180542E-1   5.702187865972519E-2   4.420025274157524E-3   3.346703248098493E-3   4.410261753946543E-3   3.340061055496335E-3   2.679727077484131E-1   9.614165425300598E-1  
 6.610000000000000E7    -9.911163449287415E-1   9.389393031597138E-2   3.156638704240322E-3   2.314252080395818E-3   3.156631253659725E-3   2.270527184009552E-3   2.801199555397034E-1   9.564065933227539E-1  
 6.640000000000000E7    -9.890455603599548E-1   1.292571425437927E-1   1.826066174544394E-3   1.356634194962680E-3   1.830309513024986E-3   1.316726207733154E-3   2.914061546325684E-1   9.534897804260254E-1  
 6.670000000000000E7    -9.828090667724609E-1   1.658664941787720E-1   4.345196648500860E-4   4.480303032323718E-4   4.489174170885235E-4   4.307882918510586E-4   3.018023967742920E-1   9.509116411209106E-1  
 6.700000000000000E7    -9.756370782852173E-1   2.018287330865860E-1  -9.959369199350476E-4  -4.325152840465307E-4  -9.938230505213141E-4  -4.078384954482317E-4   3.131661415100098E-1   9.462051987648010E-1  
 6.730000000000000E7    -9.678621292114258E-1   2.371558845043182E-1  -2.504941774532199E-3  -1.195659278891981E-3  -2.486668992787600E-3  -1.181764644570649E-3   3.253493905067444E-1   9.433739781379700E-1  
 6.760000000000000E7    -9.586737751960754E-1   2.715346813201904E-1  -4.047552589327097E-3  -1.884664292447269E-3  -4.051424097269774E-3  -1.888380735181272E-3   3.370425403118134E-1   9.387308359146118E-1  
 6.790000000000000E7    -9.479846358299255E-1   3.067663908004761E-1  -5.621701478958130E-3  -2.548539545387030E-3  -5.636887624859810E-3  -2.534136176109314E-3   3.471304178237915E-1   9.342055916786194E-1  
 6.820000000000000E7    -9.359351396560669E-1   3.404006361961365E-1  -7.262493018060923E-3  -3.132491838186979E-3  -7.275113835930824E-3  -3.130075521767139E-3   3.584838807582855E-1   9.303246140480042E-1  
 6.850000000000000E7    -9.238470792770386E-1   3.747098445892334E-1  -8.969068527221680E-3  -3.680760040879250E-3  -8.962230756878853E-3  -3.630794119089842E-3   3.694789409637451E-1   9.265890121459961E-1  
 6.880000000000000E7    -9.090061187744141E-1   4.073460102081299E-1  -1.067609433084726E-2  -4.084079992026091E-3  -1.066977530717850E-2  -4.039001185446978E-3   3.812115788459778E-1   9.210738539695740E-1  
 6.910000000000000E7    -8.936984539031982E-1   4.401316046714783E-1  -1.248237863183022E-2  -4.425800405442715E-3  -1.247607450932264E-2  -4.442594945430756E-3   3.928090929985046E-1   9.169329404830933E-1  
 6.940000000000000E7    -8.780431151390076E-1   4.719576537609100E-1  -1.429837383329868E-2  -4.754602443426848E-3  -1.430387422442436E-2  -4.739636555314064E-3   4.031264185905457E-1   9.122061729431152E-1  
 6.970000000000000E7    -8.593187332153320E-1   5.034948587417603E-1  -1.612982712686062E-2  -4.953390453010798E-3  -1.613806188106537E-2  -4.909757990390062E-3   4.148195087909699E-1   9.065898656845093E-1  
 7.000000000000000E7    -8.412398099899292E-1   5.344836115837097E-1  -1.802077330648899E-2  -5.061961244791746E-3  -1.803546957671642E-2  -5.030545406043530E-3   4.256519079208374E-1   9.023618698120117E-1  
