#  HZ   S   RI   R     50.00 
! Rohde & Schwarz ZVT8 8Ports - Version 4.11 - 1300.0000k08 SN: 100242
! Date: 2026-07-31 14:22:34
! Measurements: S11 S21 S12 S22 
! 
 1.000000000000000E7    -3.976207375526428E-1   9.134708642959595E-1   5.623718351125717E-2   5.596099048852921E-2   5.598830059170723E-2   5.607427284121513E-2  -9.148864746093750E-1   3.937943279743195E-1  
 1.030000000000000E7    -3.644707202911377E-1   9.262214303016663E-1   6.019198894500732E-2   5.673384293913841E-2   6.005910411477089E-2   5.675080418586731E-2  -9.084941148757935E-1   4.076261222362518E-1  
 1.060000000000000E7    -3.275148570537567E-1   9.387029409408569E-1   6.429515033960342E-2   5.781183764338493E-2   6.409090012311935E-2   5.771886929869652E-2  -9.040163755416870E-1   4.199509918689728E-1  
 1.090000000000000E7    -2.944090366363525E-1   9.491565227508545E-1   6.848081946372986E-2   5.823877081274986E-2   6.831515580415726E-2   5.844216421246529E-2  -8.974075913429260E-1   4.329273104667664E-1  
 1.120000000000000E7    -2.577588558197022E-1   9.582851529121399E-1   7.314575463533402E-2   5.939066037535667E-2   7.245561480522156E-2   5.920479446649551E-2  -8.911044597625732E-1   4.454599022865295E-1  
 1.150000000000000E7    -2.213536500930786E-1   9.682445526123047E-1   7.741390913724899E-2   5.942977964878082E-2   7.725071907043457E-2   5.959412828087807E-2  -8.828017711639404E-1   4.560495615005493E-1  
 1.180000000000000E7    -1.851540505886078E-1   9.737004041671753E-1   8.209396898746491E-2   6.009362637996674E-2   8.212268352508545E-2   6.011460348963738E-2  -8.772760033607483E-1   4.681883752346039E-1  
 1.210000000000000E7    -1.487582623958588E-1   9.797443747520447E-1   8.757734298706055E-2   6.048286333680153E-2   8.723546564579010E-2   6.061409786343575E-2  -8.685131669044495E-1   4.818685948848724E-1  
 1.240000000000000E7    -1.120155081152916E-1   9.838475584983826E-1   9.258820116519928E-2   6.074196100234985E-2   9.270084649324417E-2   6.043951958417893E-2  -8.601883649826050E-1   4.931142628192902E-1  
 1.270000000000000E7    -7.431516796350479E-2   9.869591593742371E-1   9.871856868267059E-2   6.055042520165443E-2   9.829983860254288E-2   6.019081920385361E-2  -8.518972992897034E-1   5.091088414192200E-1  
 1.300000000000000E7    -3.723452240228653E-2   9.893460869789124E-1   1.042254269123077E-1   6.032279133796692E-2   1.041023433208466E-1   6.011905521154404E-2  -8.429430127143860E-1   5.213424563407898E-1  
 1.330000000000000E7     1.422923058271408E-3   9.896984696388245E-1   1.105263084173203E-1   5.999436974525452E-2   1.106904819607735E-1   5.950237438082695E-2  -8.339058160781860E-1   5.347263216972351E-1  
 1.360000000000000E7     4.093180596828461E-2   9.883248209953308E-1   1.168955266475678E-1   5.965668335556984E-2   1.170780211687088E-1   5.880348384380341E-2  -8.247044086456299E-1   5.463954210281372E-1  
 1.390000000000000E7     7.815161347389221E-2   9.843947291374207E-1   1.239472553133965E-1   5.820272117853165E-2   1.235690414905548E-1   5.842181295156479E-2  -8.147596716880798E-1   5.604270696640015E-1  
 1.420000000000000E7     1.178544759750366E-1   9.804037213325501E-1   1.307072788476944E-1   5.727799981832504E-2   1.307497024536133E-1   5.739143118262291E-2  -8.060687184333801E-1   5.730054974555969E-1  
 1.450000000000000E7     1.568041592836380E-1   9.722864031791687E-1   1.382702589035034E-1   5.558499321341515E-2   1.382050514221191E-1   5.569664016366005E-2  -7.922751307487488E-1   5.875961780548096E-1  
 1.480000000000000E7     1.971348524093628E-1   9.644259214401245E-1   1.462081521749497E-1   5.360453575849533E-2   1.464931666851044E-1   5.441799014806747E-2  -7.819936871528626E-1   6.007695794105530E-1  
 1.510000000000000E7     2.354646325111389E-1   9.543522596359253E-1   1.543847322463989E-1   5.176644027233124E-2   1.542681157588959E-1   5.181938037276268E-2  -7.671133875846863E-1   6.140863299369812E-1  
 1.540000000000000E7     2.735492885112763E-1   9.429549574851990E-1   1.631325781345367E-1   5.024550855159760E-2   1.630472987890244E-1   4.952199012041092E-2  -7.573097944259644E-1   6.273255944252014E-1  
 1.570000000000000E7     3.138777017593384E-1   9.304067492485046E-1   1.723663061857224E-1   4.641699045896530E-2   1.725389808416367E-1   4.640715196728706E-2  -7.423496246337891E-1   6.424534916877747E-1  
 1.600000000000000E7     3.535574376583099E-1   9.133247137069702E-1   1.818635314702988E-1   4.306114837527275E-2   1.822978854179382E-1   4.252066463232040E-2  -7.290424108505249E-1   6.547902226448059E-1  
 1.630000000000000E7     3.918892741203308E-1   8.952829241752625E-1   1.929665207862854E-1   3.843057155609131E-2   1.923090666532517E-1   3.867379948496819E-2  -7.126119732856751E-1   6.705337166786194E-1  
 1.660000000000000E7     4.305572211742401E-1   8.736143112182617E-1   2.036021798849106E-1   3.330517932772636E-2   2.032127529382706E-1   3.288259357213974E-2  -6.951535344123840E-1   6.843430399894714E-1  
 1.690000000000000E7     4.682519137859345E-1   8.515771031379700E-1   2.151768356561661E-1   2.834213525056839E-2   2.148697972297669E-1   2.789071574807167E-2  -6.783307790756226E-1   6.977603435516357E-1  
 1.720000000000000E7     5.080409646034241E-1   8.270230293273926E-1   2.262621968984604E-1   2.103457972407341E-2   2.267517000436783E-1   2.127234451472759E-2  -6.594582796096802E-1   7.115638256072998E-1  
 1.750000000000000E7     5.412732958793640E-1   8.021706938743591E-1   2.403647303581238E-1   1.496461965143681E-2   2.406423687934876E-1   1.443510502576828E-2  -6.405524611473084E-1   7.268996238708496E-1  
 1.780000000000000E7     5.800496935844421E-1   7.684531807899475E-1   2.525412738323212E-1   5.211781710386276E-3   2.531630098819733E-1   5.752660334110260E-3  -6.184010505676270E-1   7.387009263038635E-1  
 1.810000000000000E7     6.140102744102478E-1   7.372016906738281E-1   2.687003314495087E-1  -4.395706579089165E-3   2.669876515865326E-1  -5.085920915007591E-3  -5.949192047119141E-1   7.554526329040527E-1  
 1.840000000000000E7     6.498448848724365E-1   7.008650302886963E-1   2.835665345191956E-1  -1.785444095730782E-2   2.825016081333160E-1  -1.714001409709454E-2  -5.688176155090332E-1   7.679979801177979E-1  
 1.870000000000000E7     6.806606650352478E-1   6.628152132034302E-1   2.991921007633209E-1  -3.013158962130547E-2   2.981616258621216E-1  -3.069419227540493E-2  -5.414702296257019E-1   7.806484699249268E-1  
 1.900000000000000E7     7.120243310928345E-1   6.201963424682617E-1   3.159225881099701E-1  -4.559883475303650E-2   3.153017759323120E-1  -4.653177410364151E-2  -5.116481184959412E-1   7.926270961761475E-1  
 1.930000000000000E7     7.405803799629211E-1   5.732994675636292E-1   3.322791457176209E-1  -6.565666943788528E-2   3.330683708190918E-1  -6.465137749910355E-2  -4.795890748500824E-1   8.051547408103943E-1  
 1.960000000000000E7     7.671498060226440E-1   5.225788950920105E-1   3.499223589897156E-1  -8.680347353219986E-2   3.505556285381317E-1  -8.621746301651001E-2  -4.462970495223999E-1   8.151469826698303E-1  
 1.990000000000000E7     7.885679006576538E-1   4.696471989154816E-1   3.683247864246368E-1  -1.118442490696907E-1   3.690409362316132E-1  -1.121842041611671E-1  -4.053386449813843E-1   8.249616026878357E-1  
 2.020000000000000E7     8.068358302116394E-1   4.105937182903290E-1   3.874365389347076E-1  -1.411418020725250E-1   3.868171572685242E-1  -1.405141502618790E-1  -3.654237687587738E-1   8.296341300010681E-1  
 2.050000000000000E7     8.223388195037842E-1   3.467677533626556E-1   4.058586061000824E-1  -1.748129278421402E-1   4.032143056392670E-1  -1.743360906839371E-1  -3.196939229965210E-1   8.337589502334595E-1  
 2.080000000000000E7     8.280974626541138E-1   2.789956331253052E-1   4.228430986404419E-1  -2.154824435710907E-1   4.233692884445190E-1  -2.156506776809692E-1  -2.689879238605499E-1   8.342647552490234E-1  
 2.110000000000000E7     8.280904889106751E-1   2.082350850105286E-1   4.376504719257355E-1  -2.640480697154999E-1   4.379083812236786E-1  -2.635819315910339E-1  -2.147742211818695E-1   8.276431560516357E-1  
 2.140000000000000E7     8.178169131278992E-1   1.346528083086014E-1   4.486799836158752E-1  -3.192098140716553E-1   4.485232234001160E-1  -3.168426454067230E-1  -1.564573943614960E-1   8.152464032173157E-1  
 2.170000000000000E7     7.959074974060059E-1   5.811487883329392E-2   4.553542733192444E-1  -3.814401924610138E-1   4.561347961425781E-1  -3.802186250686646E-1  -9.415157884359360E-2   7.931481003761292E-1  
 2.200000000000000E7     7.601953744888306E-1  -2.045537158846855E-2   4.520401954650879E-1  -4.535344839096069E-1   4.526990652084351E-1  -4.531998336315155E-1  -2.896591275930405E-2   7.597655057907105E-1  
 2.230000000000000E7     7.082221508026123E-1  -9.423615038394928E-2   4.379888474941254E-1  -5.339046716690064E-1   4.386541545391083E-1  -5.329205989837647E-1   3.528626263141632E-2   7.136434316635132E-1  
 2.260000000000000E7     6.389294862747192E-1  -1.616603583097458E-1   4.077341556549072E-1  -6.213084459304810E-1   4.087926149368286E-1  -6.228532195091248E-1   9.501637518405914E-2   6.506274342536926E-1  
 2.290000000000000E7     5.516740083694458E-1  -2.148779481649399E-1   3.572032749652863E-1  -7.128697037696838E-1   3.579470813274384E-1  -7.136248350143433E-1   1.500670015811920E-1   5.701385140419006E-1  
 2.320000000000000E7     4.509890973567963E-1  -2.445083707571030E-1   2.810192406177521E-1  -8.020157814025879E-1   2.800930738449097E-1  -8.012665510177612E-1   1.887629032135010E-1   4.777780771255493E-1  
 2.350000000000000E7     3.413273692131043E-1  -2.483122497797012E-1   1.783634275197983E-1  -8.797605037689209E-1   1.796977967023850E-1  -8.784342408180237E-1   2.053420096635819E-1   3.687151670455933E-1  
 2.380000000000000E7     2.306445688009262E-1  -2.226656973361969E-1   5.523717775940895E-2  -9.369264245033264E-1   5.510198697447777E-2  -9.368406534194946E-1   1.947789639234543E-1   2.536953687667847E-1  
 2.410000000000000E7     1.350403875112534E-1  -1.646209508180618E-1  -8.582250773906708E-2  -9.647491574287415E-1  -8.560473471879959E-2  -9.636654853820801E-1   1.551613509654999E-1   1.450789421796799E-1  
 2.440000000000000E7     6.549008190631867E-2  -8.060570806264877E-2  -2.322855293750763E-1  -9.577471613883972E-1  -2.328352034091950E-1  -9.580598473548889E-1   8.606071025133133E-2   5.326179787516594E-2  
 2.470000000000000E7     2.535992302000523E-2   1.535324938595295E-2  -3.727442026138306E-1  -9.190060496330261E-1  -3.714800775051117E-1  -9.175434708595276E-1  -9.674822213128209E-4  -2.051015011966229E-2  
 2.500000000000000E7     1.463444903492928E-2   1.152421161532402E-1  -4.962288141250610E-1  -8.510066866874695E-1  -4.976555109024048E-1  -8.502990603446960E-1  -9.583308547735214E-2  -6.037511304020882E-2  
 2.530000000000000E7     3.685016557574272E-2   2.086596339941025E-1  -5.992286205291748E-1  -7.643232345581055E-1  -5.963815450668335E-1  -7.636606097221375E-1  -1.935780793428421E-1  -7.582373917102814E-2  
 2.560000000000000E7     7.783457636833191E-2   2.815412580966950E-1  -6.760073900222778E-1  -6.674665212631226E-1  -6.744800806045532E-1  -6.667361855506897E-1  -2.830974459648132E-1  -6.640108674764633E-2  
 2.590000000000000E7     1.370267421007156E-1   3.320518136024475E-1  -7.318509221076965E-1  -5.681195855140686E-1  -7.325761318206787E-1  -5.685151815414429E-1  -3.558664917945862E-1  -4.339414834976196E-2  
 2.620000000000000E7     2.022411823272705E-1   3.658233880996704E-1  -7.716192603111267E-1  -4.698009788990021E-1  -7.700960636138916E-1  -4.697431325912476E-1  -4.172053933143616E-1  -6.579916924238205E-3  
 2.650000000000000E7     2.675868570804596E-1   3.809562325477600E-1  -7.930818200111389E-1  -3.772824108600617E-1  -7.944598793983460E-1  -3.766295015811920E-1  -4.633885324001312E-1   3.889156877994537E-2  
 2.680000000000000E7     3.314943015575409E-1   3.778499364852905E-1  -8.067916035652161E-1  -2.899565994739533E-1  -8.079685568809509E-1  -2.899988591670990E-1  -4.940603673458099E-1   8.759490400552750E-2  
 2.710000000000000E7     3.880915641784668E-1   3.608531057834625E-1  -8.166176080703735E-1  -2.072816789150238E-1  -8.159391283988953E-1  -2.054107934236527E-1  -5.132121443748474E-1   1.339737027883530E-1  
 2.740000000000000E7     4.411509037017822E-1   3.322184979915619E-1  -8.175059556961060E-1  -1.301813274621964E-1  -8.184106945991516E-1  -1.295220702886581E-1  -5.174610018730164E-1   1.837984323501587E-1  
 2.770000000000000E7     4.813585579395294E-1   2.924966514110565E-1  -8.179515004158020E-1  -5.438093096017838E-2  -8.200320005416870E-1  -5.418146029114723E-2  -5.133197903633118E-1   2.284856140613556E-1  
 2.800000000000000E7     5.136721730232239E-1   2.447276562452316E-1  -8.153470754623413E-1   2.094621397554874E-2  -8.163001537322998E-1   1.825505308806896E-2  -4.981970489025116E-1   2.719580531120300E-1  
 2.830000000000000E7     5.330492258071899E-1   1.881778091192246E-1  -8.125500082969666E-1   9.708373993635178E-2  -8.129542469978333E-1   9.740632772445679E-2  -4.732567667961121E-1   3.055033385753632E-1  
 2.860000000000000E7     5.376899838447571E-1   1.251333802938461E-1  -8.079340457916260E-1   1.777061820030212E-1  -8.084200024604797E-1   1.790460646152496E-1  -4.351304173469544E-1   3.372307419776917E-1  
 2.890000000000000E7     5.226449370384216E-1   5.832207202911377E-2  -8.002673387527466E-1   2.673877775669098E-1  -7.983171343803406E-1   2.668564915657044E-1  -3.859445750713348E-1   3.566289544105530E-1  
 2.920000000000000E7     4.892383813858032E-1  -1.180591434240341E-2  -7.835667133331299E-1   3.662861883640289E-1  -7.821843028068543E-1   3.675458729267120E-1  -3.257785439491272E-1   3.630204498767853E-1  
 2.950000000000000E7     4.217288792133331E-1  -7.418067753314972E-2  -7.536539435386658E-1   4.834808111190796E-1  -7.526364922523499E-1   4.826077520847321E-1  -2.504127919673920E-1   3.487950265407562E-1  
 2.980000000000000E7     3.240782320499420E-1  -1.204494163393974E-1  -6.960237026214600E-1   6.147639751434326E-1  -6.961950659751892E-1   6.156381368637085E-1  -1.674899309873581E-1   3.004966676235199E-1  
 3.010000000000000E7     1.893525421619415E-1  -1.255019456148148E-1  -5.932033061981201E-1   7.588065266609192E-1  -5.934025645256043E-1   7.576888799667358E-1  -8.927752077579498E-2   2.089473754167557E-1  
 3.040000000000000E7     3.191740065813065E-2  -6.305249035358429E-2  -4.250480234622955E-1   8.876625299453735E-1  -4.242306053638458E-1   8.887067437171936E-1  -4.600707069039345E-2   5.958346277475357E-2  
 3.070000000000000E7    -9.502960741519928E-2   9.301028400659561E-2  -1.875834614038467E-1   9.585930109024048E-1  -1.888768076896668E-1   9.562598466873169E-1  -7.596410065889359E-2  -1.200856938958168E-1  
 3.100000000000000E7    -1.300589740276337E-1   3.223893940448761E-1   7.181089371442795E-2   9.183496832847595E-1   7.178853452205658E-2   9.174404144287109E-1  -2.019370347261429E-1  -2.867862582206726E-1  
 3.130000000000000E7    -4.002625495195389E-2   5.406370759010315E-1   2.800535261631012E-1   7.719980478286743E-1   2.789220511913300E-1   7.718238830566406E-1  -4.010410010814667E-1  -3.740690052509308E-1  
 3.160000000000000E7     1.344357579946518E-1   6.839290261268616E-1   3.883242905139923E-1   5.798430442810059E-1   3.880074620246887E-1   5.811158418655396E-1  -5.986395478248596E-1  -3.612415492534638E-1  
 3.190000000000000E7     3.250709176063538E-1   7.335635423660278E-1   4.128283262252808E-1   4.040235877037048E-1   4.124077260494232E-1   4.037078022956848E-1  -7.517805695533752E-1  -2.857122719287872E-1  
 3.220000000000000E7     4.934134185314179E-1   7.182975411415100E-1   3.879363238811493E-1   2.680453956127167E-1   3.881427049636841E-1   2.678269445896149E-1  -8.529476523399353E-1  -1.846970319747925E-1  
 3.250000000000000E7     6.278913617134094E-1   6.659948229789734E-1   3.434718251228333E-1   1.730177998542786E-1   3.439778089523315E-1   1.730897128582001E-1  -9.120863080024719E-1  -8.346789330244064E-2  
 3.280000000000000E7     7.298147678375244E-1   5.952699780464172E-1   2.948492765426636E-1   1.082587018609047E-1   2.953356206417084E-1   1.073928996920586E-1  -9.434805512428284E-1   8.327576331794262E-3  
 3.310000000000000E7     8.056312203407288E-1   5.209442973136902E-1   2.507745027542114E-1   6.403917819261551E-2   2.506950199604034E-1   6.453315168619156E-2  -9.577344655990601E-1   8.904334902763367E-2  
 3.340000000000000E7     8.631180524826050E-1   4.465902447700501E-1   2.116785198450089E-1   3.557839244604111E-2   2.112507373094559E-1   3.520445898175240E-2  -9.597238302230835E-1   1.594867706298828E-1  
 3.370000000000000E7     9.044559001922607E-1   3.728555142879486E-1   1.773634552955627E-1   1.644238643348217E-2   1.771315932273865E-1   1.669243536889553E-2  -9.560463428497315E-1   2.183964550495148E-1  
 3.400000000000000E7     9.363911747932434E-1   3.032208085060120E-1   1.490257978439331E-1   4.066757857799530E-3   1.489515304565430E-1   4.180732648819685E-3  -9.474249482154846E-1   2.700493633747101E-1  
 3.430000000000000E7     9.593021869659424E-1   2.366560995578766E-1   1.253841668367386E-1  -4.182253032922745E-3   1.248300373554230E-1  -4.112054593861103E-3  -9.368408918380737E-1   3.151000142097473E-1  
 3.460000000000000E7     9.752842187881470E-1   1.725384891033173E-1   1.051566153764725E-1  -9.298917837440968E-3   1.051003038883209E-1  -8.938468992710114E-3  -9.266348481178284E-1   3.549658358097076E-1  
 3.490000000000000E7     9.860615730285645E-1   1.111790388822556E-1   8.838903903961182E-2  -1.247694157063961E-2   8.797107636928558E-2  -1.244431361556053E-2  -9.120656251907349E-1   3.898850083351135E-1  
 3.520000000000000E7     9.928144216537476E-1   5.406348407268524E-2   7.401048392057419E-2  -1.397177763283253E-2   7.392517477273941E-2  -1.379690412431955E-2  -9.000440835952759E-1   4.228299558162689E-1  
 3.550000000000000E7     9.938983321189880E-1  -2.643432468175888E-3   6.212076544761658E-2  -1.429011300206184E-2   6.207690760493279E-2  -1.441947463899851E-2  -8.871411085128784E-1   4.510386884212494E-1  
 3.580000000000000E7     9.941570162773132E-1  -5.555374920368195E-2   5.203410983085632E-2  -1.437311805784702E-2   5.197492241859436E-2  -1.427569240331650E-2  -8.731719255447388E-1   4.781157970428467E-1  
 3.610000000000000E7     9.910025000572205E-1  -1.063384115695953E-1   4.370407015085220E-2  -1.396904420107603E-2   4.343989863991737E-2  -1.400061137974262E-2  -8.608738780021668E-1   5.040979385375977E-1  
 3.640000000000000E7     9.845954179763794E-1  -1.556980460882187E-1   3.629816323518753E-2  -1.301805209368467E-2   3.618037700653076E-2  -1.304116658866406E-2  -8.472104072570801E-1   5.254435539245606E-1  
 3.670000000000000E7     9.766946434974670E-1  -2.020666897296906E-1   3.018504381179810E-2  -1.217735838145018E-2   3.008443303406239E-2  -1.204042416065931E-2  -8.348761796951294E-1   5.461497902870178E-1  
 3.700000000000000E7     9.658990502357483E-1  -2.474893033504486E-1   2.489718049764633E-2  -1.104880217462778E-2   2.486241236329079E-2  -1.091031450778246E-2  -8.214457631111145E-1   5.671905875205994E-1  
 3.730000000000000E7     9.535757303237915E-1  -2.918924093246460E-1   2.035391330718994E-2  -1.002182718366385E-2   2.046492509543896E-2  -9.834690950810909E-3  -8.073188066482544E-1   5.838154554367065E-1  
 3.760000000000000E7     9.400369524955750E-1  -3.326970338821411E-1   1.680967584252358E-2  -8.815048262476921E-3   1.675997674465179E-2  -8.776542730629444E-3  -7.954156398773193E-1   6.028856039047241E-1  
 3.790000000000000E7     9.247470498085022E-1  -3.737971484661102E-1   1.364103518426418E-2  -7.675805129110813E-3   1.361384429037571E-2  -7.724004797637463E-3  -7.829489707946777E-1   6.189096570014954E-1  
 3.820000000000000E7     9.084789156913757E-1  -4.135611951351166E-1   1.107573136687279E-2  -6.721924059092999E-3   1.100396271795034E-2  -6.663212087005377E-3  -7.700219750404358E-1   6.332082152366638E-1  
 3.850000000000000E7     8.893564343452454E-1  -4.523551762104034E-1   8.750203996896744E-3  -5.728273652493954E-3   8.698295801877976E-3  -5.744457710534334E-3  -7.594115138053894E-1   6.485594511032105E-1  
 3.880000000000000E7     8.696978092193604E-1  -4.879476428031921E-1   6.931976880878210E-3  -4.726768936961889E-3   6.899946834892035E-3  -4.694477189332247E-3  -7.466638684272766E-1   6.636002063751221E-1  
 3.910000000000000E7     8.498615622520447E-1  -5.242082476615906E-1   5.357890389859676E-3  -3.919872920960188E-3   5.357560236006975E-3  -3.871633904054761E-3  -7.350484132766724E-1   6.778451204299927E-1  
 3.940000000000000E7     8.271682858467102E-1  -5.564180612564087E-1   4.137733951210976E-3  -3.182759974151850E-3   4.108020570129156E-3  -3.155248938128352E-3  -7.219749093055725E-1   6.892996430397034E-1  
 3.970000000000000E7     8.057063817977905E-1  -5.894285440444946E-1   3.079744055867195E-3  -2.458735601976514E-3   3.132479498162866E-3  -2.540620276704431E-3  -7.093103528022766E-1   7.009959816932678E-1  
 4.000000000000000E7     7.807993292808533E-1  -6.209038496017456E-1   2.199454233050346E-3  -1.883608754724264E-3   2.258516848087311E-3  -2.050776267424226E-3  -6.986408233642578E-1   7.135432362556458E-1  
 4.030000000000000E7     7.565321922302246E-1  -6.504920721054077E-1   1.621714094653726E-3  -1.455104793421924E-3   1.597844413481653E-3  -1.395744271576405E-3  -6.872138381004334E-1   7.247713804244995E-1  
 4.060000000000000E7     7.311706542968750E-1  -6.793551445007324E-1   9.352962370030582E-4  -1.033670618198812E-3   1.041298615746200E-3  -1.029200735501945E-3  -6.746129393577576E-1   7.351710200309753E-1  
 4.090000000000000E7     7.038937211036682E-1  -7.072951793670654E-1   6.041524466127157E-4  -6.300943205133081E-4   6.907052011229098E-4  -6.488927174359560E-4  -6.636393666267395E-1   7.452197074890137E-1  
 4.120000000000000E7     6.773211956024170E-1  -7.339363098144531E-1   3.320644900668412E-4  -3.190616553183645E-4   3.268371219746769E-4  -3.441069275140762E-4  -6.506887674331665E-1   7.558580040931702E-1  
 4.150000000000000E7     6.496384739875794E-1  -7.577041983604431E-1   2.637650468386710E-4  -1.662517752265558E-4   1.471626746933907E-4  -1.174550125142559E-4  -6.392323970794678E-1   7.659461498260498E-1  
 4.180000000000000E7     6.201422214508057E-1  -7.823901772499085E-1   1.292279339395464E-4   1.942450398928486E-5   1.060054055415094E-4  -6.454257527366281E-5  -6.289149522781372E-1   7.742481231689453E-1  
 4.210000000000000E7     5.912610292434692E-1  -8.044523000717163E-1   4.626053851097822E-5   1.636429624340963E-5  -9.694062100606971E-6   5.349941784515977E-5  -6.171438097953796E-1   7.842769026756287E-1  
 4.240000000000000E7     5.609082579612732E-1  -8.248013854026794E-1   2.069733454845846E-5   2.216671418864280E-6  -1.244599116034806E-5  -2.399054028501269E-5  -6.067453026771545E-1   7.933266162872315E-1  
 4.270000000000000E7     5.297899246215820E-1  -8.450543880462647E-1   1.070814323611558E-4  -7.029753032838926E-5   9.369547478854656E-5  -1.054541862686165E-4  -5.943158268928528E-1   8.024727702140808E-1  
 4.300000000000000E7     4.977848231792450E-1  -8.644452691078186E-1   1.471539871999994E-4  -2.763022785075009E-4   1.580176467541605E-4  -2.630711242090911E-4  -5.826835036277771E-1   8.115213513374329E-1  
 4.330000000000000E7     4.687127172946930E-1  -8.821934461593628E-1   3.091062826570123E-4  -4.453977744560689E-4   2.824166731443256E-4  -5.244637141004205E-4  -5.712125301361084E-1   8.188968300819397E-1  
 4.360000000000000E7     4.350695610046387E-1  -8.979705572128296E-1   4.439287295099348E-4  -7.014627917669714E-4   3.797085664700717E-4  -8.298415341414511E-4  -5.605338215827942E-1   8.266106843948364E-1  
 4.390000000000000E7     4.018657207489014E-1  -9.143913388252258E-1   5.503379506990314E-4  -1.149529591202736E-3   5.040183896198869E-4  -1.059400732629001E-3  -5.485815405845642E-1   8.332632184028626E-1  
 4.420000000000000E7     3.689526915550232E-1  -9.268413782119751E-1   7.425055955536664E-4  -1.531514804810286E-3   7.927765254862607E-4  -1.407123869284987E-3  -5.365757942199707E-1   8.406286835670471E-1  
 4.450000000000000E7     3.355974256992340E-1  -9.393606781959534E-1   7.878696196712554E-4  -1.816862146370113E-3   8.951485506258905E-4  -1.892179367132485E-3  -5.265612602233887E-1   8.475649952888489E-1  
 4.480000000000000E7     3.020155727863312E-1  -9.512205719947815E-1   9.972426341846585E-4  -2.418948104605079E-3   9.881531586870551E-4  -2.365553053095937E-3  -5.154146552085877E-1   8.542387485504150E-1  
 4.510000000000000E7     2.693317234516144E-1  -9.614305496215820E-1   1.152387703768909E-3  -2.866760827600956E-3   1.248491927981377E-3  -2.905712462961674E-3  -5.044283866882324E-1   8.618733882904053E-1  
 4.540000000000000E7     2.347236424684525E-1  -9.697762727737427E-1   1.266677048988640E-3  -3.411225741729140E-3   1.309972954913974E-3  -3.466706722974777E-3  -4.927738010883331E-1   8.681176304817200E-1  
 4.570000000000000E7     2.001887410879135E-1  -9.778714179992676E-1   1.505318912677467E-3  -4.123801365494728E-3   1.342658768408001E-3  -4.044548142701387E-3  -4.812377393245697E-1   8.741662502288818E-1  
 4.600000000000000E7     1.682025343179703E-1  -9.833799600601196E-1   1.601460156962276E-3  -4.695286042988300E-3   1.555467606522143E-3  -4.727263934910297E-3  -4.709957838058472E-1   8.802289962768555E-1  
 4.630000000000000E7     1.315691769123077E-1  -9.894767999649048E-1   1.624051132239401E-3  -5.476603750139475E-3   1.634175656363368E-3  -5.486876703798771E-3  -4.599524736404419E-1   8.857758045196533E-1  
 4.660000000000000E7     9.623517841100693E-2  -9.943774342536926E-1   1.720892149023712E-3  -6.119152531027794E-3   1.726991264149547E-3  -6.144014187157154E-3  -4.470245540142059E-1   8.921927213668823E-1  
 4.690000000000000E7     6.255525350570679E-2  -9.958863258361816E-1   1.765955123119056E-3  -6.956305820494890E-3   1.763001433573663E-3  -6.804165896028280E-3  -4.368358552455902E-1   8.977543115615845E-1  
 4.720000000000000E7     2.727905288338661E-2  -9.972585439682007E-1   1.760850194841623E-3  -7.615309674292803E-3   1.733611454255879E-3  -7.522732485085726E-3  -4.246769249439240E-1   9.023098349571228E-1  
 4.750000000000000E7    -6.510592997074127E-3  -9.982618093490601E-1   1.766500878147781E-3  -8.423959836363792E-3   1.706849317997694E-3  -8.406258188188076E-3  -4.137397408485413E-1   9.081631898880005E-1  
 4.780000000000000E7    -4.042354971170425E-2  -9.975353479385376E-1   1.754882279783487E-3  -9.309276938438416E-3   1.742021762765944E-3  -9.291268885135651E-3  -4.016362428665161E-1   9.119862914085388E-1  
 4.810000000000000E7    -7.519346475601196E-2  -9.953216910362244E-1   1.618621055968106E-3  -1.009734999388456E-2   1.556567731313407E-3  -1.009274832904339E-2  -3.917664289474487E-1   9.174147844314575E-1  
 4.840000000000000E7    -1.094110310077667E-1  -9.925798177719116E-1   1.538242446258664E-3  -1.095551531761885E-2   1.467364607378840E-3  -1.094513107091188E-2  -3.803154528141022E-1   9.223424792289734E-1  
 4.870000000000000E7    -1.437252163887024E-1  -9.880009889602661E-1   1.413936261087656E-3  -1.181490719318390E-2   1.326882047578692E-3  -1.181959547102451E-2  -3.692311644554138E-1   9.264985322952271E-1  
 4.900000000000000E7    -1.779261529445648E-1  -9.832217097282410E-1   1.167368842288852E-3  -1.268497854471207E-2   1.143568661063910E-3  -1.269110478460789E-2  -3.581646382808685E-1   9.306207895278931E-1  
 4.930000000000000E7    -2.119432389736176E-1  -9.762231707572937E-1   9.309697197750211E-4  -1.364242937415838E-2   8.418807992711663E-4  -1.370621100068092E-2  -3.460327684879303E-1   9.354436993598938E-1  
 4.960000000000000E7    -2.440096139907837E-1  -9.664022922515869E-1   6.011261721141636E-4  -1.457058638334274E-2   5.647679790854454E-4  -1.454856060445309E-2  -3.353072404861450E-1   9.390776157379150E-1  
 4.990000000000000E7    -2.767235636711121E-1  -9.581139683723450E-1   3.437299164943397E-4  -1.556338928639889E-2   3.581074997782707E-4  -1.559672132134438E-2  -3.238297402858734E-1   9.427620172500610E-1  
 5.020000000000000E7    -3.088701665401459E-1  -9.493799209594727E-1  -4.845857620239258E-5  -1.645647175610066E-2  -8.952105417847633E-6  -1.647164300084114E-2  -3.127886950969696E-1   9.470902681350708E-1  
 5.050000000000000E7    -3.416373133659363E-1  -9.376491308212280E-1  -4.377074074000120E-4  -1.742603071033955E-2  -4.039049381390214E-4  -1.738106086850166E-2  -3.019563257694244E-1   9.519402980804443E-1  
 5.080000000000000E7    -3.727001845836639E-1  -9.265209436416626E-1  -8.548639016225934E-4  -1.836348883807659E-2  -8.278276072815061E-4  -1.837293058633804E-2  -2.902921438217163E-1   9.529429078102112E-1  
 5.110000000000000E7    -4.046548306941986E-1  -9.123051762580872E-1  -1.334665343165398E-3  -1.937850005924702E-2  -1.324385637417436E-3  -1.933885738253593E-2  -2.797256410121918E-1   9.575332403182983E-1  
 5.140000000000000E7    -4.349729418754578E-1  -8.976108431816101E-1  -1.887256396003068E-3  -2.026392705738545E-2  -1.894727349281311E-3  -2.030671015381813E-2  -2.673405408859253E-1   9.623720645904541E-1  
 5.170000000000000E7    -4.646642208099365E-1  -8.827077746391296E-1  -2.543001668527722E-3  -2.126239053905010E-2  -2.444703131914139E-3  -2.128826454281807E-2  -2.557314038276672E-1   9.633519649505615E-1  
 5.200000000000000E7    -4.949886798858643E-1  -8.678015470504761E-1  -3.072452032938600E-3  -2.224263548851013E-2  -3.038056660443544E-3  -2.227775380015373E-2  -2.445839941501617E-1   9.651075005531311E-1  
 5.230000000000000E7    -5.236775279045105E-1  -8.492802977561951E-1  -3.743763081729412E-3  -2.319957502186298E-2  -3.756942693144083E-3  -2.316792495548725E-2  -2.332745939493179E-1   9.694077968597412E-1  
 5.260000000000000E7    -5.511469244956970E-1  -8.301824927330017E-1  -4.489550832659006E-3  -2.418309077620506E-2  -4.438820295035839E-3  -2.413240075111389E-2  -2.219541966915131E-1   9.720508456230164E-1  
 5.290000000000000E7    -5.804188847541809E-1  -8.113595247268677E-1  -5.238554440438747E-3  -2.503171935677528E-2  -5.236921366304159E-3  -2.510661631822586E-2  -2.110915780067444E-1   9.740434885025024E-1  
 5.320000000000000E7    -6.070017814636231E-1  -7.926672101020813E-1  -6.051043048501015E-3  -2.603593841195107E-2  -6.076353602111340E-3  -2.605511993169785E-2  -1.995257735252380E-1   9.770437479019165E-1  
 5.350000000000000E7    -6.320391893386841E-1  -7.710835933685303E-1  -6.849053315818310E-3  -2.695542387664318E-2  -6.879305467009544E-3  -2.692512981593609E-2  -1.895333230495453E-1   9.793511033058167E-1  
 5.380000000000000E7    -6.566355228424072E-1  -7.496685981750488E-1  -7.725730538368225E-3  -2.792014926671982E-2  -7.823132909834385E-3  -2.779342606663704E-2  -1.761159896850586E-1   9.806465506553650E-1  
 5.410000000000000E7    -6.841499805450440E-1  -7.271468639373779E-1  -8.773047477006912E-3  -2.884777821600437E-2  -8.807107806205750E-3  -2.871851995587349E-2  -1.655936092138290E-1   9.829639196395874E-1  
 5.440000000000000E7    -7.073568105697632E-1  -7.026942968368530E-1  -9.813142009079456E-3  -2.967685833573341E-2  -9.791122749447823E-3  -2.963776141405106E-2  -1.541693061590195E-1   9.843115806579590E-1  
 5.470000000000000E7    -7.293899059295654E-1  -6.797937154769898E-1  -1.081934012472630E-2  -3.050262853503227E-2  -1.088233664631844E-2  -3.050329722464085E-2  -1.420501470565796E-1   9.859094023704529E-1  
 5.500000000000000E7    -7.527505159378052E-1  -6.544116139411926E-1  -1.198714599013329E-2  -3.140135109424591E-2  -1.195864845067263E-2  -3.136653080582619E-2  -1.298786401748657E-1   9.887425899505615E-1  
 5.530000000000000E7    -7.743809223175049E-1  -6.290187835693359E-1  -1.303911581635475E-2  -3.229683265089989E-2  -1.319016888737679E-2  -3.220874816179276E-2  -1.187779083848000E-1   9.891644716262817E-1  
 5.560000000000000E7    -7.953699231147766E-1  -6.014516353607178E-1  -1.438863575458527E-2  -3.306957706809044E-2  -1.427492871880531E-2  -3.302991390228272E-2  -1.082747355103493E-1   9.907662868499756E-1  
 5.590000000000000E7    -8.150092363357544E-1  -5.755479931831360E-1  -1.558782532811165E-2  -3.378421440720558E-2  -1.563533022999764E-2  -3.378801420331001E-2  -9.551215171813965E-2   9.915940165519714E-1  
 5.620000000000000E7    -8.333970308303833E-1  -5.463161468505859E-1  -1.688559912145138E-2  -3.458886593580246E-2  -1.676822826266289E-2  -3.444897755980492E-2  -8.518296480178833E-2   9.931893348693848E-1  
 5.650000000000000E7    -8.507955074310303E-1  -5.197247862815857E-1  -1.813121512532234E-2  -3.524049371480942E-2  -1.816018670797348E-2  -3.525672480463982E-2  -7.318063080310822E-2   9.935313463211060E-1  
 5.680000000000000E7    -8.679093718528748E-1  -4.907110035419464E-1  -1.961560919880867E-2  -3.601698577404022E-2  -1.964681223034859E-2  -3.588732331991196E-2  -6.155620515346527E-2   9.937282800674439E-1  
 5.710000000000000E7    -8.840093016624451E-1  -4.598375558853149E-1  -2.111876383423805E-2  -3.654547035694122E-2  -2.115825563669205E-2  -3.661686554551125E-2  -5.018030852079392E-2   9.948839545249939E-1  
 5.740000000000000E7    -8.998063206672669E-1  -4.303621053695679E-1  -2.262772805988789E-2  -3.722560778260231E-2  -2.255413308739662E-2  -3.726874291896820E-2  -3.780838474631310E-2   9.953931570053101E-1  
 5.770000000000000E7    -9.120037555694580E-1  -4.009864926338196E-1  -2.405859716236591E-2  -3.791451454162598E-2  -2.394927293062210E-2  -3.783283382654190E-2  -2.777530997991562E-2   9.946212172508240E-1  
 5.800000000000000E7    -9.251838922500610E-1  -3.687762320041657E-1  -2.578218281269074E-2  -3.839008137583733E-2  -2.576380409300327E-2  -3.824965655803680E-2  -1.455765962600708E-2   9.967930316925049E-1  
 5.830000000000000E7    -9.370164871215820E-1  -3.377031087875366E-1  -2.733472175896168E-2  -3.887777775526047E-2  -2.731490693986416E-2  -3.886306285858154E-2  -4.148848354816437E-3   9.963647723197937E-1  
 5.860000000000000E7    -9.490162134170532E-1  -3.066281974315643E-1  -2.896856516599655E-2  -3.931198269128799E-2  -2.906769700348377E-2  -3.935259208083153E-2   7.892869412899017E-3   9.958149194717407E-1  
 5.890000000000000E7    -9.575401544570923E-1  -2.743998765945435E-1  -3.084187582135201E-2  -3.987448289990425E-2  -3.067626431584358E-2  -3.990795463323593E-2   1.868703216314316E-2   9.950981736183167E-1  
 5.920000000000000E7    -9.661445021629334E-1  -2.412063330411911E-1  -3.246866911649704E-2  -4.009567573666573E-2  -3.254897519946098E-2  -4.000251740217209E-2   3.123059123754501E-2   9.957430362701416E-1  
 5.950000000000000E7    -9.735278487205505E-1  -2.087123245000839E-1  -3.425111621618271E-2  -4.037931561470032E-2  -3.428361937403679E-2  -4.045229405164719E-2   4.236792773008347E-2   9.935181140899658E-1  
 5.980000000000000E7    -9.804212450981140E-1  -1.755753159523010E-1  -3.631997853517532E-2  -4.063941538333893E-2  -3.609174862504005E-2  -4.064397886395454E-2   5.490006506443024E-2   9.931620359420776E-1  
 6.010000000000000E7    -9.842556715011597E-1  -1.437460631132126E-1  -3.804390877485275E-2  -4.105278477072716E-2  -3.791926428675652E-2  -4.103213176131249E-2   6.578670442104340E-2   9.932086467742920E-1  
 6.040000000000000E7    -9.889667630195618E-1  -1.090556830167770E-1  -4.010479152202606E-2  -4.101213812828064E-2  -4.002510756254196E-2  -4.116583988070488E-2   7.775357365608215E-2   9.928669333457947E-1  
 6.070000000000000E7    -9.931226968765259E-1  -7.755835354328156E-2  -4.207862913608551E-2  -4.131678864359856E-2  -4.193690419197083E-2  -4.142372310161591E-2   8.867129683494568E-2   9.910253882408142E-1  
 6.100000000000000E7    -9.945325255393982E-1  -4.369357228279114E-2  -4.416820406913757E-2  -4.120124876499176E-2  -4.402705281972885E-2  -4.126914963126183E-2   1.019580885767937E-1   9.900469779968262E-1  
 6.130000000000000E7    -9.954639673233032E-1  -9.337559342384338E-3  -4.626189172267914E-2  -4.139253124594688E-2  -4.611491411924362E-2  -4.135041683912277E-2   1.136607453227043E-1   9.891697168350220E-1  
 6.160000000000000E7    -9.945651888847351E-1   2.350202202796936E-2  -4.809715598821640E-2  -4.131630435585976E-2  -4.817949980497360E-2  -4.119291156530380E-2   1.240053251385689E-1   9.864573478698731E-1  
 6.190000000000000E7    -9.929321408271790E-1   5.676317214965820E-2  -5.022723227739334E-2  -4.120764508843422E-2  -5.019938945770264E-2  -4.099870473146439E-2   1.350900679826737E-1   9.844502210617065E-1  
 6.220000000000000E7    -9.907449483871460E-1   9.011217951774597E-2  -5.227865651249886E-2  -4.098895192146301E-2  -5.247506871819496E-2  -4.109156876802445E-2   1.465082764625549E-1   9.841561913490295E-1  
 6.250000000000000E7    -9.872661232948303E-1   1.234130263328552E-1  -5.455781519412994E-2  -4.087611287832260E-2  -5.470441654324532E-2  -4.084471613168716E-2   1.581756770610809E-1   9.824395179748535E-1  
 6.280000000000000E7    -9.815604090690613E-1   1.566001474857330E-1  -5.692554637789726E-2  -4.055025056004524E-2  -5.679638311266899E-2  -4.055638238787651E-2   1.706468611955643E-1   9.802984595298767E-1  
 6.310000000000000E7    -9.753041863441467E-1   1.907528638839722E-1  -5.937775969505310E-2  -4.005555808544159E-2  -5.917551368474960E-2  -4.011057317256928E-2   1.818409562110901E-1   9.783149361610413E-1  
 6.340000000000000E7    -9.684284329414368E-1   2.231699824333191E-1  -6.166855990886688E-2  -3.970387578010559E-2  -6.143773347139359E-2  -3.960641473531723E-2   1.940961331129074E-1   9.760541915893555E-1  
 6.370000000000000E7    -9.603775739669800E-1   2.557649016380310E-1  -6.386283040046692E-2  -3.912300989031792E-2  -6.387178599834442E-2  -3.906964138150215E-2   2.047841548919678E-1   9.725657701492310E-1  
 6.400000000000000E7    -9.503938555717468E-1   2.874714136123657E-1  -6.625902652740479E-2  -3.833416849374771E-2  -6.624124199151993E-2  -3.832071274518967E-2   2.169908285140991E-1   9.708325266838074E-1  
 6.430000000000000E7    -9.399096965789795E-1   3.205060362815857E-1  -6.872137635946274E-2  -3.787877410650253E-2  -6.855866312980652E-2  -3.770184889435768E-2   2.283526360988617E-1   9.675474166870117E-1  
 6.460000000000000E7    -9.285398721694946E-1   3.525233268737793E-1  -7.093546539545059E-2  -3.707933425903320E-2  -7.098109275102615E-2  -3.701852634549141E-2   2.389425933361054E-1   9.644265174865723E-1  
 6.490000000000000E7    -9.173835515975952E-1   3.832632303237915E-1  -7.337983697652817E-2  -3.637327253818512E-2  -7.357894629240036E-2  -3.631633892655373E-2   2.508732378482819E-1   9.619059562683106E-1  
 6.520000000000000E7    -9.023883342742920E-1   4.136487245559692E-1  -7.611161470413208E-2  -3.547811508178711E-2  -7.579088956117630E-2  -3.535486385226250E-2   2.623219490051270E-1   9.596230983734131E-1  
 6.550000000000000E7    -8.885487318038940E-1   4.436634480953217E-1  -7.857619225978851E-2  -3.431905061006546E-2  -7.827139645814896E-2  -3.435179591178894E-2   2.734421491622925E-1   9.541361927986145E-1  
 6.580000000000000E7    -8.720513582229614E-1   4.738579392433167E-1  -8.108790218830109E-2  -3.312506899237633E-2  -8.081641793251038E-2  -3.326012939214706E-2   2.855402827262878E-1   9.521252512931824E-1  
 6.610000000000000E7    -8.542728424072266E-1   5.029523372650147E-1  -8.350809663534164E-2  -3.191479295492172E-2  -8.310165256261826E-2  -3.159867227077484E-2   2.977473735809326E-1   9.465636610984802E-1  
 6.640000000000000E7    -8.383314609527588E-1   5.321246981620789E-1  -8.604805171489716E-2  -3.071559593081474E-2  -8.603817969560623E-2  -3.076181188225746E-2   3.093966543674469E-1   9.433698654174805E-1  
 6.670000000000000E7    -8.189130425453186E-1   5.598875284194946E-1  -8.857236802577972E-2  -2.916223928332329E-2  -8.855140209197998E-2  -2.941658347845078E-2   3.197143971920013E-1   9.403816461563110E-1  
 6.700000000000000E7    -7.991285324096680E-1   5.872448682785034E-1  -9.113832563161850E-2  -2.784559875726700E-2  -9.082809835672379E-2  -2.780886739492416E-2   3.308532834053040E-1   9.348721504211426E-1  
 6.730000000000000E7    -7.781109213829041E-1   6.143271327018738E-1  -9.344759583473206E-2  -2.649383991956711E-2  -9.349744021892548E-2  -2.606173790991306E-2   3.430454134941101E-1   9.319292306900024E-1  
 6.760000000000000E7    -7.569752931594849E-1   6.403086185455322E-1  -9.634802490472794E-2  -2.440025657415390E-2  -9.608981758356094E-2  -2.451182901859283E-2   3.547751903533936E-1   9.266521930694580E-1  
 6.790000000000000E7    -7.338758707046509E-1   6.660374999046326E-1  -9.867358952760696E-2  -2.287723869085312E-2  -9.869131445884705E-2  -2.276874519884586E-2   3.649280071258545E-1   9.216641187667847E-1  
 6.820000000000000E7    -7.103949189186096E-1   6.898198127746582E-1  -1.011378690600395E-1  -2.080354094505310E-2  -1.011737287044525E-1  -2.096654474735260E-2   3.763568401336670E-1   9.176816940307617E-1  
 6.850000000000000E7    -6.865069270133972E-1   7.147095203399658E-1  -1.041084378957748E-1  -1.914953254163265E-2  -1.038852781057358E-1  -1.898208446800709E-2   3.871137797832489E-1   9.131405949592590E-1  
 6.880000000000000E7    -6.611768603324890E-1   7.369684576988220E-1  -1.065821349620819E-1  -1.680972427129746E-2  -1.060387939214706E-1  -1.672933623194695E-2   3.990115225315094E-1   9.070641398429871E-1  
 6.910000000000000E7    -6.351600885391235E-1   7.597564458847046E-1  -1.091935932636261E-1  -1.449006795883179E-2  -1.089360192418098E-1  -1.456294022500515E-2   4.108056724071503E-1   9.020020365715027E-1  
 6.940000000000000E7    -6.089051961898804E-1   7.809787988662720E-1  -1.116067171096802E-1  -1.244922261685133E-2  -1.117002442479134E-1  -1.224359497427940E-2   4.209617972373962E-1   8.969231843948364E-1  
 6.970000000000000E7    -5.802880525588989E-1   8.010291457176209E-1  -1.140284538269043E-1  -9.904749691486359E-3  -1.140929237008095E-1  -9.516338817775250E-3   4.324000775814056E-1   8.908884525299072E-1  
 7.000000000000000E7    -5.523127913475037E-1   8.210940957069397E-1  -1.167740821838379E-1  -7.354970090091229E-3  -1.164201274514198E-1  -7.317984942346811E-3   4.432627558708191E-1   8.857101202011108E-1  
