#  HZ   S   RI   R     50.00 
! Rohde & Schwarz ZVT8 8Ports - Version 4.11 - 1300.0000k08 SN: 100242
! Date: 2026-07-31 14:23:09
! Measurements: S11 S21 S12 S22 
! 
 1.000000000000000E7    -3.955151140689850E-1   9.139952063560486E-1   5.695042759180069E-2   5.652788281440735E-2   5.677508190274239E-2   5.658495053648949E-2  -9.147722721099854E-1   3.941043615341187E-1  
 1.030000000000000E7    -3.617983758449554E-1   9.267677068710327E-1   6.106111407279968E-2   5.727060511708260E-2   6.088231503963471E-2   5.724906176328659E-2  -9.080487489700317E-1   4.079962372779846E-1  
 1.060000000000000E7    -3.247805237770081E-1   9.396189451217651E-1   6.520999968051910E-2   5.846061557531357E-2   6.509336829185486E-2   5.826862901449204E-2  -9.040020704269409E-1   4.208222031593323E-1  
 1.090000000000000E7    -2.913629710674286E-1   9.497730731964111E-1   6.957189738750458E-2   5.899714305996895E-2   6.954318284988403E-2   5.919449403882027E-2  -8.970360755920410E-1   4.332723617553711E-1  
 1.120000000000000E7    -2.544023096561432E-1   9.592040181159973E-1   7.454790920019150E-2   6.019272282719612E-2   7.401176542043686E-2   5.992262437939644E-2  -8.901972174644470E-1   4.461708366870880E-1  
 1.150000000000000E7    -2.171830832958221E-1   9.692358374595642E-1   7.877624034881592E-2   6.033610552549362E-2   7.883609086275101E-2   6.044014170765877E-2  -8.822363018989563E-1   4.567259848117828E-1  
 1.180000000000000E7    -1.809942126274109E-1   9.739732146263123E-1   8.366401493549347E-2   6.102587282657623E-2   8.380080759525299E-2   6.089769303798676E-2  -8.769252896308899E-1   4.688068032264710E-1  
 1.210000000000000E7    -1.446579098701477E-1   9.803926348686218E-1   8.930273354053497E-2   6.146091595292091E-2   8.922300487756729E-2   6.130272522568703E-2  -8.678240180015564E-1   4.827970564365387E-1  
 1.240000000000000E7    -1.067748293280602E-1   9.843675494194031E-1   9.477414190769196E-2   6.189505755901337E-2   9.469856321811676E-2   6.142049655318260E-2  -8.601341247558594E-1   4.942857623100281E-1  
 1.270000000000000E7    -6.899072974920273E-2   9.870979189872742E-1   1.010260805487633E-1   6.147892773151398E-2   1.006634011864662E-1   6.135707348585129E-2  -8.512124419212341E-1   5.093225836753845E-1  
 1.300000000000000E7    -3.091611526906490E-2   9.890612363815308E-1   1.068808585405350E-1   6.140482798218727E-2   1.067631244659424E-1   6.107761710882187E-2  -8.419894576072693E-1   5.219548344612122E-1  
 1.330000000000000E7     8.541226387023926E-3   9.891984462738037E-1   1.137425526976585E-1   6.083366274833679E-2   1.134599596261978E-1   6.039087474346161E-2  -8.326057791709900E-1   5.354861617088318E-1  
 1.360000000000000E7     4.883101955056191E-2   9.873867630958557E-1   1.201792731881142E-1   6.054975464940071E-2   1.205069348216057E-1   5.965995043516159E-2  -8.233887553215027E-1   5.474260449409485E-1  
 1.390000000000000E7     8.675976842641830E-2   9.833028316497803E-1   1.277218908071518E-1   5.917704850435257E-2   1.273128837347031E-1   5.943724885582924E-2  -8.128609061241150E-1   5.617418289184570E-1  
 1.420000000000000E7     1.275914907455444E-1   9.782752394676209E-1   1.349599063396454E-1   5.826964601874352E-2   1.351702809333801E-1   5.826353281736374E-2  -8.039295077323914E-1   5.745634436607361E-1  
 1.450000000000000E7     1.669967323541641E-1   9.699819684028626E-1   1.432130485773087E-1   5.642107501626015E-2   1.430659592151642E-1   5.659062415361404E-2  -7.903950810432434E-1   5.888292789459229E-1  
 1.480000000000000E7     2.086056172847748E-1   9.612102508544922E-1   1.517155915498734E-1   5.441924557089806E-2   1.519565880298615E-1   5.515731498599052E-2  -7.793095707893372E-1   6.019266843795776E-1  
 1.510000000000000E7     2.481064051389694E-1   9.500983357429504E-1   1.607819795608521E-1   5.217225104570389E-2   1.604604870080948E-1   5.230871960520744E-2  -7.646300196647644E-1   6.157563924789429E-1  
 1.540000000000000E7     2.876759767532349E-1   9.376011490821838E-1   1.701372861862183E-1   5.068232119083405E-2   1.700935214757919E-1   4.983789473772049E-2  -7.543426752090454E-1   6.285476684570313E-1  
 1.570000000000000E7     3.287967443466187E-1   9.234135150909424E-1   1.802141666412354E-1   4.668667912483215E-2   1.804288476705551E-1   4.662694036960602E-2  -7.390538454055786E-1   6.440447568893433E-1  
 1.600000000000000E7     3.696167469024658E-1   9.047332406044006E-1   1.907464563846588E-1   4.265481978654862E-2   1.910606771707535E-1   4.243746027350426E-2  -7.248880863189697E-1   6.560049057006836E-1  
 1.630000000000000E7     4.092631936073303E-1   8.848766684532166E-1   2.028095126152039E-1   3.755140304565430E-2   2.022392004728317E-1   3.793623298406601E-2  -7.081546783447266E-1   6.722275018692017E-1  
 1.660000000000000E7     4.490531384944916E-1   8.612607717514038E-1   2.148119509220123E-1   3.202684223651886E-2   2.144565284252167E-1   3.160991519689560E-2  -6.899431347846985E-1   6.863318085670471E-1  
 1.690000000000000E7     4.884741604328156E-1   8.368471264839172E-1   2.278984487056732E-1   2.633424103260040E-2   2.275684326887131E-1   2.596426941454411E-2  -6.720132827758789E-1   6.999574303627014E-1  
 1.720000000000000E7     5.295670628547669E-1   8.091822266578674E-1   2.403838485479355E-1   1.798296160995960E-2   2.408634871244431E-1   1.832748390734196E-2  -6.525738239288330E-1   7.136388421058655E-1  
 1.750000000000000E7     5.643003582954407E-1   7.807427048683167E-1   2.563681602478027E-1   1.086238771677017E-2   2.565698623657227E-1   9.974285960197449E-3  -6.313962340354919E-1   7.287527918815613E-1  
 1.780000000000000E7     6.039112806320190E-1   7.431746125221252E-1   2.703463435173035E-1  -3.676842898130417E-4   2.708098292350769E-1   5.587749183177948E-5  -6.085111498832703E-1   7.402891516685486E-1  
 1.810000000000000E7     6.396105885505676E-1   7.068958878517151E-1   2.886373102664948E-1  -1.228307001292706E-2   2.867049574851990E-1  -1.307726930826902E-2  -5.829986333847046E-1   7.567663192749023E-1  
 1.840000000000000E7     6.764208674430847E-1   6.645519733428955E-1   3.055304288864136E-1  -2.839767187833786E-2   3.046665787696838E-1  -2.739670313894749E-2  -5.556848645210266E-1   7.691445350646973E-1  
 1.870000000000000E7     7.080123424530029E-1   6.201817989349365E-1   3.238820433616638E-1  -4.374103993177414E-2   3.227085471153259E-1  -4.421169683337212E-2  -5.259426236152649E-1   7.805568575859070E-1  
 1.900000000000000E7     7.389131784439087E-1   5.699840784072876E-1   3.430495262145996E-1  -6.310011446475983E-2   3.425257205963135E-1  -6.395730376243591E-2  -4.936398267745972E-1   7.913138866424561E-1  
 1.930000000000000E7     7.671551108360291E-1   5.140879154205322E-1   3.620641529560089E-1  -8.835157006978989E-2   3.631044924259186E-1  -8.721759915351868E-2  -4.580261707305908E-1   8.027516603469849E-1  
 1.960000000000000E7     7.910873293876648E-1   4.532971382141113E-1   3.823964595794678E-1  -1.155112907290459E-1   3.830875456333160E-1  -1.149869412183762E-1  -4.211718440055847E-1   8.103549480438232E-1  
 1.990000000000000E7     8.085446357727051E-1   3.886493146419525E-1   4.031886160373688E-1  -1.481327712535858E-1   4.038016498088837E-1  -1.489069610834122E-1  -3.760392963886261E-1   8.162168264389038E-1  
 2.020000000000000E7     8.207994103431702E-1   3.159024417400360E-1   4.239023625850678E-1  -1.874841749668121E-1   4.233971834182739E-1  -1.865475475788117E-1  -3.318974077701569E-1   8.167176246643066E-1  
 2.050000000000000E7     8.267372846603394E-1   2.369588911533356E-1   4.429681897163391E-1  -2.330188304185867E-1   4.406696557998657E-1  -2.320077419281006E-1  -2.816571891307831E-1   8.142800331115723E-1  
 2.080000000000000E7     8.188776373863220E-1   1.534449756145477E-1   4.585139155387878E-1  -2.885107696056366E-1   4.589855670928955E-1  -2.887037992477417E-1  -2.253651320934296E-1   8.051984310150147E-1  
 2.110000000000000E7     7.986316084861755E-1   6.646014750003815E-2   4.683438539505005E-1  -3.543804585933685E-1   4.683940410614014E-1  -3.542959690093994E-1  -1.670073866844177E-1   7.864236235618591E-1  
 2.140000000000000E7     7.622915506362915E-1  -2.240131422877312E-2   4.696117043495178E-1  -4.299913346767426E-1   4.699702262878418E-1  -4.273133873939514E-1  -1.057943701744080E-1   7.578684091567993E-1  
 2.170000000000000E7     7.059516906738281E-1  -1.108428984880447E-1   4.601816833019257E-1  -5.146012902259827E-1   4.609099626541138E-1  -5.135755538940430E-1  -4.395868629217148E-2   7.145903706550598E-1  
 2.200000000000000E7     6.255303025245667E-1  -1.927059441804886E-1   4.307700395584106E-1  -6.084157824516296E-1   4.317966401576996E-1  -6.082962751388550E-1   1.372228190302849E-2   6.563844680786133E-1  
 2.230000000000000E7     5.225762128829956E-1  -2.575558722019196E-1   3.797512650489807E-1  -7.069737911224365E-1   3.803966939449310E-1  -7.065064311027527E-1   6.251009553670883E-2   5.809280872344971E-1  
 2.260000000000000E7     3.975637853145599E-1  -2.989422380924225E-1   2.999489605426788E-1  -8.035539388656616E-1   3.006255626678467E-1  -8.042445778846741E-1   9.205555915832520E-2   4.897612333297730E-1  
 2.290000000000000E7     2.593953907489777E-1  -3.025668859481812E-1   1.910368055105209E-1  -8.869648575782776E-1   1.910785883665085E-1  -8.878378868103027E-1   1.025872305035591E-1   3.855868279933929E-1  
 2.320000000000000E7     1.248642951250076E-1  -2.631080746650696E-1   5.446650832891464E-2  -9.452350139617920E-1   5.441655218601227E-2  -9.445049166679382E-1   8.423644304275513E-2   2.849728167057037E-1  
 2.350000000000000E7     7.348436862230301E-3  -1.843662559986115E-1  -9.821703284978867E-2  -9.678893685340881E-1  -9.702099859714508E-2  -9.675286412239075E-1   3.429449349641800E-2   1.893106251955032E-1  
 2.380000000000000E7    -8.171977102756500E-2  -7.504258304834366E-2  -2.513482868671417E-1  -9.513991475105286E-1  -2.514293789863586E-1  -9.514021873474121E-1  -4.018266126513481E-2   1.143944039940834E-1  
 2.410000000000000E7    -1.272722780704498E-1   4.991132020950317E-2  -3.931919038295746E-1  -8.995800614356995E-1  -3.930706083774567E-1  -8.988710641860962E-1  -1.266047954559326E-1   6.835111975669861E-2  
 2.440000000000000E7    -1.305207163095474E-1   1.736878454685211E-1  -5.121161937713623E-1  -8.194355964660645E-1  -5.124817490577698E-1  -8.196892738342285E-1  -2.174758911132813E-1   5.397937074303627E-2  
 2.470000000000000E7    -1.023792624473572E-1   2.844933569431305E-1  -6.074333786964417E-1  -7.242506146430969E-1  -6.059713959693909E-1  -7.226404547691345E-1  -3.024480938911438E-1   5.991000309586525E-2  
 2.500000000000000E7    -5.129805207252502E-2   3.768158257007599E-1  -6.737945079803467E-1  -6.210466027259827E-1  -6.752999424934387E-1  -6.211727261543274E-1  -3.700281381607056E-1   8.942423015832901E-2  
 2.530000000000000E7     1.787009835243225E-2   4.463637769222260E-1  -7.200223803520203E-1  -5.197490453720093E-1  -7.182312011718750E-1  -5.202812552452087E-1  -4.255482852458954E-1   1.311315596103668E-1  
 2.560000000000000E7     8.968345820903778E-2   4.910633563995361E-1  -7.481148242950440E-1  -4.236287474632263E-1  -7.467374205589294E-1  -4.240238070487976E-1  -4.643800854682922E-1   1.819190979003906E-1  
 2.590000000000000E7     1.642243266105652E-1   5.127034783363342E-1  -7.660431265830994E-1  -3.345869183540344E-1  -7.666035890579224E-1  -3.346373140811920E-1  -4.862590730190277E-1   2.321806550025940E-1  
 2.620000000000000E7     2.368441820144653E-1   5.206494331359863E-1  -7.759242653846741E-1  -2.508149743080139E-1  -7.741639018058777E-1  -2.509135603904724E-1  -4.948922693729401E-1   2.856237888336182E-1  
 2.650000000000000E7     3.022541403770447E-1   5.141139030456543E-1  -7.764279246330261E-1  -1.743809282779694E-1  -7.775302529335022E-1  -1.733717322349548E-1  -4.903091788291931E-1   3.389339148998261E-1  
 2.680000000000000E7     3.610079586505890E-1   4.946008324623108E-1  -7.769379019737244E-1  -1.014810875058174E-1  -7.776088714599609E-1  -1.013636738061905E-1  -4.723426103591919E-1   3.893727958202362E-1  
 2.710000000000000E7     4.102631807327271E-1   4.670143425464630E-1  -7.771168947219849E-1  -2.834584563970566E-2  -7.764740586280823E-1  -2.735495939850807E-2  -4.439620077610016E-1   4.347392320632935E-1  
 2.740000000000000E7     4.528620541095734E-1   4.302170872688294E-1  -7.739056944847107E-1   4.128161072731018E-2  -7.744012475013733E-1   4.225030541419983E-2  -3.988921940326691E-1   4.770949184894562E-1  
 2.770000000000000E7     4.813863039016724E-1   3.882614970207214E-1  -7.706682085990906E-1   1.171738058328629E-1  -7.722630500793457E-1   1.179504841566086E-1  -3.423377573490143E-1   5.121151208877564E-1  
 2.800000000000000E7     4.995641708374023E-1   3.408990800380707E-1  -7.637179493904114E-1   1.984553337097168E-1  -7.649204134941101E-1   1.964186131954193E-1  -2.690413296222687E-1   5.385280847549439E-1  
 2.830000000000000E7     5.025507807731628E-1   2.902002334594727E-1  -7.533985972404480E-1   2.895374894142151E-1  -7.544674873352051E-1   2.904549837112427E-1  -1.808184087276459E-1   5.460312962532044E-1  
 2.860000000000000E7     4.858393967151642E-1   2.412711381912231E-1  -7.330383062362671E-1   3.951634168624878E-1  -7.326500415802002E-1   3.969859182834625E-1  -6.780064105987549E-2   5.321322679519653E-1  
 2.890000000000000E7     4.458543062210083E-1   2.020257413387299E-1  -6.910706162452698E-1   5.194667577743530E-1  -6.899766325950623E-1   5.189404487609863E-1   6.069741025567055E-2   4.773644804954529E-1  
 2.920000000000000E7     3.846184909343720E-1   1.789944767951965E-1  -6.126287579536438E-1   6.563572287559509E-1  -6.101672649383545E-1   6.568257808685303E-1   1.948447972536087E-1   3.633882403373718E-1  
 2.950000000000000E7     3.028481900691986E-1   2.017650753259659E-1  -4.709210693836212E-1   7.927250266075134E-1  -4.702030420303345E-1   7.913490533828735E-1   3.046494424343109E-1   1.659634709358215E-1  
 2.980000000000000E7     2.321442067623138E-1   2.775354683399200E-1  -2.605915963649750E-1   8.837304115295410E-1  -2.597972452640533E-1   8.836241364479065E-1   3.247396349906921E-1  -1.104129105806351E-1  
 3.010000000000000E7     2.159064859151840E-1   4.052087664604187E-1  -7.766975089907646E-3   8.768138289451599E-1  -7.551046088337898E-3   8.744885921478272E-1   1.983700245618820E-1  -3.968377709388733E-1  
 3.040000000000000E7     2.772035598754883E-1   5.352859497070313E-1   2.096777856349945E-1   7.552120685577393E-1   2.089003622531891E-1   7.559008598327637E-1  -6.300850957632065E-2  -5.883691310882568E-1  
 3.070000000000000E7     3.989018797874451E-1   6.130257844924927E-1   3.358968198299408E-1   5.767039060592651E-1   3.336357474327087E-1   5.766235589981079E-1  -3.539168536663055E-1  -6.317732334136963E-1  
 3.100000000000000E7     5.329641103744507E-1   6.320288777351379E-1   3.701340258121491E-1   4.045317471027374E-1   3.700018525123596E-1   4.040351212024689E-1  -5.960406064987183E-1  -5.649804472923279E-1  
 3.130000000000000E7     6.486262679100037E-1   6.051931977272034E-1   3.529670834541321E-1   2.701812982559204E-1   3.525491058826447E-1   2.702064216136932E-1  -7.650645375251770E-1  -4.456557333469391E-1  
 3.160000000000000E7     7.419846057891846E-1   5.546946525573731E-1   3.127759993076325E-1   1.752161979675293E-1   3.135389089584351E-1   1.758229285478592E-1  -8.674151301383972E-1  -3.183985054492950E-1  
 3.190000000000000E7     8.114607930183411E-1   4.950134754180908E-1   2.692099213600159E-1   1.110786274075508E-1   2.690155208110809E-1   1.108458414673805E-1  -9.280808568000794E-1  -1.991432458162308E-1  
 3.220000000000000E7     8.650938868522644E-1   4.322519898414612E-1   2.275334298610687E-1   6.811442226171494E-2   2.275811433792114E-1   6.808617711067200E-2  -9.608744978904724E-1  -9.488434344530106E-2  
 3.250000000000000E7     9.045830965042114E-1   3.692842423915863E-1   1.907396465539932E-1   4.020214080810547E-2   1.910551488399506E-1   4.009950160980225E-2  -9.754856228828430E-1  -5.137401167303324E-3  
 3.280000000000000E7     9.336372017860413E-1   3.066958487033844E-1   1.592627316713333E-1   2.161413617432118E-2   1.592625081539154E-1   2.104662358760834E-2  -9.799823164939880E-1   7.275490462779999E-2  
 3.310000000000000E7     9.551172852516174E-1   2.483031302690506E-1   1.331907510757446E-1   8.691671304404736E-3   1.331513822078705E-1   8.837293833494186E-3  -9.780043363571167E-1   1.394710093736649E-1  
 3.340000000000000E7     9.724806547164917E-1   1.918431073427200E-1   1.113265454769135E-1   5.679437308572233E-4   1.111108511686325E-1   5.112896906211972E-4  -9.706073403358460E-1   1.987578272819519E-1  
 3.370000000000000E7     9.820984005928040E-1   1.372496038675308E-1   9.256719052791596E-2  -4.541807807981968E-3   9.251260757446289E-2  -4.203503020107746E-3  -9.612331986427307E-1   2.487607002258301E-1  
 3.400000000000000E7     9.900322556495667E-1   8.499515801668167E-2   7.726166397333145E-2  -7.678114809095860E-3   7.730735838413239E-2  -7.470315322279930E-3  -9.489409923553467E-1   2.934673130512238E-1  
 3.430000000000000E7     9.944173097610474E-1   3.503503650426865E-2   6.441298872232437E-2  -9.446704760193825E-3   6.420984119176865E-2  -9.440990164875984E-3  -9.370172023773193E-1   3.333121836185455E-1  
 3.460000000000000E7     9.953119158744812E-1  -1.460475008934736E-2   5.367464944720268E-2  -1.017335243523121E-2   5.361254513263702E-2  -1.017301343381405E-2  -9.256279468536377E-1   3.691113889217377E-1  
 3.490000000000000E7     9.943780899047852E-1  -6.222013756632805E-2   4.455506801605225E-2  -1.047020405530930E-2   4.426250234246254E-2  -1.041641086339951E-2  -9.104499220848084E-1   4.008818566799164E-1  
 3.520000000000000E7     9.913937449455261E-1  -1.073504760861397E-1   3.674010559916496E-2  -1.011989172548056E-2   3.671961650252342E-2  -1.011115312576294E-2  -8.985772728919983E-1   4.311940670013428E-1  
 3.550000000000000E7     9.840154051780701E-1  -1.528728604316711E-1   3.007996827363968E-2  -9.530968964099884E-3   3.030660748481751E-2  -9.484400972723961E-3  -8.856629133224487E-1   4.578529000282288E-1  
 3.580000000000000E7     9.777157306671143E-1  -1.953271925449371E-1   2.467591688036919E-2  -8.913852274417877E-3   2.477779239416122E-2  -8.769283071160317E-3  -8.714966773986816E-1   4.836425185203552E-1  
 3.610000000000000E7     9.689643383026123E-1  -2.373344898223877E-1   2.023506164550781E-2  -7.994239218533039E-3   2.022440172731876E-2  -7.980349473655224E-3  -8.595085144042969E-1   5.083075165748596E-1  
 3.640000000000000E7     9.579333066940308E-1  -2.785578370094299E-1   1.634109020233154E-2  -7.080078125000000E-3   1.631228066980839E-2  -6.975985597819090E-3  -8.461371064186096E-1   5.283684134483337E-1  
 3.670000000000000E7     9.466951489448547E-1  -3.169217109680176E-1   1.308303140103817E-2  -6.224809680134058E-3   1.302826032042503E-2  -6.191763561218977E-3  -8.336471915245056E-1   5.486694574356079E-1  
 3.700000000000000E7     9.325686097145081E-1  -3.552907407283783E-1   1.031510997563601E-2  -5.243149120360613E-3   1.032211445271969E-2  -5.287230014801025E-3  -8.202546834945679E-1   5.689036250114441E-1  
 3.730000000000000E7     9.171651005744934E-1  -3.930047452449799E-1   8.077311329543591E-3  -4.413832444697619E-3   8.026063442230225E-3  -4.350760951638222E-3  -8.064942359924316E-1   5.853273272514343E-1  
 3.760000000000000E7     9.014073014259338E-1  -4.271873831748962E-1   6.224738433957100E-3  -3.612248692661524E-3   6.077857222408056E-3  -3.607653314247727E-3  -7.947859168052673E-1   6.040240526199341E-1  
 3.790000000000000E7     8.838281035423279E-1  -4.630231857299805E-1   4.512494429945946E-3  -2.869772724807262E-3   4.596525337547064E-3  -2.906554145738483E-3  -7.820253968238831E-1   6.199015974998474E-1  
 3.820000000000000E7     8.659170866012573E-1  -4.977103769779205E-1   3.317707451060414E-3  -2.182155614718795E-3   3.374052699655294E-3  -2.215539105236530E-3  -7.695565223693848E-1   6.337503790855408E-1  
 3.850000000000000E7     8.446382880210877E-1  -5.310195684432983E-1   2.303765155375004E-3  -1.555257826112211E-3   2.341770101338625E-3  -1.571422792039812E-3  -7.589655518531799E-1   6.491183638572693E-1  
 3.880000000000000E7     8.243693113327026E-1  -5.619471669197083E-1   1.467290334403515E-3  -1.067096251063049E-3   1.564454869367182E-3  -1.098244450986385E-3  -7.462425827980042E-1   6.637911200523377E-1  
 3.910000000000000E7     8.029842972755432E-1  -5.938390493392944E-1   8.030745084397495E-4  -6.290994933806360E-4   8.556016837246716E-4  -6.209890125319362E-4  -7.347943782806397E-1   6.783635020256043E-1  
 3.940000000000000E7     7.793590426445007E-1  -6.217631101608276E-1   4.326649650465697E-4  -1.920299546327442E-4   4.139512602705509E-4  -3.463420434854925E-4  -7.220289707183838E-1   6.896938085556030E-1  
 3.970000000000000E7     7.571026086807251E-1  -6.512530446052551E-1  -3.773823482333683E-5   1.085873300326057E-4   3.166123133269139E-5  -1.283786878047977E-5  -7.093335986137390E-1   7.011866569519043E-1  
 4.000000000000000E7     7.316268682479858E-1  -6.782510280609131E-1  -3.602979995775968E-4   2.531229110900313E-4  -2.697126765269786E-4   2.736393944360316E-4  -6.987310051918030E-1   7.136026620864868E-1  
 4.030000000000000E7     7.068569660186768E-1  -7.049345374107361E-1  -3.348629979882389E-4   4.096459888387471E-4  -4.221591516397893E-4   3.390003112144768E-4  -6.870723366737366E-1   7.250497341156006E-1  
 4.060000000000000E7     6.807879805564880E-1  -7.297899127006531E-1  -5.448474548757076E-4   4.914070013910532E-4  -4.277305270079523E-4   4.895115853287280E-4  -6.746693849563599E-1   7.351871132850647E-1  
 4.090000000000000E7     6.535500884056091E-1  -7.544933557510376E-1  -4.166871076449752E-4   5.264457431621850E-4  -4.321431042626500E-4   4.823638009838760E-4  -6.634408235549927E-1   7.452620863914490E-1  
 4.120000000000000E7     6.263525485992432E-1  -7.779303789138794E-1  -4.793728294316679E-4   5.242140614427626E-4  -3.695578197948635E-4   4.485263489186764E-4  -6.509611606597900E-1   7.557796239852905E-1  
 4.150000000000000E7     5.985924005508423E-1  -7.987222075462341E-1  -3.202568332199007E-4   2.776816836558282E-4  -3.233433235436678E-4   3.939482558052987E-4  -6.393266320228577E-1   7.656456828117371E-1  
 4.180000000000000E7     5.691849589347839E-1  -8.205751776695252E-1  -1.770999806467444E-4   3.087650693487376E-4  -1.773512776708230E-4   1.732503151288256E-4  -6.289275884628296E-1   7.745293378829956E-1  
 4.210000000000000E7     5.399442911148071E-1  -8.401411771774292E-1  -2.130450775439385E-5  -1.106091986002866E-5  -3.303479024907574E-5  -3.365519296494313E-5  -6.171461343765259E-1   7.842670679092407E-1  
 4.240000000000000E7     5.098483562469482E-1  -8.575506210327148E-1   1.298738643527031E-4  -3.033580142073333E-4   1.450884883524850E-4  -2.867703733500093E-4  -6.066128015518189E-1   7.935574650764465E-1  
 4.270000000000000E7     4.783435165882111E-1  -8.752615451812744E-1   4.193173663225025E-4  -6.632471922785044E-4   4.147444851696491E-4  -6.290650344453752E-4  -5.941081643104553E-1   8.026601076126099E-1  
 4.300000000000000E7     4.467462599277496E-1  -8.920676112174988E-1   6.385865272022784E-4  -1.151176518760622E-3   5.835134652443230E-4  -1.105169882066548E-3  -5.828883647918701E-1   8.113698959350586E-1  
 4.330000000000000E7     4.175525605678558E-1  -9.077292084693909E-1   8.570228237658739E-4  -1.499513047747314E-3   8.229074883274734E-4  -1.495403237640858E-3  -5.714513659477234E-1   8.186868429183960E-1  
 4.360000000000000E7     3.844796419143677E-1  -9.206345081329346E-1   1.071629230864346E-3  -2.048171125352383E-3   9.756495128385723E-4  -2.022688277065754E-3  -5.605118870735169E-1   8.263558149337769E-1  
 4.390000000000000E7     3.513657450675964E-1  -9.351027011871338E-1   1.336966990493238E-3  -2.563210902735591E-3   1.250699511729181E-3  -2.552832011133432E-3  -5.486604571342468E-1   8.331485390663147E-1  
 4.420000000000000E7     3.188010454177856E-1  -9.453955888748169E-1   1.381096779368818E-3  -3.126198193058372E-3   1.502978848293424E-3  -3.061093157157302E-3  -5.364003777503967E-1   8.401798605918884E-1  
 4.450000000000000E7     2.856913208961487E-1  -9.558039903640747E-1   1.685358118265867E-3  -3.760092891752720E-3   1.652160193771124E-3  -3.791807219386101E-3  -5.266679525375366E-1   8.475529551506043E-1  
 4.480000000000000E7     2.528037726879120E-1  -9.655770659446716E-1   1.841130899265409E-3  -4.440158139914274E-3   1.867717015556991E-3  -4.475113935768604E-3  -5.153598785400391E-1   8.541979193687439E-1  
 4.510000000000000E7     2.202081978321075E-1  -9.738594293594360E-1   2.022312022745609E-3  -5.077937617897987E-3   1.919814851135016E-3  -5.131754092872143E-3  -5.042638182640076E-1   8.618164658546448E-1  
 4.540000000000000E7     1.861540973186493E-1  -9.803898930549622E-1   2.056234516203404E-3  -5.817157216370106E-3   2.094346797093749E-3  -5.911202169954777E-3  -4.925282597541809E-1   8.683772683143616E-1  
 4.570000000000000E7     1.519612371921539E-1  -9.865415096282959E-1   2.240790054202080E-3  -6.664772052317858E-3   2.274688798934221E-3  -6.606907583773136E-3  -4.812512695789337E-1   8.743641972541809E-1  
 4.600000000000000E7     1.206358820199966E-1  -9.907353520393372E-1   2.445613965392113E-3  -7.352169603109360E-3   2.348088426515460E-3  -7.477963808923960E-3  -4.707050621509552E-1   8.800721168518066E-1  
 4.630000000000000E7     8.410583436489105E-2  -9.944074153900147E-1   2.312673721462488E-3  -8.251704275608063E-3   2.351510338485241E-3  -8.232380263507366E-3  -4.597302675247192E-1   8.856734037399292E-1  
 4.660000000000000E7     4.970426857471466E-2  -9.976451396942139E-1   2.279023872688413E-3  -9.120549075305462E-3   2.354355528950691E-3  -9.080044925212860E-3  -4.466418027877808E-1   8.922414779663086E-1  
 4.690000000000000E7     1.671709120273590E-2  -9.979663491249085E-1   2.305135829374194E-3  -9.875323623418808E-3   2.258892869576812E-3  -9.924620389938355E-3  -4.361464679241180E-1   8.978673219680786E-1  
 4.720000000000000E7    -1.786040142178536E-2  -9.974004626274109E-1   2.239795634523034E-3  -1.067900191992521E-2   2.229384612292051E-3  -1.076085213571787E-2  -4.244564771652222E-1   9.026798009872437E-1  
 4.750000000000000E7    -5.105621740221977E-2  -9.970503449440002E-1   2.202323405072093E-3  -1.179868821054697E-2   2.240752102807164E-3  -1.166640594601631E-2  -4.138012528419495E-1   9.080091714859009E-1  
 4.780000000000000E7    -8.426219969987869E-2  -9.947442412376404E-1   2.035508863627911E-3  -1.265244651585817E-2   2.132896566763520E-3  -1.262891013175249E-2  -4.013941586017609E-1   9.120236039161682E-1  
 4.810000000000000E7    -1.183509007096291E-1  -9.911270141601563E-1   1.832861686125398E-3  -1.358516048640013E-2   1.857668859884143E-3  -1.367117930203676E-2  -3.914066255092621E-1   9.173095226287842E-1  
 4.840000000000000E7    -1.518400907516480E-1  -9.870750904083252E-1   1.654446590691805E-3  -1.458323094993830E-2   1.647327095270157E-3  -1.454124413430691E-2  -3.801934719085693E-1   9.221144914627075E-1  
 4.870000000000000E7    -1.854595541954041E-1  -9.809887409210205E-1   1.380424248054624E-3  -1.560631114989519E-2   1.493062474764884E-3  -1.555618457496166E-2  -3.684037923812866E-1   9.267439842224121E-1  
 4.900000000000000E7    -2.191125154495239E-1  -9.749740958213806E-1   1.151181058958173E-3  -1.650920696556568E-2   1.177267986349762E-3  -1.651174575090408E-2  -3.575648367404938E-1   9.307336211204529E-1  
 4.930000000000000E7    -2.522109448909760E-1  -9.665253758430481E-1   8.071674965322018E-4  -1.745732687413693E-2   7.540963706560433E-4  -1.753783412277699E-2  -3.455767035484314E-1   9.355756044387817E-1  
 4.960000000000000E7    -2.831189632415772E-1  -9.557016491889954E-1   4.399950848892331E-4  -1.843275316059589E-2   4.103255923837423E-4  -1.846712641417980E-2  -3.348005712032318E-1   9.391744136810303E-1  
 4.990000000000000E7    -3.150675892829895E-1  -9.461096525192261E-1   4.076818004250526E-5  -1.951523870229721E-2   5.456875078380108E-5  -1.939138397574425E-2  -3.234465420246124E-1   9.427943825721741E-1  
 5.020000000000000E7    -3.466244935989380E-1  -9.361224174499512E-1  -4.382794722914696E-4  -2.044521272182465E-2  -3.835470415651798E-4  -2.052928507328033E-2  -3.124766647815704E-1   9.469792842864990E-1  
 5.050000000000000E7    -3.784638345241547E-1  -9.234665036201477E-1  -9.455181425437331E-4  -2.149440906941891E-2  -9.459507418796420E-4  -2.147290110588074E-2  -3.013236522674561E-1   9.518606066703796E-1  
 5.080000000000000E7    -4.087329506874085E-1  -9.110549688339233E-1  -1.464963657781482E-3  -2.252927795052528E-2  -1.446085749194026E-3  -2.250519022345543E-2  -2.893415689468384E-1   9.530657529830933E-1  
 5.110000000000000E7    -4.395071566104889E-1  -8.957123160362244E-1  -2.136398805305362E-3  -2.348636277019978E-2  -2.098648576065898E-3  -2.347835712134838E-2  -2.792959809303284E-1   9.575054049491882E-1  
 5.140000000000000E7    -4.690699279308319E-1  -8.801885843276978E-1  -2.741916105151177E-3  -2.449350059032440E-2  -2.766220131888986E-3  -2.448348142206669E-2  -2.670269608497620E-1   9.622961878776550E-1  
 5.170000000000000E7    -4.979556202888489E-1  -8.643849492073059E-1  -3.472981275990605E-3  -2.547071874141693E-2  -3.430186538025737E-3  -2.548544108867645E-2  -2.553234398365021E-1   9.630421400070190E-1  
 5.200000000000000E7    -5.273526906967163E-1  -8.485357761383057E-1  -4.225273616611958E-3  -2.647200785577297E-2  -4.142962396144867E-3  -2.652949281036854E-2  -2.439370751380920E-1   9.652080535888672E-1  
 5.230000000000000E7    -5.552213191986084E-1  -8.291073441505432E-1  -4.979988560080528E-3  -2.743159420788288E-2  -5.007640458643436E-3  -2.746862918138504E-2  -2.327827811241150E-1   9.694821238517761E-1  
 5.260000000000000E7    -5.815779566764832E-1  -8.091257214546204E-1  -5.814657546579838E-3  -2.842570282518864E-2  -5.791124887764454E-3  -2.846024185419083E-2  -2.215582728385925E-1   9.718782901763916E-1  
 5.290000000000000E7    -6.097188591957092E-1  -7.891907691955566E-1  -6.690882146358490E-3  -2.934639155864716E-2  -6.716630887240171E-3  -2.937882207334042E-2  -2.104434967041016E-1   9.736759066581726E-1  
 5.320000000000000E7    -6.354348063468933E-1  -7.699412107467651E-1  -7.626210339367390E-3  -3.031819127500057E-2  -7.667749188840389E-3  -3.036293946206570E-2  -1.991229355335236E-1   9.766656756401062E-1  
 5.350000000000000E7    -6.596621870994568E-1  -7.477446198463440E-1  -8.533377200365067E-3  -3.129065036773682E-2  -8.588751778006554E-3  -3.123952262103558E-2  -1.885980367660523E-1   9.794830083847046E-1  
 5.380000000000000E7    -6.830577850341797E-1  -7.253371477127075E-1  -9.554328396916390E-3  -3.221743926405907E-2  -9.611137211322784E-3  -3.211822360754013E-2  -1.758499592542648E-1   9.803382158279419E-1  
 5.410000000000000E7    -7.096046805381775E-1  -7.020561099052429E-1  -1.071384456008673E-2  -3.312263637781143E-2  -1.079109869897366E-2  -3.305172547698021E-2  -1.645101308822632E-1   9.827942252159119E-1  
 5.440000000000000E7    -7.314863204956055E-1  -6.773308515548706E-1  -1.184084545820952E-2  -3.394913300871849E-2  -1.189873740077019E-2  -3.394983336329460E-2  -1.534652411937714E-1   9.844847321510315E-1  
 5.470000000000000E7    -7.528305053710938E-1  -6.535831689834595E-1  -1.300890557467938E-2  -3.472135588526726E-2  -1.309689786285162E-2  -3.478685393929482E-2  -1.412732899188995E-1   9.858526587486267E-1  
 5.500000000000000E7    -7.752800583839417E-1  -6.276506781578064E-1  -1.435466296970844E-2  -3.570264577865601E-2  -1.428808737546206E-2  -3.565389290452004E-2  -1.291881054639816E-1   9.885078668594360E-1  
 5.530000000000000E7    -7.951758503913879E-1  -6.016836762428284E-1  -1.550680119544268E-2  -3.648710995912552E-2  -1.565652899444103E-2  -3.638582676649094E-2  -1.180218309164047E-1   9.890462756156921E-1  
 5.560000000000000E7    -8.151946663856506E-1  -5.740266442298889E-1  -1.696007885038853E-2  -3.727372735738754E-2  -1.686359569430351E-2  -3.722066432237625E-2  -1.076948195695877E-1   9.906539916992188E-1  
 5.590000000000000E7    -8.340327143669128E-1  -5.476791858673096E-1  -1.826974935829639E-2  -3.799427673220635E-2  -1.837212033569813E-2  -3.798635676503182E-2  -9.497393667697907E-2   9.915768504142761E-1  
 5.620000000000000E7    -8.512981534004211E-1  -5.175644755363464E-1  -1.972891204059124E-2  -3.875919431447983E-2  -1.960130035877228E-2  -3.860823065042496E-2  -8.422591537237167E-2   9.930596351623535E-1  
 5.650000000000000E7    -8.675191998481751E-1  -4.904577434062958E-1  -2.112041972577572E-2  -3.931688144803047E-2  -2.113716118037701E-2  -3.939029946923256E-2  -7.242865115404129E-2   9.933921098709106E-1  
 5.680000000000000E7    -8.838231563568115E-1  -4.611352384090424E-1  -2.271481230854988E-2  -4.003435373306274E-2  -2.274866029620171E-2  -3.996490687131882E-2  -6.057168543338776E-2   9.932486414909363E-1  
 5.710000000000000E7    -8.989573121070862E-1  -4.298423528671265E-1  -2.443575672805309E-2  -4.048796370625496E-2  -2.441368997097015E-2  -4.061156511306763E-2  -4.934049025177956E-2   9.943048357963562E-1  
 5.740000000000000E7    -9.130557775497437E-1  -3.998456001281738E-1  -2.598516829311848E-2  -4.113325476646423E-2  -2.592121995985508E-2  -4.119759052991867E-2  -3.707062825560570E-2   9.948192238807678E-1  
 5.770000000000000E7    -9.245975613594055E-1  -3.704963922500610E-1  -2.750740945339203E-2  -4.183837771415710E-2  -2.744062617421150E-2  -4.177463054656982E-2  -2.719010412693024E-2   9.944977760314941E-1  
 5.800000000000000E7    -9.368127584457398E-1  -3.380133807659149E-1  -2.942240238189697E-2  -4.230349883437157E-2  -2.939962036907673E-2  -4.208026081323624E-2  -1.371932029724121E-2   9.962867498397827E-1  
 5.830000000000000E7    -9.471958279609680E-1  -3.065153956413269E-1  -3.109290450811386E-2  -4.258379340171814E-2  -3.108288161456585E-2  -4.266925901174545E-2  -3.456979990005493E-3   9.962572455406189E-1  
 5.860000000000000E7    -9.580963253974915E-1  -2.753047347068787E-1  -3.292088955640793E-2  -4.304448887705803E-2  -3.291075676679611E-2  -4.307092353701592E-2   8.778691291809082E-3   9.953421354293823E-1  
 5.890000000000000E7    -9.659591913223267E-1  -2.428584098815918E-1  -3.475473076105118E-2  -4.353049769997597E-2  -3.467586636543274E-2  -4.355278983712196E-2   1.980695873498917E-2   9.947184324264526E-1  
 5.920000000000000E7    -9.732772111892700E-1  -2.095431089401245E-1  -3.677418455481529E-2  -4.370998963713646E-2  -3.671564161777496E-2  -4.360347241163254E-2   3.202788531780243E-2   9.957020282745361E-1  
 5.950000000000000E7    -9.793504476547241E-1  -1.770004630088806E-1  -3.861314430832863E-2  -4.387793317437172E-2  -3.858208656311035E-2  -4.383922740817070E-2   4.328090697526932E-2   9.931537508964539E-1  
 5.980000000000000E7    -9.850158095359802E-1  -1.436875909566879E-1  -4.073746129870415E-2  -4.404578357934952E-2  -4.042389616370201E-2  -4.401237517595291E-2   5.566813051700592E-2   9.925201535224915E-1  
 6.010000000000000E7    -9.878755211830139E-1  -1.122151166200638E-1  -4.253041371703148E-2  -4.451593011617661E-2  -4.248545318841934E-2  -4.428121820092201E-2   6.656859070062637E-2   9.931650757789612E-1  
 6.040000000000000E7    -9.914363622665405E-1  -7.728995382785797E-2  -4.461113363504410E-2  -4.439733549952507E-2  -4.468838870525360E-2  -4.430534690618515E-2   7.890652120113373E-2   9.925110936164856E-1  
 6.070000000000000E7    -9.942835569381714E-1  -4.540406167507172E-2  -4.671539738774300E-2  -4.452992975711823E-2  -4.660093784332275E-2  -4.454219713807106E-2   8.957184851169586E-2   9.905230402946472E-1  
 6.100000000000000E7    -9.949436783790588E-1  -1.194669306278229E-2  -4.890095070004463E-2  -4.429383575916290E-2  -4.886752367019653E-2  -4.429662227630615E-2   1.028167530894280E-1   9.894927740097046E-1  
 6.130000000000000E7    -9.949267506599426E-1   2.198554575443268E-2  -5.119478702545166E-2  -4.436151683330536E-2  -5.119491368532181E-2  -4.434357583522797E-2   1.146918758749962E-1   9.889217615127564E-1  
 6.160000000000000E7    -9.929003715515137E-1   5.467964708805084E-2  -5.315277725458145E-2  -4.413811117410660E-2  -5.330203473567963E-2  -4.407223686575890E-2   1.250027716159821E-1   9.857921004295349E-1  
 6.190000000000000E7    -9.903095960617065E-1   8.829636871814728E-2  -5.550455674529076E-2  -4.410437867045403E-2  -5.523651093244553E-2  -4.375693574547768E-2   1.356986910104752E-1   9.839121103286743E-1  
 6.220000000000000E7    -9.868207573890686E-1   1.212873235344887E-1  -5.750971660017967E-2  -4.364821314811707E-2  -5.778010562062264E-2  -4.370372742414475E-2   1.477058976888657E-1   9.836906790733337E-1  
 6.250000000000000E7    -9.821637868881226E-1   1.545321792364121E-1  -5.998495593667030E-2  -4.338124766945839E-2  -6.007899343967438E-2  -4.322023689746857E-2   1.592055112123489E-1   9.814746975898743E-1  
 6.280000000000000E7    -9.757200479507446E-1   1.876031160354614E-1  -6.256132572889328E-2  -4.292885214090347E-2  -6.227206811308861E-2  -4.308171570301056E-2   1.712288111448288E-1   9.797407984733582E-1  
 6.310000000000000E7    -9.684431552886963E-1   2.211680561304092E-1  -6.501934677362442E-2  -4.236193373799324E-2  -6.476089358329773E-2  -4.244892299175263E-2   1.830672621726990E-1   9.775977134704590E-1  
 6.340000000000000E7    -9.604926109313965E-1   2.531226575374603E-1  -6.738228350877762E-2  -4.189391434192658E-2  -6.727306544780731E-2  -4.175684973597527E-2   1.950563639402390E-1   9.754092693328857E-1  
 6.370000000000000E7    -9.514172673225403E-1   2.855305075645447E-1  -6.973754614591599E-2  -4.113331437110901E-2  -6.957250833511353E-2  -4.113683104515076E-2   2.056701779365540E-1   9.719582200050354E-1  
 6.400000000000000E7    -9.400413036346436E-1   3.166348040103912E-1  -7.225225120782852E-2  -4.031511396169663E-2  -7.202927023172379E-2  -4.028072208166122E-2   2.180012166500092E-1   9.701784849166870E-1  
 6.430000000000000E7    -9.285243153572083E-1   3.494758605957031E-1  -7.477495074272156E-2  -3.968428075313568E-2  -7.461643964052200E-2  -3.940135985612869E-2   2.295847535133362E-1   9.666675925254822E-1  
 6.460000000000000E7    -9.166169762611389E-1   3.807334899902344E-1  -7.704707980155945E-2  -3.871105238795281E-2  -7.700918614864349E-2  -3.875953704118729E-2   2.401084601879120E-1   9.633989334106445E-1  
 6.490000000000000E7    -9.045258164405823E-1   4.115452766418457E-1  -7.964822649955750E-2  -3.778805211186409E-2  -7.977667450904846E-2  -3.787392377853394E-2   2.517274618148804E-1   9.611245989799500E-1  
 6.520000000000000E7    -8.887227177619934E-1   4.412970244884491E-1  -8.241334557533264E-2  -3.691415116190910E-2  -8.210634440183640E-2  -3.672902286052704E-2   2.633037567138672E-1   9.587442874908447E-1  
 6.550000000000000E7    -8.737084269523621E-1   4.708163142204285E-1  -8.496068418025971E-2  -3.551605343818665E-2  -8.469914644956589E-2  -3.552512452006340E-2   2.745336294174194E-1   9.531937837600708E-1  
 6.580000000000000E7    -8.560597300529480E-1   5.003094077110291E-1  -8.747557550668716E-2  -3.403792902827263E-2  -8.737622946500778E-2  -3.432991728186607E-2   2.863723039627075E-1   9.513139128684998E-1  
 6.610000000000000E7    -8.378608822822571E-1   5.286544561386108E-1  -9.007604420185089E-2  -3.272200375795364E-2  -8.959747105836868E-2  -3.243699669837952E-2   2.986994981765747E-1   9.456619024276733E-1  
 6.640000000000000E7    -8.207486867904663E-1   5.575957298278809E-1  -9.280882775783539E-2  -3.142771124839783E-2  -9.281130135059357E-2  -3.153757378458977E-2   3.101907074451447E-1   9.423690438270569E-1  
 6.670000000000000E7    -8.004479408264160E-1   5.847099423408508E-1  -9.530401229858398E-2  -2.980663254857063E-2  -9.515930712223053E-2  -3.003892675042152E-2   3.208491802215576E-1   9.392980933189392E-1  
 6.700000000000000E7    -7.798331975936890E-1   6.118479967117310E-1  -9.790518879890442E-2  -2.823439054191113E-2  -9.757675975561142E-2  -2.813377231359482E-2   3.320413529872894E-1   9.338653683662415E-1  
 6.730000000000000E7    -7.579500079154968E-1   6.376947164535523E-1  -1.003451943397522E-1  -2.663309499621391E-2  -1.003748029470444E-1  -2.617029845714569E-2   3.443823456764221E-1   9.305235147476196E-1  
 6.760000000000000E7    -7.360707521438599E-1   6.632697582244873E-1  -1.033205389976502E-1  -2.436830103397369E-2  -1.030054315924645E-1  -2.448953688144684E-2   3.557585775852203E-1   9.255675077438355E-1  
 6.790000000000000E7    -7.121593356132507E-1   6.880444884300232E-1  -1.056635081768036E-1  -2.265015430748463E-2  -1.056523770093918E-1  -2.246516756713390E-2   3.661826252937317E-1   9.204834103584290E-1  
 6.820000000000000E7    -6.881903409957886E-1   7.110124826431274E-1  -1.082034334540367E-1  -2.043836191296578E-2  -1.081496775150299E-1  -2.062704227864742E-2   3.773427009582520E-1   9.163711667060852E-1  
 6.850000000000000E7    -6.633885502815247E-1   7.351148128509522E-1  -1.111995577812195E-1  -1.853338070213795E-2  -1.110035181045532E-1  -1.838182844221592E-2   3.879404962062836E-1   9.118227958679199E-1  
 6.880000000000000E7    -6.374741196632385E-1   7.568475604057312E-1  -1.136219799518585E-1  -1.606243476271629E-2  -1.132432520389557E-1  -1.598045602440834E-2   4.001200199127197E-1   9.060079455375671E-1  
 6.910000000000000E7    -6.106826066970825E-1   7.784180045127869E-1  -1.163968145847321E-1  -1.352806482464075E-2  -1.160695329308510E-1  -1.362682133913040E-2   4.118182957172394E-1   9.005646109580994E-1  
 6.940000000000000E7    -5.837454795837402E-1   7.988153696060181E-1  -1.188386008143425E-1  -1.125221047550440E-2  -1.188885793089867E-1  -1.112900581210852E-2   4.218023419380188E-1   8.954518437385559E-1  
 6.970000000000000E7    -5.546021461486816E-1   8.180761933326721E-1  -1.213959082961083E-1  -8.551325649023056E-3  -1.213247776031494E-1  -8.175425231456757E-3   4.333957135677338E-1   8.895845413208008E-1  
 7.000000000000000E7    -5.258413553237915E-1   8.372841477394104E-1  -1.240773797035217E-1  -5.736825056374073E-3  -1.236970126628876E-1  -5.673401989042759E-3   4.440655410289764E-1   8.842054009437561E-1  
