#  HZ   S   RI   R     50.00 
! Rohde & Schwarz ZVT8 8Ports - Version 4.11 - 1300.0000k08 SN: 100242
! Date: 2026-07-31 14:16:30
! Measurements: S11 S21 S12 S22 
! 
 1.000000000000000E7    -4.078983664512634E-1   9.093496203422546E-1   5.280765518546104E-2   5.313624814152718E-2   5.249141156673431E-2   5.321106687188149E-2  -9.163154363632202E-1   3.921532034873962E-1  
 1.030000000000000E7    -3.762836158275604E-1   9.218246936798096E-1   5.607147887349129E-2   5.362281948328018E-2   5.593905597925186E-2   5.365188047289848E-2  -9.097163081169128E-1   4.059350192546845E-1  
 1.060000000000000E7    -3.402543663978577E-1   9.353526234626770E-1   5.960688740015030E-2   5.457984656095505E-2   5.968874692916870E-2   5.437890812754631E-2  -9.060223698616028E-1   4.182188212871552E-1  
 1.090000000000000E7    -3.090952038764954E-1   9.455830454826355E-1   6.319654732942581E-2   5.497137084603310E-2   6.318487226963043E-2   5.502954870462418E-2  -8.992549777030945E-1   4.310573935508728E-1  
 1.120000000000000E7    -2.739143967628479E-1   9.553003907203674E-1   6.732231378555298E-2   5.572297051548958E-2   6.669896841049194E-2   5.546885728836060E-2  -8.928163647651672E-1   4.433796405792236E-1  
 1.150000000000000E7    -2.392194569110870E-1   9.652764797210693E-1   7.085195928812027E-2   5.564576387405396E-2   7.065821439027786E-2   5.560588464140892E-2  -8.848817348480225E-1   4.537238776683807E-1  
 1.180000000000000E7    -2.049042880535126E-1   9.707700014114380E-1   7.442244887351990E-2   5.598011240363121E-2   7.473517954349518E-2   5.606109276413918E-2  -8.798094987869263E-1   4.656717479228973E-1  
 1.210000000000000E7    -1.710253953933716E-1   9.780431985855103E-1   7.904595136642456E-2   5.637903138995171E-2   7.887976616621018E-2   5.624761804938316E-2  -8.711516857147217E-1   4.790613353252411E-1  
 1.240000000000000E7    -1.359219253063202E-1   9.822684526443481E-1   8.314611762762070E-2   5.639911442995071E-2   8.315085619688034E-2   5.605164915323257E-2  -8.637744188308716E-1   4.902725517749786E-1  
 1.270000000000000E7    -1.009306907653809E-1   9.858540296554565E-1   8.784903585910797E-2   5.588869377970696E-2   8.765620738267899E-2   5.552151799201965E-2  -8.555448055267334E-1   5.055150985717773E-1  
 1.300000000000000E7    -6.610161066055298E-2   9.891092181205750E-1   9.223201870918274E-2   5.560924857854843E-2   9.231998771429062E-2   5.560550838708878E-2  -8.473252654075623E-1   5.175165534019470E-1  
 1.330000000000000E7    -2.987010776996613E-2   9.913262128829956E-1   9.734739363193512E-2   5.498857796192169E-2   9.706746786832809E-2   5.471870675683022E-2  -8.381136655807495E-1   5.306217670440674E-1  
 1.360000000000000E7     6.222568452358246E-3   9.912756681442261E-1   1.020556837320328E-1   5.468423664569855E-2   1.023254841566086E-1   5.417827516794205E-2  -8.299968838691711E-1   5.420762896537781E-1  
 1.390000000000000E7     4.078571498394013E-2   9.895626306533814E-1   1.072393059730530E-1   5.352324619889259E-2   1.071285232901573E-1   5.384747311472893E-2  -8.208726048469544E-1   5.555243492126465E-1  
 1.420000000000000E7     7.719009369611740E-2   9.872673153877258E-1   1.122229695320129E-1   5.287220701575279E-2   1.122088432312012E-1   5.273151770234108E-2  -8.128367066383362E-1   5.674791932106018E-1  
 1.450000000000000E7     1.124615296721458E-1   9.816638231277466E-1   1.177672594785690E-1   5.132987722754479E-2   1.179572269320488E-1   5.121395364403725E-2  -8.002147078514099E-1   5.819932818412781E-1  
 1.480000000000000E7     1.495610475540161E-1   9.768756031990051E-1   1.235600262880325E-1   4.963275045156479E-2   1.237049996852875E-1   5.015845224261284E-2  -7.909648418426514E-1   5.947697758674622E-1  
 1.510000000000000E7     1.839221268892288E-1   9.697203636169434E-1   1.292315423488617E-1   4.809167981147766E-2   1.291112452745438E-1   4.813077300786972E-2  -7.776729464530945E-1   6.077895164489746E-1  
 1.540000000000000E7     2.186576575040817E-1   9.620500802993774E-1   1.351013332605362E-1   4.697407409548760E-2   1.353319138288498E-1   4.650199785828590E-2  -7.692912220954895E-1   6.207538843154907E-1  
 1.570000000000000E7     2.544471919536591E-1   9.535731077194214E-1   1.414981633424759E-1   4.438023269176483E-2   1.416817605495453E-1   4.421019554138184E-2  -7.555425763130188E-1   6.353162527084351E-1  
 1.600000000000000E7     2.899817228317261E-1   9.416500329971314E-1   1.476835310459137E-1   4.160868376493454E-2   1.483402401208878E-1   4.159113392233849E-2  -7.436228394508362E-1   6.469369530677795E-1  
 1.630000000000000E7     3.238526880741119E-1   9.292384982109070E-1   1.550803482532501E-1   3.860796242952347E-2   1.548056304454804E-1   3.896565362811089E-2  -7.292383313179016E-1   6.622182130813599E-1  
 1.660000000000000E7     3.581950962543488E-1   9.146391153335571E-1   1.620705872774124E-1   3.539114817976952E-2   1.618708521127701E-1   3.510066121816635E-2  -7.140187025070190E-1   6.759334206581116E-1  
 1.690000000000000E7     3.915371894836426E-1   8.995699882507324E-1   1.691277474164963E-1   3.226126357913017E-2   1.692415177822113E-1   3.214500844478607E-2  -7.001171112060547E-1   6.890712380409241E-1  
 1.720000000000000E7     4.271349608898163E-1   8.837458491325378E-1   1.759934723377228E-1   2.753472141921520E-2   1.763326078653336E-1   2.800549194216728E-2  -6.844111084938049E-1   7.023297548294067E-1  
 1.750000000000000E7     4.554508030414581E-1   8.677704930305481E-1   1.846787631511688E-1   2.437366172671318E-2   1.848834455013275E-1   2.394297719001770E-2  -6.678392291069031E-1   7.183191180229187E-1  
 1.780000000000000E7     4.903784394264221E-1   8.451266288757324E-1   1.916501969099045E-1   1.874429732561112E-2   1.922721415758133E-1   1.916577108204365E-2  -6.500566601753235E-1   7.295509576797485E-1  
 1.810000000000000E7     5.205492377281189E-1   8.258849382400513E-1   2.011576741933823E-1   1.361421309411526E-2   2.002787739038467E-1   1.297506503760815E-2  -6.309686899185181E-1   7.468272447586060E-1  
 1.840000000000000E7     5.526949763298035E-1   8.035876750946045E-1   2.098343819379807E-1   6.485089659690857E-3   2.091241776943207E-1   6.761046126484871E-3  -6.103655099868774E-1   7.601425647735596E-1  
 1.870000000000000E7     5.808470845222473E-1   7.802852392196655E-1   2.185298502445221E-1   5.978681147098541E-4   2.178963571786881E-1  -1.012478023767471E-4  -5.889263749122620E-1   7.739247679710388E-1  
 1.900000000000000E7     6.101135611534119E-1   7.558927536010742E-1   2.276506423950195E-1  -6.825037300586700E-3   2.273845523595810E-1  -7.596697658300400E-3  -5.659368038177490E-1   7.877628803253174E-1  
 1.930000000000000E7     6.384190917015076E-1   7.284957170486450E-1   2.367369681596756E-1  -1.648276299238205E-2   2.373590618371964E-1  -1.566188782453537E-2  -5.416248440742493E-1   8.027338385581970E-1  
 1.960000000000000E7     6.656678318977356E-1   6.998777985572815E-1   2.463492304086685E-1  -2.554832957684994E-2   2.469274699687958E-1  -2.507168427109718E-2  -5.171622633934021E-1   8.162130117416382E-1  
 1.990000000000000E7     6.898268461227417E-1   6.706603765487671E-1   2.565635144710541E-1  -3.616204485297203E-2   2.572486102581024E-1  -3.612868115305901E-2  -4.865662753582001E-1   8.309088945388794E-1  
 2.020000000000000E7     7.142964601516724E-1   6.393984556198120E-1   2.673261761665344E-1  -4.771342128515244E-2   2.670421898365021E-1  -4.747953265905380E-2  -4.576773941516876E-1   8.420183658599854E-1  
 2.050000000000000E7     7.388564944267273E-1   6.067599058151245E-1   2.781046926975250E-1  -6.018581986427307E-2   2.766010165214539E-1  -6.071265041828156E-2  -4.252141118049622E-1   8.548758029937744E-1  
 2.080000000000000E7     7.592269182205200E-1   5.717363357543945E-1   2.891452610492706E-1  -7.530258595943451E-2   2.894332408905029E-1  -7.527984678745270E-2  -3.890459537506104E-1   8.687942624092102E-1  
 2.110000000000000E7     7.795945405960083E-1   5.369188785552979E-1   3.004322052001953E-1  -9.270969033241272E-2   3.005304634571075E-1  -9.258101135492325E-2  -3.496442437171936E-1   8.788650035858154E-1  
 2.140000000000000E7     7.969684600830078E-1   5.005333423614502E-1   3.115425407886505E-1  -1.118988618254662E-1   3.108206987380981E-1  -1.106870025396347E-1  -3.079983294010162E-1   8.887775540351868E-1  
 2.170000000000000E7     8.108879327774048E-1   4.637189507484436E-1   3.226278722286224E-1  -1.319675296545029E-1   3.228601217269898E-1  -1.313076317310333E-1  -2.618379294872284E-1   8.968183994293213E-1  
 2.200000000000000E7     8.254037499427795E-1   4.225013554096222E-1   3.329340517520905E-1  -1.560347229242325E-1   3.332195580005646E-1  -1.558305621147156E-1  -2.104185223579407E-1   9.010302424430847E-1  
 2.230000000000000E7     8.345207571983337E-1   3.820139765739441E-1   3.429655730724335E-1  -1.827470362186432E-1   3.429073989391327E-1  -1.821317672729492E-1  -1.562488675117493E-1   9.031419754028320E-1  
 2.260000000000000E7     8.423492908477783E-1   3.399426043033600E-1   3.517479598522186E-1  -2.131146639585495E-1   3.539161384105682E-1  -2.134850770235062E-1  -9.605576843023300E-2   9.010097384452820E-1  
 2.290000000000000E7     8.459599614143372E-1   2.973286509513855E-1   3.595121502876282E-1  -2.473324835300446E-1   3.606717884540558E-1  -2.468717098236084E-1  -2.915193885564804E-2   8.927797079086304E-1  
 2.320000000000000E7     8.444167375564575E-1   2.550713419914246E-1   3.642130494117737E-1  -2.872269749641419E-1   3.635911345481873E-1  -2.878013253211975E-1   4.290709272027016E-2   8.796555995941162E-1  
 2.350000000000000E7     8.394864201545715E-1   2.111024856567383E-1   3.647309541702271E-1  -3.323459923267365E-1   3.650473654270172E-1  -3.312264978885651E-1   1.202540546655655E-1   8.553261756896973E-1  
 2.380000000000000E7     8.294805288314819E-1   1.690333634614945E-1   3.617322742938995E-1  -3.800450265407562E-1   3.617958426475525E-1  -3.804942667484283E-1   2.035371959209442E-1   8.193802833557129E-1  
 2.410000000000000E7     8.151154518127441E-1   1.281526386737824E-1   3.506802916526794E-1  -4.354338645935059E-1   3.498024940490723E-1  -4.347853958606720E-1   2.901194393634796E-1   7.677068710327148E-1  
 2.440000000000000E7     7.935891151428223E-1   9.240514039993286E-2   3.296878933906555E-1  -4.949677884578705E-1   3.300438821315765E-1  -4.961754381656647E-1   3.779456913471222E-1   6.979561448097229E-1  
 2.470000000000000E7     7.677977085113525E-1   6.046601384878159E-2   2.967931926250458E-1  -5.576612949371338E-1   2.987606525421143E-1  -5.566170215606690E-1   4.652206301689148E-1   6.053188443183899E-1  
 2.500000000000000E7     7.369519472122192E-1   3.325547277927399E-2   2.507874965667725E-1  -6.208078265190125E-1   2.494846731424332E-1  -6.222521066665649E-1   5.425603389739990E-1   4.879693388938904E-1  
 2.530000000000000E7     7.010474801063538E-1   1.790865138173103E-2   1.862277537584305E-1  -6.832642555236816E-1   1.869188845157623E-1  -6.813159584999085E-1   6.022943258285523E-1   3.431553840637207E-1  
 2.560000000000000E7     6.668748259544373E-1   1.252090651541948E-2   1.054763644933701E-1  -7.333979010581970E-1   1.049981638789177E-1  -7.330580949783325E-1   6.343148350715637E-1   1.750857681035996E-1  
 2.590000000000000E7     6.380046606063843E-1   2.058570832014084E-2   4.471484571695328E-3  -7.640566825866699E-1   3.080241382122040E-3  -7.655742764472961E-1   6.278371214866638E-1  -8.479401469230652E-3  
 2.620000000000000E7     6.166076660156250E-1   3.759798035025597E-2  -1.077867820858955E-1  -7.741841077804565E-1  -1.066820472478867E-1  -7.737143039703369E-1   5.734562277793884E-1  -1.963880509138107E-1  
 2.650000000000000E7     6.058639883995056E-1   6.161618977785111E-2  -2.187999486923218E-1  -7.560228705406189E-1  -2.199845463037491E-1  -7.568116188049316E-1   4.705525934696198E-1  -3.689721822738648E-1  
 2.680000000000000E7     6.110211014747620E-1   8.696638792753220E-2  -3.238493502140045E-1  -7.096354365348816E-1  -3.244947493076325E-1  -7.116782665252686E-1   3.276256322860718E-1  -5.091062188148499E-1  
 2.710000000000000E7     6.306568384170532E-1   1.051392704248428E-1  -4.115821123123169E-1  -6.429708600044251E-1  -4.136868119239807E-1  -6.414895057678223E-1   1.615054607391357E-1  -6.085368394851685E-1  
 2.740000000000000E7     6.599451899528503E-1   1.192161366343498E-1  -4.786306917667389E-1  -5.594079494476318E-1  -4.797427356243134E-1  -5.613431930541992E-1  -1.855207607150078E-2  -6.596119403839111E-1  
 2.770000000000000E7     6.954215168952942E-1   1.192425042390823E-1  -5.201435089111328E-1  -4.722387790679932E-1  -5.228980779647827E-1  -4.743691384792328E-1  -1.889256238937378E-1  -6.704862117767334E-1  
 2.800000000000000E7     7.327155470848084E-1   1.095667704939842E-1  -5.429778695106506E-1  -3.853608667850494E-1  -5.421383976936340E-1  -3.888013958930969E-1  -3.457772731781006E-1  -6.466427445411682E-1  
 2.830000000000000E7     7.679799795150757E-1   8.805066347122192E-2  -5.484670996665955E-1  -3.057436943054199E-1  -5.489246845245361E-1  -3.056523203849793E-1  -4.786724746227264E-1  -5.999389290809631E-1  
 2.860000000000000E7     8.009772896766663E-1   5.836506932973862E-2  -5.407741665840149E-1  -2.344333529472351E-1  -5.414835214614868E-1  -2.354720979928970E-1  -5.898278951644898E-1  -5.385315418243408E-1  
 2.890000000000000E7     8.284612298011780E-1   2.319680713117123E-2  -5.251472592353821E-1  -1.734949052333832E-1  -5.244171619415283E-1  -1.731372326612473E-1  -6.794953346252441E-1  -4.671437442302704E-1  
 2.920000000000000E7     8.519561290740967E-1  -1.593108475208283E-2  -5.031706094741821E-1  -1.201782375574112E-1  -5.032406449317932E-1  -1.195934265851975E-1  -7.520150542259216E-1  -3.940996527671814E-1  
 2.950000000000000E7     8.692585825920105E-1  -5.877826735377312E-2  -4.791171848773956E-1  -7.739962637424469E-2  -4.788622558116913E-1  -7.729157060384750E-2  -8.065178990364075E-1  -3.214692473411560E-1  
 2.980000000000000E7     8.811142444610596E-1  -1.034828573465347E-1  -4.527640938758850E-1  -3.981735184788704E-2  -4.536716043949127E-1  -4.032011330127716E-2  -8.486449122428894E-1  -2.506988346576691E-1  
 3.010000000000000E7     8.886141180992127E-1  -1.504819989204407E-1  -4.274689853191376E-1  -9.114027023315430E-3  -4.266451895236969E-1  -1.034310366958380E-2  -8.800839185714722E-1  -1.837955415248871E-1  
 3.040000000000000E7     8.925076127052307E-1  -1.979430615901947E-1  -4.004342555999756E-1   1.570070721209049E-2  -4.023051857948303E-1   1.583392918109894E-2  -9.034051299095154E-1  -1.201236620545387E-1  
 3.070000000000000E7     8.893917202949524E-1  -2.449420690536499E-1  -3.754622042179108E-1   3.775583952665329E-2  -3.756044805049896E-1   3.703388571739197E-2  -9.205279350280762E-1  -6.129905581474304E-2  
 3.100000000000000E7     8.842473626136780E-1  -2.920760214328766E-1  -3.514247238636017E-1   5.438724532723427E-2  -3.512979447841644E-1   5.423808470368385E-2  -9.315925836563110E-1  -7.068945094943047E-3  
 3.130000000000000E7     8.764089345932007E-1  -3.379532694816589E-1  -3.287804722785950E-1   6.856888532638550E-2  -3.289552628993988E-1   6.830654293298721E-2  -9.378833770751953E-1   4.466538131237030E-2  
 3.160000000000000E7     8.640269637107849E-1  -3.840173184871674E-1  -3.064983487129211E-1   7.939584553241730E-2  -3.072275817394257E-1   7.986740767955780E-2  -9.411483407020569E-1   9.037460386753082E-2  
 3.190000000000000E7     8.488170504570007E-1  -4.281765818595886E-1  -2.859545052051544E-1   8.921708911657333E-2  -2.858212888240814E-1   8.907534927129746E-2  -9.419030547142029E-1   1.347834318876267E-1  
 3.220000000000000E7     8.321405053138733E-1  -4.728405177593231E-1  -2.662425041198731E-1   9.670879691839218E-2  -2.663189470767975E-1   9.700320661067963E-2  -9.402893185615540E-1   1.748653799295425E-1  
 3.250000000000000E7     8.108499646186829E-1  -5.152041912078857E-1  -2.479157000780106E-1   1.023539006710053E-1  -2.482892721891403E-1   1.029241532087326E-1  -9.370204210281372E-1   2.128716558218002E-1  
 3.280000000000000E7     7.868336439132690E-1  -5.562527179718018E-1  -2.304031401872635E-1   1.063840910792351E-1  -2.303076386451721E-1   1.070198193192482E-1  -9.321591854095459E-1   2.487327903509140E-1  
 3.310000000000000E7     7.617271542549133E-1  -5.958542823791504E-1  -2.139440774917603E-1   1.108937561511993E-1  -2.143440246582031E-1   1.109853535890579E-1  -9.266623258590698E-1   2.821869254112244E-1  
 3.340000000000000E7     7.338617444038391E-1  -6.356824040412903E-1  -1.989870518445969E-1   1.138926520943642E-1  -1.984232515096664E-1   1.136636510491371E-1  -9.186361432075501E-1   3.141270577907562E-1  
 3.370000000000000E7     7.035002708435059E-1  -6.721165776252747E-1  -1.837831884622574E-1   1.151400953531265E-1  -1.843544542789459E-1   1.148608699440956E-1  -9.117454886436462E-1   3.428942263126373E-1  
 3.400000000000000E7     6.711236238479614E-1  -7.080037593841553E-1  -1.701600849628449E-1   1.160347387194634E-1  -1.703996509313583E-1   1.161694526672363E-1  -9.026623368263245E-1   3.701854348182678E-1  
 3.430000000000000E7     6.365102529525757E-1  -7.430115342140198E-1  -1.571713984012604E-1   1.168618351221085E-1  -1.569589823484421E-1   1.163423880934715E-1  -8.943903446197510E-1   3.961155712604523E-1  
 3.460000000000000E7     5.989237427711487E-1  -7.753719687461853E-1  -1.446958929300308E-1   1.164084076881409E-1  -1.449286192655563E-1   1.163006797432900E-1  -8.863362073898315E-1   4.205663800239563E-1  
 3.490000000000000E7     5.600715875625610E-1  -8.056809902191162E-1  -1.331881433725357E-1   1.159988120198250E-1  -1.325499713420868E-1   1.149745285511017E-1  -8.750826716423035E-1   4.426583647727966E-1  
 3.520000000000000E7     5.194134712219238E-1  -8.349782228469849E-1  -1.217107996344566E-1   1.143467947840691E-1  -1.219842359423637E-1   1.137865334749222E-1  -8.668616414070129E-1   4.657644033432007E-1  
 3.550000000000000E7     4.761270582675934E-1  -8.610983490943909E-1  -1.114935949444771E-1   1.119626462459564E-1  -1.114254966378212E-1   1.120804250240326E-1  -8.570765256881714E-1   4.857008457183838E-1  
 3.580000000000000E7     4.313746988773346E-1  -8.860800266265869E-1  -1.011084169149399E-1   1.099618673324585E-1  -1.012843474745750E-1   1.099742650985718E-1  -8.461914062500000E-1   5.063275098800659E-1  
 3.610000000000000E7     3.842929005622864E-1  -9.080826640129089E-1  -9.212675690650940E-2   1.077383682131767E-1  -9.180856496095657E-2   1.074668690562248E-1  -8.373650312423706E-1   5.268623232841492E-1  
 3.640000000000000E7     3.360441327095032E-1  -9.286969304084778E-1  -8.305951952934265E-2   1.044022813439369E-1  -8.325839042663574E-2   1.046055182814598E-1  -8.262242078781128E-1   5.433169007301331E-1  
 3.670000000000000E7     2.874842286109924E-1  -9.462264180183411E-1  -7.477483153343201E-2   1.012161672115326E-1  -7.437877357006073E-2   1.011178493499756E-1  -8.164544105529785E-1   5.605210065841675E-1  
 3.700000000000000E7     2.344621121883392E-1  -9.615411758422852E-1  -6.642841547727585E-2   9.778043627738953E-2  -6.656485795974731E-2   9.782405197620392E-2  -8.050981163978577E-1   5.788083672523499E-1  
 3.730000000000000E7     1.816141605377197E-1  -9.738110303878784E-1  -5.843878537416458E-2   9.366486221551895E-2  -5.870188772678375E-2   9.386834502220154E-2  -7.933365106582642E-1   5.930145382881165E-1  
 3.760000000000000E7     1.280557215213776E-1  -9.829601049423218E-1  -5.160664767026901E-2   8.989163488149643E-2  -5.175483971834183E-2   8.987171947956085E-2  -7.837098240852356E-1   6.101797819137573E-1  
 3.790000000000000E7     7.272946834564209E-2  -9.895810484886169E-1  -4.520167410373688E-2   8.528095483779907E-2  -4.481898620724678E-2   8.523059636354446E-2  -7.725248932838440E-1   6.245020627975464E-1  
 3.820000000000000E7     1.383175700902939E-2  -9.928335547447205E-1  -3.889243677258492E-2   8.080592006444931E-2  -3.866624832153320E-2   8.079205453395844E-2  -7.615095376968384E-1   6.376396417617798E-1  
 3.850000000000000E7    -4.422607272863388E-2  -9.913712143898010E-1  -3.301525488495827E-2   7.561217248439789E-2  -3.275620564818382E-2   7.562309503555298E-2  -7.521646618843079E-1   6.517508029937744E-1  
 3.880000000000000E7    -1.027523204684258E-1  -9.870925545692444E-1  -2.739158645272255E-2   7.067111134529114E-2  -2.763266675174236E-2   7.025221735239029E-2  -7.409082651138306E-1   6.655585169792175E-1  
 3.910000000000000E7    -1.642183661460877E-1  -9.798760414123535E-1  -2.237658388912678E-2   6.502477079629898E-2  -2.242039516568184E-2   6.506761908531189E-2  -7.304955124855042E-1   6.795664429664612E-1  
 3.940000000000000E7    -2.236915826797485E-1  -9.676037430763245E-1  -1.804715581238270E-2   5.932195857167244E-2  -1.799035072326660E-2   5.926854163408279E-2  -7.182731032371521E-1   6.905239820480347E-1  
 3.970000000000000E7    -2.852406501770020E-1  -9.537424445152283E-1  -1.399464812129736E-2   5.337750539183617E-2  -1.395566388964653E-2   5.337091535329819E-2  -7.064943909645081E-1   7.016155719757080E-1  
 4.000000000000000E7    -3.464897572994232E-1  -9.314249753952026E-1  -1.038380805402994E-2   4.721149802207947E-2  -1.031574420630932E-2   4.729984700679779E-2  -6.963937282562256E-1   7.140810489654541E-1  
 4.030000000000000E7    -4.077921509742737E-1  -9.074762463569641E-1  -7.335715927183628E-3   4.098156839609146E-2  -7.238619029521942E-3   4.070856794714928E-2  -6.855595707893372E-1   7.250517606735230E-1  
 4.060000000000000E7    -4.683931469917297E-1  -8.780682682991028E-1  -4.768280312418938E-3   3.423880040645599E-2  -4.699452314525843E-3   3.426467999815941E-2  -6.735736131668091E-1   7.355971932411194E-1  
 4.090000000000000E7    -5.283520221710205E-1  -8.429952263832092E-1  -2.694241469725967E-3   2.738528698682785E-2  -2.727565122768283E-3   2.738915011286736E-2  -6.630855202674866E-1   7.450535297393799E-1  
 4.120000000000000E7    -5.879789590835571E-1  -8.032598495483398E-1  -1.297835493460298E-3   2.051066234707832E-2  -1.249418244697154E-3   2.064079791307449E-2  -6.507162451744080E-1   7.558881640434265E-1  
 4.150000000000000E7    -6.452937722206116E-1  -7.575016021728516E-1  -3.711498866323382E-4   1.344346348196268E-2  -3.634481690824032E-4   1.344637852162123E-2  -6.389843225479126E-1   7.656431794166565E-1  
 4.180000000000000E7    -7.005757093429565E-1  -7.058785557746887E-1  -9.066926577361301E-5   6.181071046739817E-3  -1.019016781356186E-5   6.178730167448521E-3  -6.291727423667908E-1   7.746201753616333E-1  
 4.210000000000000E7    -7.536651492118835E-1  -6.496253609657288E-1  -5.625539342872798E-4  -1.103155547752976E-3  -5.859779776073992E-4  -1.060582813806832E-3  -6.169016361236572E-1   7.841632366180420E-1  
 4.240000000000000E7    -8.022255897521973E-1  -5.871462225914002E-1  -1.653062179684639E-3  -8.411354385316372E-3  -1.741131301969290E-3  -8.455477654933929E-3  -6.064251065254211E-1   7.934365868568420E-1  
 4.270000000000000E7    -8.482639789581299E-1  -5.171606540679932E-1  -3.626300953328610E-3  -1.581382006406784E-2  -3.653216874226928E-3  -1.571593806147575E-2  -5.940333008766174E-1   8.027415871620178E-1  
 4.300000000000000E7    -8.881328105926514E-1  -4.417307972908020E-1  -6.233187858015299E-3  -2.308744750916958E-2  -6.269047968089581E-3  -2.308441884815693E-2  -5.823035240173340E-1   8.115206956863403E-1  
 4.330000000000000E7    -9.257197976112366E-1  -3.633193373680115E-1  -9.678589180111885E-3  -3.021550551056862E-2  -9.716303087770939E-3  -3.036079555749893E-2  -5.708576440811157E-1   8.184404373168945E-1  
 4.360000000000000E7    -9.529080390930176E-1  -2.775418162345886E-1  -1.391000766307116E-2  -3.728115558624268E-2  -1.394232176244259E-2  -3.728939220309258E-2  -5.595935583114624E-1   8.265401721000671E-1  
 4.390000000000000E7    -9.737789034843445E-1  -1.845401525497437E-1  -1.923622190952301E-2  -4.388000071048737E-2  -1.940952241420746E-2  -4.381127655506134E-2  -5.473049879074097E-1   8.325291872024536E-1  
 4.420000000000000E7    -9.869618415832520E-1  -8.951029181480408E-2  -2.536225505173206E-2  -5.018739402294159E-2  -2.529680915176868E-2  -5.006817355751991E-2  -5.348448157310486E-1   8.395168185234070E-1  
 4.450000000000000E7    -9.897397756576538E-1   1.119469106197357E-2  -3.224715217947960E-2  -5.597861856222153E-2  -3.236749023199081E-2  -5.607680231332779E-2  -5.245397686958313E-1   8.467559814453125E-1  
 4.480000000000000E7    -9.818207025527954E-1   1.145414113998413E-1  -4.001874104142189E-2  -6.112086400389671E-2  -4.016005992889404E-2  -6.115378811955452E-2  -5.126698017120361E-1   8.525532484054565E-1  
 4.510000000000000E7    -9.630838036537170E-1   2.197343409061432E-1  -4.882461577653885E-2  -6.551741063594818E-2  -4.886502027511597E-2  -6.541910767555237E-2  -5.011656880378723E-1   8.593792915344238E-1  
 4.540000000000000E7    -9.319539666175842E-1   3.241488933563232E-1  -5.850908532738686E-2  -6.884997338056564E-2  -5.844301730394363E-2  -6.916201114654541E-2  -4.891637861728668E-1   8.655794858932495E-1  
 4.570000000000000E7    -8.877974152565002E-1   4.290286898612976E-1  -6.879701465368271E-2  -7.117873430252075E-2  -6.888253986835480E-2  -7.117179781198502E-2  -4.773535132408142E-1   8.710645437240601E-1  
 4.600000000000000E7    -8.315455913543701E-1   5.301278829574585E-1  -7.924573123455048E-2  -7.278203964233398E-2  -7.946524024009705E-2  -7.222872972488403E-2  -4.664488434791565E-1   8.759047985076904E-1  
 4.630000000000000E7    -7.583861351013184E-1   6.252868175506592E-1  -9.054698050022125E-2  -7.236442714929581E-2  -9.056699275970459E-2  -7.208952307701111E-2  -4.552513360977173E-1   8.806374073028565E-1  
 4.660000000000000E7    -6.728340983390808E-1   7.144008874893189E-1  -1.024296060204506E-1  -7.050982117652893E-2  -1.022984981536865E-1  -7.036314904689789E-2  -4.419934749603272E-1   8.858514428138733E-1  
 4.690000000000000E7    -5.765788555145264E-1   7.935257554054260E-1  -1.138374730944634E-1  -6.774374097585678E-2  -1.143454760313034E-1  -6.741526722908020E-2  -4.311528205871582E-1   8.907255530357361E-1  
 4.720000000000000E7    -4.677374064922333E-1   8.608242273330689E-1  -1.252456307411194E-1  -6.270330399274826E-2  -1.252566725015640E-1  -6.271467357873917E-2  -4.193602204322815E-1   8.940099477767944E-1  
 4.750000000000000E7    -3.490747809410095E-1   9.141262769699097E-1  -1.365596652030945E-1  -5.622855573892593E-2  -1.367425173521042E-1  -5.667848512530327E-2  -4.083571434020996E-1   8.986847400665283E-1  
 4.780000000000000E7    -2.237904667854309E-1   9.521805644035339E-1  -1.469995379447937E-1  -4.798300564289093E-2  -1.465223878622055E-1  -4.842691123485565E-2  -3.967335820198059E-1   9.011594653129578E-1  
 4.810000000000000E7    -9.251831471920013E-2   9.711209535598755E-1  -1.559499502182007E-1  -3.929566964507103E-2  -1.559719592332840E-1  -3.908687084913254E-2  -3.870918452739716E-1   9.051109552383423E-1  
 4.840000000000000E7     4.036148637533188E-2   9.729496836662293E-1  -1.643020659685135E-1  -2.874829992651939E-2  -1.640496850013733E-1  -2.862334623932838E-2  -3.762481212615967E-1   9.089678525924683E-1  
 4.870000000000000E7     1.708587408065796E-1   9.590293169021606E-1  -1.715508699417114E-1  -1.711478829383850E-2  -1.709623634815216E-1  -1.750597544014454E-2  -3.655208349227905E-1   9.120130538940430E-1  
 4.900000000000000E7     2.981970608234406E-1   9.256167411804199E-1  -1.766960173845291E-1  -4.843193572014570E-3  -1.766612976789475E-1  -4.905342590063810E-3  -3.555143177509308E-1   9.147508740425110E-1  
 4.930000000000000E7     4.188233017921448E-1   8.768841028213501E-1  -1.802459657192230E-1   7.968920283019543E-3  -1.802551299333572E-1   8.372676558792591E-3  -3.443879187107086E-1   9.186218976974487E-1  
 4.960000000000000E7     5.324741601943970E-1   8.143609166145325E-1  -1.829465627670288E-1   2.145562320947647E-2  -1.828057020902634E-1   2.111966907978058E-2  -3.345139324665070E-1   9.214360117912293E-1  
 4.990000000000000E7     6.334338784217835E-1   7.376391291618347E-1  -1.835357099771500E-1   3.480900079011917E-2  -1.834637075662613E-1   3.478100150823593E-2  -3.248203992843628E-1   9.240784049034119E-1  
 5.020000000000000E7     7.224938869476318E-1   6.488468050956726E-1  -1.822658628225327E-1   4.793152958154678E-2  -1.821006983518601E-1   4.768342152237892E-2  -3.149120211601257E-1   9.273630976676941E-1  
 5.050000000000000E7     7.980942130088806E-1   5.538370609283447E-1  -1.801607608795166E-1   6.056302413344383E-2  -1.803336590528488E-1   6.041741743683815E-2  -3.052360415458679E-1   9.315157532691956E-1  
 5.080000000000000E7     8.606374263763428E-1   4.508866071701050E-1  -1.763631105422974E-1   7.261724770069122E-2  -1.757919043302536E-1   7.261461764574051E-2  -2.945813536643982E-1   9.322654604911804E-1  
 5.110000000000000E7     9.073086977005005E-1   3.461849987506867E-1  -1.713430583477020E-1   8.388284593820572E-2  -1.717349588871002E-1   8.384379744529724E-2  -2.855802774429321E-1   9.364241361618042E-1  
 5.140000000000000E7     9.433920979499817E-1   2.386299967765808E-1  -1.660232543945313E-1   9.451399743556976E-2  -1.659951359033585E-1   9.481932967901230E-2  -2.745525836944580E-1   9.412325620651245E-1  
 5.170000000000000E7     9.635145664215088E-1   1.310586929321289E-1  -1.586492061614990E-1   1.043326407670975E-1  -1.590440869331360E-1   1.045608595013619E-1  -2.646448016166687E-1   9.419398307800293E-1  
 5.200000000000000E7     9.723017811775208E-1   2.492007613182068E-2  -1.514251679182053E-1   1.127936840057373E-1  -1.515040397644043E-1   1.122873127460480E-1  -2.545358538627625E-1   9.441514015197754E-1  
 5.230000000000000E7     9.711689352989197E-1  -7.688536494970322E-2  -1.441627591848373E-1   1.204061806201935E-1  -1.441775709390640E-1   1.208426654338837E-1  -2.450691163539887E-1   9.479200839996338E-1  
 5.260000000000000E7     9.582060575485230E-1  -1.758764982223511E-1  -1.357965767383575E-1   1.276910603046417E-1  -1.359021365642548E-1   1.274044662714005E-1  -2.348166257143021E-1   9.512942433357239E-1  
 5.290000000000000E7     9.378381371498108E-1  -2.687138319015503E-1  -1.272434145212174E-1   1.331089138984680E-1  -1.273311078548431E-1   1.333412975072861E-1  -2.250379323959351E-1   9.533697962760925E-1  
 5.320000000000000E7     9.081752896308899E-1  -3.565724790096283E-1  -1.190998405218124E-1   1.380701661109924E-1  -1.192181557416916E-1   1.384746134281158E-1  -2.145519554615021E-1   9.566200375556946E-1  
 5.350000000000000E7     8.715851306915283E-1  -4.390798807144165E-1  -1.105688139796257E-1   1.423843950033188E-1  -1.107623279094696E-1   1.427939832210541E-1  -2.054559141397476E-1   9.595234394073486E-1  
 5.380000000000000E7     8.291996121406555E-1  -5.158908367156982E-1  -1.018631160259247E-1   1.458504199981690E-1  -1.012491434812546E-1   1.459950208663940E-1  -1.934763491153717E-1   9.613392353057861E-1  
 5.410000000000000E7     7.841946482658386E-1  -5.854799747467041E-1  -9.365732222795487E-2   1.486828476190567E-1  -9.346305578947067E-2   1.490140110254288E-1  -1.835665553808212E-1   9.639568328857422E-1  
 5.440000000000000E7     7.321046590805054E-1  -6.496260762214661E-1  -8.503458648920059E-2   1.508277505636215E-1  -8.512750267982483E-2   1.508827656507492E-1  -1.735394150018692E-1   9.661135673522949E-1  
 5.470000000000000E7     6.783651709556580E-1  -7.058173418045044E-1  -7.658244669437408E-2   1.517760306596756E-1  -7.683326303958893E-2   1.522568464279175E-1  -1.621307581663132E-1   9.680451750755310E-1  
 5.500000000000000E7     6.219218969345093E-1  -7.577003836631775E-1  -6.907687336206436E-2   1.533885300159454E-1  -6.878062337636948E-2   1.532441377639771E-1  -1.509787887334824E-1   9.716210961341858E-1  
 5.530000000000000E7     5.624637007713318E-1  -8.028792142868042E-1  -6.156126037240028E-2   1.534763276576996E-1  -6.133869662880898E-2   1.536849439144135E-1  -1.408487856388092E-1   9.725952148437500E-1  
 5.560000000000000E7     5.021314024925232E-1  -8.433856964111328E-1  -5.370856449007988E-2   1.538354456424713E-1  -5.389419943094254E-2   1.533083021640778E-1  -1.310827434062958E-1   9.747895598411560E-1  
 5.590000000000000E7     4.412164986133575E-1  -8.774291872978210E-1  -4.660446941852570E-2   1.529602706432343E-1  -4.666963219642639E-2   1.533970236778259E-1  -1.191671714186668E-1   9.767730236053467E-1  
 5.620000000000000E7     3.787534832954407E-1  -9.064317941665649E-1  -3.992350399494171E-2   1.525161713361740E-1  -3.944834694266319E-2   1.520288437604904E-1  -1.092719510197640E-1   9.789634346961975E-1  
 5.650000000000000E7     3.174914121627808E-1  -9.309642910957336E-1  -3.323562443256378E-2   1.508636325597763E-1  -3.313226625323296E-2   1.508504748344421E-1  -9.805294126272202E-2   9.800047874450684E-1  
 5.680000000000000E7     2.559427618980408E-1  -9.501741528511047E-1  -2.688276022672653E-2   1.497481018304825E-1  -2.692146971821785E-2   1.497281491756439E-1  -8.676939457654953E-2   9.807855486869812E-1  
 5.710000000000000E7     1.931872963905335E-1  -9.651960730552673E-1  -2.059459686279297E-2   1.478220969438553E-1  -2.095004357397556E-2   1.483536064624786E-1  -7.595677673816681E-2   9.826751351356506E-1  
 5.740000000000000E7     1.324493587017059E-1  -9.766238927841187E-1  -1.493724808096886E-2   1.462173461914063E-1  -1.491832174360752E-2   1.461510062217712E-1  -6.438697129487991E-2   9.839199185371399E-1  
 5.770000000000000E7     7.283501327037811E-2  -9.821578264236450E-1  -9.637841954827309E-3   1.439515352249146E-1  -9.686790406703949E-3   1.435730606317520E-1  -5.480081588029862E-2   9.842920303344727E-1  
 5.800000000000000E7     1.289532147347927E-2  -9.856071472167969E-1  -4.197486210614443E-3   1.419941484928131E-1  -3.820796031504870E-3   1.418752968311310E-1  -4.197222739458084E-2   9.866262078285217E-1  
 5.830000000000000E7    -4.394721612334251E-2  -9.851210117340088E-1   6.117349257692695E-4   1.389971524477005E-1   6.976735312491655E-4   1.394731104373932E-1  -3.211579471826553E-2   9.873326420783997E-1  
 5.860000000000000E7    -1.002350747585297E-1  -9.829674363136292E-1   5.209850613027811E-3   1.366040706634522E-1   5.352794658392668E-3   1.368472874164581E-1  -2.047407440841198E-2   9.871956110000610E-1  
 5.890000000000000E7    -1.566174179315567E-1  -9.747185707092285E-1   9.945569559931755E-3   1.339164376258850E-1   9.411726146936417E-3   1.338641047477722E-1  -1.025128457695246E-2   9.876131415367127E-1  
 5.920000000000000E7    -2.106160819530487E-1  -9.659146070480347E-1   1.421259902417660E-2   1.312031894922257E-1   1.448482926934958E-2   1.313078254461289E-1   1.719216816127300E-3   9.889687895774841E-1  
 5.950000000000000E7    -2.621864378452301E-1  -9.526716470718384E-1   1.805600896477699E-2   1.280002743005753E-1   1.814136654138565E-2   1.280998587608337E-1   1.307161338627338E-2   9.873741269111633E-1  
 5.980000000000000E7    -3.132335245609283E-1  -9.381661415100098E-1   2.227971702814102E-2   1.251569986343384E-1   2.191466093063355E-2   1.251402944326401E-1   2.501076646149159E-2   9.880394935607910E-1  
 6.010000000000000E7    -3.607035875320435E-1  -9.190930128097534E-1   2.507927827537060E-2   1.223397925496101E-1   2.500381506979466E-2   1.219335794448853E-1   3.526305034756661E-2   9.887109994888306E-1  
 6.040000000000000E7    -4.093939363956451E-1  -9.002988934516907E-1   2.869405038654804E-2   1.191627308726311E-1   2.870140969753265E-2   1.192716509103775E-1   4.715696349740028E-2   9.890751242637634E-1  
 6.070000000000000E7    -4.531055688858032E-1  -8.802949190139771E-1   3.153142333030701E-2   1.161391958594322E-1   3.141469880938530E-2   1.160015612840653E-1   5.761452764272690E-2   9.879665970802307E-1  
 6.100000000000000E7    -4.964786469936371E-1  -8.557081222534180E-1   3.469457849860191E-2   1.126485317945480E-1   3.473675251007080E-2   1.127145662903786E-1   7.055291533470154E-2   9.876410365104675E-1  
 6.130000000000000E7    -5.393937230110169E-1  -8.309149146080017E-1   3.729601576924324E-2   1.097129061818123E-1   3.728353977203369E-2   1.096239760518074E-1   8.218827098608017E-2   9.876528382301331E-1  
 6.160000000000000E7    -5.786899328231812E-1  -8.036013841629028E-1   3.944429382681847E-2   1.061677262187004E-1   3.974285349249840E-2   1.062432751059532E-1   9.227178245782852E-2   9.854607582092285E-1  
 6.190000000000000E7    -6.167824268341065E-1  -7.746778726577759E-1   4.182181879878044E-2   1.030713319778442E-1   4.209550097584724E-2   1.028115674853325E-1   1.029213294386864E-1   9.843711853027344E-1  
 6.220000000000000E7    -6.523486971855164E-1  -7.450332045555115E-1   4.368612170219421E-2   9.947893023490906E-2   4.415684193372726E-2   9.991017729043961E-2   1.143882572650909E-1   9.849734306335449E-1  
 6.250000000000000E7    -6.875569820404053E-1  -7.138217687606812E-1   4.588383436203003E-2   9.654835611581802E-2   4.621500521898270E-2   9.654307365417481E-2   1.255937516689301E-1   9.837730526924133E-1  
 6.280000000000000E7    -7.192483544349670E-1  -6.810863018035889E-1   4.794865846633911E-2   9.331914782524109E-2   4.777073115110397E-2   9.329333156347275E-2   1.375463604927063E-1   9.824812412261963E-1  
 6.310000000000000E7    -7.512785196304321E-1  -6.466570496559143E-1   4.972501844167709E-2   9.015823900699616E-2   4.942999407649040E-2   8.997704088687897E-2   1.487881392240524E-1   9.810845255851746E-1  
 6.340000000000000E7    -7.795212864875794E-1  -6.121077537536621E-1   5.107354745268822E-2   8.688598126173019E-2   5.105154216289520E-2   8.668930828571320E-2   1.606596410274506E-1   9.795510768890381E-1  
 6.370000000000000E7    -8.061662316322327E-1  -5.770864486694336E-1   5.231687054038048E-2   8.356059342622757E-2   5.245607718825340E-2   8.352065831422806E-2   1.711804866790772E-1   9.773058891296387E-1  
 6.400000000000000E7    -8.312331438064575E-1  -5.400710701942444E-1   5.380026623606682E-2   8.027201890945435E-2   5.376668646931648E-2   8.012638241052628E-2   1.834360063076019E-1   9.758474230766296E-1  
 6.430000000000000E7    -8.548995256423950E-1  -5.023652911186218E-1   5.485220253467560E-2   7.739289104938507E-2   5.483048409223557E-2   7.701162248849869E-2   1.947207152843475E-1   9.737636446952820E-1  
 6.460000000000000E7    -8.762587308883667E-1  -4.656742811203003E-1   5.541783198714256E-2   7.410740107297897E-2   5.529285967350006E-2   7.403892278671265E-2   2.050775587558746E-1   9.711301326751709E-1  
 6.490000000000000E7    -8.955350518226624E-1  -4.280241131782532E-1   5.608490109443665E-2   7.085306942462921E-2   5.620038509368897E-2   7.115124911069870E-2   2.163433134555817E-1   9.696308374404907E-1  
 6.520000000000000E7    -9.130227565765381E-1  -3.891148269176483E-1   5.690183863043785E-2   6.804637610912323E-2   5.702678859233856E-2   6.783717125654221E-2   2.284588217735291E-1   9.680332541465759E-1  
 6.550000000000000E7    -9.285581707954407E-1  -3.505371510982513E-1   5.744560435414314E-2   6.492328643798828E-2   5.729744210839272E-2   6.482120603322983E-2   2.390758544206619E-1   9.632951617240906E-1  
 6.580000000000000E7    -9.429723620414734E-1  -3.103688955307007E-1   5.804523080587387E-2   6.175206974148750E-2   5.775646492838860E-2   6.180657446384430E-2   2.511145770549774E-1   9.621969461441040E-1  
 6.610000000000000E7    -9.547818899154663E-1  -2.689635753631592E-1   5.830341205000877E-2   5.881780385971069E-2   5.824938789010048E-2   5.845775455236435E-2   2.631622850894928E-1   9.574788808822632E-1  
 6.640000000000000E7    -9.663237929344177E-1  -2.311890125274658E-1   5.833862721920013E-2   5.599314346909523E-2   5.815561488270760E-2   5.608969181776047E-2   2.746340930461884E-1   9.549196958541870E-1  
 6.670000000000000E7    -9.747579693794251E-1  -1.897208690643311E-1   5.842952430248261E-2   5.298650264739990E-2   5.819021165370941E-2   5.310185626149178E-2   2.848613858222961E-1   9.527556300163269E-1  
 6.700000000000000E7    -9.815882444381714E-1  -1.493714004755020E-1   5.830031260848045E-2   5.030951276421547E-2   5.813108384609222E-2   5.010390654206276E-2   2.960772812366486E-1   9.483153820037842E-1  
 6.730000000000000E7    -9.872345924377441E-1  -1.093152463436127E-1   5.786087736487389E-2   4.755425453186035E-2   5.817146971821785E-2   4.725562408566475E-2   3.083749115467072E-1   9.462177157402039E-1  
 6.760000000000000E7    -9.906772375106812E-1  -6.989327818155289E-2   5.789600685238838E-2   4.464476183056831E-2   5.774465575814247E-2   4.468319565057755E-2   3.197138905525208E-1   9.420605897903442E-1  
 6.790000000000000E7    -9.931096434593201E-1  -2.920203655958176E-2   5.722918733954430E-2   4.218808189034462E-2   5.737707391381264E-2   4.200594127178192E-2   3.298976123332977E-1   9.374378919601440E-1  
 6.820000000000000E7    -9.933678507804871E-1   1.098506152629852E-2   5.683291330933571E-2   3.944026678800583E-2   5.670157447457314E-2   3.946396708488464E-2   3.411859571933746E-1   9.345259070396423E-1  
 6.850000000000000E7    -9.931585788726807E-1   5.077010393142700E-2   5.627628415822983E-2   3.712411597371101E-2   5.618887022137642E-2   3.697602078318596E-2   3.520801067352295E-1   9.307080507278442E-1  
 6.880000000000000E7    -9.899601340293884E-1   9.000515192747116E-2   5.562217533588409E-2   3.455702960491180E-2   5.553784593939781E-2   3.433512151241303E-2   3.639435172080994E-1   9.258424043655396E-1  
 6.910000000000000E7    -9.852641224861145E-1   1.292294859886169E-1   5.495411902666092E-2   3.209811449050903E-2   5.477324500679970E-2   3.211962059140205E-2   3.753607273101807E-1   9.216914772987366E-1  
 6.940000000000000E7    -9.804612398147583E-1   1.675541102886200E-1   5.396170541644096E-2   2.987718023359776E-2   5.399665236473084E-2   2.969186939299107E-2   3.858182430267334E-1   9.178593754768372E-1  
 6.970000000000000E7    -9.724682569503784E-1   2.070641815662384E-1   5.301713198423386E-2   2.758182585239410E-2   5.305894091725349E-2   2.745406702160835E-2   3.974139988422394E-1   9.122368693351746E-1  
 7.000000000000000E7    -9.641573429107666E-1   2.451151460409164E-1   5.201570689678192E-2   2.536767162382603E-2   5.206846073269844E-2   2.521930076181889E-2   4.082558453083038E-1   9.087237715721130E-1  
