#  HZ   S   RI   R     50.00 
! Rohde & Schwarz ZVT8 8Ports - Version 4.11 - 1300.0000k08 SN: 100242
! Date: 2026-07-31 14:19:05
! Measurements: S11 S21 S12 S22 
! 
 1.000000000000000E7    -4.044849872589111E-1   9.107716679573059E-1   5.380986630916596E-2   5.401587486267090E-2   5.351420491933823E-2   5.411697551608086E-2  -9.155771136283875E-1   3.928643167018890E-1  
 1.030000000000000E7    -3.724624514579773E-1   9.233567714691162E-1   5.735203251242638E-2   5.459353700280190E-2   5.720274895429611E-2   5.458903312683106E-2  -9.096270799636841E-1   4.062775373458862E-1  
 1.060000000000000E7    -3.364987969398499E-1   9.363536834716797E-1   6.108386069536209E-2   5.541788786649704E-2   6.123349443078041E-2   5.533553659915924E-2  -9.048887491226196E-1   4.189514517784119E-1  
 1.090000000000000E7    -3.046381771564484E-1   9.466848969459534E-1   6.476077437400818E-2   5.593068897724152E-2   6.475239992141724E-2   5.600390955805779E-2  -8.986527919769287E-1   4.312774538993835E-1  
 1.120000000000000E7    -2.689709663391113E-1   9.561389684677124E-1   6.891768425703049E-2   5.684779956936836E-2   6.840667873620987E-2   5.652011558413506E-2  -8.925315141677856E-1   4.439182281494141E-1  
 1.150000000000000E7    -2.339640110731125E-1   9.661000967025757E-1   7.276099920272827E-2   5.678133666515350E-2   7.252409309148789E-2   5.696227028965950E-2  -8.842040300369263E-1   4.544371366500855E-1  
 1.180000000000000E7    -1.990000307559967E-1   9.718229770660400E-1   7.674751430749893E-2   5.721105262637138E-2   7.673186063766480E-2   5.712567269802094E-2  -8.790258169174194E-1   4.666532874107361E-1  
 1.210000000000000E7    -1.643413156270981E-1   9.782403707504273E-1   8.145829290151596E-2   5.753134563565254E-2   8.140623569488525E-2   5.755219236016274E-2  -8.701760172843933E-1   4.801495373249054E-1  
 1.240000000000000E7    -1.287493705749512E-1   9.827004075050354E-1   8.580920100212097E-2   5.775303021073341E-2   8.593018352985382E-2   5.721939727663994E-2  -8.624560236930847E-1   4.910183846950531E-1  
 1.270000000000000E7    -9.303547441959381E-2   9.863582849502564E-1   9.090714156627655E-2   5.727223306894302E-2   9.071772545576096E-2   5.706288665533066E-2  -8.545618057250977E-1   5.065308809280396E-1  
 1.300000000000000E7    -5.796936154365540E-2   9.890421628952026E-1   9.574937820434570E-2   5.696564912796021E-2   9.552573412656784E-2   5.700019001960754E-2  -8.456400632858276E-1   5.184581875801086E-1  
 1.330000000000000E7    -2.109115198254585E-2   9.903436303138733E-1   1.010865718126297E-1   5.657143145799637E-2   1.010742262005806E-1   5.600651353597641E-2  -8.370521664619446E-1   5.318071842193604E-1  
 1.360000000000000E7     1.653309911489487E-2   9.902212619781494E-1   1.063482612371445E-1   5.615548416972160E-2   1.065935343503952E-1   5.542473495006561E-2  -8.284446597099304E-1   5.429030656814575E-1  
 1.390000000000000E7     5.125234648585320E-2   9.880917072296143E-1   1.120781451463699E-1   5.483865365386009E-2   1.117436215281487E-1   5.530776828527451E-2  -8.188780546188355E-1   5.565384626388550E-1  
 1.420000000000000E7     8.895556628704071E-2   9.856523871421814E-1   1.175239086151123E-1   5.425935983657837E-2   1.175032034516335E-1   5.402744188904762E-2  -8.107859492301941E-1   5.690438151359558E-1  
 1.450000000000000E7     1.250180453062058E-1   9.795284867286682E-1   1.235516667366028E-1   5.256816744804382E-2   1.235316097736359E-1   5.264675617218018E-2  -7.976737618446350E-1   5.833808183670044E-1  
 1.480000000000000E7     1.626832783222199E-1   9.740889072418213E-1   1.298916041851044E-1   5.108771473169327E-2   1.298718303442001E-1   5.149212107062340E-2  -7.885691523551941E-1   5.965344905853272E-1  
 1.510000000000000E7     1.984138935804367E-1   9.659701585769653E-1   1.361662298440933E-1   4.910260811448097E-2   1.361133456230164E-1   4.916986450552940E-2  -7.748404145240784E-1   6.101424098014832E-1  
 1.540000000000000E7     2.336624264717102E-1   9.568654894828796E-1   1.427390724420548E-1   4.810940101742744E-2   1.427229493856430E-1   4.750577360391617E-2  -7.663402557373047E-1   6.228501200675964E-1  
 1.570000000000000E7     2.708491981029511E-1   9.475425481796265E-1   1.498267203569412E-1   4.516360908746719E-2   1.500567942857742E-1   4.508676379919052E-2  -7.518735527992249E-1   6.373394131660461E-1  
 1.600000000000000E7     3.071861863136292E-1   9.342212080955505E-1   1.567902565002441E-1   4.239701852202416E-2   1.571261733770371E-1   4.212498292326927E-2  -7.394057512283325E-1   6.493264436721802E-1  
 1.630000000000000E7     3.418519198894501E-1   9.207055568695068E-1   1.649638265371323E-1   3.892676532268524E-2   1.646855920553207E-1   3.922002017498016E-2  -7.254397273063660E-1   6.647168993949890E-1  
 1.660000000000000E7     3.772921562194824E-1   9.049334526062012E-1   1.728856116533279E-1   3.540394082665443E-2   1.725375652313232E-1   3.487954288721085E-2  -7.092550396919251E-1   6.781715154647827E-1  
 1.690000000000000E7     4.113554656505585E-1   8.882429003715515E-1   1.811033487319946E-1   3.192163631320000E-2   1.809026151895523E-1   3.149307519197464E-2  -6.942392587661743E-1   6.914845108985901E-1  
 1.720000000000000E7     4.477598071098328E-1   8.699033856391907E-1   1.886629015207291E-1   2.656666189432144E-2   1.891547590494156E-1   2.688538655638695E-2  -6.781251430511475E-1   7.047407031059265E-1  
 1.750000000000000E7     4.773453176021576E-1   8.523928523063660E-1   1.985948085784912E-1   2.293661795556545E-2   1.987497359514237E-1   2.227691560983658E-2  -6.611313819885254E-1   7.203946113586426E-1  
 1.780000000000000E7     5.132695436477661E-1   8.271300792694092E-1   2.067794203758240E-1   1.630346290767193E-2   2.073628753423691E-1   1.670556329190731E-2  -6.426714658737183E-1   7.322511672973633E-1  
 1.810000000000000E7     5.443453788757324E-1   8.055914044380188E-1   2.178295403718948E-1   1.035637408494949E-2   2.165796756744385E-1   9.670190513134003E-3  -6.222501993179321E-1   7.496023774147034E-1  
 1.840000000000000E7     5.776085853576660E-1   7.807225584983826E-1   2.278247326612473E-1   1.824606209993362E-3   2.270567715167999E-1   2.404712140560150E-3  -6.005811095237732E-1   7.626181840896606E-1  
 1.870000000000000E7     6.063067317008972E-1   7.547107934951782E-1   2.377468645572662E-1  -5.220841616392136E-3   2.371134459972382E-1  -5.884608253836632E-3  -5.778501033782959E-1   7.761958837509155E-1  
 1.900000000000000E7     6.360905170440674E-1   7.267901897430420E-1   2.486731410026550E-1  -1.396637968719006E-2   2.484125345945358E-1  -1.461882330477238E-2  -5.538241863250732E-1   7.900508046150208E-1  
 1.930000000000000E7     6.647419333457947E-1   6.962239742279053E-1   2.593001127243042E-1  -2.535332739353180E-2   2.600876688957214E-1  -2.450115233659744E-2  -5.281082391738892E-1   8.049565553665161E-1  
 1.960000000000000E7     6.921178698539734E-1   6.633701324462891E-1   2.707089185714722E-1  -3.655502200126648E-2   2.713032364845276E-1  -3.605898097157478E-2  -5.017113089561462E-1   8.175359368324280E-1  
 1.990000000000000E7     7.161030173301697E-1   6.301766633987427E-1   2.827491462230682E-1  -4.950900003314018E-2   2.834137082099915E-1  -4.964468628168106E-2  -4.688611924648285E-1   8.320671319961548E-1  
 2.020000000000000E7     7.401258349418640E-1   5.943340659141541E-1   2.955152988433838E-1  -6.374204903841019E-2   2.949088513851166E-1  -6.344309449195862E-2  -4.381798505783081E-1   8.416610956192017E-1  
 2.050000000000000E7     7.641682028770447E-1   5.559691190719605E-1   3.080200850963593E-1  -7.972704619169235E-2   3.061091899871826E-1  -8.002996444702148E-2  -4.029055535793304E-1   8.536299467086792E-1  
 2.080000000000000E7     7.829977869987488E-1   5.158977508544922E-1   3.207423985004425E-1  -9.858362376689911E-2   3.209873437881470E-1  -9.863461554050446E-2  -3.636166155338287E-1   8.661447167396545E-1  
 2.110000000000000E7     8.013927340507507E-1   4.752467274665833E-1   3.337000012397766E-1  -1.207010149955750E-1   3.336705565452576E-1  -1.205330491065979E-1  -3.213712275028229E-1   8.739705681800842E-1  
 2.140000000000000E7     8.162305951118469E-1   4.327573180198669E-1   3.462320566177368E-1  -1.451225429773331E-1   3.454354405403137E-1  -1.434863954782486E-1  -2.765694856643677E-1   8.811602592468262E-1  
 2.170000000000000E7     8.272612094879150E-1   3.889908492565155E-1   3.586423397064209E-1  -1.713267564773560E-1   3.590087890625000E-1  -1.703826636075974E-1  -2.267188131809235E-1   8.855519294738770E-1  
 2.200000000000000E7     8.371192812919617E-1   3.407537937164307E-1   3.695096373558044E-1  -2.026108503341675E-1   3.697671890258789E-1  -2.021785378456116E-1  -1.710762977600098E-1   8.853992819786072E-1  
 2.230000000000000E7     8.403233289718628E-1   2.933678030967712E-1   3.795936703681946E-1  -2.373229265213013E-1   3.795160055160523E-1  -2.365064024925232E-1  -1.125931590795517E-1   8.817293643951416E-1  
 2.260000000000000E7     8.408008217811585E-1   2.443528473377228E-1   3.872011005878449E-1  -2.769105434417725E-1   3.891958296298981E-1  -2.778843641281128E-1  -4.815960675477982E-2   8.715683221817017E-1  
 2.290000000000000E7     8.354722857475281E-1   1.945227384567261E-1   3.923998475074768E-1  -3.218433260917664E-1   3.935391008853912E-1  -3.216452002525330E-1   2.265725284814835E-2   8.539286851882935E-1  
 2.320000000000000E7     8.232618570327759E-1   1.464128494262695E-1   3.921944797039032E-1  -3.738148808479309E-1   3.914061188697815E-1  -3.741129040718079E-1   9.734768420457840E-2   8.288550972938538E-1  
 2.350000000000000E7     8.048616647720337E-1   9.783144295215607E-2   3.848329186439514E-1  -4.315023422241211E-1   3.854599893093109E-1  -4.302851557731628E-1   1.760614961385727E-1   7.894171476364136E-1  
 2.380000000000000E7     7.799025177955627E-1   5.255967378616333E-2   3.713703453540802E-1  -4.923836886882782E-1   3.713531494140625E-1  -4.926391839981079E-1   2.578555643558502E-1   7.350832819938660E-1  
 2.410000000000000E7     7.480186223983765E-1   1.145912520587444E-2   3.444507718086243E-1  -5.601109266281128E-1   3.438253104686737E-1  -5.591960549354553E-1   3.381998538970947E-1   6.623856425285339E-1  
 2.440000000000000E7     7.083020806312561E-1  -2.006706781685352E-2   3.030548095703125E-1  -6.297643780708313E-1   3.033053874969482E-1  -6.310010552406311E-1   4.126914739608765E-1   5.688897967338562E-1  
 2.470000000000000E7     6.641187667846680E-1  -4.311086237430573E-2   2.450596690177918E-1  -6.983085870742798E-1   2.470834553241730E-1  -6.979342699050903E-1   4.785434901714325E-1   4.518069922924042E-1  
 2.500000000000000E7     6.155282855033875E-1  -5.613109096884728E-2   1.700201332569122E-1  -7.610210180282593E-1   1.679401397705078E-1  -7.621303796768189E-1   5.227596759796143E-1   3.145063519477844E-1  
 2.530000000000000E7     5.668703913688660E-1  -5.123287066817284E-2   7.339131832122803E-2  -8.140698075294495E-1   7.457518577575684E-2  -8.120446205139160E-1   5.385364294052124E-1   1.571145802736282E-1  
 2.560000000000000E7     5.258716344833374E-1  -3.440655022859573E-2  -3.597198426723480E-2  -8.444663286209106E-1  -3.604230657219887E-2  -8.436522483825684E-1   5.179297924041748E-1  -8.601306006312370E-3  
 2.590000000000000E7     4.999826252460480E-1  -3.489702939987183E-3  -1.569746136665344E-1  -8.451526165008545E-1  -1.585854291915894E-1  -8.466389179229736E-1   4.588782191276550E-1  -1.698354035615921E-1  
 2.620000000000000E7     4.879534244537354E-1   3.422331809997559E-2  -2.791067957878113E-1  -8.211860656738281E-1  -2.779385149478912E-1  -8.205028176307678E-1   3.589324355125427E-1  -3.159042596817017E-1  
 2.650000000000000E7     4.919025599956513E-1   7.243147492408752E-2  -3.879565000534058E-1  -7.696690559387207E-1  -3.892138600349426E-1  -7.700918912887573E-1   2.271928936243057E-1  -4.311106503009796E-1  
 2.680000000000000E7     5.138757824897766E-1   1.048622205853462E-1  -4.804288744926453E-1  -6.949949860572815E-1  -4.809306859970093E-1  -6.966877579689026E-1   7.838034629821777E-2  -5.075306296348572E-1  
 2.710000000000000E7     5.478705763816834E-1   1.240124553442001E-1  -5.506883859634399E-1  -6.098479032516480E-1  -5.526651740074158E-1  -6.075347065925598E-1  -7.284897565841675E-2  -5.498862266540527E-1  
 2.740000000000000E7     5.901901125907898E-1   1.345047056674957E-1  -5.983668565750122E-1  -5.159291625022888E-1  -6.002557873725891E-1  -5.175532698631287E-1  -2.213428914546967E-1  -5.539507269859314E-1  
 2.770000000000000E7     6.347336769104004E-1   1.281184852123261E-1  -6.247477531433106E-1  -4.257650971412659E-1  -6.274483799934387E-1  -4.271627962589264E-1  -3.530680835247040E-1  -5.342346429824829E-1  
 2.800000000000000E7     6.782425045967102E-1   1.113316044211388E-1  -6.356225609779358E-1  -3.389672338962555E-1  -6.350917816162109E-1  -3.429695963859558E-1  -4.699985682964325E-1  -4.939280748367310E-1  
 2.830000000000000E7     7.174142003059387E-1   8.253069967031479E-2  -6.329346895217896E-1  -2.618615627288818E-1  -6.335649490356445E-1  -2.616020739078522E-1  -5.653918981552124E-1  -4.429405927658081E-1  
 2.860000000000000E7     7.527574896812439E-1   4.517314583063126E-2  -6.210390925407410E-1  -1.929497420787811E-1  -6.220663189888001E-1  -1.935320198535919E-1  -6.453784704208374E-1  -3.844230473041534E-1  
 2.890000000000000E7     7.811198830604553E-1   1.529803499579430E-3  -6.037231683731079E-1  -1.335774660110474E-1  -6.025739908218384E-1  -1.332325935363770E-1  -7.085537910461426E-1  -3.217426836490631E-1  
 2.920000000000000E7     8.045751452445984E-1  -4.593195021152496E-2  -5.807135701179504E-1  -8.072672784328461E-2  -5.806455016136169E-1  -7.963084429502487E-2  -7.608048319816589E-1  -2.593510448932648E-1  
 2.950000000000000E7     8.198866844177246E-1  -9.795354306697846E-2  -5.571486949920654E-1  -3.699640184640884E-2  -5.567065477371216E-1  -3.666240721940994E-2  -7.997778654098511E-1  -1.988949775695801E-1  
 2.980000000000000E7     8.289403915405273E-1  -1.518214195966721E-1  -5.310657620429993E-1   2.564339898526669E-3  -5.320819616317749E-1   2.076270058751106E-3  -8.298677802085877E-1  -1.403622329235077E-1  
 3.010000000000000E7     8.320757746696472E-1  -2.087814658880234E-1  -5.064519047737122E-1   3.624808415770531E-2  -5.058102011680603E-1   3.468583151698113E-2  -8.530015349388123E-1  -8.522661030292511E-2  
 3.040000000000000E7     8.300877809524536E-1  -2.670297324657440E-1  -4.797364771366119E-1   6.441282480955124E-2  -4.817450642585754E-1   6.483435630798340E-2  -8.693107962608337E-1  -3.293190523982048E-2  
 3.070000000000000E7     8.195984363555908E-1  -3.242191374301910E-1  -4.546582698822022E-1   9.072247892618179E-2  -4.546934962272644E-1   9.008187055587769E-2  -8.819862008094788E-1   1.590867526829243E-2  
 3.100000000000000E7     8.047127723693848E-1  -3.826870620250702E-1  -4.303883910179138E-1   1.120618879795075E-1  -4.302127957344055E-1   1.119718030095100E-1  -8.905904293060303E-1   6.091244518756867E-2  
 3.130000000000000E7     7.854226827621460E-1  -4.402520060539246E-1  -4.072197079658508E-1   1.314741522073746E-1  -4.072793722152710E-1   1.311898380517960E-1  -8.947513103485107E-1   1.042777225375176E-1  
 3.160000000000000E7     7.581850290298462E-1  -4.978350698947907E-1  -3.837241232395172E-1   1.473653912544251E-1  -3.844726979732513E-1   1.480667144060135E-1  -8.972284197807312E-1   1.424002647399902E-1  
 3.190000000000000E7     7.257459759712219E-1  -5.536409616470337E-1  -3.613940775394440E-1   1.629799008369446E-1  -3.611593842506409E-1   1.626311093568802E-1  -8.974162936210632E-1   1.801145821809769E-1  
 3.220000000000000E7     6.892591118812561E-1  -6.100759506225586E-1  -3.394811153411865E-1   1.763727515935898E-1  -3.394955992698669E-1   1.763951033353806E-1  -8.958283662796021E-1   2.140876054763794E-1  
 3.250000000000000E7     6.448181271553040E-1  -6.631035804748535E-1  -3.186937868595123E-1   1.877717673778534E-1  -3.188370764255524E-1   1.886036843061447E-1  -8.930256962776184E-1   2.465665489435196E-1  
 3.280000000000000E7     5.938588380813599E-1  -7.139035463333130E-1  -2.981910407543182E-1   1.977121680974960E-1  -2.977501749992371E-1   1.983893215656281E-1  -8.887220621109009E-1   2.776002883911133E-1  
 3.310000000000000E7     5.376764535903931E-1  -7.618142962455750E-1  -2.775467932224274E-1   2.085390686988831E-1  -2.779550552368164E-1   2.090121358633041E-1  -8.839483261108398E-1   3.062362968921661E-1  
 3.340000000000000E7     4.733711779117584E-1  -8.080198168754578E-1  -2.580574154853821E-1   2.180708348751068E-1  -2.574319839477539E-1   2.176399528980255E-1  -8.774318695068359E-1   3.338629007339478E-1  
 3.370000000000000E7     4.031506776809692E-1  -8.487380743026733E-1  -2.378667443990707E-1   2.254390865564346E-1  -2.387212812900543E-1   2.253347933292389E-1  -8.719296455383301E-1   3.588182628154755E-1  
 3.400000000000000E7     3.236941397190094E-1  -8.844158649444580E-1  -2.179764807224274E-1   2.326474636793137E-1  -2.183837741613388E-1   2.330925762653351E-1  -8.637667894363403E-1   3.824900984764099E-1  
 3.430000000000000E7     2.366716265678406E-1  -9.143145084381104E-1  -1.979856044054031E-1   2.398786544799805E-1  -1.979915052652359E-1   2.389754354953766E-1  -8.568862080574036E-1   4.053058624267578E-1  
 3.460000000000000E7     1.416816413402557E-1  -9.359333515167236E-1  -1.777575761079788E-1   2.452751100063324E-1  -1.778278946876526E-1   2.451546639204025E-1  -8.501863479614258E-1   4.263901710510254E-1  
 3.490000000000000E7     3.860756754875183E-2  -9.471533894538879E-1  -1.570078581571579E-1   2.508128881454468E-1  -1.567249596118927E-1   2.486834228038788E-1  -8.411633968353272E-1   4.461558163166046E-1  
 3.520000000000000E7    -7.161127775907517E-2  -9.478397965431213E-1  -1.356343626976013E-1   2.536291778087616E-1  -1.362698823213577E-1   2.527180910110474E-1  -8.341110944747925E-1   4.661536216735840E-1  
 3.550000000000000E7    -1.909706592559815E-1  -9.322257041931152E-1  -1.143918037414551E-1   2.554826438426971E-1  -1.140451729297638E-1   2.555324137210846E-1  -8.262500762939453E-1   4.837052524089813E-1  
 3.580000000000000E7    -3.151090741157532E-1  -8.990344405174255E-1  -9.107033908367157E-2   2.564386427402496E-1  -9.147230535745621E-2   2.563399970531464E-1  -8.176321387290955E-1   5.019201040267944E-1  
 3.610000000000000E7    -4.427754580974579E-1  -8.443551063537598E-1  -6.827913224697113E-2   2.562621831893921E-1  -6.804310530424118E-2   2.557184398174286E-1  -8.108161091804504E-1   5.204430818557739E-1  
 3.640000000000000E7    -5.716519355773926E-1  -7.659590840339661E-1  -4.414590820670128E-2   2.523309290409088E-1  -4.397337883710861E-2   2.531968355178833E-1  -8.024345040321350E-1   5.350311398506165E-1  
 3.670000000000000E7    -6.942039728164673E-1  -6.593790054321289E-1  -1.972885057330132E-2   2.468485534191132E-1  -1.955895684659481E-2   2.460590004920960E-1  -7.950118780136108E-1   5.504887104034424E-1  
 3.700000000000000E7    -8.052456378936768E-1  -5.208497047424316E-1   5.393527448177338E-3   2.372409254312515E-1   5.388678982853890E-3   2.377495467662811E-1  -7.865716218948364E-1   5.671963691711426E-1  
 3.730000000000000E7    -8.928178548812866E-1  -3.539461493492127E-1   2.961818873882294E-2   2.235550433397293E-1   2.944496646523476E-2   2.238821387290955E-1  -7.779613733291626E-1   5.806288719177246E-1  
 3.760000000000000E7    -9.493678808212280E-1  -1.588594317436218E-1   5.188830941915512E-2   2.072947770357132E-1   5.169455707073212E-2   2.072499096393585E-1  -7.708010673522949E-1   5.970907211303711E-1  
 3.790000000000000E7    -9.642157554626465E-1   5.475915223360062E-2   7.065013796091080E-2   1.868037134408951E-1   7.019453495740891E-2   1.866291463375092E-1  -7.626572251319885E-1   6.118400692939758E-1  
 3.820000000000000E7    -9.264450669288635E-1   2.771265506744385E-1   8.585146814584732E-2   1.628196537494659E-1   8.609066903591156E-2   1.620439589023590E-1  -7.545258402824402E-1   6.252665519714356E-1  
 3.850000000000000E7    -8.383870124816895E-1   4.898536205291748E-1   9.553911536931992E-2   1.366825103759766E-1   9.597611427307129E-2   1.364240944385529E-1  -7.476331591606140E-1   6.406033635139465E-1  
 3.880000000000000E7    -6.994689106941223E-1   6.773141622543335E-1   1.007994934916496E-1   1.097357124090195E-1   1.003985106945038E-1   1.101280152797699E-1  -7.383419275283814E-1   6.557314395904541E-1  
 3.910000000000000E7    -5.205698013305664E-1   8.249127864837647E-1   9.904517233371735E-2   8.390101790428162E-2   9.922643005847931E-2   8.425983786582947E-2  -7.294229865074158E-1   6.715891957283020E-1  
 3.940000000000000E7    -3.166989088058472E-1   9.259563088417053E-1   9.318539500236511E-2   6.116881966590881E-2   9.340591728687286E-2   6.121332198381424E-2  -7.186938524246216E-1   6.837229728698731E-1  
 3.970000000000000E7    -1.042855083942413E-1   9.748907685279846E-1   8.358324319124222E-2   4.161459580063820E-2   8.349549770355225E-2   4.157376661896706E-2  -7.070556879043579E-1   6.967330574989319E-1  
 4.000000000000000E7     1.007961332798004E-1   9.775404930114746E-1   7.197307050228119E-2   2.630981802940369E-2   7.203964889049530E-2   2.624066174030304E-2  -6.975392699241638E-1   7.107591629028320E-1  
 4.030000000000000E7     2.903485298156738E-1   9.422571659088135E-1   5.957055836915970E-2   1.495700050145388E-2   5.943462252616882E-2   1.500064134597778E-2  -6.863520145416260E-1   7.225429415702820E-1  
 4.060000000000000E7     4.584230780601502E-1   8.744245171546936E-1   4.666359722614288E-2   6.996948737651110E-3   4.655834287405014E-2   6.898819468915463E-3  -6.745805740356445E-1   7.340697646141052E-1  
 4.090000000000000E7     6.005945205688477E-1   7.869145870208740E-1   3.458170592784882E-2   2.088139066472650E-3   3.463907912373543E-2   2.072031144052744E-3  -6.636494398117065E-1   7.442023158073425E-1  
 4.120000000000000E7     7.158065438270569E-1   6.843279600143433E-1   2.377651445567608E-2  -4.952210001647472E-4   2.360586076974869E-2  -4.313664976507425E-4  -6.510572433471680E-1   7.553930282592773E-1  
 4.150000000000000E7     8.060054183006287E-1   5.741482377052307E-1   1.427241135388613E-2  -1.306171994656324E-3   1.417165994644165E-2  -1.190603594295681E-3  -6.392773389816284E-1   7.656270265579224E-1  
 4.180000000000000E7     8.768086433410645E-1   4.624635279178619E-1   6.012653000652790E-3  -7.223681313917041E-4   6.062552798539400E-3  -7.106310804374516E-4  -6.287329792976379E-1   7.744836211204529E-1  
 4.210000000000000E7     9.279609322547913E-1   3.517391681671143E-1  -8.507635211572051E-4   6.429374916478992E-4  -8.881615940481424E-4   6.603567744605243E-4  -6.171589493751526E-1   7.843639254570007E-1  
 4.240000000000000E7     9.621025323867798E-1   2.432658374309540E-1  -6.558822467923164E-3   2.743112854659557E-3  -6.577706895768642E-3   2.663284773007035E-3  -6.066682338714600E-1   7.934076786041260E-1  
 4.270000000000000E7     9.826055765151978E-1   1.401390880346298E-1  -1.119393948465586E-2   4.934211727231741E-3  -1.111370325088501E-2   5.021484568715096E-3  -5.940204858779907E-1   8.027138710021973E-1  
 4.300000000000000E7     9.937388896942139E-1   4.120232164859772E-2  -1.483666896820068E-2   7.520398590713739E-3  -1.477365195751190E-2   7.517605088651180E-3  -5.827803015708923E-1   8.112410902976990E-1  
 4.330000000000000E7     9.922890067100525E-1  -5.047402903437614E-2  -1.761347055435181E-2   1.002141274511814E-2  -1.759557053446770E-2   1.004437729716301E-2  -5.711163282394409E-1   8.181265592575073E-1  
 4.360000000000000E7     9.843939542770386E-1  -1.392925083637238E-1  -1.982982084155083E-2   1.255170721560717E-2  -1.976544596254826E-2   1.255002897232771E-2  -5.609058737754822E-1   8.260098099708557E-1  
 4.390000000000000E7     9.705536961555481E-1  -2.201789915561676E-1  -2.135535888373852E-2   1.502204965800047E-2  -2.148698829114437E-2   1.489913836121559E-2  -5.492320656776428E-1   8.326032757759094E-1  
 4.420000000000000E7     9.487117528915405E-1  -2.962974905967712E-1  -2.235674113035202E-2   1.720678433775902E-2  -2.229047194123268E-2   1.728412695229054E-2  -5.368331670761108E-1   8.393386006355286E-1  
 4.450000000000000E7     9.241096973419190E-1  -3.666909337043762E-1  -2.302115969359875E-2   1.930851303040981E-2  -2.292048186063767E-2   1.926728338003159E-2  -5.273965001106262E-1   8.466488122940064E-1  
 4.480000000000000E7     8.961616754531860E-1  -4.317991435527802E-1  -2.332062833011150E-2   2.122633904218674E-2  -2.328914031386375E-2   2.114708349108696E-2  -5.164462924003601E-1   8.528863191604614E-1  
 4.510000000000000E7     8.654007315635681E-1  -4.916688799858093E-1  -2.328992076218128E-2   2.297656796872616E-2  -2.336801774799824E-2   2.300514653325081E-2  -5.053100585937500E-1   8.604937195777893E-1  
 4.540000000000000E7     8.305749893188477E-1  -5.479928255081177E-1  -2.291913330554962E-2   2.475268952548504E-2  -2.287699654698372E-2   2.450320310890675E-2  -4.940767288208008E-1   8.665462732315064E-1  
 4.570000000000000E7     7.940052151679993E-1  -6.005414724349976E-1  -2.240617759525776E-2   2.608695998787880E-2  -2.253827638924122E-2   2.582924067974091E-2  -4.824997186660767E-1   8.729927539825440E-1  
 4.600000000000000E7     7.566962838172913E-1  -6.461434364318848E-1  -2.194581925868988E-2   2.714837901294231E-2  -2.194856852293015E-2   2.710852585732937E-2  -4.726303219795227E-1   8.784276247024536E-1  
 4.630000000000000E7     7.162477970123291E-1  -6.917386054992676E-1  -2.118684910237789E-2   2.833682857453823E-2  -2.106939069926739E-2   2.824999578297138E-2  -4.615818262100220E-1   8.840503692626953E-1  
 4.660000000000000E7     6.759574413299561E-1  -7.323505878448486E-1  -2.010454237461090E-2   2.923958189785481E-2  -2.028993703424931E-2   2.914897166192532E-2  -4.492229819297791E-1   8.904623985290527E-1  
 4.690000000000000E7     6.333642601966858E-1  -7.685295343399048E-1  -1.923746801912785E-2   2.988534234464169E-2  -1.926408708095551E-2   2.972134575247765E-2  -4.388080537319183E-1   8.960903882980347E-1  
 4.720000000000000E7     5.901212692260742E-1  -8.021715879440308E-1  -1.818251796066761E-2   3.043894097208977E-2  -1.818298175930977E-2   3.049473278224468E-2  -4.270970523357391E-1   9.009535908699036E-1  
 4.750000000000000E7     5.476862788200378E-1  -8.322591781616211E-1  -1.708988845348358E-2   3.082149475812912E-2  -1.712675020098686E-2   3.080733120441437E-2  -4.164293706417084E-1   9.060699939727783E-1  
 4.780000000000000E7     5.042190551757813E-1  -8.591411113739014E-1  -1.599560305476189E-2   3.110112063586712E-2  -1.609806157648563E-2   3.110980056226254E-2  -4.046354591846466E-1   9.100436568260193E-1  
 4.810000000000000E7     4.598079025745392E-1  -8.835390210151672E-1  -1.481898408383131E-2   3.127117827534676E-2  -1.499442197382450E-2   3.126452490687370E-2  -3.947187066078186E-1   9.156054258346558E-1  
 4.840000000000000E7     4.157054424285889E-1  -9.055768251419067E-1  -1.385579630732536E-2   3.145080804824829E-2  -1.377940177917481E-2   3.151062875986099E-2  -3.836922645568848E-1   9.204469919204712E-1  
 4.870000000000000E7     3.709814250469208E-1  -9.249885678291321E-1  -1.260236091911793E-2   3.139031305909157E-2  -1.266661565750837E-2   3.129219636321068E-2  -3.723454177379608E-1   9.250844120979309E-1  
 4.900000000000000E7     3.265628814697266E-1  -9.422739148139954E-1  -1.161878649145365E-2   3.121042065322399E-2  -1.146921887993813E-2   3.126160800457001E-2  -3.617776036262512E-1   9.286481142044067E-1  
 4.930000000000000E7     2.815372347831726E-1  -9.568412303924561E-1  -1.044894102960825E-2   3.090861998498440E-2  -1.045932807028294E-2   3.107228875160217E-2  -3.497559428215027E-1   9.335325956344605E-1  
 4.960000000000000E7     2.363252788782120E-1  -9.672934412956238E-1  -9.225492365658283E-3   3.067069873213768E-2  -9.196415543556213E-3   3.070177324116230E-2  -3.390685021877289E-1   9.369491934776306E-1  
 4.990000000000000E7     1.930425763130188E-1  -9.774525165557861E-1  -8.192046545445919E-3   3.020518831908703E-2  -8.266426622867584E-3   3.004988655447960E-2  -3.280774056911469E-1   9.410337805747986E-1  
 5.020000000000000E7     1.502687186002731E-1  -9.855558276176453E-1  -7.293697446584702E-3   2.973079867660999E-2  -7.350218482315540E-3   2.978337369859219E-2  -3.172270357608795E-1   9.450696706771851E-1  
 5.050000000000000E7     1.056881994009018E-1  -9.913837313652039E-1  -6.310191471129656E-3   2.923525124788284E-2  -6.285026669502258E-3   2.919137850403786E-2  -3.066392540931702E-1   9.498943686485291E-1  
 5.080000000000000E7     6.269606947898865E-2  -9.955065846443176E-1  -5.351488012820482E-3   2.858186885714531E-2  -5.373969674110413E-3   2.851907163858414E-2  -2.946901917457581E-1   9.510110020637512E-1  
 5.110000000000000E7     1.959503069519997E-2  -9.967072010040283E-1  -4.416008479893208E-3   2.781919762492180E-2  -4.482902586460114E-3   2.784186042845249E-2  -2.847821116447449E-1   9.556505084037781E-1  
 5.140000000000000E7    -2.347908914089203E-2  -9.965018033981323E-1  -3.555450588464737E-3   2.704669162631035E-2  -3.539869328960776E-3   2.714294567704201E-2  -2.722985446453095E-1   9.605343937873840E-1  
 5.170000000000000E7    -6.491665542125702E-2  -9.946327805519104E-1  -2.682494465261698E-3   2.627157419919968E-2  -2.680016215890646E-3   2.626929245889187E-2  -2.607353329658508E-1   9.618085622787476E-1  
 5.200000000000000E7    -1.063015758991242E-1  -9.925409555435181E-1  -1.958258217200637E-3   2.540873363614082E-2  -2.057382604107261E-3   2.547126635909081E-2  -2.496676295995712E-1   9.636198282241821E-1  
 5.230000000000000E7    -1.472972780466080E-1  -9.861896038055420E-1  -1.285401522181928E-3   2.452763915061951E-2  -1.215873751789331E-3   2.456519939005375E-2  -2.390839755535126E-1   9.679441452026367E-1  
 5.260000000000000E7    -1.876506209373474E-1  -9.784201979637146E-1  -5.512412171810865E-4   2.362157031893730E-2  -5.631843814626336E-4   2.360411360859871E-2  -2.276618629693985E-1   9.710261225700378E-1  
 5.290000000000000E7    -2.277676910161972E-1  -9.709092378616333E-1   2.229842357337475E-5   2.259777858853340E-2   3.334833309054375E-5   2.259324863553047E-2  -2.169643640518189E-1   9.724436998367310E-1  
 5.320000000000000E7    -2.656482160091400E-1  -9.618545174598694E-1   5.775153404101729E-4   2.159525640308857E-2   5.905352300032973E-4   2.166154608130455E-2  -2.051250040531158E-1   9.758532643318176E-1  
 5.350000000000000E7    -3.034420609474182E-1  -9.496595263481140E-1   1.026381272822619E-3   2.060956321656704E-2   1.063231960870326E-3   2.060483954846859E-2  -1.955133974552155E-1   9.782435297966003E-1  
 5.380000000000000E7    -3.399852514266968E-1  -9.366415739059448E-1   1.482130493968725E-3   1.953598670661449E-2   1.499574165791273E-3   1.947504654526711E-2  -1.822772622108460E-1   9.796741008758545E-1  
 5.410000000000000E7    -3.786433041095734E-1  -9.241595864295960E-1   1.906353048980236E-3   1.848324947059155E-2   1.945761265233159E-3   1.843248680233955E-2  -1.718837469816208E-1   9.821704030036926E-1  
 5.440000000000000E7    -4.142495691776276E-1  -9.073606729507446E-1   2.220291644334793E-3   1.734169572591782E-2   2.212651539593935E-3   1.732588745653629E-2  -1.608125716447830E-1   9.837366938591003E-1  
 5.470000000000000E7    -4.475172758102417E-1  -8.913874030113220E-1   2.494687214493752E-3   1.618024706840515E-2   2.504977164790034E-3   1.620739512145519E-2  -1.486432254314423E-1   9.850978851318359E-1  
 5.500000000000000E7    -4.826279282569885E-1  -8.732856512069702E-1   2.694898750633001E-3   1.507952809333801E-2   2.712841145694256E-3   1.506234798580408E-2  -1.366650015115738E-1   9.883950948715210E-1  
 5.530000000000000E7    -5.154890418052673E-1  -8.542912006378174E-1   2.825160045176745E-3   1.390454359352589E-2   2.861300716176629E-3   1.389127969741821E-2  -1.260342597961426E-1   9.887843728065491E-1  
 5.560000000000000E7    -5.486308336257935E-1  -8.335120677947998E-1   2.970676403492689E-3   1.274990383535624E-2   2.909104805439711E-3   1.270829699933529E-2  -1.151532530784607E-1   9.904057979583740E-1  
 5.590000000000000E7    -5.796062350273132E-1  -8.134216666221619E-1   2.953283488750458E-3   1.154766324907541E-2   2.967447508126497E-3   1.155882328748703E-2  -1.028450354933739E-1   9.915094375610352E-1  
 5.620000000000000E7    -6.100592613220215E-1  -7.888319492340088E-1   2.901107771322131E-3   1.041034050285816E-2   2.901899162679911E-3   1.032154168933630E-2  -9.227865934371948E-2   9.933397769927979E-1  
 5.650000000000000E7    -6.382139921188355E-1  -7.667542099952698E-1   2.813354600220919E-3   9.198779240250588E-3   2.809142693877220E-3   9.162712842226028E-3  -8.050800859928131E-2   9.934891462326050E-1  
 5.680000000000000E7    -6.669808626174927E-1  -7.423982024192810E-1   2.656349679455161E-3   8.023497648537159E-3   2.665106207132340E-3   8.034975267946720E-3  -6.892817467451096E-2   9.942238330841065E-1  
 5.710000000000000E7    -6.948098540306091E-1  -7.159144878387451E-1   2.453240798786283E-3   6.820457521826029E-3   2.476031193509698E-3   6.828599609434605E-3  -5.791261419653893E-2   9.953875541687012E-1  
 5.740000000000000E7    -7.214401960372925E-1  -6.901201009750366E-1   2.158710733056068E-3   5.660090129822493E-3   2.151294378563762E-3   5.620893090963364E-3  -4.562608152627945E-2   9.958231449127197E-1  
 5.770000000000000E7    -7.447377443313599E-1  -6.634129285812378E-1   1.831989502534270E-3   4.494331777095795E-3   1.813386916182935E-3   4.441213328391314E-3  -3.564658761024475E-2   9.954943060874939E-1  
 5.800000000000000E7    -7.695910334587097E-1  -6.346815228462219E-1   1.438535400666297E-3   3.333167638629675E-3   1.424813526682556E-3   3.308051498606801E-3  -2.229255437850952E-2   9.976925253868103E-1  
 5.830000000000000E7    -7.919549942016602E-1  -6.061267852783203E-1   9.424008894711733E-4   2.178290626034141E-3   9.502330794930458E-4   2.181947696954012E-3  -1.218648627400398E-2   9.975746273994446E-1  
 5.860000000000000E7    -8.148513436317444E-1  -5.777995586395264E-1   4.310823278501630E-4   1.023474964313209E-3   4.293783567845821E-4   1.045723445713520E-3  -2.260655164718628E-4   9.969431161880493E-1  
 5.890000000000000E7    -8.345734477043152E-1  -5.468393564224243E-1  -1.791229733498767E-4  -6.442989251809195E-5  -1.678339613135904E-4  -6.939876038813964E-5   1.031497120857239E-2   9.966585636138916E-1  
 5.920000000000000E7    -8.541600108146668E-1  -5.152840614318848E-1  -7.999177905730903E-4  -1.181050436571240E-3  -7.934616878628731E-4  -1.236142124980688E-3   2.272427827119827E-2   9.975897073745728E-1  
 5.950000000000000E7    -8.717842102050781E-1  -4.840010404586792E-1  -1.508848508819938E-3  -2.277306979522109E-3  -1.514304080046713E-3  -2.285174094140530E-3   3.389356657862663E-2   9.955329298973084E-1  
 5.980000000000000E7    -8.892097473144531E-1  -4.520101845264435E-1  -2.289284253492951E-3  -3.307078033685684E-3  -2.252319827675819E-3  -3.318908391520381E-3   4.637381434440613E-2   9.953018426895142E-1  
 6.010000000000000E7    -9.032450914382935E-1  -4.205244779586792E-1  -3.091182094067335E-3  -4.357116296887398E-3  -3.068560035899282E-3  -4.395582247525454E-3   5.711850151419640E-2   9.955432415008545E-1  
 6.040000000000000E7    -9.188262224197388E-1  -3.861867785453796E-1  -3.983486909419298E-3  -5.362937226891518E-3  -3.949009347707033E-3  -5.364541430026293E-3   6.902644038200378E-2   9.953181147575378E-1  
 6.070000000000000E7    -9.328117966651917E-1  -3.550105690956116E-1  -4.916731268167496E-3  -6.346260197460651E-3  -4.865729250013828E-3  -6.369086913764477E-3   8.002599328756332E-2   9.937984347343445E-1  
 6.100000000000000E7    -9.440777301788330E-1  -3.211714625358582E-1  -5.896190181374550E-3  -7.248564623296261E-3  -5.906241480261087E-3  -7.257660850882530E-3   9.297144412994385E-2   9.929373860359192E-1  
 6.130000000000000E7    -9.557641744613648E-1  -2.865565419197083E-1  -6.949305534362793E-3  -8.207945153117180E-3  -6.921197287738323E-3  -8.185295388102531E-3   1.049545854330063E-1   9.922832846641541E-1  
 6.160000000000000E7    -9.645464420318604E-1  -2.527798712253571E-1  -8.016544394195080E-3  -9.075800888240337E-3  -8.011543191969395E-3  -9.058115072548389E-3   1.150985360145569E-1   9.896709918975830E-1  
 6.190000000000000E7    -9.727195501327515E-1  -2.180982828140259E-1  -9.206904098391533E-3  -9.903504513204098E-3  -9.159129112958908E-3  -9.855205193161964E-3   1.259967684745789E-1   9.878413081169128E-1  
 6.220000000000000E7    -9.803117513656616E-1  -1.836022138595581E-1  -1.034373044967651E-2  -1.071024965494871E-2  -1.039793249219656E-2  -1.073052641004324E-2   1.375359445810318E-1   9.877333641052246E-1  
 6.250000000000000E7    -9.860541820526123E-1  -1.485905647277832E-1  -1.164312660694122E-2  -1.150680147111416E-2  -1.165626384317875E-2  -1.147104334086180E-2   1.492172032594681E-1   9.862238168716431E-1  
 6.280000000000000E7    -9.901576638221741E-1  -1.134601533412933E-1  -1.293996721506119E-2  -1.221606228500605E-2  -1.294517517089844E-2  -1.223301328718662E-2   1.612992286682129E-1   9.843218326568604E-1  
 6.310000000000000E7    -9.936859011650085E-1  -7.699328660964966E-2  -1.436665840446949E-2  -1.287106610834599E-2  -1.432917267084122E-2  -1.288023497909308E-2   1.725334823131561E-1   9.824662208557129E-1  
 6.340000000000000E7    -9.953238368034363E-1  -4.244323074817658E-2  -1.575791463255882E-2  -1.352434884756804E-2  -1.577269844710827E-2  -1.348457671701908E-2   1.845511645078659E-1   9.804353117942810E-1  
 6.370000000000000E7    -9.966091513633728E-1  -7.300809025764465E-3  -1.722924225032330E-2  -1.406549289822578E-2  -1.720383018255234E-2  -1.406041439622641E-2   1.953529119491577E-1   9.775897860527039E-1  
 6.400000000000000E7    -9.954479336738586E-1   2.793763577938080E-2  -1.874969527125359E-2  -1.456264313310385E-2  -1.874899677932262E-2  -1.456569135189056E-2   2.075348794460297E-1   9.758728146553040E-1  
 6.430000000000000E7    -9.936991930007935E-1   6.412047892808914E-2  -2.033965289592743E-2  -1.508828159421682E-2  -2.031374350190163E-2  -1.500563882291317E-2   2.189952135086060E-1   9.728870391845703E-1  
 6.460000000000000E7    -9.916104078292847E-1   9.885437041521072E-2  -2.186024561524391E-2  -1.550337765365839E-2  -2.186471223831177E-2  -1.546418853104115E-2   2.291359454393387E-1   9.696415662765503E-1  
 6.490000000000000E7    -9.883176088333130E-1   1.329006105661392E-1  -2.353649958968163E-2  -1.586592756211758E-2  -2.356811240315437E-2  -1.591849513351917E-2   2.409475445747376E-1   9.678829908370972E-1  
 6.520000000000000E7    -9.818040728569031E-1   1.674709022045136E-1  -2.528791874647141E-2  -1.624025776982307E-2  -2.523856237530708E-2  -1.613888889551163E-2   2.528144419193268E-1   9.654557704925537E-1  
 6.550000000000000E7    -9.756714701652527E-1   2.012447118759155E-1  -2.704873122274876E-2  -1.639509573578835E-2  -2.697094902396202E-2  -1.640707999467850E-2   2.638720870018005E-1   9.603131413459778E-1  
 6.580000000000000E7    -9.676046967506409E-1   2.361075580120087E-1  -2.884132228791714E-2  -1.650371775031090E-2  -2.876373380422592E-2  -1.654778048396111E-2   2.758032083511353E-1   9.586420059204102E-1  
 6.610000000000000E7    -9.576752185821533E-1   2.699107229709625E-1  -3.061010874807835E-2  -1.659893058240414E-2  -3.049292042851448E-2  -1.648958027362824E-2   2.879121303558350E-1   9.533435702323914E-1  
 6.640000000000000E7    -9.493427872657776E-1   3.030571043491364E-1  -3.248357772827148E-2  -1.673480868339539E-2  -3.247299790382385E-2  -1.678462699055672E-2   2.993695139884949E-1   9.501476287841797E-1  
 6.670000000000000E7    -9.372483491897583E-1   3.361495733261108E-1  -3.438915312290192E-2  -1.672926172614098E-2  -3.436286747455597E-2  -1.671188697218895E-2   3.097825348377228E-1   9.475942850112915E-1  
 6.700000000000000E7    -9.246853590011597E-1   3.690048754215241E-1  -3.626804053783417E-2  -1.652029529213905E-2  -3.617233037948608E-2  -1.653581112623215E-2   3.207849860191345E-1   9.422958493232727E-1  
 6.730000000000000E7    -9.110537767410278E-1   4.011033475399017E-1  -3.812030330300331E-2  -1.646588928997517E-2  -3.825383633375168E-2  -1.628664880990982E-2   3.333559334278107E-1   9.396163225173950E-1  
 6.760000000000000E7    -8.968109488487244E-1   4.323055744171143E-1  -4.029005765914917E-2  -1.598403602838516E-2  -4.020297154784203E-2  -1.608612574636936E-2   3.446609973907471E-1   9.345854520797730E-1  
 6.790000000000000E7    -8.807836771011353E-1   4.638211429119110E-1  -4.226734861731529E-2  -1.579603925347328E-2  -4.225457459688187E-2  -1.575931161642075E-2   3.548368215560913E-1   9.298250079154968E-1  
 6.820000000000000E7    -8.636064529418945E-1   4.935201406478882E-1  -4.428010433912277E-2  -1.530707161873579E-2  -4.421678930521011E-2  -1.540869101881981E-2   3.662880659103394E-1   9.262137413024902E-1  
 6.850000000000000E7    -8.467198610305786E-1   5.243897438049316E-1  -4.655413702130318E-2  -1.497859973460436E-2  -4.633405804634094E-2  -1.491534709930420E-2   3.770871758460999E-1   9.221345782279968E-1  
 6.880000000000000E7    -8.270135521888733E-1   5.528927445411682E-1  -4.845603927969933E-2  -1.432188134640455E-2  -4.835907369852066E-2  -1.422097627073526E-2   3.890743553638458E-1   9.162977933883667E-1  
 6.910000000000000E7    -8.068589568138123E-1   5.817284584045410E-1  -5.071218311786652E-2  -1.355944760143757E-2  -5.059215053915978E-2  -1.359622552990913E-2   4.007973372936249E-1   9.113642573356628E-1  
 6.940000000000000E7    -7.867443561553955E-1   6.094701290130615E-1  -5.280968546867371E-2  -1.295192260295153E-2  -5.282235145568848E-2  -1.288912445306778E-2   4.109238386154175E-1   9.068079590797424E-1  
 6.970000000000000E7    -7.636898756027222E-1   6.370113492012024E-1  -5.500760301947594E-2  -1.218586321920157E-2  -5.499199777841568E-2  -1.190670393407345E-2   4.226600527763367E-1   9.011358618736267E-1  
 7.000000000000000E7    -7.412562370300293E-1   6.637154221534729E-1  -5.723423138260841E-2  -1.111446041613817E-2  -5.706486478447914E-2  -1.102207228541374E-2   4.334620237350464E-1   8.964592218399048E-1  
