#  HZ   S   RI   R     50.00 
! Rohde & Schwarz ZVT8 8Ports - Version 4.11 - 1300.0000k08 SN: 100242
! Date: 2026-07-31 14:21:41
! Measurements: S11 S21 S12 S22 
! 
 1.000000000000000E7    -3.995910286903381E-1   9.122987389564514E-1   5.549345910549164E-2   5.550804361701012E-2   5.556263029575348E-2   5.548413097858429E-2  -9.152677655220032E-1   3.936492800712585E-1  
 1.030000000000000E7    -3.661589920520783E-1   9.256097674369812E-1   5.948506295681000E-2   5.617375299334526E-2   5.921963229775429E-2   5.617239326238632E-2  -9.089097976684570E-1   4.072615504264832E-1  
 1.060000000000000E7    -3.298899531364441E-1   9.383834004402161E-1   6.334945559501648E-2   5.737334117293358E-2   6.344785541296005E-2   5.697016045451164E-2  -9.044449329376221E-1   4.197671413421631E-1  
 1.090000000000000E7    -2.969824373722076E-1   9.486282467842102E-1   6.750764697790146E-2   5.762564390897751E-2   6.742008030414581E-2   5.778156220912933E-2  -8.975192904472351E-1   4.325313866138458E-1  
 1.120000000000000E7    -2.608509361743927E-1   9.577130675315857E-1   7.198021560907364E-2   5.864531919360161E-2   7.153458148241043E-2   5.859487876296043E-2  -8.914152383804321E-1   4.454810619354248E-1  
 1.150000000000000E7    -2.244677245616913E-1   9.676511287689209E-1   7.623539865016937E-2   5.894126743078232E-2   7.622383534908295E-2   5.891379341483116E-2  -8.830533027648926E-1   4.558405876159668E-1  
 1.180000000000000E7    -1.890262663364410E-1   9.730735421180725E-1   8.073765784502029E-2   5.934263765811920E-2   8.068061619997025E-2   5.920570343732834E-2  -8.777434229850769E-1   4.678784012794495E-1  
 1.210000000000000E7    -1.532284766435623E-1   9.797962903976440E-1   8.586756139993668E-2   5.983390286564827E-2   8.571367710828781E-2   5.960929393768311E-2  -8.686953783035278E-1   4.814438819885254E-1  
 1.240000000000000E7    -1.164308637380600E-1   9.837676882743835E-1   9.083330631256104E-2   5.985471233725548E-2   9.096867591142654E-2   5.967096239328384E-2  -8.608383536338806E-1   4.929569065570831E-1  
 1.270000000000000E7    -7.948400080204010E-2   9.869239330291748E-1   9.645875543355942E-2   5.959855020046234E-2   9.621536731719971E-2   5.933412164449692E-2  -8.523278236389160E-1   5.084789991378784E-1  
 1.300000000000000E7    -4.272914305329323E-2   9.893304109573364E-1   1.018415391445160E-1   5.938810110092163E-2   1.018350347876549E-1   5.946500971913338E-2  -8.436361551284790E-1   5.204026699066162E-1  
 1.330000000000000E7    -4.841309040784836E-3   9.900331497192383E-1   1.079800650477409E-1   5.899597704410553E-2   1.078649163246155E-1   5.858805030584335E-2  -8.347555398941040E-1   5.341371297836304E-1  
 1.360000000000000E7     3.430355340242386E-2   9.891707301139832E-1   1.140083000063896E-1   5.847748741507530E-2   1.141498163342476E-1   5.785179138183594E-2  -8.255875706672669E-1   5.455827713012695E-1  
 1.390000000000000E7     7.092459499835968E-2   9.854979515075684E-1   1.205910816788673E-1   5.736786127090454E-2   1.202719658613205E-1   5.755915492773056E-2  -8.161637783050537E-1   5.592806935310364E-1  
 1.420000000000000E7     1.097224280238152E-1   9.819481968879700E-1   1.270882338285446E-1   5.659698322415352E-2   1.270243674516678E-1   5.655189231038094E-2  -8.073043823242188E-1   5.719718933105469E-1  
 1.450000000000000E7     1.478641629219055E-1   9.746867418289185E-1   1.342338025569916E-1   5.473840981721878E-2   1.342174559831619E-1   5.496505275368691E-2  -7.941383123397827E-1   5.864484310150147E-1  
 1.480000000000000E7     1.874589025974274E-1   9.675465226173401E-1   1.416064351797104E-1   5.298242345452309E-2   1.415876001119614E-1   5.353624746203423E-2  -7.836276888847351E-1   5.996457338333130E-1  
 1.510000000000000E7     2.249581515789032E-1   9.580484628677368E-1   1.491703242063522E-1   5.108943209052086E-2   1.490780115127564E-1   5.115698277950287E-2  -7.695587277412415E-1   6.133677363395691E-1  
 1.540000000000000E7     2.625097334384918E-1   9.471691250801086E-1   1.572211086750031E-1   4.976632073521614E-2   1.570481806993485E-1   4.888537153601646E-2  -7.597193717956543E-1   6.258506178855896E-1  
 1.570000000000000E7     3.011804819107056E-1   9.352467656135559E-1   1.657447814941406E-1   4.624725133180618E-2   1.656908392906189E-1   4.604550451040268E-2  -7.445945143699646E-1   6.409953236579895E-1  
 1.600000000000000E7     3.398101627826691E-1   9.199662208557129E-1   1.745515018701553E-1   4.299128055572510E-2   1.748211085796356E-1   4.251009598374367E-2  -7.315582633018494E-1   6.530836820602417E-1  
 1.630000000000000E7     3.771544992923737E-1   9.032211899757385E-1   1.845440566539764E-1   3.869119659066200E-2   1.841561049222946E-1   3.904267027974129E-2  -7.166253924369812E-1   6.684193611145020E-1  
 1.660000000000000E7     4.147462248802185E-1   8.834433555603027E-1   1.946903169155121E-1   3.413634002208710E-2   1.939388960599899E-1   3.367543965578079E-2  -6.991778612136841E-1   6.826128363609314E-1  
 1.690000000000000E7     4.516548812389374E-1   8.634924888610840E-1   2.049510776996613E-1   2.976913377642632E-2   2.047180533409119E-1   2.924057655036449E-2  -6.834221482276917E-1   6.958442926406860E-1  
 1.720000000000000E7     4.902441501617432E-1   8.409031629562378E-1   2.150019705295563E-1   2.311107516288757E-2   2.152574062347412E-1   2.350788936018944E-2  -6.654344797134399E-1   7.095299363136292E-1  
 1.750000000000000E7     5.222710371017456E-1   8.182990550994873E-1   2.276902794837952E-1   1.794105581939220E-2   2.279783189296722E-1   1.727465167641640E-2  -6.465782523155212E-1   7.256822586059570E-1  
 1.780000000000000E7     5.598291158676148E-1   7.877378463745117E-1   2.385571748018265E-1   9.432019665837288E-3   2.391258478164673E-1   9.691536426544190E-3  -6.260064840316773E-1   7.369254827499390E-1  
 1.810000000000000E7     5.932531952857971E-1   7.596336603164673E-1   2.527645230293274E-1   9.112842381000519E-4   2.514930963516235E-1   3.596488386392593E-4  -6.037697196006775E-1   7.539944052696228E-1  
 1.840000000000000E7     6.281282305717468E-1   7.270349264144898E-1   2.659343481063843E-1  -1.070353481918573E-2   2.651050984859467E-1  -9.972449392080307E-3  -5.792142152786255E-1   7.666587829589844E-1  
 1.870000000000000E7     6.585171818733215E-1   6.936125755310059E-1   2.800346910953522E-1  -2.111551165580750E-2   2.790219187736511E-1  -2.177176624536514E-2  -5.533714294433594E-1   7.797647714614868E-1  
 1.900000000000000E7     6.894261240959168E-1   6.564612388610840E-1   2.945504784584045E-1  -3.396852687001228E-2   2.941859066486359E-1  -3.470514714717865E-2  -5.258052945137024E-1   7.923513650894165E-1  
 1.930000000000000E7     7.186507582664490E-1   6.153020858764648E-1   3.090112805366516E-1  -5.090054124593735E-2   3.099316060543060E-1  -4.990530759096146E-2  -4.955206811428070E-1   8.060909509658814E-1  
 1.960000000000000E7     7.457185983657837E-1   5.717167854309082E-1   3.247897922992706E-1  -6.796740740537643E-2   3.254211843013763E-1  -6.744880974292755E-2  -4.648502469062805E-1   8.173513412475586E-1  
 1.990000000000000E7     7.684725522994995E-1   5.257318019866943E-1   3.410843014717102E-1  -8.840186893939972E-2   3.416818380355835E-1  -8.871620893478394E-2  -4.265301823616028E-1   8.291764259338379E-1  
 2.020000000000000E7     7.893880605697632E-1   4.755012691020966E-1   3.580952286720276E-1  -1.117093935608864E-1   3.575688898563385E-1  -1.112706214189529E-1  -3.898675441741943E-1   8.362024426460266E-1  
 2.050000000000000E7     8.095375299453735E-1   4.216560125350952E-1   3.751026093959808E-1  -1.381840705871582E-1   3.727030456066132E-1  -1.380637735128403E-1  -3.479471802711487E-1   8.436602950096130E-1  
 2.080000000000000E7     8.219749927520752E-1   3.646272122859955E-1   3.915608823299408E-1  -1.702077835798264E-1   3.916354477405548E-1  -1.701558381319046E-1  -3.011052310466766E-1   8.491208553314209E-1  
 2.110000000000000E7     8.305698037147522E-1   3.050416111946106E-1   4.067437052726746E-1  -2.078912407159805E-1   4.069650173187256E-1  -2.076360732316971E-1  -2.508941292762756E-1   8.491765856742859E-1  
 2.140000000000000E7     8.324251770973206E-1   2.430327236652374E-1   4.204114079475403E-1  -2.505573332309723E-1   4.200232326984406E-1  -2.483731806278229E-1  -1.967488080263138E-1   8.455359935760498E-1  
 2.170000000000000E7     8.271650075912476E-1   1.784405410289764E-1   4.321472048759460E-1  -2.982334196567535E-1   4.325565993785858E-1  -2.971752583980560E-1  -1.373555958271027E-1   8.350746631622315E-1  
 2.200000000000000E7     8.133447766304016E-1   1.096485555171967E-1   4.382880926132202E-1  -3.540222048759460E-1   4.386327266693115E-1  -3.538524210453033E-1  -7.360884547233582E-2   8.164536952972412E-1  
 2.230000000000000E7     7.879495024681091E-1   4.222870990633965E-2   4.387047290802002E-1  -4.172232151031494E-1   4.390848875045776E-1  -4.163708090782166E-1  -7.411502301692963E-3   7.886661887168884E-1  
 2.260000000000000E7     7.518987655639648E-1  -2.477166429162026E-2   4.301927089691162E-1  -4.881294965744019E-1   4.319506585597992E-1  -4.896193444728851E-1   6.004595384001732E-2   7.475692033767700E-1  
 2.290000000000000E7     7.019921541213989E-1  -8.655144274234772E-2   4.100497663021088E-1  -5.664786696434021E-1   4.114915132522583E-1  -5.668132305145264E-1   1.298544704914093E-1   6.918420195579529E-1  
 2.320000000000000E7     6.384794116020203E-1  -1.370349675416946E-1   3.726684153079987E-1  -6.503451466560364E-1   3.717074096202850E-1  -6.498898267745972E-1   1.935797631740570E-1   6.228232979774475E-1  
 2.350000000000000E7     5.624980330467224E-1  -1.757800281047821E-1   3.146057426929474E-1  -7.351711392402649E-1   3.157013058662415E-1  -7.342131733894348E-1   2.482648491859436E-1   5.328298211097717E-1  
 2.380000000000000E7     4.766273200511932E-1  -1.977016180753708E-1   2.377740442752838E-1  -8.148829936981201E-1   2.374610900878906E-1  -8.149463534355164E-1   2.871161699295044E-1   4.256851971149445E-1  
 2.410000000000000E7     3.876210153102875E-1  -1.952306777238846E-1   1.352429538965225E-1  -8.829314708709717E-1   1.350478529930115E-1  -8.815460801124573E-1   3.028844892978668E-1   3.068428635597229E-1  
 2.440000000000000E7     3.042933642864227E-1  -1.655591428279877E-1   1.296965312212706E-2  -9.292826056480408E-1   1.210553571581841E-2  -9.304807186126709E-1   2.877595722675324E-1   1.826811581850052E-1  
 2.470000000000000E7     2.343378365039825E-1  -1.151753142476082E-1  -1.224709525704384E-1  -9.500201344490051E-1  -1.217266321182251E-1  -9.496085643768311E-1   2.451860159635544E-1   5.815105885267258E-2  
 2.500000000000000E7     1.819105744361877E-1  -4.682009294629097E-2  -2.611264586448669E-1  -9.385874271392822E-1  -2.632095515727997E-1  -9.384282827377319E-1   1.734713464975357E-1  -4.594762250781059E-2  
 2.530000000000000E7     1.582168191671372E-1   3.415905311703682E-2  -3.957426548004150E-1  -8.972111940383911E-1  -3.932102918624878E-1  -8.963308930397034E-1   7.785791903734207E-2  -1.302654743194580E-1  
 2.560000000000000E7     1.602381467819214E-1   1.092371940612793E-1  -5.114389061927795E-1  -8.296332359313965E-1  -5.103798508644104E-1  -8.287733197212219E-1  -2.984486147761345E-2  -1.848648935556412E-1  
 2.590000000000000E7     1.904661655426025E-1   1.732971817255020E-1  -6.058412194252014E-1  -7.441139817237854E-1  -6.069207787513733E-1  -7.443298697471619E-1  -1.342522352933884E-1  -2.132463008165360E-1  
 2.620000000000000E7     2.352585494518280E-1   2.245081216096878E-1  -6.811177134513855E-1  -6.487165093421936E-1  -6.794794797897339E-1  -6.483424305915833E-1  -2.369543462991715E-1  -2.166944891214371E-1  
 2.650000000000000E7     2.885747849941254E-1   2.581229507923126E-1  -7.310847043991089E-1  -5.505698323249817E-1  -7.327175736427307E-1  -5.503077507019043E-1  -3.291239440441132E-1  -1.986128240823746E-1  
 2.680000000000000E7     3.483198285102844E-1   2.719920575618744E-1  -7.650642395019531E-1  -4.542403519153595E-1  -7.664192318916321E-1  -4.550553560256958E-1  -4.055048227310181E-1  -1.666849553585053E-1  
 2.710000000000000E7     4.059034883975983E-1   2.684518098831177E-1  -7.883366942405701E-1  -3.634709417819977E-1  -7.878971099853516E-1  -3.608444035053253E-1  -4.681153595447540E-1  -1.295828223228455E-1  
 2.740000000000000E7     4.632757306098938E-1   2.521678507328033E-1  -7.967689037322998E-1  -2.772143483161926E-1  -7.986372709274292E-1  -2.773320674896240E-1  -5.165629386901856E-1  -8.228210359811783E-2  
 2.770000000000000E7     5.112439990043640E-1   2.209104746580124E-1  -8.002839088439941E-1  -1.973785907030106E-1  -8.029429912567139E-1  -1.977516710758209E-1  -5.535964369773865E-1  -3.694396466016769E-2  
 2.800000000000000E7     5.529946088790894E-1   1.803698986768723E-1  -7.975350022315979E-1  -1.215196773409843E-1  -7.985234260559082E-1  -1.245586127042770E-1  -5.800331830978394E-1   1.128006167709827E-2  
 2.830000000000000E7     5.853168964385986E-1   1.289637237787247E-1  -7.923163771629334E-1  -5.084634572267532E-2  -7.928236722946167E-1  -5.054204910993576E-2  -5.954933166503906E-1   5.307412520051003E-2  
 2.860000000000000E7     6.070957779884338E-1   6.849584728479385E-2  -7.844691276550293E-1   1.755085587501526E-2  -7.858215570449829E-1   1.798677258193493E-2  -6.028487086296082E-1   9.650825709104538E-2  
 2.890000000000000E7     6.158993244171143E-1   1.982311485335231E-3  -7.765594720840454E-1   8.490833640098572E-2  -7.751384377479553E-1   8.515612035989761E-2  -6.017668843269348E-1   1.350244581699371E-1  
 2.920000000000000E7     6.144204139709473E-1  -7.133059948682785E-2  -7.644761204719544E-1   1.528994292020798E-1  -7.638479471206665E-1   1.542367339134216E-1  -5.948833823204041E-1   1.692296564579010E-1  
 2.950000000000000E7     5.917310118675232E-1  -1.494095474481583E-1  -7.525348067283630E-1   2.243023365736008E-1  -7.515784502029419E-1   2.239605039358139E-1  -5.793095827102661E-1   1.989063918590546E-1  
 2.980000000000000E7     5.519496798515320E-1  -2.296422868967056E-1  -7.342357635498047E-1   3.006933927536011E-1  -7.354068160057068E-1   3.010808825492859E-1  -5.567051172256470E-1   2.208494246006012E-1  
 3.010000000000000E7     4.853650033473969E-1  -3.091941475868225E-1  -7.113822698593140E-1   3.859370052814484E-1  -7.116472125053406E-1   3.841281533241272E-1  -5.288952589035034E-1   2.351604402065277E-1  
 3.040000000000000E7     3.879587054252625E-1  -3.842964172363281E-1  -6.758633852005005E-1   4.781651496887207E-1  -6.767921447753906E-1   4.808188080787659E-1  -4.946984946727753E-1   2.351190894842148E-1  
 3.070000000000000E7     2.553259134292603E-1  -4.363094270229340E-1  -6.210036873817444E-1   5.830022096633911E-1  -6.206161975860596E-1   5.817204117774963E-1  -4.615576863288879E-1   2.222767919301987E-1  
 3.100000000000000E7     8.060596883296967E-2  -4.495934844017029E-1  -5.365666151046753E-1   6.923331022262573E-1  -5.364286303520203E-1   6.912378072738648E-1  -4.292860329151154E-1   1.888511329889298E-1  
 3.130000000000000E7    -1.206180602312088E-1  -3.958216309547424E-1  -4.086784720420837E-1   7.960289120674133E-1  -4.093395471572876E-1   7.952228784561157E-1  -4.089908599853516E-1   1.297773271799088E-1  
 3.160000000000000E7    -3.203418552875519E-1  -2.433523386716843E-1  -2.333227396011353E-1   8.654153347015381E-1  -2.333202958106995E-1   8.657883405685425E-1  -4.200150966644287E-1   5.391291528940201E-2  
 3.190000000000000E7    -4.506492912769318E-1   9.187102317810059E-3  -2.327145636081696E-2   8.706781864166260E-1  -2.387282997369766E-2   8.700824379920960E-1  -4.709689021110535E-1  -2.305432409048080E-2  
 3.220000000000000E7    -4.548173844814301E-1   3.140740692615509E-1   1.775791198015213E-1   7.907072305679321E-1   1.776005476713181E-1   7.909486889839172E-1  -5.650465488433838E-1  -7.513996958732605E-2  
 3.250000000000000E7    -3.186738193035126E-1   5.861803293228149E-1   3.199394047260284E-1   6.463080644607544E-1   3.200744092464447E-1   6.463904380798340E-1  -6.759929060935974E-1  -7.966157793998718E-2  
 3.280000000000000E7    -9.805540740489960E-2   7.592400312423706E-1   3.868591487407684E-1   4.819599986076355E-1   3.885885775089264E-1   4.818790853023529E-1  -7.746455073356628E-1  -4.255085438489914E-2  
 3.310000000000000E7     1.352754235267639E-1   8.277902007102966E-1   3.956255316734314E-1   3.360565602779388E-1   3.950305283069611E-1   3.362050652503967E-1  -8.480291962623596E-1   2.206977456808090E-2  
 3.340000000000000E7     3.445550203323364E-1   8.203982710838318E-1   3.685500025749207E-1   2.242655605077744E-1   3.682562410831451E-1   2.235713899135590E-1  -8.918479681015015E-1   9.445354342460632E-2  
 3.370000000000000E7     5.143417119979858E-1   7.666058540344238E-1   3.258295953273773E-1   1.427427232265472E-1   3.254652321338654E-1   1.430388092994690E-1  -9.155918359756470E-1   1.626009047031403E-1  
 3.400000000000000E7     6.455923318862915E-1   6.912651658058167E-1   2.817814648151398E-1   8.756266534328461E-2   2.815845906734467E-1   8.783034980297089E-2  -9.238345026969910E-1   2.249783724546433E-1  
 3.430000000000000E7     7.456792593002319E-1   6.066983938217163E-1   2.406619489192963E-1   4.982978105545044E-2   2.399483323097229E-1   4.956802725791931E-2  -9.235044121742249E-1   2.795729637145996E-1  
 3.460000000000000E7     8.214598298072815E-1   5.194462537765503E-1   2.037281692028046E-1   2.428914606571198E-2   2.035769820213318E-1   2.498042024672031E-2  -9.193420410156250E-1   3.269748091697693E-1  
 3.490000000000000E7     8.778311014175415E-1   4.337211847305298E-1   1.723263710737228E-1   7.618192583322525E-3   1.714412719011307E-1   7.412099279463291E-3  -9.085589647293091E-1   3.687105476856232E-1  
 3.520000000000000E7     9.193492531776428E-1   3.521758913993835E-1   1.445670574903488E-1  -3.151877317577601E-3   1.444269418716431E-1  -2.992497291415930E-3  -8.990939855575562E-1   4.061753153800964E-1  
 3.550000000000000E7     9.482744932174683E-1   2.726320624351502E-1   1.215167790651321E-1  -9.769896045327187E-3   1.215470731258392E-1  -9.637963026762009E-3  -8.872200250625610E-1   4.382537901401520E-1  
 3.580000000000000E7     9.700394272804260E-1   1.991252899169922E-1   1.021759584546089E-1  -1.416180841624737E-2   1.021465286612511E-1  -1.405661366879940E-2  -8.741221427917481E-1   4.684475958347321E-1  
 3.610000000000000E7     9.841086864471436E-1   1.292505562305450E-1   8.623058348894119E-2  -1.623402908444405E-2   8.581607788801193E-2  -1.638763956725597E-2  -8.620296120643616E-1   4.964514076709747E-1  
 3.640000000000000E7     9.921002388000488E-1   6.222168728709221E-2   7.218772172927856E-2  -1.707190647721291E-2   7.211647182703018E-2  -1.714540459215641E-2  -8.483020067214966E-1   5.192724466323853E-1  
 3.670000000000000E7     9.952717423439026E-1  -1.480579376220703E-4   6.065989285707474E-2  -1.723597198724747E-2   6.033483520150185E-2  -1.730950362980366E-2  -8.356879353523254E-1   5.413331985473633E-1  
 3.700000000000000E7     9.936565160751343E-1  -5.995312333106995E-2   5.061611160635948E-2  -1.674607582390308E-2   5.048751831054688E-2  -1.685221865773201E-2  -8.224961161613464E-1   5.636697411537170E-1  
 3.730000000000000E7     9.890055060386658E-1  -1.180415600538254E-1   4.201980680227280E-2  -1.599803566932678E-2   4.222019761800766E-2  -1.587243936955929E-2  -8.081812262535095E-1   5.811237096786499E-1  
 3.760000000000000E7     9.810016751289368E-1  -1.704688221216202E-1   3.504729270935059E-2  -1.486579142510891E-2   3.510689735412598E-2  -1.481231674551964E-2  -7.962629795074463E-1   6.008082628250122E-1  
 3.790000000000000E7     9.712495803833008E-1  -2.232236564159393E-1   2.906402200460434E-2  -1.359148509800434E-2   2.902457676827908E-2  -1.361780241131783E-2  -7.835334539413452E-1   6.171822547912598E-1  
 3.820000000000000E7     9.592654705047607E-1  -2.731416821479797E-1   2.401011250913143E-2  -1.215392537415028E-2   2.399145811796188E-2  -1.227163802832365E-2  -7.704491615295410E-1   6.319537162780762E-1  
 3.850000000000000E7     9.440322518348694E-1  -3.215211033821106E-1   1.969536393880844E-2  -1.084612123668194E-2   1.959122717380524E-2  -1.092174742370844E-2  -7.596286535263062E-1   6.477647423744202E-1  
 3.880000000000000E7     9.274079799652100E-1  -3.661311566829681E-1   1.587454229593277E-2  -9.593080729246140E-3   1.587737537920475E-2  -9.499382227659226E-3  -7.470194101333618E-1   6.626944541931152E-1  
 3.910000000000000E7     9.098409414291382E-1  -4.102503359317780E-1   1.281522121280432E-2  -8.308469317853451E-3   1.285348366945982E-2  -8.276974782347679E-3  -7.352102994918823E-1   6.775122880935669E-1  
 3.940000000000000E7     8.892158269882202E-1  -4.501601159572601E-1   1.023096125572920E-2  -6.923989858478308E-3   1.011568680405617E-2  -6.991359405219555E-3  -7.224762439727783E-1   6.889249086380005E-1  
 3.970000000000000E7     8.691479563713074E-1  -4.904250800609589E-1   8.028350770473480E-3  -5.876162555068731E-3   8.102378807961941E-3  -5.822400562465191E-3  -7.095960378646851E-1   7.008844614028931E-1  
 4.000000000000000E7     8.457698225975037E-1  -5.280921459197998E-1   6.136560346931219E-3  -4.788243677467108E-3   6.193353794515133E-3  -4.761971533298492E-3  -6.989530920982361E-1   7.134059667587280E-1  
 4.030000000000000E7     8.230162858963013E-1  -5.642325282096863E-1   4.599946085363627E-3  -3.929577302187681E-3   4.680186044424772E-3  -3.826087573543191E-3  -6.871892809867859E-1   7.246587872505188E-1  
 4.060000000000000E7     7.979053854942322E-1  -5.989145040512085E-1   3.382339840754867E-3  -2.938104793429375E-3   3.438764950260520E-3  -2.952006878331304E-3  -6.747274398803711E-1   7.350792288780212E-1  
 4.090000000000000E7     7.719447016716003E-1  -6.323268413543701E-1   2.363093663007021E-3  -2.154759829863906E-3   2.299006329849362E-3  -2.163632772862911E-3  -6.635223627090454E-1   7.454572319984436E-1  
 4.120000000000000E7     7.456505894660950E-1  -6.640628576278687E-1   1.451859832741320E-3  -1.527581480331719E-3   1.481292652897537E-3  -1.410671742632985E-3  -6.510931849479675E-1   7.557278275489807E-1  
 4.150000000000000E7     7.179700136184692E-1  -6.926822066307068E-1   8.318790351040661E-4  -8.354308083653450E-4   9.283641702495515E-4  -8.137080585584045E-4  -6.390852928161621E-1   7.657923102378845E-1  
 4.180000000000000E7     6.892296075820923E-1  -7.222841978073120E-1   4.091340524610132E-4  -3.460381121840328E-4   3.465523186605424E-4  -3.654184693004936E-4  -6.288250684738159E-1   7.743698358535767E-1  
 4.210000000000000E7     6.600950360298157E-1  -7.490159869194031E-1   4.197624366497621E-5   1.019580304273404E-4  -4.995880590286106E-5   1.161855398095213E-4  -6.170156598091126E-1   7.844619750976563E-1  
 4.240000000000000E7     6.298516988754273E-1  -7.731375694274902E-1  -3.415101964492351E-4   3.892441163770855E-4  -3.000283613801003E-4   4.881451604887843E-4  -6.065882444381714E-1   7.935428619384766E-1  
 4.270000000000000E7     5.984553694725037E-1  -7.974138259887695E-1  -4.814939748030156E-4   6.989766843616962E-4  -4.613839264493436E-4   6.415489478968084E-4  -5.941346883773804E-1   8.025574684143066E-1  
 4.300000000000000E7     5.664850473403931E-1  -8.210018277168274E-1  -5.939227994531393E-4   8.486043079756200E-4  -5.873194313608110E-4   7.990503218024969E-4  -5.827502012252808E-1   8.114239573478699E-1  
 4.330000000000000E7     5.372321605682373E-1  -8.422686457633972E-1  -5.351725849322975E-4   8.902170229703188E-4  -6.833216175436974E-4   8.638092549517751E-4  -5.710335373878479E-1   8.184853196144104E-1  
 4.360000000000000E7     5.032683610916138E-1  -8.615150451660156E-1  -5.313592264428735E-4   9.978665038943291E-4  -6.586534436792135E-4   9.241930674761534E-4  -5.605483651161194E-1   8.265728950500488E-1  
 4.390000000000000E7     4.699647128582001E-1  -8.815793991088867E-1  -6.335281650535762E-4   8.404088439419866E-4  -6.601963541470468E-4   8.660246385261416E-4  -5.485965609550476E-1   8.334274291992188E-1  
 4.420000000000000E7     4.360160827636719E-1  -8.970382213592529E-1  -4.682625876739621E-4   8.469923632219434E-4  -3.950450045522302E-4   7.739828433841467E-4  -5.366930365562439E-1   8.402304053306580E-1  
 4.450000000000000E7     4.017753005027771E-1  -9.129883646965027E-1  -2.770008868537843E-4   6.478870054706931E-4  -3.671470622066408E-4   6.816568784415722E-4  -5.265004634857178E-1   8.476334214210510E-1  
 4.480000000000000E7     3.680266141891480E-1  -9.272686243057251E-1  -2.402900427114219E-4   4.139716038480401E-4  -2.043380955001339E-4   3.319457464385778E-4  -5.155139565467835E-1   8.538699150085449E-1  
 4.510000000000000E7     3.347543179988861E-1  -9.404455423355103E-1  -4.437711322680116E-5   1.193967109429650E-4   2.183052856707946E-5   1.449595129088266E-5  -5.045124888420105E-1   8.615158796310425E-1  
 4.540000000000000E7     2.995231151580811E-1  -9.515405297279358E-1   7.909187115728855E-5  -2.996341208927333E-4   1.073368403012864E-4  -2.567386545706540E-4  -4.925829470157623E-1   8.682175278663635E-1  
 4.570000000000000E7     2.642947435379028E-1  -9.623926877975464E-1   2.361027582082897E-4  -7.275550742633641E-4   2.885923604480922E-4  -6.807340541854501E-4  -4.814298450946808E-1   8.740251660346985E-1  
 4.600000000000000E7     2.314715087413788E-1  -9.705430865287781E-1   3.046769415959716E-4  -1.088041113689542E-3   3.995704173576087E-4  -1.211106427945197E-3  -4.710254669189453E-1   8.797870278358460E-1  
 4.630000000000000E7     1.937430799007416E-1  -9.792243242263794E-1   4.749819054268301E-4  -1.556895556859672E-3   5.252452101558447E-4  -1.578044728375971E-3  -4.601131081581116E-1   8.857654929161072E-1  
 4.660000000000000E7     1.577883660793304E-1  -9.864405989646912E-1   6.621319334954023E-4  -2.168576698750258E-3   6.939345621503890E-4  -2.160210162401199E-3  -4.468931555747986E-1   8.918417692184448E-1  
 4.690000000000000E7     1.229523047804833E-1  -9.902937412261963E-1   6.798186805099249E-4  -2.768439706414938E-3   7.556573837064207E-4  -2.708034357056022E-3  -4.368956685066223E-1   8.977839946746826E-1  
 4.720000000000000E7     8.710037171840668E-2  -9.935621619224548E-1   7.926296093501151E-4  -3.445283276960254E-3   8.110256167128682E-4  -3.407815238460898E-3  -4.247166514396668E-1   9.024136066436768E-1  
 4.750000000000000E7     5.255100503563881E-2  -9.971414804458618E-1   9.557353914715350E-4  -4.052476491779089E-3   1.033085165545344E-3  -4.098209552466869E-3  -4.141287803649902E-1   9.080170392990112E-1  
 4.780000000000000E7     1.761053502559662E-2  -9.978960752487183E-1   9.846955072134733E-4  -4.716034978628159E-3   1.068728161044419E-3  -4.651112947613001E-3  -4.019145965576172E-1   9.118124246597290E-1  
 4.810000000000000E7    -1.854728907346726E-2  -9.976795911788940E-1   9.855146054178476E-4  -5.463898181915283E-3   1.029470120556653E-3  -5.508040077984333E-3  -3.919327855110169E-1   9.172841906547546E-1  
 4.840000000000000E7    -5.363550037145615E-2  -9.971856474876404E-1   1.023469725623727E-3  -6.220900453627110E-3   9.516539284959436E-4  -6.234400905668736E-3  -3.807049989700317E-1   9.222439527511597E-1  
 4.870000000000000E7    -8.882111310958862E-2  -9.946139454841614E-1   9.578558383509517E-4  -7.153836078941822E-3   9.633352747187018E-4  -7.031603250652552E-3  -3.692751526832581E-1   9.267024397850037E-1  
 4.900000000000000E7    -1.242864653468132E-1  -9.914478659629822E-1   9.199446649290621E-4  -7.780776824802160E-3   9.080034215003252E-4  -7.778992876410484E-3  -3.585584163665772E-1   9.306071996688843E-1  
 4.930000000000000E7    -1.592014133930206E-1  -9.860450625419617E-1   7.863433565944433E-4  -8.679307065904141E-3   7.727012853138149E-4  -8.574367500841618E-3  -3.465304076671600E-1   9.355408549308777E-1  
 4.960000000000000E7    -1.927085667848587E-1  -9.781565070152283E-1   6.056228885427117E-4  -9.386496618390083E-3   6.172679131850600E-4  -9.483761154115200E-3  -3.356343805789948E-1   9.393732547760010E-1  
 4.990000000000000E7    -2.263414263725281E-1  -9.712333083152771E-1   5.023913690820336E-4  -1.037005335092545E-2   5.083219148218632E-4  -1.040271949023008E-2  -3.244631290435791E-1   9.428338408470154E-1  
 5.020000000000000E7    -2.595363259315491E-1  -9.643563032150269E-1   2.483141142874956E-4  -1.123917475342751E-2   2.954084775410593E-4  -1.126643456518650E-2  -3.131448626518250E-1   9.467352032661438E-1  
 5.050000000000000E7    -2.936947643756867E-1  -9.541333317756653E-1  -5.112495273351669E-6  -1.217163912951946E-2   8.640869054943323E-6  -1.213187817484140E-2  -3.021813631057739E-1   9.516912698745728E-1  
 5.080000000000000E7    -3.256444334983826E-1  -9.441104531288147E-1  -2.757076872512698E-4  -1.304445508867502E-2  -2.820837544277310E-4  -1.304097939282656E-2  -2.905391752719879E-1   9.530452489852905E-1  
 5.110000000000000E7    -3.589063584804535E-1  -9.312806725502014E-1  -6.326927104964852E-4  -1.395903062075377E-2  -6.277087377384305E-4  -1.395321730524302E-2  -2.801495194435120E-1   9.572129845619202E-1  
 5.140000000000000E7    -3.904976248741150E-1  -9.179980754852295E-1  -1.005348516628146E-3  -1.486581843346357E-2  -1.041315728798509E-3  -1.488709449768066E-2  -2.677113711833954E-1   9.624593257904053E-1  
 5.170000000000000E7    -4.212985634803772E-1  -9.042280912399292E-1  -1.480280305258930E-3  -1.580613851547241E-2  -1.457142876461148E-3  -1.580556295812130E-2  -2.562456130981445E-1   9.630179405212402E-1  
 5.200000000000000E7    -4.529871940612793E-1  -8.906256556510925E-1  -1.938466331921518E-3  -1.675156131386757E-2  -1.866055186837912E-3  -1.681886427104473E-2  -2.450069338083267E-1   9.653027653694153E-1  
 5.230000000000000E7    -4.830417931079865E-1  -8.732325434684753E-1  -2.426817314699292E-3  -1.768985018134117E-2  -2.443172968924046E-3  -1.768717356026173E-2  -2.339544594287872E-1   9.690363407135010E-1  
 5.260000000000000E7    -5.118428468704224E-1  -8.553482890129089E-1  -3.016237169504166E-3  -1.864246279001236E-2  -3.042962867766619E-3  -1.863049156963825E-2  -2.225202172994614E-1   9.720851182937622E-1  
 5.290000000000000E7    -5.419930815696716E-1  -8.374595046043396E-1  -3.594776149839163E-3  -1.955552026629448E-2  -3.619729075580835E-3  -1.955125294625759E-2  -2.118729948997498E-1   9.738477468490601E-1  
 5.320000000000000E7    -5.699299573898315E-1  -8.197328448295593E-1  -4.264677409082651E-3  -2.051467262208462E-2  -4.314041696488857E-3  -2.052780799567699E-2  -2.002049088478088E-1   9.767543673515320E-1  
 5.350000000000000E7    -5.963661670684815E-1  -7.994104623794556E-1  -4.931233357638121E-3  -2.141502685844898E-2  -4.975429270416498E-3  -2.142410725355148E-2  -1.901941299438477E-1   9.793532490730286E-1  
 5.380000000000000E7    -6.223852038383484E-1  -7.785303592681885E-1  -5.661319475620985E-3  -2.237169072031975E-2  -5.693351384252310E-3  -2.229806035757065E-2  -1.769348084926605E-1   9.804970026016235E-1  
 5.410000000000000E7    -6.511071920394898E-1  -7.570921778678894E-1  -6.516281515359879E-3  -2.327959612011910E-2  -6.559420377016068E-3  -2.325174957513809E-2  -1.661866307258606E-1   9.830084443092346E-1  
 5.440000000000000E7    -6.757178902626038E-1  -7.334806323051453E-1  -7.384919561445713E-3  -2.416983991861343E-2  -7.387344259768724E-3  -2.417989261448383E-2  -1.550353467464447E-1   9.844218492507935E-1  
 5.470000000000000E7    -6.992217302322388E-1  -7.115453481674194E-1  -8.266859687864780E-3  -2.499051392078400E-2  -8.333043195307255E-3  -2.505300194025040E-2  -1.425779759883881E-1   9.861993193626404E-1  
 5.500000000000000E7    -7.237315773963928E-1  -6.868839859962463E-1  -9.229170158505440E-3  -2.596647664904594E-2  -9.226475842297077E-3  -2.592836134135723E-2  -1.308101713657379E-1   9.886264204978943E-1  
 5.530000000000000E7    -7.461946606636047E-1  -6.622732877731323E-1  -1.016617286950350E-2  -2.681713551282883E-2  -1.031691487878561E-2  -2.677344158291817E-2  -1.196430101990700E-1   9.889158010482788E-1  
 5.560000000000000E7    -7.691900134086609E-1  -6.354085206985474E-1  -1.135509554296732E-2  -2.766634337604046E-2  -1.125224772840738E-2  -2.761205099523068E-2  -1.091134250164032E-1   9.907459020614624E-1  
 5.590000000000000E7    -7.899412512779236E-1  -6.104242801666260E-1  -1.236699894070625E-2  -2.845726534724236E-2  -1.243679318577051E-2  -2.842296473681927E-2  -9.670244902372360E-2   9.918289184570313E-1  
 5.620000000000000E7    -8.099258542060852E-1  -5.810914039611816E-1  -1.351837068796158E-2  -2.926051244139671E-2  -1.347834244370461E-2  -2.917125076055527E-2  -8.590839058160782E-2   9.933737516403198E-1  
 5.650000000000000E7    -8.286778926849365E-1  -5.549164414405823E-1  -1.467487402260304E-2  -2.998892217874527E-2  -1.464030332863331E-2  -3.005053848028183E-2  -7.410904765129089E-2   9.934243559837341E-1  
 5.680000000000000E7    -8.469025492668152E-1  -5.263960957527161E-1  -1.593479700386524E-2  -3.077322430908680E-2  -1.596556603908539E-2  -3.074154071509838E-2  -6.236390769481659E-2   9.937509894371033E-1  
 5.710000000000000E7    -8.646212816238403E-1  -4.963666200637817E-1  -1.727602258324623E-2  -3.140080720186234E-2  -1.733761467039585E-2  -3.145923092961311E-2  -5.098045244812965E-2   9.951287508010864E-1  
 5.740000000000000E7    -8.813981413841248E-1  -4.672136902809143E-1  -1.863377913832665E-2  -3.216475620865822E-2  -1.856773532927036E-2  -3.216118365526199E-2  -3.884762153029442E-2   9.954375624656677E-1  
 5.770000000000000E7    -8.952787518501282E-1  -4.381921589374542E-1  -1.992099359631538E-2  -3.286770731210709E-2  -1.989142224192619E-2  -3.284304589033127E-2  -2.887483313679695E-2   9.953559637069702E-1  
 5.800000000000000E7    -9.097383618354797E-1  -4.062615633010864E-1  -2.148832567036152E-2  -3.348986059427261E-2  -2.147767879068852E-2  -3.332797437906265E-2  -1.525793969631195E-2   9.967716932296753E-1  
 5.830000000000000E7    -9.228268861770630E-1  -3.754607141017914E-1  -2.287248708307743E-2  -3.400975093245506E-2  -2.293190732598305E-2  -3.405263647437096E-2  -5.117163062095642E-3   9.969677329063416E-1  
 5.860000000000000E7    -9.363466501235962E-1  -3.446393311023712E-1  -2.441362850368023E-2  -3.454969450831413E-2  -2.443122304975987E-2  -3.459041565656662E-2   6.830275058746338E-3   9.958935976028442E-1  
 5.890000000000000E7    -9.462429285049439E-1  -3.126832246780396E-1  -2.600378170609474E-2  -3.509494662284851E-2  -2.590595744550228E-2  -3.516502678394318E-2   1.787256449460983E-2   9.951655864715576E-1  
 5.920000000000000E7    -9.565114378929138E-1  -2.794668078422546E-1  -2.766823582351208E-2  -3.549659624695778E-2  -2.767956256866455E-2  -3.541636094450951E-2   3.005544096231461E-2   9.960944652557373E-1  
 5.950000000000000E7    -9.647377133369446E-1  -2.474072873592377E-1  -2.927080728113651E-2  -3.587855398654938E-2  -2.920512109994888E-2  -3.593479096889496E-2   4.133293032646179E-2   9.939312934875488E-1  
 5.980000000000000E7    -9.731356501579285E-1  -2.142257094383240E-1  -3.110485151410103E-2  -3.626926243305206E-2  -3.094995953142643E-2  -3.628233447670937E-2   5.379657447338104E-2   9.935042858123779E-1  
 6.010000000000000E7    -9.783223867416382E-1  -1.823545694351196E-1  -3.262594342231751E-2  -3.674189746379852E-2  -3.262967616319656E-2  -3.672156110405922E-2   6.472096592187882E-2   9.937683343887329E-1  
 6.040000000000000E7    -9.843501448631287E-1  -1.475698053836823E-1  -3.450721502304077E-2  -3.695327416062355E-2  -3.452399373054504E-2  -3.698357194662094E-2   7.649990171194077E-2   9.933180212974548E-1  
 6.070000000000000E7    -9.899403452873230E-1  -1.158746927976608E-1  -3.644289448857307E-2  -3.729127347469330E-2  -3.631974756717682E-2  -3.719512000679970E-2   8.760417252779007E-2   9.915758967399597E-1  
 6.100000000000000E7    -9.922617077827454E-1  -8.236570656299591E-2  -3.837900236248970E-2  -3.723601624369621E-2  -3.827679157257080E-2  -3.731483966112137E-2   1.006859764456749E-1   9.904494285583496E-1  
 6.130000000000000E7    -9.948630332946777E-1  -4.776869714260101E-2  -4.034910351037979E-2  -3.749766945838928E-2  -4.022569209337235E-2  -3.746807575225830E-2   1.126405298709869E-1   9.896763563156128E-1  
 6.160000000000000E7    -9.953069090843201E-1  -1.470053195953369E-2  -4.208756238222122E-2  -3.756900876760483E-2  -4.219628870487213E-2  -3.760852292180061E-2   1.228296011686325E-1   9.869093894958496E-1  
 6.190000000000000E7    -9.949470758438110E-1   1.873911917209625E-2  -4.409468546509743E-2  -3.767333924770355E-2  -4.408609867095947E-2  -3.743502870202065E-2   1.339409202337265E-1   9.851769208908081E-1  
 6.220000000000000E7    -9.939322471618652E-1   5.231553316116333E-2  -4.601842164993286E-2  -3.760374337434769E-2  -4.623213782906532E-2  -3.754865378141403E-2   1.455663442611694E-1   9.847443103790283E-1  
 6.250000000000000E7    -9.917638897895813E-1   8.606176823377609E-2  -4.824665188789368E-2  -3.760583698749542E-2  -4.822052642703056E-2  -3.748420998454094E-2   1.571016609668732E-1   9.829409122467041E-1  
 6.280000000000000E7    -9.873701930046082E-1   1.193968206644058E-1  -5.042938888072968E-2  -3.728486597537994E-2  -5.025431141257286E-2  -3.744490817189217E-2   1.692599058151245E-1   9.810665845870972E-1  
 6.310000000000000E7    -9.824351072311401E-1   1.535448729991913E-1  -5.270662531256676E-2  -3.716812282800674E-2  -5.243929475545883E-2  -3.709113225340843E-2   1.807287335395813E-1   9.787762165069580E-1  
 6.340000000000000E7    -9.765031933784485E-1   1.868568360805512E-1  -5.471191555261612E-2  -3.678877651691437E-2  -5.461417883634567E-2  -3.671555593609810E-2   1.927329003810883E-1   9.767652750015259E-1  
 6.370000000000000E7    -9.697809815406799E-1   2.195984572172165E-1  -5.691467225551605E-2  -3.637135773897171E-2  -5.680385977029800E-2  -3.633246570825577E-2   2.034986019134522E-1   9.733022451400757E-1  
 6.400000000000000E7    -9.608185887336731E-1   2.516689002513886E-1  -5.925059318542481E-2  -3.577931597828865E-2  -5.913994088768959E-2  -3.584995865821838E-2   2.159042805433273E-1   9.717495441436768E-1  
 6.430000000000000E7    -9.514685869216919E-1   2.856808304786682E-1  -6.161117553710938E-2  -3.554949536919594E-2  -6.135728210210800E-2  -3.527233377099037E-2   2.269268035888672E-1   9.684816598892212E-1  
 6.460000000000000E7    -9.419389367103577E-1   3.176528811454773E-1  -6.374166905879974E-2  -3.478004038333893E-2  -6.372426450252533E-2  -3.485769778490067E-2   2.375898808240891E-1   9.653171896934509E-1  
 6.490000000000000E7    -9.317689538002014E-1   3.490852117538452E-1  -6.602866947650909E-2  -3.427905216813088E-2  -6.612671911716461E-2  -3.431082516908646E-2   2.491646409034729E-1   9.628157615661621E-1  
 6.520000000000000E7    -9.177936911582947E-1   3.798648118972778E-1  -6.857757270336151E-2  -3.358845412731171E-2  -6.834024190902710E-2  -3.331531956791878E-2   2.611933350563049E-1   9.602359533309937E-1  
 6.550000000000000E7    -9.052244424819946E-1   4.106774926185608E-1  -7.088352739810944E-2  -3.260942175984383E-2  -7.073217630386353E-2  -3.266197443008423E-2   2.721194624900818E-1   9.551177024841309E-1  
 6.580000000000000E7    -8.897337913513184E-1   4.414232373237610E-1  -7.330160588026047E-2  -3.157342225313187E-2  -7.322310656309128E-2  -3.179959207773209E-2   2.843778133392334E-1   9.532757997512817E-1  
 6.610000000000000E7    -8.729423284530640E-1   4.710841178894043E-1  -7.565004378557205E-2  -3.060669824481010E-2  -7.532351464033127E-2  -3.032321296632290E-2   2.965941429138184E-1   9.477543234825134E-1  
 6.640000000000000E7    -8.582459092140198E-1   5.012019276618958E-1  -7.820131629705429E-2  -2.961643412709236E-2  -7.820534706115723E-2  -2.964406833052635E-2   3.077573180198669E-1   9.443971514701843E-1  
 6.670000000000000E7    -8.397442102432251E-1   5.297712087631226E-1  -8.064454048871994E-2  -2.832703106105328E-2  -8.053040504455566E-2  -2.848289906978607E-2   3.182798027992249E-1   9.415106773376465E-1  
 6.700000000000000E7    -8.206846714019775E-1   5.581223964691162E-1  -8.299852907657623E-2  -2.712246030569077E-2  -8.279176056385040E-2  -2.710930258035660E-2   3.294942975044251E-1   9.362017512321472E-1  
 6.730000000000000E7    -8.006825447082520E-1   5.856043100357056E-1  -8.529414236545563E-2  -2.593054808676243E-2  -8.532857894897461E-2  -2.559933438897133E-2   3.418141305446625E-1   9.329528808593750E-1  
 6.760000000000000E7    -7.806422710418701E-1   6.125382781028748E-1  -8.798523992300034E-2  -2.417554520070553E-2  -8.784207701683044E-2  -2.417932823300362E-2   3.533329367637634E-1   9.280100464820862E-1  
 6.790000000000000E7    -7.584255337715149E-1   6.390613317489624E-1  -9.034439921379089E-2  -2.272924780845642E-2  -9.034255146980286E-2  -2.265914529561997E-2   3.637559413909912E-1   9.228610396385193E-1  
 6.820000000000000E7    -7.359898090362549E-1   6.637782454490662E-1  -9.276638180017471E-2  -2.096396498382092E-2  -9.273996949195862E-2  -2.105842530727387E-2   3.748828172683716E-1   9.188137650489807E-1  
 6.850000000000000E7    -7.130079269409180E-1   6.895471811294556E-1  -9.558517485857010E-2  -1.948040723800659E-2  -9.535504132509232E-2  -1.924082078039646E-2   3.857454955577850E-1   9.141394495964050E-1  
 6.880000000000000E7    -6.884357929229736E-1   7.130590677261353E-1  -9.796669334173203E-2  -1.743346638977528E-2  -9.758186340332031E-2  -1.730636507272720E-2   3.978178203105927E-1   9.087184667587280E-1  
 6.910000000000000E7    -6.633663177490234E-1   7.364709973335266E-1  -1.006540134549141E-1  -1.527522411197424E-2  -1.003475114703178E-1  -1.543512940406799E-2   4.093079566955566E-1   9.036076068878174E-1  
 6.940000000000000E7    -6.379206776618958E-1   7.585878968238831E-1  -1.030217260122299E-1  -1.345854252576828E-2  -1.030083522200584E-1  -1.336275972425938E-2   4.194148778915405E-1   8.986823558807373E-1  
 6.970000000000000E7    -6.100752949714661E-1   7.800942659378052E-1  -1.054259762167931E-1  -1.118593476712704E-2  -1.053916066884995E-1  -1.095108129084110E-2   4.310559332370758E-1   8.923755884170532E-1  
 7.000000000000000E7    -5.828602910041809E-1   8.010722994804382E-1  -1.080332398414612E-1  -8.857016451656818E-3  -1.077849566936493E-1  -8.800298906862736E-3   4.421775639057159E-1   8.875604271888733E-1  
