#  HZ   S   RI   R     50.00 
! Rohde & Schwarz ZVT8 8Ports - Version 4.11 - 1300.0000k08 SN: 100242
! Date: 2026-07-31 14:20:55
! Measurements: S11 S21 S12 S22 
! 
 1.000000000000000E7    -4.013401567935944E-1   9.121913909912109E-1   5.500271171331406E-2   5.502621084451675E-2   5.489313974976540E-2   5.495111644268036E-2  -9.155737757682800E-1   3.933283686637878E-1  
 1.030000000000000E7    -3.686085939407349E-1   9.244403839111328E-1   5.862230435013771E-2   5.566431954503059E-2   5.863677337765694E-2   5.570198968052864E-2  -9.087271690368652E-1   4.067419469356537E-1  
 1.060000000000000E7    -3.322489857673645E-1   9.375042319297791E-1   6.253653764724731E-2   5.666036903858185E-2   6.259797513484955E-2   5.648323521018028E-2  -9.048893451690674E-1   4.192582070827484E-1  
 1.090000000000000E7    -2.997450828552246E-1   9.478290081024170E-1   6.654617935419083E-2   5.707850307226181E-2   6.635817140340805E-2   5.723758786916733E-2  -8.980879187583923E-1   4.320623278617859E-1  
 1.120000000000000E7    -2.637573778629303E-1   9.574477076530457E-1   7.105675339698792E-2   5.795556679368019E-2   7.048675417900085E-2   5.797631666064262E-2  -8.916589617729187E-1   4.447446763515472E-1  
 1.150000000000000E7    -2.279350310564041E-1   9.674305915832520E-1   7.499682903289795E-2   5.798376351594925E-2   7.480134069919586E-2   5.821717530488968E-2  -8.835083246231079E-1   4.549763202667236E-1  
 1.180000000000000E7    -1.927283853292465E-1   9.727921485900879E-1   7.931127399206162E-2   5.860583484172821E-2   7.923921942710877E-2   5.852309241890907E-2  -8.780830502510071E-1   4.671569168567658E-1  
 1.210000000000000E7    -1.572367995977402E-1   9.790822863578796E-1   8.427599072456360E-2   5.890719965100288E-2   8.412265032529831E-2   5.884484201669693E-2  -8.691506981849670E-1   4.812247753143311E-1  
 1.240000000000000E7    -1.208102926611900E-1   9.831879138946533E-1   8.895124495029450E-2   5.926767364144325E-2   8.899192512035370E-2   5.876206606626511E-2  -8.616357445716858E-1   4.921296238899231E-1  
 1.270000000000000E7    -8.390022814273834E-2   9.866797327995300E-1   9.465190023183823E-2   5.861190706491470E-2   9.421321004629135E-2   5.848190933465958E-2  -8.535544872283936E-1   5.076612234115601E-1  
 1.300000000000000E7    -4.807746410369873E-2   9.889842271804810E-1   9.961044788360596E-2   5.868384242057800E-2   9.967451542615891E-2   5.855913832783699E-2  -8.445433378219605E-1   5.196986794471741E-1  
 1.330000000000000E7    -1.058857887983322E-2   9.903449416160584E-1   1.054852232336998E-1   5.810056626796722E-2   1.054448708891869E-1   5.762639641761780E-2  -8.353621959686279E-1   5.333919525146484E-1  
 1.360000000000000E7     2.788261696696281E-2   9.895282983779907E-1   1.112132743000984E-1   5.788231641054153E-2   1.112494021654129E-1   5.710091441869736E-2  -8.265277147293091E-1   5.447425842285156E-1  
 1.390000000000000E7     6.377479434013367E-2   9.865739345550537E-1   1.173950955271721E-1   5.641308799386025E-2   1.171659901738167E-1   5.677993968129158E-2  -8.167687654495239E-1   5.585205554962158E-1  
 1.420000000000000E7     1.022029295563698E-1   9.831644296646118E-1   1.234290972352028E-1   5.578061193227768E-2   1.235256418585777E-1   5.570310354232788E-2  -8.085176944732666E-1   5.711944103240967E-1  
 1.450000000000000E7     1.394743472337723E-1   9.763175249099731E-1   1.302328854799271E-1   5.399942025542259E-2   1.303908973932266E-1   5.404382944107056E-2  -7.955517172813416E-1   5.857428312301636E-1  
 1.480000000000000E7     1.782252937555313E-1   9.697357416152954E-1   1.374719887971878E-1   5.224195495247841E-2   1.375497579574585E-1   5.271414667367935E-2  -7.852276563644409E-1   5.986241698265076E-1  
 1.510000000000000E7     2.154603004455566E-1   9.608744978904724E-1   1.443910300731659E-1   5.033859238028526E-2   1.442898809909821E-1   5.057407543063164E-2  -7.711086869239807E-1   6.118086576461792E-1  
 1.540000000000000E7     2.520349621772766E-1   9.507405161857605E-1   1.518158316612244E-1   4.909145087003708E-2   1.517697274684906E-1   4.843925312161446E-2  -7.618713378906250E-1   6.248189210891724E-1  
 1.570000000000000E7     2.900912761688232E-1   9.400499463081360E-1   1.599231958389282E-1   4.589278623461723E-2   1.601402312517166E-1   4.575207456946373E-2  -7.475489377975464E-1   6.397674679756165E-1  
 1.600000000000000E7     3.280153274536133E-1   9.254802465438843E-1   1.678203493356705E-1   4.281752556562424E-2   1.683052629232407E-1   4.236576333642006E-2  -7.343180179595947E-1   6.513399481773377E-1  
 1.630000000000000E7     3.641808629035950E-1   9.096856117248535E-1   1.771706193685532E-1   3.892308101058006E-2   1.769533902406693E-1   3.922977671027184E-2  -7.198160886764526E-1   6.670086979866028E-1  
 1.660000000000000E7     4.007994234561920E-1   8.914409279823303E-1   1.863652914762497E-1   3.468828648328781E-2   1.860451102256775E-1   3.432177007198334E-2  -7.029434442520142E-1   6.809689998626709E-1  
 1.690000000000000E7     4.363757967948914E-1   8.731689453125000E-1   1.961699426174164E-1   3.063013590872288E-2   1.958072185516357E-1   3.027585521340370E-2  -6.872833967208862E-1   6.943709850311279E-1  
 1.720000000000000E7     4.745946526527405E-1   8.522270321846008E-1   2.052775025367737E-1   2.460986748337746E-2   2.054961770772934E-1   2.502760104835033E-2  -6.701470613479614E-1   7.082042098045349E-1  
 1.750000000000000E7     5.053530931472778E-1   8.315895795822144E-1   2.167045176029205E-1   2.013347297906876E-2   2.169438451528549E-1   1.943448185920715E-2  -6.522890925407410E-1   7.236362099647522E-1  
 1.780000000000000E7     5.425769686698914E-1   8.033178448677063E-1   2.264105677604675E-1   1.246024668216705E-2   2.271009534597397E-1   1.286804489791393E-2  -6.322745084762573E-1   7.354379296302795E-1  
 1.810000000000000E7     5.749475359916687E-1   7.779953479766846E-1   2.395353466272354E-1   5.006488412618637E-3   2.380746006965637E-1   4.209330305457115E-3  -6.106851696968079E-1   7.524129152297974E-1  
 1.840000000000000E7     6.094092726707459E-1   7.487542629241943E-1   2.514119446277618E-1  -5.576191470026970E-3   2.503737807273865E-1  -4.670215770602226E-3  -5.873405337333679E-1   7.650930881500244E-1  
 1.870000000000000E7     6.389176249504089E-1   7.182050347328186E-1   2.637729942798615E-1  -1.436184532940388E-2   2.629015147686005E-1  -1.487571746110916E-2  -5.629152655601502E-1   7.788280248641968E-1  
 1.900000000000000E7     6.694703698158264E-1   6.849740743637085E-1   2.768793702125549E-1  -2.551706694066525E-2   2.762042880058289E-1  -2.621158212423325E-2  -5.368278026580811E-1   7.917634248733521E-1  
 1.930000000000000E7     6.986184120178223E-1   6.484304070472717E-1   2.898825109004974E-1  -3.989396244287491E-2   2.905600965023041E-1  -3.905991837382317E-2  -5.082818865776062E-1   8.062384724617004E-1  
 1.960000000000000E7     7.258027791976929E-1   6.088212132453919E-1   3.035439252853394E-1  -5.470813065767288E-2   3.042797148227692E-1  -5.377413704991341E-2  -4.796255230903626E-1   8.178641796112061E-1  
 1.990000000000000E7     7.494620084762573E-1   5.687599182128906E-1   3.182933628559113E-1  -7.168951630592346E-2   3.189721405506134E-1  -7.166095823049545E-2  -4.433635473251343E-1   8.309199810028076E-1  
 2.020000000000000E7     7.721250057220459E-1   5.250338315963745E-1   3.338484466075897E-1  -9.090334177017212E-2   3.331896364688873E-1  -9.035343676805496E-2  -4.096607863903046E-1   8.394427299499512E-1  
 2.050000000000000E7     7.942188978195190E-1   4.780380725860596E-1   3.490127921104431E-1  -1.126051396131516E-1   3.468908667564392E-1  -1.125994622707367E-1  -3.704690933227539E-1   8.487247228622437E-1  
 2.080000000000000E7     8.099477887153626E-1   4.279890060424805E-1   3.640446960926056E-1  -1.387005448341370E-1   3.643299937248230E-1  -1.385272294282913E-1  -3.267173767089844E-1   8.577684164047241E-1  
 2.110000000000000E7     8.237313032150269E-1   3.770512938499451E-1   3.789999485015869E-1  -1.691633462905884E-1   3.789548277854919E-1  -1.690463125705719E-1  -2.794253528118134E-1   8.617890477180481E-1  
 2.140000000000000E7     8.322166800498962E-1   3.235837519168854E-1   3.926916420459747E-1  -2.035456448793411E-1   3.920897245407105E-1  -2.016505748033524E-1  -2.291380614042282E-1   8.631961941719055E-1  
 2.170000000000000E7     8.354238867759705E-1   2.678911685943604E-1   4.056438505649567E-1  -2.413425743579865E-1   4.060087203979492E-1  -2.401527464389801E-1  -1.734149456024170E-1   8.598328828811646E-1  
 2.200000000000000E7     8.335100412368774E-1   2.079579830169678E-1   4.153175652027130E-1  -2.858496904373169E-1   4.155887663364410E-1  -2.855947017669678E-1  -1.124767884612083E-1   8.504273295402527E-1  
 2.230000000000000E7     8.231065869331360E-1   1.486893594264984E-1   4.221063852310181E-1  -3.362334668636322E-1   4.222272336483002E-1  -3.353249132633209E-1  -4.861725121736527E-2   8.342941403388977E-1  
 2.260000000000000E7     8.058981895446777E-1   8.800855278968811E-2   4.233739078044891E-1  -3.932671546936035E-1   4.252045452594757E-1  -3.945716917514801E-1   1.989303156733513E-2   8.077344298362732E-1  
 2.290000000000000E7     7.787113785743713E-1   2.843151986598969E-2   4.177912473678589E-1  -4.577969908714294E-1   4.191159307956696E-1  -4.577741324901581E-1   9.315548837184906E-2   7.698998451232910E-1  
 2.320000000000000E7     7.404623031616211E-1  -2.517469041049480E-2   4.011161923408508E-1  -5.294672250747681E-1   4.003165066242218E-1  -5.296162962913513E-1   1.660231351852417E-1   7.210786342620850E-1  
 2.350000000000000E7     6.917813420295715E-1  -7.414186000823975E-2   3.701906204223633E-1  -6.062905788421631E-1   3.709660470485687E-1  -6.050812602043152E-1   2.370333075523377E-1   6.521634459495544E-1  
 2.380000000000000E7     6.335317492485046E-1  -1.146318539977074E-1   3.260791897773743E-1  -6.845573782920837E-1   3.258719146251679E-1  -6.843004226684570E-1   3.021820783615112E-1   5.650351643562317E-1  
 2.410000000000000E7     5.667124986648560E-1  -1.403118371963501E-1   2.595099508762360E-1  -7.616866230964661E-1   2.593409419059753E-1  -7.603260278701782E-1   3.536643385887146E-1   4.597509503364563E-1  
 2.440000000000000E7     4.959901571273804E-1  -1.461709737777710E-1   1.720448136329651E-1  -8.304577469825745E-1   1.712697297334671E-1  -8.316616415977478E-1   3.840429782867432E-1   3.369402289390564E-1  
 2.470000000000000E7     4.271533787250519E-1  -1.342434734106064E-1   6.459131836891174E-2  -8.848143219947815E-1   6.608121097087860E-2  -8.844631910324097E-1   3.913329541683197E-1   1.997206211090088E-1  
 2.500000000000000E7     3.634437322616577E-1  -1.038025692105293E-1  -5.809496715664864E-2  -9.166780710220337E-1  -5.991529300808907E-2  -9.167978763580322E-1   3.644787371158600E-1   6.327985227108002E-2  
 2.530000000000000E7     3.157549500465393E-1  -5.227093398571014E-2  -1.920618414878845E-1  -9.216098189353943E-1  -1.900492757558823E-1  -9.202676415443420E-1   3.037838339805603E-1  -6.971774995326996E-2  
 2.560000000000000E7     2.896264791488648E-1   5.519144237041473E-3  -3.215454518795013E-1  -8.957992792129517E-1  -3.209026157855988E-1  -8.943541646003723E-1   2.128894180059433E-1  -1.826667338609695E-1  
 2.590000000000000E7     2.913609743118286E-1   6.537748128175736E-2  -4.403204023838043E-1  -8.391029238700867E-1  -4.418365657329559E-1  -8.395538926124573E-1   1.059870347380638E-1  -2.685398161411285E-1  
 2.620000000000000E7     3.115861117839813E-1   1.204136684536934E-1  -5.439949631690979E-1  -7.633637189865112E-1  -5.426147580146790E-1  -7.628666162490845E-1  -1.559667941182852E-2  -3.254482150077820E-1  
 2.650000000000000E7     3.467967808246613E-1   1.634653657674789E-1  -6.222293376922607E-1  -6.735404133796692E-1  -6.236476302146912E-1  -6.736736297607422E-1  -1.388887465000153E-1  -3.505935966968536E-1  
 2.680000000000000E7     3.953750133514404E-1   1.898079961538315E-1  -6.800409555435181E-1  -5.773786902427673E-1  -6.807181239128113E-1  -5.786258578300476E-1  -2.533379793167114E-1  -3.493251800537109E-1  
 2.710000000000000E7     4.473028182983398E-1   1.979789137840271E-1  -7.196213006973267E-1  -4.829841852188110E-1  -7.198837399482727E-1  -4.804043769836426E-1  -3.545072376728058E-1  -3.324788808822632E-1  
 2.740000000000000E7     5.027095675468445E-1   1.937867552042007E-1  -7.400912642478943E-1  -3.897902667522430E-1  -7.419221401214600E-1  -3.906091153621674E-1  -4.426950812339783E-1  -2.961874306201935E-1  
 2.770000000000000E7     5.529942512512207E-1   1.727977395057678E-1  -7.494043111801148E-1  -3.048020303249359E-1  -7.522498369216919E-1  -3.055074810981751E-1  -5.159964561462402E-1  -2.547544240951538E-1  
 2.800000000000000E7     5.988593101501465E-1   1.416905075311661E-1  -7.489717006683350E-1  -2.247635424137116E-1  -7.493957877159119E-1  -2.281489670276642E-1  -5.768370032310486E-1  -2.060982584953308E-1  
 2.830000000000000E7     6.373518705368042E-1   9.873232245445252E-2  -7.420319914817810E-1  -1.530670225620270E-1  -7.425432205200195E-1  -1.525784581899643E-1  -6.229424476623535E-1  -1.588999927043915E-1  
 2.860000000000000E7     6.685334444046021E-1   4.677051678299904E-2  -7.305710911750794E-1  -8.725073188543320E-2  -7.315782904624939E-1  -8.736110478639603E-2  -6.600796580314636E-1  -1.092183217406273E-1  
 2.890000000000000E7     6.899769306182861E-1  -1.177762635052204E-2  -7.171002626419067E-1  -2.711684443056583E-2  -7.154744267463684E-1  -2.674737572669983E-2  -6.869716048240662E-1  -6.100301444530487E-2  
 2.920000000000000E7     7.043337225914002E-1  -7.569094002246857E-2  -6.987948417663574E-1   2.917632833123207E-2  -6.985746622085571E-1   3.027660027146339E-2  -7.079046368598938E-1  -1.556380745023489E-2  
 2.950000000000000E7     7.057961225509644E-1  -1.452835500240326E-1  -6.822867393493652E-1   8.160150051116943E-2  -6.815487146377564E-1   8.134496957063675E-2  -7.208009362220764E-1   2.789308689534664E-2  
 2.980000000000000E7     6.974813342094421E-1  -2.180697172880173E-1  -6.622483730316162E-1   1.325911432504654E-1  -6.634309887886047E-1   1.322586089372635E-1  -7.279137969017029E-1   6.758917868137360E-2  
 3.010000000000000E7     6.755936145782471E-1  -2.946944236755371E-1  -6.432476043701172E-1   1.830499917268753E-1  -6.431844830513001E-1   1.811768561601639E-1  -7.313840985298157E-1   1.045770570635796E-1  
 3.040000000000000E7     6.403310298919678E-1  -3.753041625022888E-1  -6.210730075836182E-1   2.313411086797714E-1  -6.229664683341980E-1   2.330565303564072E-1  -7.291200160980225E-1   1.370138227939606E-1  
 3.070000000000000E7     5.873973369598389E-1  -4.530190825462341E-1  -5.970417857170105E-1   2.835676670074463E-1  -5.970349907875061E-1   2.829830944538117E-1  -7.264043092727661E-1   1.662028580904007E-1  
 3.100000000000000E7     5.145465135574341E-1  -5.311821103096008E-1  -5.709972977638245E-1   3.358622193336487E-1  -5.704811811447144E-1   3.353961706161499E-1  -7.197992801666260E-1   1.909182369709015E-1  
 3.130000000000000E7     4.207730591297150E-1  -6.031417846679688E-1  -5.396695137023926E-1   3.920385539531708E-1  -5.399272441864014E-1   3.913771808147430E-1  -7.093152999877930E-1   2.109906524419785E-1  
 3.160000000000000E7     2.986142635345459E-1  -6.635602116584778E-1  -5.009129047393799E-1   4.485184252262116E-1  -5.009768605232239E-1   4.494791924953461E-1  -6.993951797485352E-1   2.242800146341324E-1  
 3.190000000000000E7     1.485154926776886E-1  -7.020112276077271E-1  -4.505367577075958E-1   5.101476907730103E-1  -4.505323171615601E-1   5.089543461799622E-1  -6.885138750076294E-1   2.338802367448807E-1  
 3.220000000000000E7    -3.118623979389668E-2  -7.085455656051636E-1  -3.853279352188110E-1   5.706292390823364E-1  -3.853617906570435E-1   5.704740881919861E-1  -6.796926259994507E-1   2.350080162286758E-1  
 3.250000000000000E7    -2.352425158023834E-1  -6.588559150695801E-1  -3.018155097961426E-1   6.260178089141846E-1  -3.008580207824707E-1   6.266880035400391E-1  -6.750337481498718E-1   2.299267500638962E-1  
 3.280000000000000E7    -4.448407590389252E-1  -5.352433323860169E-1  -1.956193149089813E-1   6.666802167892456E-1  -1.948059499263763E-1   6.676827073097229E-1  -6.764032244682312E-1   2.201347202062607E-1  
 3.310000000000000E7    -6.232074499130249E-1  -3.272769451141357E-1  -6.721305102109909E-2   6.818058490753174E-1  -6.622985750436783E-2   6.819505095481873E-1  -6.917365193367004E-1   2.057713866233826E-1  
 3.340000000000000E7    -7.244024276733398E-1  -4.070080071687698E-2   6.688963621854782E-2   6.564127802848816E-1   6.715086847543716E-2   6.554585695266724E-1  -7.183856964111328E-1   1.981302946805954E-1  
 3.370000000000000E7    -7.100690007209778E-1   2.785294353961945E-1   1.874677240848541E-1   5.857136249542236E-1   1.880949735641480E-1   5.864015817642212E-1  -7.562253475189209E-1   1.988033205270767E-1  
 3.400000000000000E7    -5.750144720077515E-1   5.661823153495789E-1   2.734282314777374E-1   4.846867918968201E-1   2.735916674137116E-1   4.839428365230560E-1  -7.961714267730713E-1   2.173486948013306E-1  
 3.430000000000000E7    -3.557564318180084E-1   7.718893885612488E-1   3.179613053798676E-1   3.727271258831024E-1   3.178848922252655E-1   3.727108240127564E-1  -8.298894166946411E-1   2.484133243560791E-1  
 3.460000000000000E7    -1.058299988508225E-1   8.826285600662231E-1   3.253566026687622E-1   2.691547870635986E-1   3.238752782344818E-1   2.695644497871399E-1  -8.552018404006958E-1   2.887380719184876E-1  
 3.490000000000000E7     1.351348459720612E-1   9.078959822654724E-1   3.089434802532196E-1   1.842600107192993E-1   3.080007731914520E-1   1.840271055698395E-1  -8.672143220901489E-1   3.304096758365631E-1  
 3.520000000000000E7     3.423456251621246E-1   8.760378956794739E-1   2.779576182365418E-1   1.194243058562279E-1   2.779702246189117E-1   1.197712272405624E-1  -8.733003735542297E-1   3.726250827312470E-1  
 3.550000000000000E7     5.131822824478149E-1   8.055610060691834E-1   2.431282997131348E-1   7.320111244916916E-2   2.430563718080521E-1   7.333590835332871E-2  -8.718500733375549E-1   4.109010398387909E-1  
 3.580000000000000E7     6.476754546165466E-1   7.195127010345459E-1   2.096624225378037E-1   4.026630893349648E-2   2.096393257379532E-1   4.047682136297226E-2  -8.649563193321228E-1   4.464021027088165E-1  
 3.610000000000000E7     7.502187490463257E-1   6.246495246887207E-1   1.791914254426956E-1   1.864301972091198E-2   1.787045001983643E-1   1.804643869400024E-2  -8.574966192245483E-1   4.793181121349335E-1  
 3.640000000000000E7     8.290586471557617E-1   5.267550945281982E-1   1.511331647634506E-1   3.602653276175261E-3   1.508856117725372E-1   3.638934344053268E-3  -8.460075855255127E-1   5.060230493545532E-1  
 3.670000000000000E7     8.866658210754395E-1   4.317233562469482E-1   1.273121386766434E-1  -5.762121640145779E-3   1.270422339439392E-1  -5.933897569775581E-3  -8.347361087799072E-1   5.310585498809815E-1  
 3.700000000000000E7     9.286528229713440E-1   3.400460779666901E-1   1.065481230616570E-1  -1.193213183432818E-2   1.065258607268333E-1  -1.204033568501473E-2  -8.222915530204773E-1   5.556780695915222E-1  
 3.730000000000000E7     9.582494497299194E-1   2.513720393180847E-1   8.884540945291519E-2  -1.559614762663841E-2   8.913172781467438E-2  -1.526034064590931E-2  -8.087260723114014E-1   5.753898024559021E-1  
 3.760000000000000E7     9.767808318138123E-1   1.698925495147705E-1   7.425448298454285E-2  -1.710374653339386E-2   7.438108325004578E-2  -1.704702526330948E-2  -7.969120144844055E-1   5.963069796562195E-1  
 3.790000000000000E7     9.891249537467957E-1   9.063205868005753E-2   6.170250847935677E-2  -1.745029538869858E-2   6.171919032931328E-2  -1.760666258633137E-2  -7.839630842208862E-1   6.141632199287415E-1  
 3.820000000000000E7     9.946475625038147E-1   1.713972166180611E-2   5.116077512502670E-2  -1.702963747084141E-2   5.108671635389328E-2  -1.711477711796761E-2  -7.710313200950623E-1   6.295307874679565E-1  
 3.850000000000000E7     9.944022297859192E-1  -5.386354029178619E-2   4.211180657148361E-2  -1.623794436454773E-2   4.198583960533142E-2  -1.637609675526619E-2  -7.604423165321350E-1   6.458843350410461E-1  
 3.880000000000000E7     9.884529709815979E-1  -1.187050789594650E-1   3.439731150865555E-2  -1.512267161160708E-2   3.434265404939652E-2  -1.504680700600147E-2  -7.475882172584534E-1   6.611835360527039E-1  
 3.910000000000000E7     9.804548025131226E-1  -1.813491582870483E-1   2.791130915284157E-2  -1.360973622649908E-2   2.799449674785137E-2  -1.373767852783203E-2  -7.353643774986267E-1   6.764233708381653E-1  
 3.940000000000000E7     9.666987061500549E-1  -2.385598719120026E-1   2.246977947652340E-2  -1.198503468185663E-2   2.244882471859455E-2  -1.192318927496672E-2  -7.226648926734924E-1   6.883610486984253E-1  
 3.970000000000000E7     9.523890614509583E-1  -2.940243780612946E-1   1.781012117862701E-2  -1.033019088208675E-2   1.784530282020569E-2  -1.043600216507912E-2  -7.096480727195740E-1   7.002798318862915E-1  
 4.000000000000000E7     9.342417120933533E-1  -3.469445407390595E-1   1.392896939069033E-2  -8.770341984927654E-3   1.395280100405216E-2  -8.803984150290489E-3  -6.987845301628113E-1   7.130477428436279E-1  
 4.030000000000000E7     9.148464202880859E-1  -3.959712982177734E-1   1.073763892054558E-2  -7.241790182888508E-3   1.072758436203003E-2  -7.204752415418625E-3  -6.872819662094116E-1   7.244165539741516E-1  
 4.060000000000000E7     8.929834365844727E-1  -4.432804286479950E-1   7.908114232122898E-3  -5.723027978092432E-3   7.862618193030357E-3  -5.658545531332493E-3  -6.748769283294678E-1   7.351998686790466E-1  
 4.090000000000000E7     8.696465492248535E-1  -4.886234700679779E-1   5.593977868556976E-3  -4.360227379947901E-3   5.601904820650816E-3  -4.362571053206921E-3  -6.636483669281006E-1   7.451212406158447E-1  
 4.120000000000000E7     8.450787067413330E-1  -5.303208231925964E-1   3.826659871265292E-3  -3.037584014236927E-3   3.797772107645869E-3  -2.925817389041185E-3  -6.510097980499268E-1   7.556926608085632E-1  
 4.150000000000000E7     8.186845183372498E-1  -5.690633058547974E-1   2.190406434237957E-3  -1.873157336376607E-3   2.229348290711641E-3  -1.944495597854257E-3  -6.394004821777344E-1   7.658547759056091E-1  
 4.180000000000000E7     7.910627722740173E-1  -6.081842184066773E-1   9.416952379979193E-4  -8.864206029102206E-4   9.351747576147318E-4  -7.758839637972415E-4  -6.289836168289185E-1   7.743452191352844E-1  
 4.210000000000000E7     7.626418471336365E-1  -6.437359452247620E-1  -8.377264748560265E-6   1.900983043015003E-4  -8.902119589038193E-5   1.475933095207438E-4  -6.170751452445984E-1   7.843710184097290E-1  
 4.240000000000000E7     7.323649525642395E-1  -6.763204336166382E-1  -8.490769541822374E-4   1.025058794766665E-3  -9.377558017149568E-4   1.082737115211785E-3  -6.066790223121643E-1   7.933794260025024E-1  
 4.270000000000000E7     7.014521956443787E-1  -7.079600691795349E-1  -1.550159184262157E-3   1.924467738717794E-3  -1.507028006017208E-3   1.890534884296358E-3  -5.941529273986816E-1   8.028419017791748E-1  
 4.300000000000000E7     6.698157787322998E-1  -7.391405701637268E-1  -1.920764101669192E-3   2.500824630260468E-3  -1.996511127799749E-3   2.470173174515367E-3  -5.832074880599976E-1   8.116301298141480E-1  
 4.330000000000000E7     6.392508745193481E-1  -7.664564847946167E-1  -2.293566009029746E-3   3.136528888717294E-3  -2.297202823683620E-3   3.031822619959712E-3  -5.714156031608582E-1   8.184372186660767E-1  
 4.360000000000000E7     6.049157977104187E-1  -7.926077246665955E-1  -2.584180794656277E-3   3.521393053233624E-3  -2.540339482948184E-3   3.545572515577078E-3  -5.605852007865906E-1   8.263550996780396E-1  
 4.390000000000000E7     5.715083479881287E-1  -8.188856244087219E-1  -2.651655348017812E-3   3.949252888560295E-3  -2.553109079599381E-3   3.901337040588260E-3  -5.488340854644775E-1   8.329741954803467E-1  
 4.420000000000000E7     5.367280840873718E-1  -8.404088616371155E-1  -2.747696824371815E-3   4.266299307346344E-3  -2.767767291516066E-3   4.071046598255634E-3  -5.368891358375549E-1   8.403054475784302E-1  
 4.450000000000000E7     5.022326707839966E-1  -8.615726828575134E-1  -2.523918170481920E-3   4.383966326713562E-3  -2.548884134739637E-3   4.336579702794552E-3  -5.269128680229187E-1   8.473328351974487E-1  
 4.480000000000000E7     4.674208164215088E-1  -8.813784122467041E-1  -2.571983495727181E-3   4.482236690819264E-3  -2.457417314872146E-3   4.447461105883122E-3  -5.156232118606567E-1   8.537459373474121E-1  
 4.510000000000000E7     4.328635632991791E-1  -8.996542096138001E-1  -2.385234460234642E-3   4.378031473606825E-3  -2.399840857833624E-3   4.432479385286570E-3  -5.046640634536743E-1   8.613752126693726E-1  
 4.540000000000000E7     3.961097598075867E-1  -9.153347611427307E-1  -2.252863720059395E-3   4.423023667186499E-3  -2.211852464824915E-3   4.455233458429575E-3  -4.929823577404022E-1   8.680642843246460E-1  
 4.570000000000000E7     3.597005307674408E-1  -9.306460022926331E-1  -1.967449206858873E-3   4.361829254776239E-3  -2.031493000686169E-3   4.320365842431784E-3  -4.818149805068970E-1   8.740099668502808E-1  
 4.600000000000000E7     3.257360756397247E-1  -9.426114559173584E-1  -1.842089812271297E-3   4.020817112177610E-3  -1.803350285626948E-3   4.115208517760038E-3  -4.714033305644989E-1   8.797939419746399E-1  
 4.630000000000000E7     2.868318855762482E-1  -9.557964205741882E-1  -1.691731624305248E-3   3.932150080800057E-3  -1.542618265375495E-3   3.987951669842005E-3  -4.604420065879822E-1   8.855617046356201E-1  
 4.660000000000000E7     2.498514652252197E-1  -9.671677350997925E-1  -1.364832278341055E-3   3.602080512791872E-3  -1.365647767670453E-3   3.525262698531151E-3  -4.478591680526733E-1   8.916227817535400E-1  
 4.690000000000000E7     2.132590562105179E-1  -9.747794866561890E-1  -1.165467314422131E-3   3.176151541993022E-3  -1.113445032387972E-3   3.289523767307401E-3  -4.372520148754120E-1   8.974825143814087E-1  
 4.720000000000000E7     1.757985502481461E-1  -9.817762970924377E-1  -9.323961567133665E-4   2.886491362005472E-3  -9.890550281852484E-4   2.823033835738897E-3  -4.254290461540222E-1   9.022734761238098E-1  
 4.750000000000000E7     1.397045850753784E-1  -9.882998466491699E-1  -7.781850872561336E-4   2.329896204173565E-3  -6.566547090187669E-4   2.446770435199142E-3  -4.146279096603394E-1   9.080333113670349E-1  
 4.780000000000000E7     1.032920181751251E-1  -9.927247166633606E-1  -5.634880508296192E-4   1.788315013982356E-3  -5.284161888994277E-4   1.751192146912217E-3  -4.024014770984650E-1   9.113709330558777E-1  
 4.810000000000000E7     6.577077507972717E-2  -9.958167672157288E-1  -4.357389989309013E-4   1.281573669984937E-3  -3.561348130460829E-4   1.233802642673254E-3  -3.924572467803955E-1   9.173106551170349E-1  
 4.840000000000000E7     2.909365668892860E-2  -9.981029033660889E-1  -1.138297739089467E-4   6.842261063866317E-4  -2.391550951870158E-4   6.191076827235520E-4  -3.812796473503113E-1   9.220797419548035E-1  
 4.870000000000000E7    -7.972579449415207E-3  -9.982303380966187E-1  -2.559478343755473E-5   1.448922716917878E-6  -3.934346023015678E-5   3.074093910981901E-5  -3.700208067893982E-1   9.264466166496277E-1  
 4.900000000000000E7    -4.469227045774460E-2  -9.981102347373962E-1   6.504642078652978E-5  -6.975674768909812E-4  -2.430950189591385E-5  -6.659730570390821E-4  -3.590959608554840E-1   9.303153157234192E-1  
 4.930000000000000E7    -8.144187927246094E-2  -9.954361915588379E-1   1.440366613678634E-4  -1.387678668834269E-3   2.057122474070638E-4  -1.370160258375108E-3  -3.472822010517120E-1   9.353287220001221E-1  
 4.960000000000000E7    -1.171158701181412E-1  -9.902458786964417E-1   2.089134213747457E-4  -2.110553206875920E-3   1.285146281588823E-4  -2.178041962906718E-3  -3.362325429916382E-1   9.389558434486389E-1  
 4.990000000000000E7    -1.522783935070038E-1  -9.855290651321411E-1   2.317065955139697E-4  -2.899581799283624E-3   1.601970870979130E-4  -2.894582925364375E-3  -3.249862194061279E-1   9.423752427101135E-1  
 5.020000000000000E7    -1.867097914218903E-1  -9.807700514793396E-1   1.821554033085704E-4  -3.729704301804304E-3   2.004754205700010E-4  -3.676166292279959E-3  -3.140000104904175E-1   9.464342594146729E-1  
 5.050000000000000E7    -2.228257358074188E-1  -9.727797508239746E-1   1.035985769703984E-4  -4.501548130065203E-3   1.026883401209489E-4  -4.547629039734602E-3  -3.030770421028137E-1   9.515044093132019E-1  
 5.080000000000000E7    -2.568854689598084E-1  -9.648152589797974E-1   2.769395359791815E-5  -5.353486631065607E-3   4.472155706025660E-5  -5.390788428485394E-3  -2.911454737186432E-1   9.529049396514893E-1  
 5.110000000000000E7    -2.917218208312988E-1  -9.544513225555420E-1  -1.240928540937603E-4  -6.200308911502361E-3  -9.327451698482037E-5  -6.217230111360550E-3  -2.807525396347046E-1   9.574211835861206E-1  
 5.140000000000000E7    -3.253439664840698E-1  -9.429593682289124E-1  -2.869844902306795E-4  -7.089287042617798E-3  -2.715617301873863E-4  -7.127469871193171E-3  -2.686071395874023E-1   9.620251655578613E-1  
 5.170000000000000E7    -3.578833341598511E-1  -9.313774704933167E-1  -4.695893730968237E-4  -7.991822436451912E-3  -4.628872848115861E-4  -8.002202026546001E-3  -2.569456100463867E-1   9.630606770515442E-1  
 5.200000000000000E7    -3.911540508270264E-1  -9.192966222763062E-1  -7.440908229909837E-4  -8.890339173376560E-3  -7.158427615649998E-4  -8.957317098975182E-3  -2.459520548582077E-1   9.651861190795898E-1  
 5.230000000000000E7    -4.231248795986176E-1  -9.035772085189819E-1  -1.026495709083974E-3  -9.834665805101395E-3  -1.044893986545503E-3  -9.816016070544720E-3  -2.348588705062866E-1   9.689705967903137E-1  
 5.260000000000000E7    -4.541522562503815E-1  -8.873332142829895E-1  -1.413421472534537E-3  -1.075469795614481E-2  -1.415054313838482E-3  -1.072291657328606E-2  -2.235615253448486E-1   9.721509218215942E-1  
 5.290000000000000E7    -4.862051010131836E-1  -8.714250326156616E-1  -1.776477787643671E-3  -1.167969405651093E-2  -1.785733620636165E-3  -1.166822388768196E-2  -2.129472792148590E-1   9.739199280738831E-1  
 5.320000000000000E7    -5.157420635223389E-1  -8.549781441688538E-1  -2.228960627689958E-3  -1.259454712271690E-2  -2.243407070636749E-3  -1.260223798453808E-2  -2.012188285589218E-1   9.768967032432556E-1  
 5.350000000000000E7    -5.440358519554138E-1  -8.359056711196899E-1  -2.690160181373358E-3  -1.353696361184120E-2  -2.695943927392364E-3  -1.353497337549925E-2  -1.910835951566696E-1   9.793715476989746E-1  
 5.380000000000000E7    -5.719935297966003E-1  -8.165116906166077E-1  -3.197866026312113E-3  -1.448072493076325E-2  -3.227131906896830E-3  -1.447269599884749E-2  -1.780510246753693E-1   9.805459380149841E-1  
 5.410000000000000E7    -6.026908159255981E-1  -7.962324619293213E-1  -3.807361936196685E-3  -1.544132176786661E-2  -3.830923233181238E-3  -1.540104113519192E-2  -1.673521846532822E-1   9.828310608863831E-1  
 5.440000000000000E7    -6.293402314186096E-1  -7.740353345870972E-1  -4.455100279301405E-3  -1.635096594691277E-2  -4.471226595342159E-3  -1.634488627314568E-2  -1.563360393047333E-1   9.844679832458496E-1  
 5.470000000000000E7    -6.544118523597717E-1  -7.530109882354736E-1  -5.124861840158701E-3  -1.724360696971417E-2  -5.205446388572455E-3  -1.726595871150494E-2  -1.438424140214920E-1   9.859760403633118E-1  
 5.500000000000000E7    -6.810505390167236E-1  -7.294575572013855E-1  -5.904921330511570E-3  -1.822206750512123E-2  -5.850682966411114E-3  -1.817480288445950E-2  -1.318029463291168E-1   9.887267351150513E-1  
 5.530000000000000E7    -7.053393721580505E-1  -7.055332660675049E-1  -6.619888823479414E-3  -1.909630745649338E-2  -6.702586542814970E-3  -1.908955909311771E-2  -1.210807785391808E-1   9.892435073852539E-1  
 5.560000000000000E7    -7.299054861068726E-1  -6.799790263175964E-1  -7.532364688813686E-3  -1.999108307063580E-2  -7.463959045708180E-3  -1.996352896094322E-2  -1.103252172470093E-1   9.907844662666321E-1  
 5.590000000000000E7    -7.529769539833069E-1  -6.557509899139404E-1  -8.368405513465405E-3  -2.088079787790775E-2  -8.419513702392578E-3  -2.087107300758362E-2  -9.798035770654678E-2   9.917283654212952E-1  
 5.620000000000000E7    -7.748159766197205E-1  -6.273969411849976E-1  -9.300869889557362E-3  -2.177849970757961E-2  -9.239081293344498E-3  -2.166426368057728E-2  -8.731777966022492E-2   9.934369325637817E-1  
 5.650000000000000E7    -7.954397201538086E-1  -6.021620035171509E-1  -1.022688858211041E-2  -2.256768010556698E-2  -1.023610960692167E-2  -2.256514504551888E-2  -7.556013762950897E-2   9.939361810684204E-1  
 5.680000000000000E7    -8.158097267150879E-1  -5.742244720458984E-1  -1.130679994821549E-2  -2.340260334312916E-2  -1.131223887205124E-2  -2.337759733200073E-2  -6.380411237478256E-2   9.940257072448731E-1  
 5.710000000000000E7    -8.355191349983215E-1  -5.448443889617920E-1  -1.240519527345896E-2  -2.412169426679611E-2  -1.246677897870541E-2  -2.420876361429691E-2  -5.224464833736420E-2   9.951800107955933E-1  
 5.740000000000000E7    -8.541262745857239E-1  -5.160261988639832E-1  -1.354290544986725E-2  -2.494104579091072E-2  -1.350970473140478E-2  -2.496641688048840E-2  -4.021078720688820E-2   9.955943822860718E-1  
 5.770000000000000E7    -8.698492646217346E-1  -4.873557090759277E-1  -1.459113601595163E-2  -2.576456777751446E-2  -1.461317576467991E-2  -2.575461566448212E-2  -3.020110353827477E-2   9.955215454101563E-1  
 5.800000000000000E7    -8.864545822143555E-1  -4.563028216362000E-1  -1.596600934863091E-2  -2.648668549954891E-2  -1.598249003291130E-2  -2.636818215250969E-2  -1.668173074722290E-2   9.972608089447022E-1  
 5.830000000000000E7    -9.011627435684204E-1  -4.254853129386902E-1  -1.716511696577072E-2  -2.712009288370609E-2  -1.719455793499947E-2  -2.714448608458042E-2  -6.490126252174377E-3   9.971583485603333E-1  
 5.860000000000000E7    -9.165334105491638E-1  -3.952223062515259E-1  -1.849721930921078E-2  -2.778965979814529E-2  -1.853776164352894E-2  -2.781925536692143E-2   5.574934184551239E-3   9.962622523307800E-1  
 5.890000000000000E7    -9.283522367477417E-1  -3.635049760341644E-1  -1.987799815833569E-2  -2.846406213939190E-2  -1.983202435076237E-2  -2.851191535592079E-2   1.612624526023865E-2   9.962463378906250E-1  
 5.920000000000000E7    -9.404348731040955E-1  -3.306483626365662E-1  -2.136064134538174E-2  -2.900758571922779E-2  -2.135834097862244E-2  -2.890157513320446E-2   2.836720645427704E-2   9.965242743492127E-1  
 5.950000000000000E7    -9.507238864898682E-1  -2.983508706092835E-1  -2.274904958903790E-2  -2.951704524457455E-2  -2.271105162799358E-2  -2.952891401946545E-2   4.011510312557221E-2   9.943962097167969E-1  
 5.980000000000000E7    -9.608297348022461E-1  -2.652347683906555E-1  -2.439249865710735E-2  -2.998955361545086E-2  -2.426289021968842E-2  -3.000627830624580E-2   5.236053466796875E-2   9.941876530647278E-1  
 6.010000000000000E7    -9.675354957580566E-1  -2.338528931140900E-1  -2.579717710614204E-2  -3.062212094664574E-2  -2.572834864258766E-2  -3.056230023503304E-2   6.320198625326157E-2   9.944239258766174E-1  
 6.040000000000000E7    -9.756560921669006E-1  -1.992224007844925E-1  -2.748384885489941E-2  -3.097693249583244E-2  -2.745538204908371E-2  -3.096920996904373E-2   7.522295415401459E-2   9.940941333770752E-1  
 6.070000000000000E7    -9.828847646713257E-1  -1.673212200403214E-1  -2.912043593823910E-2  -3.145679831504822E-2  -2.903546579182148E-2  -3.147868812084198E-2   8.603161573410034E-2   9.924274682998657E-1  
 6.100000000000000E7    -9.871574044227600E-1  -1.336661875247955E-1  -3.083561360836029E-2  -3.165435045957565E-2  -3.079946152865887E-2  -3.167662024497986E-2   9.927383065223694E-2   9.913348555564880E-1  
 6.130000000000000E7    -9.918940663337708E-1  -9.912604093551636E-2  -3.262396901845932E-2  -3.216396644711494E-2  -3.260898962616921E-2  -3.209805861115456E-2   1.108120977878571E-1   9.905213713645935E-1  
 6.160000000000000E7    -9.939057826995850E-1  -6.588667631149292E-2  -3.425947576761246E-2  -3.224953636527062E-2  -3.431192785501480E-2  -3.224819153547287E-2   1.211416721343994E-1   9.878287315368652E-1  
 6.190000000000000E7    -9.950236082077026E-1  -3.212475776672363E-2  -3.607684001326561E-2  -3.254396468400955E-2  -3.604827448725700E-2  -3.236231207847595E-2   1.323865056037903E-1   9.858726859092712E-1  
 6.220000000000000E7    -9.957938194274902E-1   1.605316996574402E-3  -3.782614320516586E-2  -3.263792023062706E-2  -3.798873350024223E-2  -3.263073787093163E-2   1.438236385583878E-1   9.854621887207031E-1  
 6.250000000000000E7    -9.954195022583008E-1   3.555595874786377E-2  -3.978231176733971E-2  -3.272198140621185E-2  -3.990884497761726E-2  -3.271016478538513E-2   1.553684026002884E-1   9.837785959243774E-1  
 6.280000000000000E7    -9.927034378051758E-1   6.961543112993240E-2  -4.188601672649384E-2  -3.281002119183540E-2  -4.176415130496025E-2  -3.277923166751862E-2   1.675516366958618E-1   9.819660186767578E-1  
 6.310000000000000E7    -9.894471764564514E-1   1.042501553893089E-1  -4.390675574541092E-2  -3.270616382360458E-2  -4.378302395343781E-2  -3.269284218549728E-2   1.789623796939850E-1   9.796875119209290E-1  
 6.340000000000000E7    -9.850004315376282E-1   1.374547928571701E-1  -4.579054936766625E-2  -3.254559636116028E-2  -4.582249000668526E-2  -3.248396515846252E-2   1.910773515701294E-1   9.775870442390442E-1  
 6.370000000000000E7    -9.799258708953857E-1   1.709329187870026E-1  -4.786003753542900E-2  -3.231935948133469E-2  -4.790969938039780E-2  -3.238126263022423E-2   2.018670737743378E-1   9.744153618812561E-1  
 6.400000000000000E7    -9.728290438652039E-1   2.041415125131607E-1  -5.004074797034264E-2  -3.203922510147095E-2  -5.000320449471474E-2  -3.195875510573387E-2   2.141288816928864E-1   9.727442264556885E-1  
 6.430000000000000E7    -9.653851389884949E-1   2.383814305067062E-1  -5.218068510293961E-2  -3.190219402313232E-2  -5.211885645985603E-2  -3.170280903577805E-2   2.252080589532852E-1   9.696982502937317E-1  
 6.460000000000000E7    -9.569193124771118E-1   2.708669900894165E-1  -5.418133735656738E-2  -3.151570633053780E-2  -5.417370051145554E-2  -3.141511231660843E-2   2.360370010137558E-1   9.662983417510986E-1  
 6.490000000000000E7    -9.481556415557861E-1   3.032287359237671E-1  -5.633703246712685E-2  -3.103569149971008E-2  -5.647950991988182E-2  -3.114189580082893E-2   2.474827766418457E-1   9.641438126564026E-1  
 6.520000000000000E7    -9.362845420837402E-1   3.347326517105103E-1  -5.876632779836655E-2  -3.069079294800758E-2  -5.857266113162041E-2  -3.042868711054325E-2   2.596563696861267E-1   9.616021513938904E-1  
 6.550000000000000E7    -9.246741533279419E-1   3.659791946411133E-1  -6.094102934002876E-2  -3.000063821673393E-2  -6.088481098413467E-2  -3.004833683371544E-2   2.705618739128113E-1   9.566034674644470E-1  
 6.580000000000000E7    -9.109037518501282E-1   3.979943096637726E-1  -6.322497874498367E-2  -2.913101762533188E-2  -6.312230229377747E-2  -2.924921922385693E-2   2.825627923011780E-1   9.544575810432434E-1  
 6.610000000000000E7    -8.958589434623718E-1   4.283855557441711E-1  -6.557666510343552E-2  -2.836933918297291E-2  -6.521688401699066E-2  -2.815913781523705E-2   2.946947515010834E-1   9.490163326263428E-1  
 6.640000000000000E7    -8.821644783020020E-1   4.590759575366974E-1  -6.786587089300156E-2  -2.769246324896812E-2  -6.775220483541489E-2  -2.780742011964321E-2   3.060426712036133E-1   9.457341432571411E-1  
 6.670000000000000E7    -8.650033473968506E-1   4.888259768486023E-1  -7.017068564891815E-2  -2.670772373676300E-2  -7.008139789104462E-2  -2.688480541110039E-2   3.163830041885376E-1   9.429736137390137E-1  
 6.700000000000000E7    -8.472810387611389E-1   5.181952118873596E-1  -7.245118916034699E-2  -2.561537548899651E-2  -7.224991172552109E-2  -2.562955394387245E-2   3.278239071369171E-1   9.375599622726440E-1  
 6.730000000000000E7    -8.289282917976379E-1   5.468525290489197E-1  -7.464004307985306E-2  -2.475113794207573E-2  -7.469829171895981E-2  -2.442646212875843E-2   3.400351107120514E-1   9.344647526741028E-1  
 6.760000000000000E7    -8.100082874298096E-1   5.747734308242798E-1  -7.725377380847931E-2  -2.330466918647289E-2  -7.712318748235703E-2  -2.327832765877247E-2   3.517362475395203E-1   9.297069907188416E-1  
 6.790000000000000E7    -7.891290783882141E-1   6.024580001831055E-1  -7.947515696287155E-2  -2.207910642027855E-2  -7.952833920717239E-2  -2.204789780080319E-2   3.617103993892670E-1   9.249078035354614E-1  
 6.820000000000000E7    -7.679501175880432E-1   6.280835866928101E-1  -8.181705325841904E-2  -2.065891213715076E-2  -8.179900050163269E-2  -2.078161574900150E-2   3.734618723392487E-1   9.206452965736389E-1  
 6.850000000000000E7    -7.460761666297913E-1   6.550785303115845E-1  -8.453074842691422E-2  -1.950546540319920E-2  -8.429823815822601E-2  -1.928585954010487E-2   3.839440047740936E-1   9.162027835845947E-1  
 6.880000000000000E7    -7.225985527038574E-1   6.798986196517944E-1  -8.690321445465088E-2  -1.767528243362904E-2  -8.657038211822510E-2  -1.757362112402916E-2   3.957307338714600E-1   9.106438755989075E-1  
 6.910000000000000E7    -6.985692977905273E-1   7.043700218200684E-1  -8.940766006708145E-2  -1.591706648468971E-2  -8.919856697320938E-2  -1.597048901021481E-2   4.075771272182465E-1   9.055628180503845E-1  
 6.940000000000000E7    -6.741797327995300E-1   7.280448675155640E-1  -9.165297448635101E-2  -1.429315004497767E-2  -9.170413017272949E-2  -1.419570017606020E-2   4.177754521369934E-1   9.007505774497986E-1  
 6.970000000000000E7    -6.475418806076050E-1   7.505064010620117E-1  -9.410042315721512E-2  -1.243030931800604E-2  -9.405988454818726E-2  -1.207106746733189E-2   4.294553995132446E-1   8.944208621978760E-1  
 7.000000000000000E7    -6.211844086647034E-1   7.731809020042419E-1  -9.665768593549728E-2  -1.035844348371029E-2  -9.641060233116150E-2  -1.028794422745705E-2   4.401991963386536E-1   8.899111151695252E-1  
