#  HZ   S   RI   R     50.00 
! Rohde & Schwarz ZVT8 8Ports - Version 4.11 - 1300.0000k08 SN: 100242
! Date: 2026-07-31 14:12:54
! Measurements: S11 S21 S12 S22 
! 
 1.000000000000000E7    -4.058972597122192E-1   9.102484583854675E-1   5.378644540905953E-2   5.401796102523804E-2   5.365208908915520E-2   5.414791405200958E-2  -9.154242277145386E-1   3.945211768150330E-1  
 1.030000000000000E7    -3.738446235656738E-1   9.228073954582214E-1   5.741745233535767E-2   5.455695837736130E-2   5.734733864665031E-2   5.458416417241097E-2  -9.088422656059265E-1   4.083060324192047E-1  
 1.060000000000000E7    -3.379223048686981E-1   9.361948370933533E-1   6.113403290510178E-2   5.557148531079292E-2   6.126822531223297E-2   5.537532642483711E-2  -9.044299125671387E-1   4.208950400352478E-1  
 1.090000000000000E7    -3.063451945781708E-1   9.464416503906250E-1   6.476886570453644E-2   5.592855811119080E-2   6.486218422651291E-2   5.608387663960457E-2  -8.976702094078064E-1   4.333817362785339E-1  
 1.120000000000000E7    -2.711502909660339E-1   9.559788107872009E-1   6.910026818513870E-2   5.698971822857857E-2   6.864254176616669E-2   5.675436556339264E-2  -8.909434676170349E-1   4.465130567550659E-1  
 1.150000000000000E7    -2.358535826206207E-1   9.656818509101868E-1   7.293327152729034E-2   5.681055784225464E-2   7.290039956569672E-2   5.693881958723068E-2  -8.828890919685364E-1   4.574016332626343E-1  
 1.180000000000000E7    -2.013370543718338E-1   9.712682962417603E-1   7.687406986951828E-2   5.744502693414688E-2   7.710555940866470E-2   5.728502571582794E-2  -8.771133422851563E-1   4.694919586181641E-1  
 1.210000000000000E7    -1.670539826154709E-1   9.780996441841126E-1   8.179778605699539E-2   5.770843848586083E-2   8.160349726676941E-2   5.767166614532471E-2  -8.683677911758423E-1   4.832638204097748E-1  
 1.240000000000000E7    -1.316793560981751E-1   9.825178980827332E-1   8.630937337875366E-2   5.780057236552239E-2   8.642068505287170E-2   5.740401148796082E-2  -8.607345819473267E-1   4.946551024913788E-1  
 1.270000000000000E7    -9.608982503414154E-2   9.865886569023132E-1   9.151247888803482E-2   5.727356299757958E-2   9.108660370111466E-2   5.712288618087769E-2  -8.522282838821411E-1   5.108344554901123E-1  
 1.300000000000000E7    -6.085671111941338E-2   9.891910552978516E-1   9.596437960863113E-2   5.718921124935150E-2   9.624148160219193E-2   5.712414160370827E-2  -8.433620929718018E-1   5.225114822387695E-1  
 1.330000000000000E7    -2.479052357375622E-2   9.908425211906433E-1   1.014983281493187E-1   5.677861347794533E-2   1.017235741019249E-1   5.620767176151276E-2  -8.346093297004700E-1   5.368187427520752E-1  
 1.360000000000000E7     1.268794387578964E-2   9.905775785446167E-1   1.068406626582146E-1   5.636563152074814E-2   1.071431934833527E-1   5.563090741634369E-2  -8.246514797210693E-1   5.481182336807251E-1  
 1.390000000000000E7     4.745160788297653E-2   9.883255958557129E-1   1.127699762582779E-1   5.513269826769829E-2   1.125577911734581E-1   5.560593307018280E-2  -8.153097629547119E-1   5.623447299003601E-1  
 1.420000000000000E7     8.420439809560776E-2   9.857838153839111E-1   1.183251067996025E-1   5.434804782271385E-2   1.183829158544540E-1   5.444640666246414E-2  -8.061902523040772E-1   5.750942230224609E-1  
 1.450000000000000E7     1.197898313403130E-1   9.803042411804199E-1   1.246370896697044E-1   5.277378484606743E-2   1.246442869305611E-1   5.294543132185936E-2  -7.931519746780396E-1   5.904571413993835E-1  
 1.480000000000000E7     1.575935781002045E-1   9.748298525810242E-1   1.309445202350617E-1   5.107434466481209E-2   1.312067359685898E-1   5.162739008665085E-2  -7.825564146041870E-1   6.039248108863831E-1  
 1.510000000000000E7     1.929986476898193E-1   9.668870568275452E-1   1.374324858188629E-1   4.929422959685326E-2   1.373652964830399E-1   4.945774376392365E-2  -7.681040167808533E-1   6.179773211479187E-1  
 1.540000000000000E7     2.279032766819000E-1   9.585306644439697E-1   1.442685872316361E-1   4.816168919205666E-2   1.443652957677841E-1   4.750020429491997E-2  -7.583552002906799E-1   6.311460733413696E-1  
 1.570000000000000E7     2.645721137523651E-1   9.495651721954346E-1   1.515994668006897E-1   4.522557556629181E-2   1.519017964601517E-1   4.511860013008118E-2  -7.435534000396729E-1   6.469577550888062E-1  
 1.600000000000000E7     3.003140687942505E-1   9.364417791366577E-1   1.587578505277634E-1   4.233038797974587E-2   1.595296710729599E-1   4.195173084735870E-2  -7.296929359436035E-1   6.596182584762573E-1  
 1.630000000000000E7     3.348442316055298E-1   9.233033657073975E-1   1.672840565443039E-1   3.886837139725685E-2   1.670432388782501E-1   3.906292840838432E-2  -7.143142223358154E-1   6.752340197563171E-1  
 1.660000000000000E7     3.696008622646332E-1   9.074914455413818E-1   1.755173653364182E-1   3.497673571109772E-2   1.753267347812653E-1   3.458159044384956E-2  -6.968649029731751E-1   6.902832984924316E-1  
 1.690000000000000E7     4.038321375846863E-1   8.914188742637634E-1   1.842980086803436E-1   3.125092387199402E-2   1.843097358942032E-1   3.104279562830925E-2  -6.808190941810608E-1   7.046319842338562E-1  
 1.720000000000000E7     4.397317767143250E-1   8.735946416854858E-1   1.924619972705841E-1   2.572427317500114E-2   1.929778903722763E-1   2.631770446896553E-2  -6.621518731117249E-1   7.187898159027100E-1  
 1.750000000000000E7     4.686300456523895E-1   8.566249608993530E-1   2.028745114803314E-1   2.176715433597565E-2   2.035001367330551E-1   2.126529440283775E-2  -6.436590552330017E-1   7.361630201339722E-1  
 1.780000000000000E7     5.042004585266113E-1   8.319176435470581E-1   2.114311903715134E-1   1.500359177589417E-2   2.123534530401230E-1   1.536235027015209E-2  -6.217772364616394E-1   7.485287785530090E-1  
 1.810000000000000E7     5.349055528640747E-1   8.107265830039978E-1   2.233422398567200E-1   8.510177955031395E-3   2.222900986671448E-1   7.654927670955658E-3  -5.986456274986267E-1   7.670720219612122E-1  
 1.840000000000000E7     5.678526163101196E-1   7.865356206893921E-1   2.341045141220093E-1  -7.251147180795670E-4   2.334416359663010E-1  -2.235081046819687E-4  -5.737911462783814E-1   7.811067700386047E-1  
 1.870000000000000E7     5.961194634437561E-1   7.609388232231140E-1   2.452707439661026E-1  -8.502513170242310E-3   2.445852905511856E-1  -9.111363440752029E-3  -5.471588373184204E-1   7.959144711494446E-1  
 1.900000000000000E7     6.249918341636658E-1   7.332931160926819E-1   2.568445503711700E-1  -1.830284669995308E-2   2.568302154541016E-1  -1.898536644876003E-2  -5.181571245193481E-1   8.105438947677612E-1  
 1.930000000000000E7     6.533338427543640E-1   7.030479311943054E-1   2.685574889183044E-1  -3.095922432839871E-2   2.695239186286926E-1  -2.996039018034935E-2  -4.868021011352539E-1   8.264553546905518E-1  
 1.960000000000000E7     6.801601648330689E-1   6.710557937622070E-1   2.812538146972656E-1  -4.360086470842362E-2   2.820090949535370E-1  -4.328651726245880E-2  -4.547125697135925E-1   8.406170606613159E-1  
 1.990000000000000E7     7.031888961791992E-1   6.379360556602478E-1   2.944730520248413E-1  -5.864065140485764E-2   2.954350113868713E-1  -5.874131619930267E-2  -4.146018922328949E-1   8.551328778266907E-1  
 2.020000000000000E7     7.266175150871277E-1   6.028337478637695E-1   3.087885081768036E-1  -7.561834156513214E-2   3.085701763629913E-1  -7.552176713943481E-2  -3.752456903457642E-1   8.659025430679321E-1  
 2.050000000000000E7     7.494975924491882E-1   5.651006102561951E-1   3.227751255035400E-1  -9.465556591749191E-2   3.212161958217621E-1  -9.511987119913101E-2  -3.303020894527435E-1   8.774728775024414E-1  
 2.080000000000000E7     7.672933340072632E-1   5.251506567001343E-1   3.370423018932343E-1  -1.177738457918167E-1   3.374628722667694E-1  -1.176477223634720E-1  -2.792525589466095E-1   8.880974650382996E-1  
 2.110000000000000E7     7.837931513786316E-1   4.849639236927033E-1   3.511142134666443E-1  -1.450279951095581E-1   3.516094088554382E-1  -1.451162099838257E-1  -2.230072617530823E-1   8.936620950698853E-1  
 2.140000000000000E7     7.961990833282471E-1   4.430682659149170E-1   3.642987608909607E-1  -1.757516264915466E-1   3.640612959861755E-1  -1.744869202375412E-1  -1.622243970632553E-1   8.960086703300476E-1  
 2.170000000000000E7     8.046662211418152E-1   3.999826610088348E-1   3.771508038043976E-1  -2.099418938159943E-1   3.776272535324097E-1  -2.093329280614853E-1  -9.343697875738144E-2   8.924645781517029E-1  
 2.200000000000000E7     8.102385401725769E-1   3.524959683418274E-1   3.868510425090790E-1  -2.510288655757904E-1   3.874799013137817E-1  -2.510342001914978E-1  -1.721420139074326E-2   8.806616663932800E-1  
 2.230000000000000E7     8.089141845703125E-1   3.064263761043549E-1   3.940843343734741E-1  -2.978439331054688E-1   3.943841159343720E-1  -2.973983883857727E-1   6.516398489475250E-2   8.601811528205872E-1  
 2.260000000000000E7     8.030392527580261E-1   2.595571577548981E-1   3.959761261940002E-1  -3.517794013023377E-1   3.980611264705658E-1  -3.533159792423248E-1   1.552847176790237E-1   8.254081606864929E-1  
 2.290000000000000E7     7.894604206085205E-1   2.142068743705750E-1   3.908458948135376E-1  -4.132439494132996E-1   3.919702470302582E-1  -4.136859774589539E-1   2.521419823169708E-1   7.728494405746460E-1  
 2.320000000000000E7     7.678781151771545E-1   1.732754707336426E-1   3.730756342411041E-1  -4.826724529266357E-1   3.723224103450775E-1  -4.835517108440399E-1   3.510095179080963E-1   6.996948122978210E-1  
 2.350000000000000E7     7.395088076591492E-1   1.364445090293884E-1   3.399333059787750E-1  -5.575718283653259E-1   3.407640457153320E-1  -5.570499897003174E-1   4.467488229274750E-1   5.972949266433716E-1  
 2.380000000000000E7     7.031473517417908E-1   1.080805510282517E-1   2.906530499458313E-1  -6.325260400772095E-1   2.901796996593475E-1  -6.329275965690613E-1   5.312907695770264E-1   4.630703330039978E-1  
 2.410000000000000E7     6.633920669555664E-1   9.200007468461990E-2   2.159407138824463E-1  -7.041565179824829E-1   2.152084410190582E-1  -7.032541036605835E-1   5.903354883193970E-1   2.973104119300842E-1  
 2.440000000000000E7     6.238495111465454E-1   9.304605424404144E-2   1.179729923605919E-1  -7.603537440299988E-1   1.169059053063393E-1  -7.627484798431397E-1   6.091074347496033E-1   1.051041334867477E-1  
 2.470000000000000E7     5.907303690910339E-1   1.075704395771027E-1   7.539670914411545E-4  -7.937748432159424E-1   1.203034073114395E-3  -7.947757840156555E-1   5.783074498176575E-1  -1.023294404149056E-1  
 2.500000000000000E7     5.679773688316345E-1   1.341884285211563E-1  -1.263768523931503E-1  -7.959319949150085E-1  -1.290963441133499E-1  -7.963747382164002E-1   4.875805974006653E-1  -2.977078557014465E-1  
 2.530000000000000E7     5.640791058540344E-1   1.705954670906067E-1  -2.538791894912720E-1  -7.620338797569275E-1  -2.509028613567352E-1  -7.619431018829346E-1   3.430703580379486E-1  -4.637074470520020E-1  
 2.560000000000000E7     5.779045224189758E-1   2.023873776197434E-1  -3.598786890506744E-1  -6.984618902206421E-1  -3.582357764244080E-1  -6.984999775886536E-1   1.640613079071045E-1  -5.799553990364075E-1  
 2.590000000000000E7     6.105984449386597E-1   2.247593700885773E-1  -4.394747912883759E-1  -6.121218800544739E-1  -4.412186145782471E-1  -6.120058298110962E-1  -2.444292232394218E-2  -6.408814787864685E-1  
 2.620000000000000E7     6.520765423774719E-1   2.350270450115204E-1  -4.949723780155182E-1  -5.177312493324280E-1  -4.940470159053803E-1  -5.178152918815613E-1  -2.085967063903809E-1  -6.527323126792908E-1  
 2.650000000000000E7     6.956410408020020E-1   2.328453958034515E-1  -5.222969055175781E-1  -4.250235855579376E-1  -5.237779617309570E-1  -4.253751635551453E-1  -3.729275465011597E-1  -6.245459318161011E-1  
 2.680000000000000E7     7.399780750274658E-1   2.171347588300705E-1  -5.303629636764526E-1  -3.392778635025024E-1  -5.323145985603333E-1  -3.402175307273865E-1  -5.097536444664002E-1  -5.705452561378479E-1  
 2.710000000000000E7     7.804250717163086E-1   1.897707879543304E-1  -5.266543030738831E-1  -2.643678784370422E-1  -5.268830060958862E-1  -2.621181905269623E-1  -6.213359832763672E-1  -5.038998723030090E-1  
 2.740000000000000E7     8.174149990081787E-1   1.566315740346909E-1  -5.104390978813171E-1  -1.983334869146347E-1  -5.132027268409729E-1  -1.991215497255325E-1  -7.087472081184387E-1  -4.280316829681397E-1  
 2.770000000000000E7     8.470833301544190E-1   1.170209795236588E-1  -4.900055527687073E-1  -1.442841291427612E-1  -4.929154217243195E-1  -1.444822400808334E-1  -7.764117121696472E-1  -3.528399765491486E-1  
 2.800000000000000E7     8.723958134651184E-1   7.440711557865143E-2  -4.663839042186737E-1  -9.795652329921722E-2  -4.673370420932770E-1  -1.005248799920082E-1  -8.269512057304382E-1  -2.777784466743469E-1  
 2.830000000000000E7     8.903503417968750E-1   2.675407938659191E-2  -4.411958456039429E-1  -5.980347096920013E-2  -4.420481324195862E-1  -5.982355400919914E-2  -8.648045659065247E-1  -2.081798762083054E-1  
 2.860000000000000E7     9.049869775772095E-1  -2.212478406727314E-2  -4.159309267997742E-1  -2.862116508185864E-2  -4.173167943954468E-1  -2.882706373929977E-2  -8.933849930763245E-1  -1.420426368713379E-1  
 2.890000000000000E7     9.135583043098450E-1  -7.154544442892075E-2  -3.916001319885254E-1  -2.734524663537741E-3  -3.911533355712891E-1  -2.665043808519840E-3  -9.117130637168884E-1  -7.988570630550385E-2  
 2.920000000000000E7     9.187881946563721E-1  -1.219430118799210E-1  -3.662140071392059E-1   1.900797337293625E-2  -3.667196035385132E-1   1.953973248600960E-2  -9.259105324745178E-1  -2.256223186850548E-2  
 2.950000000000000E7     9.195623397827148E-1  -1.714247465133667E-1  -3.440782427787781E-1   3.618308156728745E-2  -3.441226482391357E-1   3.636654093861580E-2  -9.345859289169312E-1   2.955313585698605E-2  
 2.980000000000000E7     9.159569144248962E-1  -2.219516634941101E-1  -3.215360939502716E-1   5.147441104054451E-2  -3.226577937602997E-1   5.124793946743012E-2  -9.390937685966492E-1   7.796953618526459E-2  
 3.010000000000000E7     9.090345501899719E-1  -2.724460959434509E-1  -3.013107180595398E-1   6.404066085815430E-2  -3.013341724872589E-1   6.302580982446671E-2  -9.405240416526794E-1   1.224809959530830E-1  
 3.040000000000000E7     8.987349271774292E-1  -3.232318162918091E-1  -2.812173962593079E-1   7.355199009180069E-2  -2.823621928691864E-1   7.413715869188309E-2  -9.393776059150696E-1   1.645438671112061E-1  
 3.070000000000000E7     8.823323249816895E-1  -3.721401095390320E-1  -2.621245682239533E-1   8.277311176061630E-2  -2.626045346260071E-1   8.264037221670151E-2  -9.375426173210144E-1   2.036667615175247E-1  
 3.100000000000000E7     8.648169636726379E-1  -4.215019643306732E-1  -2.448252737522125E-1   8.935581147670746E-2  -2.447226196527481E-1   8.940675854682922E-2  -9.334270358085632E-1   2.388425171375275E-1  
 3.130000000000000E7     8.446323871612549E-1  -4.691312909126282E-1  -2.283453643321991E-1   9.515339881181717E-2  -2.285618782043457E-1   9.507381916046143E-2  -9.275141358375549E-1   2.728001475334168E-1  
 3.160000000000000E7     8.198293447494507E-1  -5.162149667739868E-1  -2.123206853866577E-1   9.899231791496277E-2  -2.129162102937698E-1   9.968436509370804E-2  -9.217197299003601E-1   3.027106523513794E-1  
 3.190000000000000E7     7.917146682739258E-1  -5.614803433418274E-1  -1.972286999225617E-1   1.029014512896538E-1  -1.971816122531891E-1   1.027683615684509E-1  -9.143095016479492E-1   3.319390714168549E-1  
 3.220000000000000E7     7.627068161964417E-1  -6.076992750167847E-1  -1.828971207141876E-1   1.054586768150330E-1  -1.828039735555649E-1   1.055637598037720E-1  -9.066877365112305E-1   3.587303161621094E-1  
 3.250000000000000E7     7.288036346435547E-1  -6.504234075546265E-1  -1.695370078086853E-1   1.070796772837639E-1  -1.696517765522003E-1   1.077332645654678E-1  -8.993489742279053E-1   3.844592869281769E-1  
 3.280000000000000E7     6.911514997482300E-1  -6.916751265525818E-1  -1.566336899995804E-1   1.078259274363518E-1  -1.563801169395447E-1   1.083693876862526E-1  -8.904289007186890E-1   4.089841246604919E-1  
 3.310000000000000E7     6.516895294189453E-1  -7.315413355827332E-1  -1.440351903438568E-1   1.089577898383141E-1  -1.444146484136581E-1   1.093073934316635E-1  -8.819587230682373E-1   4.322126805782318E-1  
 3.340000000000000E7     6.086183786392212E-1  -7.706443071365356E-1  -1.324604749679565E-1   1.092270612716675E-1  -1.322306841611862E-1   1.091323420405388E-1  -8.715571761131287E-1   4.545394778251648E-1  
 3.370000000000000E7     5.620763897895813E-1  -8.063932061195374E-1  -1.208549141883850E-1   1.083906963467598E-1  -1.214257404208183E-1   1.084050983190537E-1  -8.632881045341492E-1   4.746972024440765E-1  
 3.400000000000000E7     5.119240283966065E-1  -8.406478762626648E-1  -1.101278066635132E-1   1.073624566197395E-1  -1.104774326086044E-1   1.076766923069954E-1  -8.526771068572998E-1   4.942341148853302E-1  
 3.430000000000000E7     4.590036869049072E-1  -8.728661537170410E-1  -9.983482211828232E-2   1.062217280268669E-1  -9.981223940849304E-2   1.057855784893036E-1  -8.434838056564331E-1   5.127803683280945E-1  
 3.460000000000000E7     4.016094803810120E-1  -9.008989334106445E-1  -8.967958390712738E-2   1.041442677378655E-1  -9.000974893569946E-2   1.040593758225441E-1  -8.345477581024170E-1   5.309893488883972E-1  
 3.490000000000000E7     3.418489992618561E-1  -9.263351559638977E-1  -8.038398623466492E-2   1.021013557910919E-1  -8.017860352993012E-2   1.010959148406982E-1  -8.232176303863525E-1   5.467643737792969E-1  
 3.520000000000000E7     2.791008949279785E-1  -9.488176107406616E-1  -7.118792831897736E-2   9.875465184450150E-2  -7.151849567890167E-2   9.838711470365524E-2  -8.140332698822022E-1   5.646440386772156E-1  
 3.550000000000000E7     2.113695144653320E-1  -9.659032821655273E-1  -6.280934065580368E-2   9.491646289825440E-2  -6.277605146169663E-2   9.505692869424820E-2  -8.047593235969544E-1   5.791327953338623E-1  
 3.580000000000000E7     1.412715017795563E-1  -9.793063998222351E-1  -5.430725216865540E-2   9.117278456687927E-2  -5.443830043077469E-2   9.102976322174072E-2  -7.935886979103088E-1   5.950120687484741E-1  
 3.610000000000000E7     6.752843409776688E-2  -9.872660040855408E-1  -4.672785848379135E-2   8.718619495630264E-2  -4.653599858283997E-2   8.687700331211090E-2  -7.844871282577515E-1   6.116735935211182E-1  
 3.640000000000000E7    -9.339094161987305E-3  -9.906110167503357E-1  -3.935832157731056E-2   8.204442262649536E-2  -3.942129388451576E-2   8.222796767950058E-2  -7.740133404731751E-1   6.239381432533264E-1  
 3.670000000000000E7    -8.764895796775818E-2  -9.877611398696899E-1  -3.244247287511826E-2   7.693994045257568E-2  -3.229054063558579E-2   7.677737623453140E-2  -7.643250226974487E-1   6.371545195579529E-1  
 3.700000000000000E7    -1.714108884334564E-1  -9.767673611640930E-1  -2.575471438467503E-2   7.103054970502853E-2  -2.573846653103828E-2   7.116831839084625E-2  -7.531209588050842E-1   6.517162919044495E-1  
 3.730000000000000E7    -2.550942599773407E-1  -9.585970044136047E-1  -1.955358311533928E-2   6.460149586200714E-2  -1.977837830781937E-2   6.484675407409668E-2  -7.419592738151550E-1   6.626909375190735E-1  
 3.760000000000000E7    -3.409908115863800E-1  -9.317878484725952E-1  -1.434770412743092E-2   5.809031799435616E-2  -1.435093581676483E-2   5.814122036099434E-2  -7.321706414222717E-1   6.765565276145935E-1  
 3.790000000000000E7    -4.279582500457764E-1  -8.958805799484253E-1  -9.873604401946068E-3   5.089273303747177E-2  -9.702417999505997E-3   5.075560510158539E-2  -7.211951017379761E-1   6.883250474929810E-1  
 3.820000000000000E7    -5.166716575622559E-1  -8.475040197372437E-1  -5.930066108703613E-3   4.305113852024078E-2  -5.680042318999767E-3   4.309064149856567E-2  -7.104143500328064E-1   6.981618404388428E-1  
 3.850000000000000E7    -6.022115349769592E-1  -7.884109616279602E-1  -2.843060065060854E-3   3.481176495552063E-2  -2.630210714414716E-3   3.485347330570221E-2  -7.015365958213806E-1   7.102261781692505E-1  
 3.880000000000000E7    -6.844692230224609E-1  -7.171101570129395E-1  -3.562433412298560E-4   2.621527388691902E-2  -6.000804714858532E-4   2.621226757764816E-2  -6.901342868804932E-1   7.217604517936707E-1  
 3.910000000000000E7    -7.633873224258423E-1  -6.316051483154297E-1   5.883552366867662E-4   1.714776642620564E-2   5.869596498087049E-4   1.720088347792625E-2  -6.796514391899109E-1   7.333105206489563E-1  
 3.940000000000000E7    -8.345479369163513E-1  -5.338838100433350E-1   3.624378878157586E-4   7.850917987525463E-3   4.841988557018340E-4   7.885114289820194E-3  -6.686028242111206E-1   7.421479821205139E-1  
 3.970000000000000E7    -8.973162174224854E-1  -4.217619001865387E-1  -8.638521539978683E-4  -1.517361029982567E-3  -9.157975437119603E-4  -1.567654311656952E-3  -6.562079787254334E-1   7.512258291244507E-1  
 4.000000000000000E7    -9.438939094543457E-1  -2.959766983985901E-1  -3.798710182309151E-3  -1.079938281327486E-2  -3.760379506275058E-3  -1.078855432569981E-2  -6.464519500732422E-1   7.614746689796448E-1  
 4.030000000000000E7    -9.768137931823731E-1  -1.587891429662705E-1  -8.093668147921562E-3  -1.993272267282009E-2  -8.136369287967682E-3  -1.981676183640957E-2  -6.358735561370850E-1   7.703767418861389E-1  
 4.060000000000000E7    -9.893546700477600E-1  -1.097064465284348E-2  -1.411541923880577E-2  -2.828481979668140E-2  -1.410834118723869E-2  -2.816677279770374E-2  -6.236816644668579E-1   7.785613536834717E-1  
 4.090000000000000E7    -9.774162769317627E-1   1.421451866626740E-1  -2.140283957123756E-2  -3.559052571654320E-2  -2.148791775107384E-2  -3.576262667775154E-2  -6.132049560546875E-1   7.862719297409058E-1  
 4.120000000000000E7    -9.408590197563171E-1   2.988896369934082E-1  -3.018573671579361E-2  -4.189293086528778E-2  -3.048819117248058E-2  -4.181917011737824E-2  -6.012529730796814E-1   7.946419715881348E-1  
 4.150000000000000E7    -8.755235075950623E-1   4.526540935039520E-1  -4.057231172919273E-2  -4.652790352702141E-2  -4.062134027481079E-2  -4.636707901954651E-2  -5.897086262702942E-1   8.024756908416748E-1  
 4.180000000000000E7    -7.839466333389282E-1   5.956721901893616E-1  -5.149530246853828E-2  -4.916121810674667E-2  -5.152808502316475E-2  -4.934093728661537E-2  -5.798085331916809E-1   8.088878989219666E-1  
 4.210000000000000E7    -6.669353842735291E-1   7.242304086685181E-1  -6.315556913614273E-2  -4.976267740130425E-2  -6.317572295665741E-2  -4.988835006952286E-2  -5.683738589286804E-1   8.168101310729981E-1  
 4.240000000000000E7    -5.272923707962036E-1   8.304299712181091E-1  -7.459388673305512E-2  -4.834300279617310E-2  -7.468136399984360E-2  -4.824028909206390E-2  -5.582218170166016E-1   8.235529661178589E-1  
 4.270000000000000E7    -3.704349398612976E-1   9.097598195075989E-1  -8.585792779922485E-2  -4.439257085323334E-2  -8.551452308893204E-2  -4.450061917304993E-2  -5.461524128913879E-1   8.306676745414734E-1  
 4.300000000000000E7    -2.038429975509644E-1   9.611166715621948E-1  -9.579108655452728E-2  -3.888732939958572E-2  -9.579508751630783E-2  -3.867332637310028E-2  -5.357825160026550E-1   8.373463153839111E-1  
 4.330000000000000E7    -3.167444467544556E-2   9.810756444931030E-1  -1.042410954833031E-1  -3.111035004258156E-2  -1.046362593770027E-1  -3.129861131310463E-2  -5.247280597686768E-1   8.421222567558289E-1  
 4.360000000000000E7     1.365399211645126E-1   9.729840755462647E-1  -1.117234081029892E-1  -2.293215692043304E-2  -1.118673086166382E-1  -2.260709553956986E-2  -5.151065587997437E-1   8.480217456817627E-1  
 4.390000000000000E7     2.946044206619263E-1   9.361701011657715E-1  -1.171421557664871E-1  -1.350018009543419E-2  -1.168431490659714E-1  -1.328287366777659E-2  -5.041806101799011E-1   8.530102372169495E-1  
 4.420000000000000E7     4.414793848991394E-1   8.756555318832398E-1  -1.205401048064232E-1  -2.965852618217468E-3  -1.204245463013649E-1  -3.312841989099979E-3  -4.930298626422882E-1   8.583731055259705E-1  
 4.450000000000000E7     5.708921551704407E-1   7.979483604431152E-1  -1.225671917200089E-1   6.737610325217247E-3  -1.225560978055000E-1   6.896841339766979E-3  -4.841956794261932E-1   8.638553023338318E-1  
 4.480000000000000E7     6.814445257186890E-1   7.060835957527161E-1  -1.229780316352844E-1   1.653178781270981E-2  -1.229273974895477E-1   1.659462228417397E-2  -4.743121862411499E-1   8.692166805267334E-1  
 4.510000000000000E7     7.734853625297546E-1   6.048207879066467E-1  -1.221167668700218E-1   2.572473883628845E-2  -1.219994276762009E-1   2.587410062551498E-2  -4.644999802112579E-1   8.751940131187439E-1  
 4.540000000000000E7     8.476063013076782E-1   4.967187047004700E-1  -1.199153438210487E-1   3.503428399562836E-2  -1.201047301292419E-1   3.493198752403259E-2  -4.537511467933655E-1   8.805755376815796E-1  
 4.570000000000000E7     9.043132662773132E-1   3.851878046989441E-1  -1.168830469250679E-1   4.305479303002358E-2  -1.165706887841225E-1   4.274402931332588E-2  -4.433495998382568E-1   8.852984905242920E-1  
 4.600000000000000E7     9.441838264465332E-1   2.752293646335602E-1  -1.130962669849396E-1   4.976845905184746E-2  -1.130798459053040E-1   4.976690560579300E-2  -4.342502653598785E-1   8.903118968009949E-1  
 4.630000000000000E7     9.705272912979126E-1   1.660006493330002E-1  -1.089394390583038E-1   5.630987137556076E-2  -1.089628785848618E-1   5.639482662081718E-2  -4.241195917129517E-1   8.952921628952026E-1  
 4.660000000000000E7     9.832927584648132E-1   6.075771898031235E-2  -1.040095239877701E-1   6.236306577920914E-2  -1.042609661817551E-1   6.215938553214073E-2  -4.124773740768433E-1   9.004362821578980E-1  
 4.690000000000000E7     9.849865436553955E-1  -4.129832237958908E-2  -9.906861931085587E-2   6.713277846574783E-2  -9.887108206748962E-2   6.714174151420593E-2  -4.030947089195252E-1   9.055630564689636E-1  
 4.720000000000000E7     9.762803912162781E-1  -1.379491090774536E-1  -9.364305436611176E-2   7.145521789789200E-2  -9.395096451044083E-2   7.151354849338532E-2  -3.922999799251556E-1   9.093929529190064E-1  
 4.750000000000000E7     9.602540731430054E-1  -2.269804030656815E-1  -8.850359171628952E-2   7.512196153402329E-2  -8.859966695308685E-2   7.506377995014191E-2  -3.824408650398254E-1   9.150210618972778E-1  
 4.780000000000000E7     9.364210367202759E-1  -3.108783066272736E-1  -8.302009850740433E-2   7.809449732303619E-2  -8.325157314538956E-2   7.774363458156586E-2  -3.712001144886017E-1   9.180446267127991E-1  
 4.810000000000000E7     9.075680375099182E-1  -3.896061182022095E-1  -7.795099169015884E-2   8.020341396331787E-2  -7.792527973651886E-2   8.005581796169281E-2  -3.618357777595520E-1   9.231064319610596E-1  
 4.840000000000000E7     8.729439973831177E-1  -4.615926146507263E-1  -7.290729135274887E-2   8.227018266916275E-2  -7.284376025199890E-2   8.233142644166946E-2  -3.511924743652344E-1   9.276884794235230E-1  
 4.870000000000000E7     8.352342247962952E-1  -5.292325019836426E-1  -6.779077649116516E-2   8.393625915050507E-2  -6.788100302219391E-2   8.368480205535889E-2  -3.408895134925842E-1   9.314121007919312E-1  
 4.900000000000000E7     7.942450046539307E-1  -5.902633666992188E-1  -6.297429651021957E-2   8.497393876314163E-2  -6.291557848453522E-2   8.506776392459869E-2  -3.308542370796204E-1   9.350910782814026E-1  
 4.930000000000000E7     7.502552866935730E-1  -6.467450857162476E-1  -5.814366787672043E-2   8.568289130926132E-2  -5.819737538695335E-2   8.566134423017502E-2  -3.194180130958557E-1   9.395833015441895E-1  
 4.960000000000000E7     7.019820213317871E-1  -6.978681683540344E-1  -5.326835811138153E-2   8.616738021373749E-2  -5.325599014759064E-2   8.629768341779709E-2  -3.089621365070343E-1   9.429348111152649E-1  
 4.990000000000000E7     6.548295617103577E-1  -7.431331276893616E-1  -4.879950359463692E-2   8.642054349184036E-2  -4.882039874792099E-2   8.621742576360703E-2  -2.984442114830017E-1   9.460277557373047E-1  
 5.020000000000000E7     6.058533191680908E-1  -7.840686440467835E-1  -4.466247931122780E-2   8.610663563013077E-2  -4.491426423192024E-2   8.610326796770096E-2  -2.882809042930603E-1   9.500434994697571E-1  
 5.050000000000000E7     5.548742413520813E-1  -8.214507102966309E-1  -4.046850651502609E-2   8.596864342689514E-2  -4.038362205028534E-2   8.607355505228043E-2  -2.774753272533417E-1   9.546235203742981E-1  
 5.080000000000000E7     5.039077997207642E-1  -8.542328476905823E-1  -3.651119396090508E-2   8.528681844472885E-2  -3.662810474634171E-2   8.520373702049255E-2  -2.663493156433106E-1   9.557847380638123E-1  
 5.110000000000000E7     4.520850777626038E-1  -8.830333352088928E-1  -3.263962641358376E-2   8.465351909399033E-2  -3.275681287050247E-2   8.462201058864594E-2  -2.567979395389557E-1   9.602453112602234E-1  
 5.140000000000000E7     3.994013965129852E-1  -9.083864688873291E-1  -2.903181686997414E-2   8.382765203714371E-2  -2.903638780117035E-2   8.396054804325104E-2  -2.447835952043533E-1   9.643019437789917E-1  
 5.170000000000000E7     3.481883108615875E-1  -9.286903738975525E-1  -2.540588565170765E-2   8.261008560657501E-2  -2.560367248952389E-2   8.272212743759155E-2  -2.337090522050858E-1   9.650596976280212E-1  
 5.200000000000000E7     2.964962124824524E-1  -9.482972025871277E-1  -2.213988080620766E-2   8.153619617223740E-2  -2.267774008214474E-2   8.158500492572784E-2  -2.230134755373001E-1   9.669171571731567E-1  
 5.230000000000000E7     2.445860803127289E-1  -9.624466300010681E-1  -1.925395242869854E-2   8.027845621109009E-2  -1.911480166018009E-2   8.043386787176132E-2  -2.122376561164856E-1   9.710599780082703E-1  
 5.260000000000000E7     1.927476674318314E-1  -9.736229777336121E-1  -1.612897589802742E-2   7.906657457351685E-2  -1.625886000692844E-2   7.902760058641434E-2  -2.014138400554657E-1   9.734522700309753E-1  
 5.290000000000000E7     1.422050893306732E-1  -9.840937256813049E-1  -1.327321305871010E-2   7.738699018955231E-2  -1.332427747547627E-2   7.752016931772232E-2  -1.910884231328964E-1   9.751011133193970E-1  
 5.320000000000000E7     9.292901307344437E-2  -9.899613857269287E-1  -1.067367661744356E-2   7.595407962799072E-2  -1.070162281394005E-2   7.606121897697449E-2  -1.796896904706955E-1   9.780305027961731E-1  
 5.350000000000000E7     4.321631044149399E-2  -9.924843311309815E-1  -8.248022757470608E-3   7.440857589244843E-2  -8.118513040244579E-3   7.447463274002075E-2  -1.701823323965073E-1   9.804288744926453E-1  
 5.380000000000000E7    -5.476411432027817E-3  -9.927560091018677E-1  -5.887697916477919E-3   7.263279706239700E-2  -5.634332075715065E-3   7.255441695451737E-2  -1.568232178688049E-1   9.812834262847900E-1  
 5.410000000000000E7    -5.449586734175682E-2  -9.940863847732544E-1  -3.629992483183742E-3   7.104989886283875E-2  -3.379988484084606E-3   7.106313854455948E-2  -1.469872742891312E-1   9.838853478431702E-1  
 5.440000000000000E7    -1.018657684326172E-1  -9.892178177833557E-1  -1.419215230271220E-3   6.921068578958511E-2  -1.290405285544694E-3   6.924075633287430E-2  -1.361743062734604E-1   9.848678708076477E-1  
 5.470000000000000E7    -1.466523855924606E-1  -9.837826490402222E-1   6.896979175508022E-4   6.730793416500092E-2   7.249659392982721E-4   6.746700406074524E-2  -1.241161227226257E-1   9.862481951713562E-1  
 5.500000000000000E7    -1.927544027566910E-1  -9.762609601020813E-1   2.495954046025872E-3   6.559896469116211E-2   2.498608082532883E-3   6.556900590658188E-2  -1.127882376313210E-1   9.892474412918091E-1  
 5.530000000000000E7    -2.367954850196838E-1  -9.663991928100586E-1   4.099176265299320E-3   6.364323198795319E-2   4.406564868986607E-3   6.373976916074753E-2  -1.021491512656212E-1   9.895986914634705E-1  
 5.560000000000000E7    -2.812998890876770E-1  -9.549785256385803E-1   6.011537276208401E-3   6.178900972008705E-2   5.778994876891375E-3   6.175246834754944E-2  -9.161831438541412E-2   9.910932183265686E-1  
 5.590000000000000E7    -3.229002356529236E-1  -9.423307180404663E-1   7.390095386654139E-3   5.967828258872032E-2   7.464748807251453E-3   5.996629595756531E-2  -7.934343814849854E-2   9.919770956039429E-1  
 5.620000000000000E7    -3.649038672447205E-1  -9.257779717445374E-1   8.821121416985989E-3   5.794289708137512E-2   8.732765913009644E-3   5.763467773795128E-2  -6.905110180377960E-2   9.933183789253235E-1  
 5.650000000000000E7    -4.038532972335815E-1  -9.099853038787842E-1   9.905893355607987E-3   5.568768829107285E-2   9.942814707756043E-3   5.579669028520584E-2  -5.736929178237915E-2   9.935145974159241E-1  
 5.680000000000000E7    -4.431199431419373E-1  -8.920773267745972E-1   1.122521329671145E-2   5.397254601120949E-2   1.119882147759199E-2   5.386793985962868E-2  -4.623055830597878E-2   9.938812851905823E-1  
 5.710000000000000E7    -4.814699292182922E-1  -8.717054724693298E-1   1.236683968454599E-2   5.182004347443581E-2   1.231598202139139E-2   5.188691988587380E-2  -3.504950180649757E-2   9.949119091033936E-1  
 5.740000000000000E7    -5.188028812408447E-1  -8.510634899139404E-1   1.335430704057217E-2   4.995447024703026E-2   1.321626454591751E-2   4.987622052431107E-2  -2.327483706176281E-2   9.951161742210388E-1  
 5.770000000000000E7    -5.524743795394898E-1  -8.285587430000305E-1   1.407341938465834E-2   4.785788804292679E-2   1.401887740939856E-2   4.788111522793770E-2  -1.321933697909117E-2   9.949821233749390E-1  
 5.800000000000000E7    -5.873154401779175E-1  -8.044047355651856E-1   1.492502074688673E-2   4.602840915322304E-2   1.502902805805206E-2   4.586868733167648E-2  -1.313630491495132E-4   9.966710805892944E-1  
 5.830000000000000E7    -6.197742223739624E-1  -7.796028852462769E-1   1.545898616313934E-2   4.394892975687981E-2   1.560116373002529E-2   4.397932812571526E-2   1.006793789565563E-2   9.964408874511719E-1  
 5.860000000000000E7    -6.519600749015808E-1  -7.550907731056213E-1   1.600810140371323E-2   4.189797863364220E-2   1.612014323472977E-2   4.200132191181183E-2   2.170114591717720E-2   9.958316087722778E-1  
 5.890000000000000E7    -6.816270351409912E-1  -7.269200086593628E-1   1.657783985137940E-2   3.986457735300064E-2   1.624850742518902E-2   3.997778892517090E-2   3.219066932797432E-2   9.952201843261719E-1  
 5.920000000000000E7    -7.110097408294678E-1  -6.985234618186951E-1   1.688884198665619E-2   3.796700015664101E-2   1.691967435181141E-2   3.796074911952019E-2   4.418610408902168E-2   9.959043264389038E-1  
 5.950000000000000E7    -7.377501726150513E-1  -6.696461439132690E-1   1.704512909054756E-2   3.600050881505013E-2   1.702695526182652E-2   3.601858019828796E-2   5.543629080057144E-2   9.937860369682312E-1  
 5.980000000000000E7    -7.647169232368469E-1  -6.395826339721680E-1   1.724815182387829E-2   3.412274271249771E-2   1.719829626381397E-2   3.406738489866257E-2   6.766854971647263E-2   9.931508302688599E-1  
 6.010000000000000E7    -7.874527573585510E-1  -6.089757084846497E-1   1.720854640007019E-2   3.229662030935288E-2   1.723585464060307E-2   3.219868987798691E-2   7.810635864734650E-2   9.935558438301086E-1  
 6.040000000000000E7    -8.124938011169434E-1  -5.766140222549439E-1   1.732133515179157E-2   3.028786927461624E-2   1.729182526469231E-2   3.045809827744961E-2   9.013197571039200E-2   9.931250214576721E-1  
 6.070000000000000E7    -8.343398571014404E-1  -5.466369986534119E-1   1.724789664149284E-2   2.856639772653580E-2   1.721472479403019E-2   2.850607782602310E-2   1.008969917893410E-1   9.915733337402344E-1  
 6.100000000000000E7    -8.543373346328735E-1  -5.131738185882568E-1   1.703793928027153E-2   2.662215754389763E-2   1.701259985566139E-2   2.668230980634689E-2   1.136988475918770E-1   9.902774691581726E-1  
 6.130000000000000E7    -8.746486902236939E-1  -4.794560074806213E-1   1.683104038238525E-2   2.497082762420178E-2   1.674484461545944E-2   2.492490783333778E-2   1.252923011779785E-1   9.894787073135376E-1  
 6.160000000000000E7    -8.919160962104797E-1  -4.456424415111542E-1   1.637342013418675E-2   2.321803569793701E-2   1.644668541848660E-2   2.312172949314117E-2   1.353902071714401E-1   9.868358969688416E-1  
 6.190000000000000E7    -9.079190492630005E-1  -4.109972417354584E-1   1.597143150866032E-2   2.137514762580395E-2   1.595896668732166E-2   2.132453769445419E-2   1.462390720844269E-1   9.848074913024902E-1  
 6.220000000000000E7    -9.232763051986694E-1  -3.763051629066467E-1   1.537351775914431E-2   1.968476548790932E-2   1.549423020333052E-2   1.972113922238350E-2   1.575435847043991E-1   9.844830632209778E-1  
 6.250000000000000E7    -9.370353221893311E-1  -3.407864272594452E-1   1.486244983971119E-2   1.804257743060589E-2   1.490022893995047E-2   1.805318705737591E-2   1.691240817308426E-1   9.828907251358032E-1  
 6.280000000000000E7    -9.483705759048462E-1  -3.050483763217926E-1   1.426840201020241E-2   1.646117120981216E-2   1.422591600567102E-2   1.645040325820446E-2   1.812857389450073E-1   9.809226393699646E-1  
 6.310000000000000E7    -9.599766135215759E-1  -2.678387761116028E-1   1.353967934846878E-2   1.485059875994921E-2   1.350432913750410E-2   1.482970826327801E-2   1.922927498817444E-1   9.789072275161743E-1  
 6.340000000000000E7    -9.688869118690491E-1  -2.320615053176880E-1   1.275207195430994E-2   1.334092486649752E-2   1.273327320814133E-2   1.330125518143177E-2   2.041693776845932E-1   9.767515659332275E-1  
 6.370000000000000E7    -9.772005677223206E-1  -1.957699805498123E-1   1.184844784438610E-2   1.180710271000862E-2   1.185359060764313E-2   1.180757023394108E-2   2.148494720458984E-1   9.733747243881226E-1  
 6.400000000000000E7    -9.830756783485413E-1  -1.583688855171204E-1   1.094409544020891E-2   1.035110093653202E-2   1.091727428138256E-2   1.034517772495747E-2   2.269962728023529E-1   9.717556238174439E-1  
 6.430000000000000E7    -9.888869524002075E-1  -1.209612935781479E-1   9.935178793966770E-3   9.037168696522713E-3   9.890310466289520E-3   8.975458331406117E-3   2.378223389387131E-1   9.686017036437988E-1  
 6.460000000000000E7    -9.934129118919373E-1  -8.476142585277557E-2   8.827101439237595E-3   7.670216262340546E-3   8.841328322887421E-3   7.650079671293497E-3   2.485103607177734E-1   9.654985070228577E-1  
 6.490000000000000E7    -9.962692260742188E-1  -4.878899455070496E-2   7.682499475777149E-3   6.387464702129364E-3   7.696551736444235E-3   6.419698707759380E-3   2.597668766975403E-1   9.630926251411438E-1  
 6.520000000000000E7    -9.965770840644836E-1  -1.186993718147278E-2   6.498314440250397E-3   5.200852639973164E-3   6.504214368760586E-3   5.179057363420725E-3   2.714809179306030E-1   9.608269333839417E-1  
 6.550000000000000E7    -9.964021444320679E-1   2.418746799230576E-2   5.247156601399183E-3   4.006131552159786E-3   5.219036247581244E-3   3.986458294093609E-3   2.822418808937073E-1   9.557535648345947E-1  
 6.580000000000000E7    -9.947454929351807E-1   6.151001155376434E-2   3.917597699910402E-3   2.889686264097691E-3   3.909101244062185E-3   2.889825729653239E-3   2.945111393928528E-1   9.538788795471191E-1  
 6.610000000000000E7    -9.906782507896423E-1   9.840371459722519E-2   2.545160474255681E-3   1.852490357123315E-3   2.529400866478682E-3   1.816138508729637E-3   3.064157366752625E-1   9.484055638313294E-1  
 6.640000000000000E7    -9.882764220237732E-1   1.339753568172455E-1   1.079884474165738E-3   8.503826102241874E-4   1.084644114598632E-3   8.424280676990748E-4   3.177061080932617E-1   9.451121687889099E-1  
 6.670000000000000E7    -9.819399118423462E-1   1.701404601335526E-1  -3.970993275288492E-4  -6.166151433717459E-5  -4.180921532679349E-4  -7.501374784624204E-5   3.279199004173279E-1   9.421638250350952E-1  
 6.700000000000000E7    -9.747388362884522E-1   2.058779001235962E-1  -1.961639383807778E-3  -9.352589258924127E-4  -1.975633902475238E-3  -9.230245486833155E-4   3.388716578483582E-1   9.370808005332947E-1  
 6.730000000000000E7    -9.667041897773743E-1   2.413708269596100E-1  -3.561076708137989E-3  -1.698370906524360E-3  -3.582485485821962E-3  -1.681536552496254E-3   3.512933254241943E-1   9.343112707138062E-1  
 6.760000000000000E7    -9.578483700752258E-1   2.758838236331940E-1  -5.248954519629479E-3  -2.389888977631927E-3  -5.239710677415133E-3  -2.415240276604891E-3   3.626647591590881E-1   9.292984008789063E-1  
 6.790000000000000E7    -9.466324448585510E-1   3.108525872230530E-1  -6.932950112968683E-3  -3.052917309105396E-3  -6.949915084987879E-3  -3.046058584004641E-3   3.725200295448303E-1   9.241818785667419E-1  
 6.820000000000000E7    -9.344192147254944E-1   3.443081378936768E-1  -8.654619567096233E-3  -3.607011167332530E-3  -8.658242411911488E-3  -3.609876846894622E-3   3.839720189571381E-1   9.203739166259766E-1  
 6.850000000000000E7    -9.222332239151001E-1   3.787946701049805E-1  -1.049960590898991E-2  -4.117131233215332E-3  -1.048488169908524E-2  -4.106407985091209E-3   3.946995139122009E-1   9.161847829818726E-1  
 6.880000000000000E7    -9.073249101638794E-1   4.113714694976807E-1  -1.234084367752075E-2  -4.497540649026632E-3  -1.231175381690264E-2  -4.453612025827169E-3   4.067279994487763E-1   9.103998541831970E-1  
 6.910000000000000E7    -8.918029665946960E-1   4.436891674995422E-1  -1.421274803578854E-2  -4.817334469407797E-3  -1.419100444763899E-2  -4.822325427085161E-3   4.180416464805603E-1   9.056904315948486E-1  
 6.940000000000000E7    -8.762350082397461E-1   4.753059148788452E-1  -1.610951498150826E-2  -5.096171516925097E-3  -1.613865233957768E-2  -5.077446810901165E-3   4.283286929130554E-1   9.008468985557556E-1  
 6.970000000000000E7    -8.571290373802185E-1   5.070431232452393E-1  -1.806436665356159E-2  -5.221814382821322E-3  -1.809194870293140E-2  -5.198509898036718E-3   4.396807253360748E-1   8.946261405944824E-1  
 7.000000000000000E7    -8.391205072402954E-1   5.379495024681091E-1  -2.008315175771713E-2  -5.295831710100174E-3  -2.008720487356186E-2  -5.273240618407726E-3   4.504040479660034E-1   8.898848295211792E-1  
