#  HZ   S   RI   R     50.00 
! Rohde & Schwarz ZVT8 8Ports - Version 4.11 - 1300.0000k08 SN: 100242
! Date: 2026-07-31 14:11:46
! Measurements: S11 S21 S12 S22 
! 
 1.000000000000000E7    -4.026613235473633E-1   9.111686348915100E-1   5.508893728256226E-2   5.509573593735695E-2   5.483729764819145E-2   5.523039028048515E-2  -9.146730899810791E-1   3.950815200805664E-1  
 1.030000000000000E7    -3.703662455081940E-1   9.237988591194153E-1   5.871405079960823E-2   5.555724725127220E-2   5.859908834099770E-2   5.576156079769135E-2  -9.081441760063171E-1   4.086527228355408E-1  
 1.060000000000000E7    -3.338194489479065E-1   9.371647238731384E-1   6.267122179269791E-2   5.673438683152199E-2   6.287525594234467E-2   5.660546943545342E-2  -9.036003947257996E-1   4.215262532234192E-1  
 1.090000000000000E7    -3.015873134136200E-1   9.475348591804504E-1   6.664609163999558E-2   5.707905068993568E-2   6.658580899238586E-2   5.719523131847382E-2  -8.969597220420837E-1   4.344194233417511E-1  
 1.120000000000000E7    -2.661087810993195E-1   9.568452239036560E-1   7.103684544563294E-2   5.834424868226051E-2   7.076931744813919E-2   5.807968974113464E-2  -8.907669782638550E-1   4.473387300968170E-1  
 1.150000000000000E7    -2.298642843961716E-1   9.670239686965942E-1   7.529688626527786E-2   5.828993767499924E-2   7.507257908582687E-2   5.838678777217865E-2  -8.818869590759277E-1   4.581412374973297E-1  
 1.180000000000000E7    -1.952538490295410E-1   9.723815917968750E-1   7.941609621047974E-2   5.879635736346245E-2   7.952372729778290E-2   5.869909375905991E-2  -8.766602277755737E-1   4.704371094703674E-1  
 1.210000000000000E7    -1.599140018224716E-1   9.789800643920898E-1   8.438194543123245E-2   5.912629142403603E-2   8.441916853189468E-2   5.912591516971588E-2  -8.675942420959473E-1   4.841600358486176E-1  
 1.240000000000000E7    -1.239692270755768E-1   9.831800460815430E-1   8.932899683713913E-2   5.917717888951302E-2   8.951797336339951E-2   5.886250734329224E-2  -8.597649335861206E-1   4.960246086120606E-1  
 1.270000000000000E7    -8.706615865230560E-2   9.867272377014160E-1   9.498409926891327E-2   5.871691182255745E-2   9.453848004341126E-2   5.887573212385178E-2  -8.510929346084595E-1   5.117846727371216E-1  
 1.300000000000000E7    -5.176829174160957E-2   9.894350171089172E-1   1.000396162271500E-1   5.880410969257355E-2   9.997405856847763E-2   5.858917906880379E-2  -8.421426415443420E-1   5.239031314849854E-1  
 1.330000000000000E7    -1.477167755365372E-2   9.901907444000244E-1   1.058449894189835E-1   5.840757116675377E-2   1.058860719203949E-1   5.780049040913582E-2  -8.325604796409607E-1   5.381099581718445E-1  
 1.360000000000000E7     2.336320653557777E-2   9.898241758346558E-1   1.116736307740212E-1   5.774702131748200E-2   1.120492070913315E-1   5.709496140480042E-2  -8.234445452690125E-1   5.501031279563904E-1  
 1.390000000000000E7     5.889116227626801E-2   9.867359995841980E-1   1.181518211960793E-1   5.658766999840736E-2   1.177634075284004E-1   5.684227496385574E-2  -8.131883740425110E-1   5.641067028045654E-1  
 1.420000000000000E7     9.697927534580231E-2   9.839863777160645E-1   1.241481229662895E-1   5.583947896957398E-2   1.242920681834221E-1   5.581450462341309E-2  -8.040018677711487E-1   5.774740576744080E-1  
 1.450000000000000E7     1.337601542472839E-1   9.774093031883240E-1   1.311293393373489E-1   5.429047346115112E-2   1.311615854501724E-1   5.419946089386940E-2  -7.905290126800537E-1   5.923820137977600E-1  
 1.480000000000000E7     1.726976633071899E-1   9.708340764045715E-1   1.382169723510742E-1   5.226006731390953E-2   1.384612023830414E-1   5.296066403388977E-2  -7.798512578010559E-1   6.059462428092957E-1  
 1.510000000000000E7     2.085469514131546E-1   9.623836874961853E-1   1.454625278711319E-1   5.060837790369988E-2   1.455797106027603E-1   5.059049651026726E-2  -7.649343013763428E-1   6.200730800628662E-1  
 1.540000000000000E7     2.448678910732269E-1   9.526394605636597E-1   1.530201882123947E-1   4.937212169170380E-2   1.531314551830292E-1   4.860163852572441E-2  -7.545697093009949E-1   6.337082982063294E-1  
 1.570000000000000E7     2.824863493442535E-1   9.420244693756104E-1   1.612949669361115E-1   4.584040865302086E-2   1.615711450576782E-1   4.579107835888863E-2  -7.394210696220398E-1   6.491181850433350E-1  
 1.600000000000000E7     3.198552131652832E-1   9.278661608695984E-1   1.693616956472397E-1   4.257877171039581E-2   1.701313704252243E-1   4.226988554000855E-2  -7.251613736152649E-1   6.621693968772888E-1  
 1.630000000000000E7     3.554966747760773E-1   9.129903316497803E-1   1.790578663349152E-1   3.867728263139725E-2   1.788543909788132E-1   3.903928399085999E-2  -7.087653875350952E-1   6.784795522689819E-1  
 1.660000000000000E7     3.915987610816956E-1   8.955625295639038E-1   1.884941905736923E-1   3.434836864471436E-2   1.883390694856644E-1   3.390521556138992E-2  -6.903792023658752E-1   6.934305429458618E-1  
 1.690000000000000E7     4.268320500850678E-1   8.774172663688660E-1   1.985124498605728E-1   3.031794354319572E-2   1.984602510929108E-1   2.965507283806801E-2  -6.732071042060852E-1   7.074228525161743E-1  
 1.720000000000000E7     4.641547203063965E-1   8.576213121414185E-1   2.079922854900360E-1   2.379751577973366E-2   2.085827738046646E-1   2.432263456285000E-2  -6.542186141014099E-1   7.220278978347778E-1  
 1.750000000000000E7     4.943547248840332E-1   8.380643129348755E-1   2.201554477214813E-1   1.914192922413349E-2   2.204620093107224E-1   1.856846734881401E-2  -6.343078613281250E-1   7.386348843574524E-1  
 1.780000000000000E7     5.308250188827515E-1   8.102653026580811E-1   2.303079664707184E-1   1.093759387731552E-2   2.310464978218079E-1   1.144328154623509E-2  -6.115704178810120E-1   7.514708042144775E-1  
 1.810000000000000E7     5.624363422393799E-1   7.856401801109314E-1   2.438323348760605E-1   3.181632608175278E-3   2.427508234977722E-1   2.528155222535133E-3  -5.867989659309387E-1   7.696185111999512E-1  
 1.840000000000000E7     5.962808728218079E-1   7.574936151504517E-1   2.564479708671570E-1  -7.772566750645638E-3   2.559157013893127E-1  -7.137810811400414E-3  -5.606223344802856E-1   7.836086750030518E-1  
 1.870000000000000E7     6.254179477691650E-1   7.280731201171875E-1   2.696353495121002E-1  -1.746424660086632E-2   2.691256403923035E-1  -1.812286302447319E-2  -5.318188667297363E-1   7.981327772140503E-1  
 1.900000000000000E7     6.548787355422974E-1   6.960456967353821E-1   2.835200130939484E-1  -2.952189743518829E-2   2.833381295204163E-1  -3.027817048132420E-2  -5.007877349853516E-1   8.121361732482910E-1  
 1.930000000000000E7     6.830068826675415E-1   6.606909632682800E-1   2.970875501632690E-1  -4.531716927886009E-2   2.985558211803436E-1  -4.461321979761124E-2  -4.668027460575104E-1   8.278687000274658E-1  
 1.960000000000000E7     7.095729112625122E-1   6.228733658790588E-1   3.120926916599274E-1  -6.144072860479355E-2   3.131765127182007E-1  -6.108132749795914E-2  -4.318250715732575E-1   8.405498266220093E-1  
 1.990000000000000E7     7.321899533271790E-1   5.845459699630737E-1   3.278873562812805E-1  -8.039963245391846E-2   3.289197981357575E-1  -8.091062307357788E-2  -3.881721198558807E-1   8.534052968025208E-1  
 2.020000000000000E7     7.540580034255981E-1   5.422918796539307E-1   3.445338010787964E-1  -1.024006307125092E-1   3.442543447017670E-1  -1.022811681032181E-1  -3.458299338817596E-1   8.619478344917297E-1  
 2.050000000000000E7     7.748774886131287E-1   4.971632957458496E-1   3.608266115188599E-1  -1.272681951522827E-1   3.589296638965607E-1  -1.275909543037415E-1  -2.967284917831421E-1   8.703907728195190E-1  
 2.080000000000000E7     7.890410423278809E-1   4.492334723472595E-1   3.767790198326111E-1  -1.576083004474640E-1   3.774259984493256E-1  -1.578421890735626E-1  -2.408812046051025E-1   8.768789172172546E-1  
 2.110000000000000E7     8.011269569396973E-1   4.006236493587494E-1   3.919397294521332E-1  -1.934503018856049E-1   3.923047184944153E-1  -1.935710012912750E-1  -1.801481544971466E-1   8.764840960502625E-1  
 2.140000000000000E7     8.075298666954041E-1   3.494876325130463E-1   4.052025675773621E-1  -2.346304357051849E-1   4.051710367202759E-1  -2.329514324665070E-1  -1.134271323680878E-1   8.720941543579102E-1  
 2.170000000000000E7     8.075767159461975E-1   2.970904111862183E-1   4.168594777584076E-1  -2.804101407527924E-1   4.176583588123322E-1  -2.797166407108307E-1  -3.971220552921295E-2   8.583959341049194E-1  
 2.200000000000000E7     8.021165728569031E-1   2.411488890647888E-1   4.229661524295807E-1  -3.349314033985138E-1   4.236087799072266E-1  -3.350712656974793E-1   4.094909876585007E-2   8.337107300758362E-1  
 2.230000000000000E7     7.868565320968628E-1   1.872024834156036E-1   4.233233034610748E-1  -3.967125117778778E-1   4.239032864570618E-1  -3.964725434780121E-1   1.263327300548554E-1   7.965336441993713E-1  
 2.260000000000000E7     7.637991309165955E-1   1.343541294336319E-1   4.143858850002289E-1  -4.668165445327759E-1   4.160695672035217E-1  -4.688803851604462E-1   2.152201384305954E-1   7.401502728462219E-1  
 2.290000000000000E7     7.302030324935913E-1   8.631330728530884E-2   3.921838402748108E-1  -5.447674393653870E-1   3.934614062309265E-1  -5.453781485557556E-1   3.064444959163666E-1   6.620215773582459E-1  
 2.320000000000000E7     6.863499283790588E-1   4.872312769293785E-2   3.507106006145477E-1  -6.273891329765320E-1   3.498007953166962E-1  -6.280164718627930E-1   3.901175260543823E-1   5.609109997749329E-1  
 2.350000000000000E7     6.349228024482727E-1   2.199472114443779E-2   2.868164479732513E-1  -7.099100351333618E-1   2.877248227596283E-1  -7.094362378120422E-1   4.587895572185516E-1   4.292646646499634E-1  
 2.380000000000000E7     5.770936012268066E-1   1.019866298884153E-2   2.014723420143127E-1  -7.839905023574829E-1   2.011405676603317E-1  -7.846182584762573E-1   5.016666054725647E-1   2.708871662616730E-1  
 2.410000000000000E7     5.224741697311401E-1   1.869484037160873E-2   8.930937200784683E-2  -8.412376642227173E-1   8.899044990539551E-2  -8.400472402572632E-1   5.051286220550537E-1   9.542372077703476E-2  
 2.440000000000000E7     4.783656895160675E-1   4.769298434257507E-2  -4.020944237709045E-2  -8.687708377838135E-1  -4.150485619902611E-2  -8.709902763366699E-1   4.595072269439697E-1  -8.397961407899857E-2  
 2.470000000000000E7     4.506817460060120E-1   8.923305571079254E-2  -1.767489165067673E-1  -8.637950420379639E-1  -1.767194569110870E-1  -8.642828464508057E-1   3.677249848842621E-1  -2.534956932067871E-1  
 2.500000000000000E7     4.421492218971252E-1   1.378939002752304E-1  -3.077741563320160E-1  -8.243552446365356E-1  -3.097728788852692E-1  -8.242564797401428E-1   2.357981055974960E-1  -3.858856558799744E-1  
 2.530000000000000E7     4.583404660224915E-1   1.869166642427445E-1  -4.225375652313232E-1  -7.535029649734497E-1  -4.199931621551514E-1  -7.542584538459778E-1   7.636401057243347E-2  -4.779259860515595E-1  
 2.560000000000000E7     4.908176660537720E-1   2.218179702758789E-1  -5.082243680953980E-1  -6.654170751571655E-1  -5.069975256919861E-1  -6.658070087432861E-1  -8.898086845874786E-2  -5.237343311309815E-1  
 2.590000000000000E7     5.391738414764404E-1   2.398664206266403E-1  -5.655087828636169E-1  -5.676276087760925E-1  -5.668981075286865E-1  -5.673541426658630E-1  -2.419004440307617E-1  -5.310615897178650E-1  
 2.620000000000000E7     5.919339656829834E-1   2.438809126615524E-1  -6.018816232681274E-1  -4.699433445930481E-1  -6.008758544921875E-1  -4.701712131500244E-1  -3.816667497158051E-1  -5.077620148658752E-1  
 2.650000000000000E7     6.433982253074646E-1   2.337102591991425E-1  -6.150362491607666E-1  -3.791663944721222E-1  -6.170719861984253E-1  -3.793394863605499E-1  -5.001755952835083E-1  -4.619621932506561E-1  
 2.680000000000000E7     6.926779150962830E-1   2.087172716856003E-1  -6.149422526359558E-1  -2.972880601882935E-1  -6.169592738151550E-1  -2.984105646610260E-1  -5.947355031967163E-1  -4.047875404357910E-1  
 2.710000000000000E7     7.360912561416626E-1   1.723441034555435E-1  -6.074994206428528E-1  -2.252204716205597E-1  -6.076869368553162E-1  -2.234091311693192E-1  -6.726469397544861E-1  -3.431527018547058E-1  
 2.740000000000000E7     7.750086784362793E-1   1.302580982446671E-1  -5.897871255874634E-1  -1.622118651866913E-1  -5.924494266510010E-1  -1.625467836856842E-1  -7.319066524505615E-1  -2.770309150218964E-1  
 2.770000000000000E7     8.052771091461182E-1   8.077357709407806E-2  -5.703534483909607E-1  -1.086875349283218E-1  -5.732364058494568E-1  -1.083633303642273E-1  -7.788046598434448E-1  -2.146641165018082E-1  
 2.800000000000000E7     8.293659090995789E-1   2.716374211013317E-2  -5.477821230888367E-1  -6.104820966720581E-2  -5.494287610054016E-1  -6.374423950910568E-2  -8.135328888893127E-1  -1.528596878051758E-1  
 2.830000000000000E7     8.451229929924011E-1  -3.250350803136826E-2  -5.244206190109253E-1  -2.055782079696655E-2  -5.253838896751404E-1  -2.031749673187733E-2  -8.396760821342468E-1  -9.658841043710709E-2  
 2.860000000000000E7     8.552868962287903E-1  -9.370367974042893E-2  -5.011544823646545E-1   1.413307990878820E-2  -5.025871396064758E-1   1.415604073554277E-2  -8.597373366355896E-1  -4.276829212903976E-2  
 2.890000000000000E7     8.577445745468140E-1  -1.573363244533539E-1  -4.785762429237366E-1   4.493278264999390E-2  -4.780622720718384E-1   4.494808614253998E-2  -8.722013831138611E-1   7.786903530359268E-3  
 2.920000000000000E7     8.545561432838440E-1  -2.226453870534897E-1  -4.542551338672638E-1   7.192628085613251E-2  -4.546360671520233E-1   7.272062450647354E-2  -8.818466663360596E-1   5.454970151185989E-2  
 2.950000000000000E7     8.437905311584473E-1  -2.889483571052551E-1  -4.333553612232208E-1   9.570491313934326E-2  -4.333857297897339E-1   9.583906084299088E-2  -8.877530097961426E-1   9.747821837663651E-2  
 2.980000000000000E7     8.259294033050537E-1  -3.563859462738037E-1  -4.108079969882965E-1   1.179248467087746E-1  -4.121095538139343E-1   1.181177124381065E-1  -8.897193670272827E-1   1.373015493154526E-1  
 3.010000000000000E7     7.999721765518189E-1  -4.252873957157135E-1  -3.903605639934540E-1   1.384865939617157E-1  -3.907324969768524E-1   1.373978853225708E-1  -8.903455734252930E-1   1.742929518222809E-1  
 3.040000000000000E7     7.660319805145264E-1  -4.955353140830994E-1  -3.690718114376068E-1   1.562879681587219E-1  -3.708246052265167E-1   1.576272994279862E-1  -8.885587453842163E-1   2.092878222465515E-1  
 3.070000000000000E7     7.222223877906799E-1  -5.625167489051819E-1  -3.482664823532105E-1   1.744673848152161E-1  -3.485876917839050E-1   1.743385791778565E-1  -8.860875964164734E-1   2.415927648544312E-1  
 3.100000000000000E7     6.690311431884766E-1  -6.306625008583069E-1  -3.283048868179321E-1   1.908474117517471E-1  -3.283062875270844E-1   1.907944828271866E-1  -8.825082182884216E-1   2.709561288356781E-1  
 3.130000000000000E7     6.066201925277710E-1  -6.966832876205444E-1  -3.080046474933624E-1   2.071639299392700E-1  -3.082409501075745E-1   2.070020288228989E-1  -8.764351606369019E-1   2.989678680896759E-1  
 3.160000000000000E7     5.302786231040955E-1  -7.584404349327087E-1  -2.870885431766510E-1   2.213483452796936E-1  -2.875086069107056E-1   2.223376184701920E-1  -8.718178272247315E-1   3.234675228595734E-1  
 3.190000000000000E7     4.416343271732330E-1  -8.149998784065247E-1  -2.651846110820770E-1   2.365310937166214E-1  -2.651964426040649E-1   2.362455278635025E-1  -8.651309013366699E-1   3.478379249572754E-1  
 3.220000000000000E7     3.385323286056519E-1  -8.666498661041260E-1  -2.419684082269669E-1   2.506852149963379E-1  -2.420682460069656E-1   2.509315609931946E-1  -8.583573102951050E-1   3.697499930858612E-1  
 3.250000000000000E7     2.199173569679260E-1  -9.047273993492127E-1  -2.181289494037628E-1   2.638913989067078E-1  -2.179746925830841E-1   2.648768126964569E-1  -8.524382114410400E-1   3.905938267707825E-1  
 3.280000000000000E7     8.402373641729355E-2  -9.276157021522522E-1  -1.920978277921677E-1   2.762247920036316E-1  -1.916455626487732E-1   2.768646180629730E-1  -8.448777198791504E-1   4.108306467533112E-1  
 3.310000000000000E7    -6.748358905315399E-2  -9.305611252784729E-1  -1.622335612773895E-1   2.883032560348511E-1  -1.621944904327393E-1   2.893067598342896E-1  -8.380725383758545E-1   4.293046593666077E-1  
 3.340000000000000E7    -2.350018322467804E-1  -9.038970470428467E-1  -1.299878656864166E-1   2.981988191604614E-1  -1.297905445098877E-1   2.978457510471344E-1  -8.305031061172485E-1   4.470698237419128E-1  
 3.370000000000000E7    -4.109060764312744E-1  -8.403257131576538E-1  -9.462794661521912E-2   3.032360970973969E-1  -9.518430382013321E-2   3.044205009937286E-1  -8.251068592071533E-1   4.627344608306885E-1  
 3.400000000000000E7    -5.875149965286255E-1  -7.293558120727539E-1  -5.612108483910561E-2   3.039828538894653E-1  -5.567165091633797E-2   3.048563599586487E-1  -8.186414241790772E-1   4.781271815299988E-1  
 3.430000000000000E7    -7.485597133636475E-1  -5.646973252296448E-1  -1.479670405387878E-2   2.981087565422058E-1  -1.576017960906029E-2   2.982283234596252E-1  -8.135437965393066E-1   4.934468269348145E-1  
 3.460000000000000E7    -8.744837045669556E-1  -3.482306003570557E-1   2.569506131112576E-2   2.834175825119019E-1   2.557458542287350E-2   2.831698954105377E-1  -8.103967308998108E-1   5.090537071228027E-1  
 3.490000000000000E7    -9.407023191452026E-1  -8.859042823314667E-2   6.400006264448166E-2   2.600978016853333E-1   6.234145909547806E-2   2.595954239368439E-1  -8.044529557228088E-1   5.237309932708740E-1  
 3.520000000000000E7    -9.313824176788330E-1   1.909885406494141E-1   9.479713439941406E-2   2.269548922777176E-1   9.413345903158188E-2   2.279310971498489E-1  -8.010827898979187E-1   5.412885546684265E-1  
 3.550000000000000E7    -8.370422124862671E-1   4.616340994834900E-1   1.160409897565842E-1   1.888308674097061E-1   1.158960014581680E-1   1.887677013874054E-1  -7.970244884490967E-1   5.577746033668518E-1  
 3.580000000000000E7    -6.725647449493408E-1   6.896628737449646E-1   1.269802600145340E-1   1.486591845750809E-1   1.269717514514923E-1   1.490114182233810E-1  -7.900843024253845E-1   5.758942961692810E-1  
 3.610000000000000E7    -4.597037732601166E-1   8.525291681289673E-1   1.275588274002075E-1   1.114866212010384E-1   1.276193559169769E-1   1.111501604318619E-1  -7.843929529190064E-1   5.950742959976196E-1  
 3.640000000000000E7    -2.251571118831635E-1   9.485735893249512E-1   1.197771728038788E-1   7.840579003095627E-2   1.198002323508263E-1   7.815061509609222E-2  -7.761187553405762E-1   6.108133792877197E-1  
 3.670000000000000E7     4.735492169857025E-3   9.792317152023315E-1   1.072116121649742E-1   5.216827616095543E-2   1.072033122181892E-1   5.208053812384605E-2  -7.671453356742859E-1   6.272718906402588E-1  
 3.700000000000000E7     2.143403589725494E-1   9.589706063270569E-1   9.211238473653793E-2   3.215035796165466E-2   9.218680113554001E-2   3.198465332388878E-2  -7.564002275466919E-1   6.445789337158203E-1  
 3.730000000000000E7     3.968477845191956E-1   9.020279049873352E-1   7.622702419757843E-2   1.763075962662697E-2   7.635790854692459E-2   1.798321679234505E-2  -7.451716661453247E-1   6.575736403465271E-1  
 3.760000000000000E7     5.469740033149719E-1   8.218026757240295E-1   6.154935061931610E-2   8.258689194917679E-3   6.160282343626022E-2   8.443561382591724E-3  -7.350073456764221E-1   6.732149720191956E-1  
 3.790000000000000E7     6.708424687385559E-1   7.281771898269653E-1   4.806153103709221E-2   2.514358144253492E-3   4.821914806962013E-2   2.398945856839418E-3  -7.232641577720642E-1   6.860620379447937E-1  
 3.820000000000000E7     7.672885060310364E-1   6.280657052993774E-1   3.624061122536659E-2  -8.767540566623211E-4   3.613902628421783E-2  -9.365249425172806E-4  -7.122297286987305E-1   6.972135901451111E-1  
 3.850000000000000E7     8.437098264694214E-1   5.247796177864075E-1   2.609344199299812E-2  -2.423336263746023E-3   2.604229189455509E-2  -2.564661670476198E-3  -7.024122476577759E-1   7.096677422523499E-1  
 3.880000000000000E7     8.989755511283875E-1   4.236723482608795E-1   1.743044145405293E-2  -2.806791570037603E-3   1.729274727404118E-2  -2.735739341005683E-3  -6.906664967536926E-1   7.213889360427856E-1  
 3.910000000000000E7     9.401172399520874E-1   3.256242275238037E-1   1.016186643391848E-2  -2.129235770553350E-3   1.010765414685011E-2  -2.133709378540516E-3  -6.799301505088806E-1   7.335287332534790E-1  
 3.940000000000000E7     9.664942026138306E-1   2.311460375785828E-1   4.191190935671330E-3  -9.881220757961273E-4   4.111976362764835E-3  -9.262927342206240E-4  -6.683371067047119E-1   7.416794300079346E-1  
 3.970000000000000E7     9.841237068176270E-1   1.414152085781097E-1  -6.330758333206177E-4   5.284578073769808E-4  -6.685153348371387E-4   6.082816980779171E-4  -6.564111709594727E-1   7.510579228401184E-1  
 4.000000000000000E7     9.933961629867554E-1   5.652129650115967E-2  -4.581931512802839E-3   2.242065500468016E-3  -4.559958353638649E-3   2.188905375078321E-3  -6.467393040657044E-1   7.615945339202881E-1  
 4.030000000000000E7     9.951794743537903E-1  -2.327416837215424E-2  -7.803063374012709E-3   4.034889396280050E-3  -7.875664159655571E-3   4.022566601634026E-3  -6.358614563941956E-1   7.703975439071655E-1  
 4.060000000000000E7     9.909352660179138E-1  -9.892581403255463E-2  -1.026094797998667E-2   5.692454986274242E-3  -1.021723728626967E-2   5.696196109056473E-3  -6.245056390762329E-1   7.785807251930237E-1  
 4.090000000000000E7     9.816814661026001E-1  -1.708947718143463E-1  -1.218694448471069E-2   7.450940553098917E-3  -1.210701838135719E-2   7.419205270707607E-3  -6.143489480018616E-1   7.865923643112183E-1  
 4.120000000000000E7     9.681864976882935E-1  -2.370811700820923E-1  -1.355272065848112E-2   8.921383880078793E-3  -1.353193446993828E-2   9.101845324039459E-3  -6.023452877998352E-1   7.951449155807495E-1  
 4.150000000000000E7     9.498024582862854E-1  -2.987890243530273E-1  -1.461453735828400E-2   1.052041817456484E-2  -1.455924659967423E-2   1.039084699004889E-2  -5.914388895034790E-1   8.031595349311829E-1  
 4.180000000000000E7     9.296402931213379E-1  -3.590533137321472E-1  -1.539274398237467E-2   1.188174635171890E-2  -1.534211076796055E-2   1.191601250320673E-2  -5.819525718688965E-1   8.103395104408264E-1  
 4.210000000000000E7     9.063463807106018E-1  -4.141004383563995E-1  -1.568713970482349E-2   1.322207413613796E-2  -1.580973714590073E-2   1.326547749340534E-2  -5.707405805587769E-1   8.185743093490601E-1  
 4.240000000000000E7     8.804178237915039E-1  -4.652760922908783E-1  -1.594809256494045E-2   1.429072115570307E-2  -1.596237160265446E-2   1.426296122372150E-2  -5.607915520668030E-1   8.262119293212891E-1  
 4.270000000000000E7     8.528408408164978E-1  -5.144072175025940E-1  -1.594466716051102E-2   1.533087156713009E-2  -1.588458195328713E-2   1.539576984941959E-2  -5.490113496780396E-1   8.341254591941834E-1  
 4.300000000000000E7     8.239473104476929E-1  -5.616244673728943E-1  -1.573751494288445E-2   1.630823500454426E-2  -1.569952070713043E-2   1.623015291988850E-2  -5.387542843818665E-1   8.413276076316834E-1  
 4.330000000000000E7     7.944322824478149E-1  -6.027218103408814E-1  -1.538613718003035E-2   1.692267134785652E-2  -1.532216835767031E-2   1.690843515098095E-2  -5.275023579597473E-1   8.472279906272888E-1  
 4.360000000000000E7     7.605809569358826E-1  -6.440231204032898E-1  -1.500035356730223E-2   1.750128157436848E-2  -1.494099106639624E-2   1.741187833249569E-2  -5.175881981849670E-1   8.539185523986816E-1  
 4.390000000000000E7     7.281666994094849E-1  -6.825146675109863E-1  -1.442058011889458E-2   1.804600283503532E-2  -1.450467109680176E-2   1.800007000565529E-2  -5.062003135681152E-1   8.597291707992554E-1  
 4.420000000000000E7     6.926571130752564E-1  -7.164277434349060E-1  -1.378228515386581E-2   1.840577647089958E-2  -1.381220389157534E-2   1.833333075046539E-2  -4.946668148040772E-1   8.654798269271851E-1  
 4.450000000000000E7     6.575148105621338E-1  -7.488844394683838E-1  -1.325738150626421E-2   1.866543479263783E-2  -1.313047483563423E-2   1.863758452236652E-2  -4.853264093399048E-1   8.716253042221069E-1  
 4.480000000000000E7     6.218796968460083E-1  -7.792364358901978E-1  -1.244714297354221E-2   1.877408102154732E-2  -1.243293937295675E-2   1.883917674422264E-2  -4.749751091003418E-1   8.770492672920227E-1  
 4.510000000000000E7     5.864360332489014E-1  -8.070750236511231E-1  -1.184583082795143E-2   1.880835369229317E-2  -1.179350074380636E-2   1.888450980186462E-2  -4.643527269363403E-1   8.839266300201416E-1  
 4.540000000000000E7     5.481113195419312E-1  -8.324935436248779E-1  -1.093557104468346E-2   1.881587319076061E-2  -1.099440362304449E-2   1.892426796257496E-2  -4.532097876071930E-1   8.893971443176270E-1  
 4.570000000000000E7     5.099636316299439E-1  -8.569064140319824E-1  -1.010789256542921E-2   1.873644813895226E-2  -1.031320448964834E-2   1.869871467351914E-2  -4.423122406005859E-1   8.944806456565857E-1  
 4.600000000000000E7     4.737248420715332E-1  -8.769931197166443E-1  -9.499725885689259E-3   1.854475960135460E-2  -9.636955335736275E-3   1.866755448281765E-2  -4.323762953281403E-1   8.994560241699219E-1  
 4.630000000000000E7     4.334869086742401E-1  -8.985148668289185E-1  -8.787178434431553E-3   1.824106462299824E-2  -8.725396357476711E-3   1.824966259300709E-2  -4.218292832374573E-1   9.041740894317627E-1  
 4.660000000000000E7     3.946368098258972E-1  -9.171621203422546E-1  -7.968921214342117E-3   1.807559095323086E-2  -7.875939831137657E-3   1.797464303672314E-2  -4.094213247299194E-1   9.100233912467957E-1  
 4.690000000000000E7     3.554268479347229E-1  -9.318566322326660E-1  -7.291559129953384E-3   1.753236353397369E-2  -7.212152238935232E-3   1.751547306776047E-2  -3.993131220340729E-1   9.148684144020081E-1  
 4.720000000000000E7     3.157689869403839E-1  -9.456622004508972E-1  -6.525902077555656E-3   1.707223430275917E-2  -6.429025903344154E-3   1.704683899879456E-2  -3.878960311412811E-1   9.188341498374939E-1  
 4.750000000000000E7     2.771979868412018E-1  -9.584672451019287E-1  -5.752301309257746E-3   1.657729595899582E-2  -5.855177529156208E-3   1.649891026318073E-2  -3.777704536914825E-1   9.239584207534790E-1  
 4.780000000000000E7     2.383245527744293E-1  -9.686319231987000E-1  -5.077952053397894E-3   1.591299846768379E-2  -5.148388445377350E-3   1.587491109967232E-2  -3.657371401786804E-1   9.269426465034485E-1  
 4.810000000000000E7     1.982727050781250E-1  -9.776613116264343E-1  -4.499519709497690E-3   1.530234236270189E-2  -4.567473195493221E-3   1.525863353163004E-2  -3.566161096096039E-1   9.320247769355774E-1  
 4.840000000000000E7     1.589278578758240E-1  -9.852339029312134E-1  -3.982958383858204E-3   1.462309341877699E-2  -3.922848030924797E-3   1.460221316665411E-2  -3.453168570995331E-1   9.362448453903198E-1  
 4.870000000000000E7     1.190369874238968E-1  -9.907661676406860E-1  -3.265072125941515E-3   1.384551543742418E-2  -3.361248178407550E-3   1.393275335431099E-2  -3.345929980278015E-1   9.400976896286011E-1  
 4.900000000000000E7     7.968651503324509E-2  -9.953758716583252E-1  -2.759045921266079E-3   1.310204248875380E-2  -2.748843282461166E-3   1.304930634796619E-2  -3.239832520484924E-1   9.433101415634155E-1  
 4.930000000000000E7     4.044751450419426E-2  -9.977886080741882E-1  -2.271218458190560E-3   1.232708431780338E-2  -2.268531359732151E-3   1.230260543525219E-2  -3.120807111263275E-1   9.474205374717712E-1  
 4.960000000000000E7     1.586195081472397E-3  -9.968805313110352E-1  -1.760474988259375E-3   1.136748492717743E-2  -1.822992693632841E-3   1.139100361615419E-2  -3.015641868114471E-1   9.508066177368164E-1  
 4.990000000000000E7    -3.624670580029488E-2  -9.966244697570801E-1  -1.390762510709465E-3   1.050746068358421E-2  -1.383815426379442E-3   1.048604119569063E-2  -2.907185256481171E-1   9.538725018501282E-1  
 5.020000000000000E7    -7.372842729091644E-2  -9.953073859214783E-1  -1.091007608920336E-3   9.525430388748646E-3  -1.135559985414147E-3   9.596035815775394E-3  -2.800044417381287E-1   9.572986960411072E-1  
 5.050000000000000E7    -1.123933792114258E-1  -9.920429587364197E-1  -7.659389520995319E-4   8.636021986603737E-3  -7.719218265265226E-4   8.638375438749790E-3  -2.693345844745636E-1   9.617007374763489E-1  
 5.080000000000000E7    -1.494497358798981E-1  -9.873480200767517E-1  -5.335047608241439E-4   7.646329700946808E-3  -5.422045942395926E-4   7.643504999577999E-3  -2.579264640808106E-1   9.622579216957092E-1  
 5.110000000000000E7    -1.867868155241013E-1  -9.803042411804199E-1  -3.008664352819324E-4   6.631197873502970E-3  -3.070904931519181E-4   6.673106923699379E-3  -2.475898265838623E-1   9.663805961608887E-1  
 5.140000000000000E7    -2.239183783531189E-1  -9.723929762840271E-1  -1.214552321471274E-4   5.627381149679422E-3  -1.286769693251699E-4   5.628297105431557E-3  -2.358664274215698E-1   9.710013866424561E-1  
 5.170000000000000E7    -2.589552402496338E-1  -9.634522199630737E-1  -1.527857966721058E-5   4.596034996211529E-3   8.287461241707206E-6   4.613599739968777E-3  -2.246147543191910E-1   9.714641571044922E-1  
 5.200000000000000E7    -2.952503859996796E-1  -9.546359777450562E-1   7.123424438759685E-5   3.528302302584052E-3   6.226365803740919E-5   3.532122122123838E-3  -2.133952975273132E-1   9.728446602821350E-1  
 5.230000000000000E7    -3.301971256732941E-1  -9.418622255325317E-1   6.061934982426465E-5   2.452506916597486E-3   7.283156446646899E-5   2.459992188960314E-3  -2.026971280574799E-1   9.767102599143982E-1  
 5.260000000000000E7    -3.643366098403931E-1  -9.278265237808228E-1   5.964763113297522E-5   1.424382673576474E-3   5.442465771920979E-5   1.372909056954086E-3  -1.916503608226776E-1   9.789450168609619E-1  
 5.290000000000000E7    -3.991384208202362E-1  -9.147626161575317E-1  -6.206514080986381E-5   2.875042264349759E-4  -4.039487976115197E-5   2.839658991433680E-4  -1.807997226715088E-1   9.803881049156189E-1  
 5.320000000000000E7    -4.313447177410126E-1  -9.006000757217407E-1  -1.985564449569210E-4  -7.899766787886620E-4  -1.880705676740035E-4  -8.101913263089955E-4  -1.693927943706513E-1   9.829127788543701E-1  
 5.350000000000000E7    -4.630574285984039E-1  -8.835670351982117E-1  -3.720309759955853E-4  -1.884702011011541E-3  -3.935990389436483E-4  -1.929552876390517E-3  -1.598763167858124E-1   9.853245019912720E-1  
 5.380000000000000E7    -4.937707483768463E-1  -8.660376071929932E-1  -6.193128065206111E-4  -2.972456393763423E-3  -6.261412636376917E-4  -2.991052111610770E-3  -1.467894911766052E-1   9.859421253204346E-1  
 5.410000000000000E7    -5.271075963973999E-1  -8.484477400779724E-1  -9.564824285916984E-4  -4.110243637114763E-3  -9.421036229468882E-4  -4.105897154659033E-3  -1.361291408538818E-1   9.879193305969238E-1  
 5.440000000000000E7    -5.569006800651550E-1  -8.278496265411377E-1  -1.299330033361912E-3  -5.172007717192173E-3  -1.324513228610158E-3  -5.188804119825363E-3  -1.254732161760330E-1   9.893006682395935E-1  
 5.470000000000000E7    -5.849771499633789E-1  -8.081918358802795E-1  -1.736755250021815E-3  -6.276215892285109E-3  -1.730611198581755E-3  -6.236629560589790E-3  -1.132511496543884E-1   9.901664257049561E-1  
 5.500000000000000E7    -6.142600774765015E-1  -7.867886424064636E-1  -2.214390318840742E-3  -7.368745747953653E-3  -2.205574885010719E-3  -7.397518027573824E-3  -1.013811975717545E-1   9.924875497817993E-1  
 5.530000000000000E7    -6.419135332107544E-1  -7.643580436706543E-1  -2.713544527068734E-3  -8.476129733026028E-3  -2.731928136199713E-3  -8.458237163722515E-3  -9.057949483394623E-2   9.929221868515015E-1  
 5.560000000000000E7    -6.693476438522339E-1  -7.401981353759766E-1  -3.325207857415080E-3  -9.526225738227367E-3  -3.324648831039667E-3  -9.506164118647575E-3  -8.033372461795807E-2   9.940900206565857E-1  
 5.590000000000000E7    -6.950010061264038E-1  -7.173070907592773E-1  -3.972137346863747E-3  -1.057658437639475E-2  -3.971911501139402E-3  -1.058688294142485E-2  -6.793697178363800E-2   9.945762753486633E-1  
 5.620000000000000E7    -7.198403477668762E-1  -6.904947757720947E-1  -4.686838481575251E-3  -1.162215322256088E-2  -4.641597159206867E-3  -1.160828955471516E-2  -5.756161361932755E-2   9.958858489990234E-1  
 5.650000000000000E7    -7.428548336029053E-1  -6.658954024314880E-1  -5.383947398513556E-3  -1.264968793839216E-2  -5.402239505201578E-3  -1.262672152370215E-2  -4.577388241887093E-2   9.961315393447876E-1  
 5.680000000000000E7    -7.666343450546265E-1  -6.390861868858337E-1  -6.195685826241970E-3  -1.368007250130177E-2  -6.227601319551468E-3  -1.365678664296866E-2  -3.443969786167145E-2   9.959030151367188E-1  
 5.710000000000000E7    -7.888866066932678E-1  -6.105880141258240E-1  -7.094471249729395E-3  -1.462356653064489E-2  -7.088128942996264E-3  -1.466831658035517E-2  -2.304337546229363E-2   9.966170787811279E-1  
 5.740000000000000E7    -8.103914856910706E-1  -5.834004878997803E-1  -7.997143082320690E-3  -1.560770254582167E-2  -7.994105108082295E-3  -1.562110520899296E-2  -1.105851307511330E-2   9.967591762542725E-1  
 5.770000000000000E7    -8.290333747863770E-1  -5.549788475036621E-1  -8.922528475522995E-3  -1.658024080097675E-2  -8.911826647818089E-3  -1.657161675393581E-2  -1.367874443531036E-3   9.962865710258484E-1  
 5.800000000000000E7    -8.483090996742249E-1  -5.245535969734192E-1  -1.003480982035399E-2  -1.748188212513924E-2  -1.005295012146235E-2  -1.747458986938000E-2   1.187741011381149E-2   9.976873993873596E-1  
 5.830000000000000E7    -8.658845424652100E-1  -4.944865703582764E-1  -1.103500463068485E-2  -1.834338903427124E-2  -1.106875948607922E-2  -1.836736872792244E-2   2.207173407077789E-2   9.974765181541443E-1  
 5.860000000000000E7    -8.837881088256836E-1  -4.645843505859375E-1  -1.218601409345865E-2  -1.920305006206036E-2  -1.223466638475657E-2  -1.923308335244656E-2   3.405656665563583E-2   9.961425065994263E-1  
 5.890000000000000E7    -8.985164165496826E-1  -4.330437183380127E-1  -1.336017437279224E-2  -2.007147856056690E-2  -1.335371192544699E-2  -2.013874053955078E-2   4.455495998263359E-2   9.955645203590393E-1  
 5.920000000000000E7    -9.134613871574402E-1  -4.005620181560516E-1  -1.462622825056315E-2  -2.084307745099068E-2  -1.469879411160946E-2  -2.080612629652023E-2   5.682671070098877E-2   9.959623813629150E-1  
 5.950000000000000E7    -9.262033104896545E-1  -3.688563108444214E-1  -1.588256843388081E-2  -2.155379578471184E-2  -1.586307212710381E-2  -2.157235890626907E-2   6.800408661365509E-2   9.933567643165588E-1  
 5.980000000000000E7    -9.391487240791321E-1  -3.360379934310913E-1  -1.729938015341759E-2  -2.226955816149712E-2  -1.723821647465229E-2  -2.227430976927280E-2   8.028376102447510E-2   9.927199482917786E-1  
 6.010000000000000E7    -9.483861923217773E-1  -3.042753934860230E-1  -1.858625747263432E-2  -2.305805683135986E-2  -1.856359466910362E-2  -2.303035184741020E-2   9.084426611661911E-2   9.925652146339417E-1  
 6.040000000000000E7    -9.591555595397949E-1  -2.698894143104553E-1  -2.007355913519859E-2  -2.367324382066727E-2  -2.010349184274674E-2  -2.367594093084335E-2   1.028167605400085E-1   9.919627308845520E-1  
 6.070000000000000E7    -9.688448905944824E-1  -2.384377270936966E-1  -2.156046777963638E-2  -2.431845292448998E-2  -2.150012180209160E-2  -2.435209602117539E-2   1.135700866580010E-1   9.898636341094971E-1  
 6.100000000000000E7    -9.758126735687256E-1  -2.041773051023483E-1  -2.312563732266426E-2  -2.471992373466492E-2  -2.311985567212105E-2  -2.479126863181591E-2   1.263319998979569E-1   9.886444807052612E-1  
 6.130000000000000E7    -9.827650189399719E-1  -1.698450148105621E-1  -2.471201308071613E-2  -2.533468417823315E-2  -2.469199523329735E-2  -2.537658810615540E-2   1.381474435329437E-1   9.876649975776672E-1  
 6.160000000000000E7    -9.875481128692627E-1  -1.357797086238861E-1  -2.622831985354424E-2  -2.580839768052101E-2  -2.631486393511295E-2  -2.580180391669273E-2   1.483667492866516E-1   9.849733114242554E-1  
 6.190000000000000E7    -9.912149906158447E-1  -1.020952463150024E-1  -2.789149433374405E-2  -2.621628157794476E-2  -2.789714559912682E-2  -2.611512690782547E-2   1.593420058488846E-1   9.824619889259338E-1  
 6.220000000000000E7    -9.945632815361023E-1  -6.780585646629334E-2  -2.952539175748825E-2  -2.648911252617836E-2  -2.971063181757927E-2  -2.660623937845230E-2   1.705391556024551E-1   9.819220304489136E-1  
 6.250000000000000E7    -9.961224198341370E-1  -3.359845280647278E-2  -3.141978755593300E-2  -2.688174694776535E-2  -3.145613148808479E-2  -2.690093591809273E-2   1.819729804992676E-1   9.798328280448914E-1  
 6.280000000000000E7    -9.958654642105103E-1   9.098649024963379E-4  -3.323643282055855E-2  -2.710326761007309E-2  -3.316878899931908E-2  -2.722360193729401E-2   1.939333230257034E-1   9.775978922843933E-1  
 6.310000000000000E7    -9.952561855316162E-1   3.657826781272888E-2  -3.514778241515160E-2  -2.727035433053970E-2  -3.505723178386688E-2  -2.734061516821384E-2   2.054196149110794E-1   9.751402735710144E-1  
 6.340000000000000E7    -9.930186867713928E-1   7.030842453241348E-2  -3.701092302799225E-2  -2.744003012776375E-2  -3.696836903691292E-2  -2.741078846156597E-2   2.171841263771057E-1   9.730377197265625E-1  
 6.370000000000000E7    -9.904288649559021E-1   1.043476611375809E-1  -3.895969316363335E-2  -2.743567153811455E-2  -3.888735920190811E-2  -2.743353508412838E-2   2.277469933032990E-1   9.694296121597290E-1  
 6.400000000000000E7    -9.847918152809143E-1   1.382897496223450E-1  -4.104208946228027E-2  -2.738029509782791E-2  -4.078499972820282E-2  -2.732240594923496E-2   2.399588823318481E-1   9.671126008033752E-1  
 6.430000000000000E7    -9.795192480087280E-1   1.732996404170990E-1  -4.294322431087494E-2  -2.747341431677342E-2  -4.283397272229195E-2  -2.730221673846245E-2   2.513801753520966E-1   9.639483094215393E-1  
 6.460000000000000E7    -9.735452532768250E-1   2.068111896514893E-1  -4.485346376895905E-2  -2.722246944904327E-2  -4.486436024308205E-2  -2.712370827794075E-2   2.615073323249817E-1   9.605949521064758E-1  
 6.490000000000000E7    -9.670458436012268E-1   2.394415438175201E-1  -4.693271592259407E-2  -2.706133574247360E-2  -4.708491638302803E-2  -2.717274613678455E-2   2.730568051338196E-1   9.578505158424377E-1  
 6.520000000000000E7    -9.571751356124878E-1   2.723653912544251E-1  -4.914443939924240E-2  -2.692568115890026E-2  -4.912699759006500E-2  -2.675909548997879E-2   2.849950194358826E-1   9.551621079444885E-1  
 6.550000000000000E7    -9.475960731506348E-1   3.046383857727051E-1  -5.131126940250397E-2  -2.640591934323311E-2  -5.128185823559761E-2  -2.647679299116135E-2   2.956407368183136E-1   9.498852491378784E-1  
 6.580000000000000E7    -9.355317354202271E-1   3.378410339355469E-1  -5.344390496611595E-2  -2.590532787144184E-2  -5.335482954978943E-2  -2.608988061547279E-2   3.075248003005981E-1   9.475986957550049E-1  
 6.610000000000000E7    -9.222590923309326E-1   3.697060346603394E-1  -5.569739639759064E-2  -2.547332085669041E-2  -5.556631088256836E-2  -2.519289031624794E-2   3.196345567703247E-1   9.418885707855225E-1  
 6.640000000000000E7    -9.106988310813904E-1   4.013711214065552E-1  -5.799322947859764E-2  -2.484877780079842E-2  -5.801743268966675E-2  -2.507122233510017E-2   3.307736515998840E-1   9.384309649467468E-1  
 6.670000000000000E7    -8.953340649604797E-1   4.321480095386505E-1  -6.012789905071259E-2  -2.419457025825977E-2  -6.012433767318726E-2  -2.433980442583561E-2   3.412466645240784E-1   9.351719021797180E-1  
 6.700000000000000E7    -8.796353936195374E-1   4.627603292465210E-1  -6.239432841539383E-2  -2.346587553620338E-2  -6.229431927204132E-2  -2.340551465749741E-2   3.523826599121094E-1   9.297804832458496E-1  
 6.730000000000000E7    -8.630748987197876E-1   4.927287697792053E-1  -6.454635411500931E-2  -2.275213226675987E-2  -6.468563526868820E-2  -2.252180501818657E-2   3.646671175956726E-1   9.265032410621643E-1  
 6.760000000000000E7    -8.462550044059753E-1   5.221523046493530E-1  -6.705034524202347E-2  -2.160411328077316E-2  -6.695763766765595E-2  -2.168130874633789E-2   3.759459257125855E-1   9.210444092750549E-1  
 6.790000000000000E7    -8.268007040023804E-1   5.512347817420960E-1  -6.921777129173279E-2  -2.066209726035595E-2  -6.935543566942215E-2  -2.057789638638496E-2   3.859321475028992E-1   9.156657457351685E-1  
 6.820000000000000E7    -8.070120811462402E-1   5.786095857620239E-1  -7.157124578952789E-2  -1.955980435013771E-2  -7.166519761085510E-2  -1.966435462236404E-2   3.973811268806458E-1   9.117659330368042E-1  
 6.850000000000000E7    -7.868288755416870E-1   6.073442697525024E-1  -7.416257262229919E-2  -1.845485903322697E-2  -7.401137053966522E-2  -1.841902546584606E-2   4.078295826911926E-1   9.069485068321228E-1  
 6.880000000000000E7    -7.650694847106934E-1   6.332638859748840E-1  -7.643721252679825E-2  -1.702794246375561E-2  -7.622976601123810E-2  -1.698273047804833E-2   4.196608364582062E-1   9.008100628852844E-1  
 6.910000000000000E7    -7.425774931907654E-1   6.595027446746826E-1  -7.882148027420044E-2  -1.557871699333191E-2  -7.885020226240158E-2  -1.565242558717728E-2   4.312976300716400E-1   8.957807421684265E-1  
 6.940000000000000E7    -7.195832133293152E-1   6.846387982368469E-1  -8.111542463302612E-2  -1.425914652645588E-2  -8.131217211484909E-2  -1.406765170395374E-2   4.413577020168304E-1   8.906807303428650E-1  
 6.970000000000000E7    -6.942118406295776E-1   7.091972827911377E-1  -8.356223255395889E-2  -1.255945954471827E-2  -8.368752151727676E-2  -1.226021815091372E-2   4.529561698436737E-1   8.841781616210938E-1  
 7.000000000000000E7    -6.693860888481140E-1   7.332236170768738E-1  -8.602805435657501E-2  -1.087922230362892E-2  -8.596690744161606E-2  -1.080322079360485E-2   4.635316133499146E-1   8.790546059608460E-1  
