#  HZ   S   RI   R     50.00 
! Rohde & Schwarz ZVT8 8Ports - Version 4.11 - 1300.0000k08 SN: 100242
! Date: 2026-07-31 14:28:29
! Measurements: S11 S21 S12 S22 
! 
 1.000000000000000E7    -4.078458249568939E-1   9.096730351448059E-1   5.217247083783150E-2   5.270496383309364E-2   5.204084515571594E-2   5.265345796942711E-2  -9.168255925178528E-1   3.904216289520264E-1  
 1.030000000000000E7    -3.758836984634399E-1   9.218639731407166E-1   5.551165342330933E-2   5.309825390577316E-2   5.527412891387940E-2   5.317907035350800E-2  -9.104194045066834E-1   4.039551615715027E-1  
 1.060000000000000E7    -3.404279351234436E-1   9.349040985107422E-1   5.904948338866234E-2   5.404002591967583E-2   5.896863713860512E-2   5.394366756081581E-2  -9.067834615707398E-1   4.159977138042450E-1  
 1.090000000000000E7    -3.090128004550934E-1   9.453184008598328E-1   6.232630833983421E-2   5.433950945734978E-2   6.221748888492584E-2   5.426193028688431E-2  -9.001354575157166E-1   4.283332228660584E-1  
 1.120000000000000E7    -2.739227116107941E-1   9.552002549171448E-1   6.630489975214005E-2   5.500400438904762E-2   6.581458449363709E-2   5.487470328807831E-2  -8.938288688659668E-1   4.405146837234497E-1  
 1.150000000000000E7    -2.394142001867294E-1   9.651953577995300E-1   6.958014518022537E-2   5.487716570496559E-2   6.970020383596420E-2   5.506515875458717E-2  -8.864346742630005E-1   4.501153528690338E-1  
 1.180000000000000E7    -2.053140103816986E-1   9.707466959953308E-1   7.339891046285629E-2   5.527150630950928E-2   7.329807430505753E-2   5.530394613742828E-2  -8.814577460289002E-1   4.625310599803925E-1  
 1.210000000000000E7    -1.710950732231140E-1   9.778118133544922E-1   7.759022712707520E-2   5.550505593419075E-2   7.745806872844696E-2   5.552655458450317E-2  -8.729707598686218E-1   4.760818779468536E-1  
 1.240000000000000E7    -1.362168341875076E-1   9.820330142974854E-1   8.163892477750778E-2   5.563658475875855E-2   8.162398636341095E-2   5.512535944581032E-2  -8.656506538391113E-1   4.863485991954804E-1  
 1.270000000000000E7    -1.011012792587280E-1   9.859851002693176E-1   8.635084331035614E-2   5.508609861135483E-2   8.590868115425110E-2   5.495441704988480E-2  -8.583130240440369E-1   5.012229681015015E-1  
 1.300000000000000E7    -6.653132289648056E-2   9.887958765029907E-1   9.039666503667831E-2   5.482356995344162E-2   9.034618735313416E-2   5.486969277262688E-2  -8.495687246322632E-1   5.128846168518066E-1  
 1.330000000000000E7    -3.081837296485901E-2   9.912284612655640E-1   9.527695178985596E-2   5.437931418418884E-2   9.495490789413452E-2   5.395293980836868E-2  -8.412500023841858E-1   5.258721709251404E-1  
 1.360000000000000E7     5.673665553331375E-3   9.914040565490723E-1   9.980972856283188E-2   5.382187664508820E-2   9.990363568067551E-2   5.315946042537689E-2  -8.333008885383606E-1   5.363473296165466E-1  
 1.390000000000000E7     3.994321078062058E-2   9.891064763069153E-1   1.047989055514336E-1   5.272113904356957E-2   1.042800396680832E-1   5.294814705848694E-2  -8.242321610450745E-1   5.495870709419251E-1  
 1.420000000000000E7     7.655782997608185E-2   9.874963760375977E-1   1.094113811850548E-1   5.202685669064522E-2   1.094883903861046E-1   5.202044546604157E-2  -8.169201612472534E-1   5.609657168388367E-1  
 1.450000000000000E7     1.114152446389198E-1   9.823752641677856E-1   1.146847382187843E-1   5.053207650780678E-2   1.144520565867424E-1   5.054456368088722E-2  -8.054631352424622E-1   5.752024650573731E-1  
 1.480000000000000E7     1.481754332780838E-1   9.775676727294922E-1   1.202339082956314E-1   4.898499324917793E-2   1.198838576674461E-1   4.955585673451424E-2  -7.967195510864258E-1   5.866758227348328E-1  
 1.510000000000000E7     1.829476058483124E-1   9.705273509025574E-1   1.251992881298065E-1   4.747152328491211E-2   1.250579953193665E-1   4.757635667920113E-2  -7.839435338973999E-1   5.998975038528442E-1  
 1.540000000000000E7     2.175016105175018E-1   9.626283645629883E-1   1.307567358016968E-1   4.656860232353210E-2   1.308190822601318E-1   4.590888321399689E-2  -7.762503027915955E-1   6.118530035018921E-1  
 1.570000000000000E7     2.530775368213654E-1   9.548087120056152E-1   1.364924907684326E-1   4.396793246269226E-2   1.365870088338852E-1   4.379757121205330E-2  -7.638741135597229E-1   6.260728240013123E-1  
 1.600000000000000E7     2.884840667247772E-1   9.427414536476135E-1   1.423368155956268E-1   4.138908162713051E-2   1.426925659179688E-1   4.129136353731155E-2  -7.528988122940064E-1   6.369024515151978E-1  
 1.630000000000000E7     3.225639462471008E-1   9.306699633598328E-1   1.491763740777969E-1   3.857664018869400E-2   1.487345695495606E-1   3.876698017120361E-2  -7.405037879943848E-1   6.513428688049316E-1  
 1.660000000000000E7     3.567535281181335E-1   9.159448146820068E-1   1.554314792156220E-1   3.542461246252060E-2   1.551141887903214E-1   3.515276312828064E-2  -7.262723445892334E-1   6.648044586181641E-1  
 1.690000000000000E7     3.902333676815033E-1   9.014965295791626E-1   1.620253920555115E-1   3.256005793809891E-2   1.617227345705032E-1   3.240454941987991E-2  -7.134836912155151E-1   6.768698692321777E-1  
 1.720000000000000E7     4.253250062465668E-1   8.857026100158691E-1   1.679209321737289E-1   2.828823402523994E-2   1.681340038776398E-1   2.870643511414528E-2  -6.993068456649780E-1   6.891361474990845E-1  
 1.750000000000000E7     4.534837007522583E-1   8.705927729606628E-1   1.756541579961777E-1   2.590942941606045E-2   1.759093701839447E-1   2.512417547404766E-2  -6.852833628654480E-1   7.039706707000732E-1  
 1.780000000000000E7     4.888301789760590E-1   8.479197025299072E-1   1.819337457418442E-1   2.049697935581207E-2   1.822460889816284E-1   2.090846374630928E-2  -6.691728234291077E-1   7.144260406494141E-1  
 1.810000000000000E7     5.189480185508728E-1   8.293818235397339E-1   1.903693825006485E-1   1.596983894705772E-2   1.893147677183151E-1   1.522919908165932E-2  -6.523575186729431E-1   7.309203147888184E-1  
 1.840000000000000E7     5.513514876365662E-1   8.077995181083679E-1   1.979618966579437E-1   9.273178875446320E-3   1.971101164817810E-1   9.840354323387146E-3  -6.345467567443848E-1   7.427107691764832E-1  
 1.870000000000000E7     5.795968174934387E-1   7.850604057312012E-1   2.055549025535584E-1   4.431791603565216E-3   2.048505395650864E-1   3.883803263306618E-3  -6.164771318435669E-1   7.557550072669983E-1  
 1.900000000000000E7     6.083958148956299E-1   7.612265944480896E-1   2.134972810745239E-1  -1.835910603404045E-3   2.130079120397568E-1  -2.485238015651703E-3  -5.970458984375000E-1   7.681454420089722E-1  
 1.930000000000000E7     6.369789242744446E-1   7.347385883331299E-1   2.210564166307449E-1  -1.011226233094931E-2   2.215300798416138E-1  -9.298366494476795E-3  -5.767579674720764E-1   7.828684449195862E-1  
 1.960000000000000E7     6.647809743881226E-1   7.069134116172791E-1   2.295379638671875E-1  -1.784934476017952E-2   2.295290082693100E-1  -1.718726940453053E-2  -5.569224953651428E-1   7.950688600540161E-1  
 1.990000000000000E7     6.886896491050720E-1   6.786438226699829E-1   2.377899587154388E-1  -2.633185684680939E-2   2.382536530494690E-1  -2.634699828922749E-2  -5.311295986175537E-1   8.092669844627380E-1  
 2.020000000000000E7     7.137937545776367E-1   6.487808227539063E-1   2.470118105411530E-1  -3.565984219312668E-2   2.464444935321808E-1  -3.533179312944412E-2  -5.087154507637024E-1   8.190479874610901E-1  
 2.050000000000000E7     7.390824556350708E-1   6.173979043960571E-1   2.558661103248596E-1  -4.572932422161102E-2   2.543436586856842E-1  -4.613362252712250E-2  -4.827482402324677E-1   8.320197463035584E-1  
 2.080000000000000E7     7.602496147155762E-1   5.837594866752625E-1   2.650634646415710E-1  -5.743604898452759E-2   2.650010585784912E-1  -5.722324550151825E-2  -4.549630880355835E-1   8.457911610603333E-1  
 2.110000000000000E7     7.817305922508240E-1   5.506352186203003E-1   2.746324539184570E-1  -7.092707604169846E-2   2.743916511535645E-1  -7.074131071567535E-2  -4.244949817657471E-1   8.564584255218506E-1  
 2.140000000000000E7     8.006762862205505E-1   5.162761807441711E-1   2.839163243770599E-1  -8.536848425865173E-2   2.827934920787811E-1  -8.419210463762283E-2  -3.935617804527283E-1   8.669782876968384E-1  
 2.170000000000000E7     8.165605664253235E-1   4.809981882572174E-1   2.931133806705475E-1  -1.000979840755463E-1   2.928624451160431E-1  -9.932169318199158E-2  -3.594316840171814E-1   8.771861195564270E-1  
 2.200000000000000E7     8.334162235260010E-1   4.417299032211304E-1   3.020163178443909E-1  -1.176706179976463E-1   3.019304871559143E-1  -1.172446683049202E-1  -3.213009238243103E-1   8.855699300765991E-1  
 2.230000000000000E7     8.458832502365112E-1   4.037160873413086E-1   3.109993338584900E-1  -1.364741027355194E-1   3.105529248714447E-1  -1.357271820306778E-1  -2.825617790222168E-1   8.929029107093811E-1  
 2.260000000000000E7     8.573980927467346E-1   3.638325333595276E-1   3.192163705825806E-1  -1.573900580406189E-1   3.210099041461945E-1  -1.574487388134003E-1  -2.402388155460358E-1   8.986088633537293E-1  
 2.290000000000000E7     8.661583662033081E-1   3.230969011783600E-1   3.275962471961975E-1  -1.804911047220230E-1   3.283964693546295E-1  -1.798831075429916E-1  -1.931410431861877E-1   9.013592004776001E-1  
 2.320000000000000E7     8.707360029220581E-1   2.821434736251831E-1   3.350147902965546E-1  -2.072624266147614E-1   3.342165946960449E-1  -2.076342105865479E-1  -1.435198485851288E-1   9.039357304573059E-1  
 2.350000000000000E7     8.738515377044678E-1   2.392100989818573E-1   3.407638669013977E-1  -2.371560335159302E-1   3.405643701553345E-1  -2.359826266765595E-1  -9.031842648983002E-2   9.014441370964050E-1  
 2.380000000000000E7     8.731997609138489E-1   1.971827447414398E-1   3.455407023429871E-1  -2.677443027496338E-1   3.454259634017944E-1  -2.677956819534302E-1  -3.268986940383911E-2   8.945200443267822E-1  
 2.410000000000000E7     8.703373670578003E-1   1.538515836000443E-1   3.473433554172516E-1  -3.039169311523438E-1   3.463654816150665E-1  -3.032798171043396E-1   2.928808331489563E-2   8.811981678009033E-1  
 2.440000000000000E7     8.616158962249756E-1   1.124403625726700E-1   3.459565639495850E-1  -3.438408374786377E-1   3.463041186332703E-1  -3.441471159458160E-1   9.445169568061829E-2   8.618498444557190E-1  
 2.470000000000000E7     8.497454524040222E-1   7.141308486461639E-2   3.405131101608276E-1  -3.872539997100830E-1   3.415840864181519E-1  -3.848980367183685E-1   1.652960181236267E-1   8.333930969238281E-1  
 2.500000000000000E7     8.342452645301819E-1   3.064443171024323E-2   3.310118913650513E-1  -4.329172074794769E-1   3.301423788070679E-1  -4.341409206390381E-1   2.391860783100128E-1   7.957699298858643E-1  
 2.530000000000000E7     8.124650716781616E-1  -7.149551063776016E-3   3.153899610042572E-1  -4.849254488945007E-1   3.150032758712769E-1  -4.832719266414642E-1   3.145374655723572E-1   7.443243265151978E-1  
 2.560000000000000E7     7.870027422904968E-1  -4.059790819883347E-2   2.910903990268707E-1  -5.369712114334106E-1   2.909131944179535E-1  -5.370884537696838E-1   3.899878263473511E-1   6.790366172790527E-1  
 2.590000000000000E7     7.574055194854736E-1  -6.735104322433472E-2   2.529005706310272E-1  -5.917128324508667E-1   2.532957196235657E-1  -5.931095480918884E-1   4.641411006450653E-1   5.971536040306091E-1  
 2.620000000000000E7     7.241038680076599E-1  -8.928431570529938E-2   2.042583078145981E-1  -6.473433375358582E-1   2.051749527454376E-1  -6.456128954887390E-1   5.299897193908691E-1   4.932018816471100E-1  
 2.650000000000000E7     6.884225606918335E-1  -1.033611223101616E-1   1.452455222606659E-1  -6.969960927963257E-1   1.443608999252319E-1  -6.975596547126770E-1   5.814861059188843E-1   3.717294931411743E-1  
 2.680000000000000E7     6.536222696304321E-1  -1.072397008538246E-1   6.942868977785111E-2  -7.403163313865662E-1   6.933812052011490E-2  -7.402645945549011E-1   6.123842000961304E-1   2.314375340938568E-1  
 2.710000000000000E7     6.235378384590149E-1  -1.038630604743958E-1  -1.870506256818771E-2  -7.685398459434509E-1  -2.068166807293892E-2  -7.686597704887390E-1   6.199093461036682E-1   7.917312532663345E-2  
 2.740000000000000E7     5.972791910171509E-1  -8.936294913291931E-2  -1.177841722965241E-1  -7.831187844276428E-1  -1.173600479960442E-1  -7.829771637916565E-1   5.886652469635010E-1  -8.234474062919617E-2  
 2.770000000000000E7     5.839863419532776E-1  -7.018490880727768E-2  -2.194660902023315E-1  -7.724479436874390E-1  -2.195295691490173E-1  -7.745116949081421E-1   5.252633094787598E-1  -2.373575419187546E-1  
 2.800000000000000E7     5.796208977699280E-1  -4.794930294156075E-2  -3.203572034835815E-1  -7.424010038375855E-1  -3.174803256988525E-1  -7.436542510986328E-1   4.250496625900269E-1  -3.812019526958466E-1  
 2.830000000000000E7     5.865041017532349E-1  -2.801936119794846E-2  -4.103907942771912E-1  -6.909053921699524E-1  -4.109878838062286E-1  -6.899919509887695E-1   3.003133833408356E-1  -4.943922460079193E-1  
 2.860000000000000E7     6.066663265228272E-1  -1.245152205228806E-2  -4.862787425518036E-1  -6.218211650848389E-1  -4.858782589435577E-1  -6.211072206497192E-1   1.540231406688690E-1  -5.773266553878784E-1  
 2.890000000000000E7     6.340908408164978E-1  -6.097808480262756E-3  -5.434809923171997E-1  -5.428479909896851E-1  -5.428057312965393E-1  -5.412877798080444E-1   3.877207636833191E-4  -6.249167323112488E-1  
 2.920000000000000E7     6.655240654945374E-1  -7.513526827096939E-3  -5.831174254417419E-1  -4.587208628654480E-1  -5.823579430580139E-1  -4.572543501853943E-1  -1.507898569107056E-1  -6.413578391075134E-1  
 2.950000000000000E7     6.986231803894043E-1  -2.081204950809479E-2  -6.025499701499939E-1  -3.764783442020416E-1  -6.014582514762878E-1  -3.760375976562500E-1  -2.899936437606812E-1  -6.277921795845032E-1  
 2.980000000000000E7     7.290405631065369E-1  -4.193708673119545E-2  -6.089472174644470E-1  -2.975746691226959E-1  -6.088231801986694E-1  -2.984014153480530E-1  -4.159087538719177E-1  -5.937424898147583E-1  
 3.010000000000000E7     7.569055557250977E-1  -7.216013222932816E-2  -6.039614677429199E-1  -2.269246131181717E-1  -6.018701195716858E-1  -2.274213582277298E-1  -5.236015915870667E-1  -5.447489023208618E-1  
 3.040000000000000E7     7.810527682304382E-1  -1.077317297458649E-1  -5.882344841957092E-1  -1.631957143545151E-1  -5.900908708572388E-1  -1.638232022523880E-1  -6.140798926353455E-1  -4.858995378017426E-1  
 3.070000000000000E7     7.973845601081848E-1  -1.482149511575699E-1  -5.689463615417481E-1  -1.068426370620728E-1  -5.678943395614624E-1  -1.077270060777664E-1  -6.888200640678406E-1  -4.233024418354034E-1  
 3.100000000000000E7     8.101537823677063E-1  -1.919277608394623E-1  -5.445088148117065E-1  -6.031247973442078E-2  -5.434191823005676E-1  -6.008435413241386E-2  -7.492868900299072E-1  -3.585131764411926E-1  
 3.130000000000000E7     8.174644708633423E-1  -2.368176728487015E-1  -5.186550021171570E-1  -1.982645690441132E-2  -5.185216069221497E-1  -2.008116431534290E-2  -7.979289293289185E-1  -2.921644151210785E-1  
 3.160000000000000E7     8.199256062507629E-1  -2.841676771640778E-1  -4.903525114059448E-1   1.380976568907499E-2  -4.912511408329010E-1   1.419907622039318E-2  -8.342595100402832E-1  -2.296883463859558E-1  
 3.190000000000000E7     8.168466687202454E-1  -3.301939070224762E-1  -4.632765352725983E-1   4.312589019536972E-2  -4.625186026096344E-1   4.271355271339417E-2  -8.638050556182861E-1  -1.687116920948029E-1  
 3.220000000000000E7     8.113716840744019E-1  -3.777248561382294E-1  -4.361751079559326E-1   6.765954941511154E-2  -4.359257221221924E-1   6.753550469875336E-2  -8.862515091896057E-1  -1.110905036330223E-1  
 3.250000000000000E7     8.001070618629456E-1  -4.240078628063202E-1  -4.096965789794922E-1   8.708515763282776E-2  -4.099196791648865E-1   8.759346604347229E-2  -9.019287824630737E-1  -5.645453929901123E-2  
 3.280000000000000E7     7.839542031288147E-1  -4.695046842098236E-1  -3.835908770561218E-1   1.030041426420212E-1  -3.835392594337463E-1   1.036094352602959E-1  -9.137824177742004E-1  -4.326583817601204E-3  
 3.310000000000000E7     7.658641934394836E-1  -5.131603479385376E-1  -3.597184717655182E-1   1.182269975543022E-1  -3.601454198360443E-1   1.181726828217506E-1  -9.216321706771851E-1   4.404322057962418E-2  
 3.340000000000000E7     7.440242767333984E-1  -5.571268796920776E-1  -3.370572626590729E-1   1.299051195383072E-1  -3.361052870750427E-1   1.298474371433258E-1  -9.252295494079590E-1   9.049880504608154E-2  
 3.370000000000000E7     7.194970846176148E-1  -5.981891751289368E-1  -3.140416443347931E-1   1.387544572353363E-1  -3.145604133605957E-1   1.380330622196198E-1  -9.268071055412293E-1   1.324982643127441E-1  
 3.400000000000000E7     6.908847689628601E-1  -6.390439867973328E-1  -2.931740283966065E-1   1.464172601699829E-1  -2.935121059417725E-1   1.464526653289795E-1  -9.254657030105591E-1   1.724269688129425E-1  
 3.430000000000000E7     6.607879996299744E-1  -6.779005527496338E-1  -2.735253572463989E-1   1.530182957649231E-1  -2.727315425872803E-1   1.520660966634750E-1  -9.232235550880432E-1   2.094700038433075E-1  
 3.460000000000000E7     6.270369291305542E-1  -7.149454355239868E-1  -2.543719708919525E-1   1.577002108097076E-1  -2.543509304523468E-1   1.572092771530151E-1  -9.197833538055420E-1   2.438990175724030E-1  
 3.490000000000000E7     5.909373760223389E-1  -7.496307492256165E-1  -2.368740290403366E-1   1.615419387817383E-1  -2.351805418729782E-1   1.603625714778900E-1  -9.134167432785034E-1   2.769075632095337E-1  
 3.520000000000000E7     5.534396171569824E-1  -7.831106781959534E-1  -2.189115732908249E-1   1.635407805442810E-1  -2.188035845756531E-1   1.624464541673660E-1  -9.084959030151367E-1   3.081337213516235E-1  
 3.550000000000000E7     5.114008784294128E-1  -8.140852451324463E-1  -2.027078419923782E-1   1.643483191728592E-1  -2.026907801628113E-1   1.645394265651703E-1  -9.015337228775024E-1   3.370648920536041E-1  
 3.580000000000000E7     4.687409400939941E-1  -8.428852558135986E-1  -1.868730038404465E-1   1.655840277671814E-1  -1.869142651557922E-1   1.652056872844696E-1  -8.933562040328980E-1   3.654779195785523E-1  
 3.610000000000000E7     4.234883189201355E-1  -8.692491054534912E-1  -1.729538291692734E-1   1.658930480480194E-1  -1.722412556409836E-1   1.654370129108429E-1  -8.865835666656494E-1   3.928979933261871E-1  
 3.640000000000000E7     3.760145306587219E-1  -8.937514424324036E-1  -1.584216952323914E-1   1.647414416074753E-1  -1.587961018085480E-1   1.649092733860016E-1  -8.771342039108276E-1   4.164509475231171E-1  
 3.670000000000000E7     3.283517658710480E-1  -9.155763387680054E-1  -1.454124748706818E-1   1.636494547128677E-1  -1.446971446275711E-1   1.635562628507614E-1  -8.685733079910278E-1   4.395879209041596E-1  
 3.700000000000000E7     2.765450179576874E-1  -9.344953894615173E-1  -1.323076784610748E-1   1.621896028518677E-1  -1.324875652790070E-1   1.621656417846680E-1  -8.590773344039917E-1   4.634593725204468E-1  
 3.730000000000000E7     2.239457666873932E-1  -9.503726363182068E-1  -1.194779425859451E-1   1.599508225917816E-1  -1.198829859495163E-1   1.599591374397278E-1  -8.480247259140015E-1   4.838485121726990E-1  
 3.760000000000000E7     1.701994985342026E-1  -9.631524682044983E-1  -1.085537821054459E-1   1.577659249305725E-1  -1.084499359130859E-1   1.576908081769943E-1  -8.390747904777527E-1   5.054953098297119E-1  
 3.790000000000000E7     1.147180125117302E-1  -9.728546142578125E-1  -9.781745076179504E-2   1.542969346046448E-1  -9.729902446269989E-2   1.542405039072037E-1  -8.287631869316101E-1   5.247191786766052E-1  
 3.820000000000000E7     5.538585782051086E-2  -9.796152710914612E-1  -8.746391534805298E-2   1.512246280908585E-1  -8.703885972499847E-2   1.511841863393784E-1  -8.181466460227966E-1   5.421690344810486E-1  
 3.850000000000000E7    -3.911010921001434E-3  -9.816288352012634E-1  -7.736623287200928E-2   1.470321714878082E-1  -7.684947550296783E-2   1.470274776220322E-1  -8.096024990081787E-1   5.606353282928467E-1  
 3.880000000000000E7    -6.313934922218323E-2  -9.807574152946472E-1  -6.755605340003967E-2   1.434155851602554E-1  -6.773385405540466E-2   1.426457613706589E-1  -7.986598610877991E-1   5.785129070281982E-1  
 3.910000000000000E7    -1.253764182329178E-1  -9.760184288024902E-1  -5.837067961692810E-2   1.384836584329605E-1  -5.834270268678665E-2   1.385002136230469E-1  -7.886736989021301E-1   5.962127447128296E-1  
 3.940000000000000E7    -1.863733381032944E-1  -9.665353298187256E-1  -5.037490651011467E-2   1.334946006536484E-1  -5.019824206829071E-2   1.331880837678909E-1  -7.764504551887512E-1   6.105244755744934E-1  
 3.970000000000000E7    -2.502089142799377E-1  -9.552440643310547E-1  -4.229952394962311E-2   1.283055096864700E-1  -4.194690659642220E-2   1.283975392580032E-1  -7.645639777183533E-1   6.256333589553833E-1  
 4.000000000000000E7    -3.130885958671570E-1  -9.356446266174316E-1  -3.451962769031525E-2   1.226760819554329E-1  -3.446010127663612E-2   1.226696968078613E-1  -7.549738883972168E-1   6.407721638679504E-1  
 4.030000000000000E7    -3.765975534915924E-1  -9.140599370002747E-1  -2.769217640161514E-2   1.173108145594597E-1  -2.748484909534454E-2   1.164973899722099E-1  -7.444283366203308E-1   6.547983288764954E-1  
 4.060000000000000E7    -4.396016597747803E-1  -8.861684799194336E-1  -2.129782736301422E-2   1.106891855597496E-1  -2.120747789740562E-2   1.106718406081200E-1  -7.326927185058594E-1   6.678886413574219E-1  
 4.090000000000000E7    -5.024325251579285E-1  -8.523110151290894E-1  -1.515881624072790E-2   1.039310097694397E-1  -1.505427621304989E-2   1.036780625581741E-1  -7.219502925872803E-1   6.807042956352234E-1  
 4.120000000000000E7    -5.646752119064331E-1  -8.142533302307129E-1  -9.927457198500633E-3   9.693696349859238E-2  -9.778435342013836E-3   9.728243947029114E-2  -7.097694873809815E-1   6.940444111824036E-1  
 4.150000000000000E7    -6.249641180038452E-1  -7.691317796707153E-1  -4.668439738452435E-3   9.028133749961853E-2  -4.779278300702572E-3   9.004665911197662E-2  -6.980941891670227E-1   7.063618898391724E-1  
 4.180000000000000E7    -6.835265159606934E-1  -7.175011038780212E-1  -2.745384117588401E-4   8.256769180297852E-2  -6.752620683982968E-4   8.229545503854752E-2  -6.880134940147400E-1   7.175390720367432E-1  
 4.210000000000000E7    -7.395091056823731E-1  -6.612345576286316E-1   3.143819980323315E-3   7.489722967147827E-2   3.188126720488071E-3   7.494686543941498E-2  -6.762578487396240E-1   7.300265431404114E-1  
 4.240000000000000E7    -7.910068035125732E-1  -5.977340936660767E-1   5.952574312686920E-3   6.694591045379639E-2   6.047362461686134E-3   6.695373356342316E-2  -6.659504175186157E-1   7.412036061286926E-1  
 4.270000000000000E7    -8.404347300529480E-1  -5.262333154678345E-1   8.315982297062874E-3   5.893483012914658E-2   8.294146507978439E-3   5.873082578182221E-2  -6.531025767326355E-1   7.526931166648865E-1  
 4.300000000000000E7    -8.829514384269714E-1  -4.492324292659760E-1   9.745284914970398E-3   5.051826685667038E-2   9.777424857020378E-3   5.047385767102242E-2  -6.419054269790649E-1   7.637701630592346E-1  
 4.330000000000000E7    -9.233411550521851E-1  -3.675519227981567E-1   1.057781837880611E-2   4.211419448256493E-2   1.047538034617901E-2   4.216025769710541E-2  -6.301001310348511E-1   7.729795575141907E-1  
 4.360000000000000E7    -9.527334570884705E-1  -2.784484624862671E-1   1.002574898302555E-2   3.371888771653175E-2   1.014143787324429E-2   3.371071442961693E-2  -6.191471219062805E-1   7.828450798988342E-1  
 4.390000000000000E7    -9.751568436622620E-1  -1.817161738872528E-1   9.160388261079788E-3   2.513783983886242E-2   9.145478717982769E-3   2.514723129570484E-2  -6.063877344131470E-1   7.916218042373657E-1  
 4.420000000000000E7    -9.886654615402222E-1  -8.160454034805298E-2   6.967134308069944E-3   1.682144962251186E-2   7.036019116640091E-3   1.674899645149708E-2  -5.936585068702698E-1   8.007784485816956E-1  
 4.450000000000000E7    -9.913792610168457E-1   2.362313866615295E-2   3.846968291327357E-3   8.689581416547298E-3   3.884077072143555E-3   8.560271933674812E-3  -5.835440754890442E-1   8.093338012695313E-1  
 4.480000000000000E7    -9.818906784057617E-1   1.330400109291077E-1  -1.275772665394470E-4   7.663809810765088E-4  -1.185981964226812E-4   8.942438289523125E-4  -5.712409019470215E-1   8.175771236419678E-1  
 4.510000000000000E7    -9.606077671051025E-1   2.430661022663117E-1  -5.271018482744694E-3  -6.480087991803885E-3  -5.303908139467239E-3  -6.454886402934790E-3  -5.596861839294434E-1   8.267973065376282E-1  
 4.540000000000000E7    -9.250997900962830E-1   3.530115485191345E-1  -1.131522655487061E-2  -1.318318769335747E-2  -1.144880149513483E-2  -1.318729110062122E-2  -5.473456382751465E-1   8.345978260040283E-1  
 4.570000000000000E7    -8.751305341720581E-1   4.628746807575226E-1  -1.839067786931992E-2  -1.907489076256752E-2  -1.840999722480774E-2  -1.904919743537903E-2  -5.348870754241943E-1   8.416408300399780E-1  
 4.600000000000000E7    -8.116806745529175E-1   5.679191946983337E-1  -2.636533603072166E-2  -2.408980764448643E-2  -2.641185559332371E-2  -2.391592599451542E-2  -5.236357450485230E-1   8.485884666442871E-1  
 4.630000000000000E7    -7.299910783767700E-1   6.660262346267700E-1  -3.500575572252274E-2  -2.791949175298214E-2  -3.495938330888748E-2  -2.778241783380508E-2  -5.118028521537781E-1   8.555642366409302E-1  
 4.660000000000000E7    -6.345364451408386E-1   7.556911110877991E-1  -4.453506320714951E-2  -3.027668036520481E-2  -4.441567882895470E-2  -3.025778383016586E-2  -4.983921647071838E-1   8.626302480697632E-1  
 4.690000000000000E7    -5.279415845870972E-1   8.340701460838318E-1  -5.417179688811302E-2  -3.163628280162811E-2  -5.439923703670502E-2  -3.154211491346359E-2  -4.872407317161560E-1   8.690340518951416E-1  
 4.720000000000000E7    -4.082617759704590E-1   8.981302380561829E-1  -6.422408670186997E-2  -3.133464232087135E-2  -6.421854346990585E-2  -3.119726106524468E-2  -4.744647741317749E-1   8.744686841964722E-1  
 4.750000000000000E7    -2.788917422294617E-1   9.449393153190613E-1  -7.418242096900940E-2  -2.942722849547863E-2  -7.434240728616715E-2  -2.956933155655861E-2  -4.630423486232758E-1   8.803026080131531E-1  
 4.780000000000000E7    -1.440106928348541E-1   9.749348759651184E-1  -8.399713784456253E-2  -2.574218064546585E-2  -8.359971642494202E-2  -2.606825157999992E-2  -4.505433440208435E-1   8.846954703330994E-1  
 4.810000000000000E7    -4.863686859607697E-3   9.837904572486877E-1  -9.291685372591019E-2  -2.137927338480949E-2  -9.276968240737915E-2  -2.128965780138969E-2  -4.397496879100800E-1   8.898094892501831E-1  
 4.840000000000000E7     1.340873390436173E-1   9.729325175285339E-1  -1.013141870498657E-1  -1.527222059667110E-2  -1.009048670530319E-1  -1.527998410165310E-2  -4.278656542301178E-1   8.953030109405518E-1  
 4.870000000000000E7     2.684657871723175E-1   9.453201889991760E-1  -1.088002994656563E-1  -7.996620610356331E-3  -1.083673983812332E-1  -8.169764652848244E-3  -4.163937866687775E-1   8.995989561080933E-1  
 4.900000000000000E7     3.965555131435394E-1   8.973850607872009E-1  -1.148311644792557E-1   4.601659020408988E-5  -1.146708950400353E-1  -4.711584188044071E-5  -4.057006537914276E-1   9.038949608802795E-1  
 4.930000000000000E7     5.159643888473511E-1   8.342690467834473E-1  -1.195560321211815E-1   8.906064555048943E-3  -1.192990168929100E-1   9.182460606098175E-3  -3.934340775012970E-1   9.084202647209168E-1  
 4.960000000000000E7     6.254862546920776E-1   7.573430538177490E-1  -1.235228180885315E-1   1.869217306375504E-2  -1.231971085071564E-1   1.835885643959045E-2  -3.825021684169769E-1   9.123708009719849E-1  
 4.990000000000000E7     7.194458842277527E-1   6.675538420677185E-1  -1.255824565887451E-1   2.827690541744232E-2  -1.254565566778183E-1   2.824614383280277E-2  -3.718303143978119E-1   9.162288308143616E-1  
 5.020000000000000E7     7.993570566177368E-1   5.676497220993042E-1  -1.262797117233276E-1   3.786270320415497E-2  -1.260041743516922E-1   3.772743046283722E-2  -3.608580231666565E-1   9.201229214668274E-1  
 5.050000000000000E7     8.642367720603943E-1   4.625606834888458E-1  -1.260892897844315E-1   4.753874614834786E-2  -1.262745708227158E-1   4.737183079123497E-2  -3.504335284233093E-1   9.252184629440308E-1  
 5.080000000000000E7     9.149149060249329E-1   3.524964451789856E-1  -1.246033236384392E-1   5.658973753452301E-2  -1.242043748497963E-1   5.652036517858505E-2  -3.387976288795471E-1   9.269167184829712E-1  
 5.110000000000000E7     9.495534300804138E-1   2.425132840871811E-1  -1.222049072384834E-1   6.549558788537979E-2  -1.221957579255104E-1   6.524612754583359E-2  -3.286759853363037E-1   9.313777685165405E-1  
 5.140000000000000E7     9.731205105781555E-1   1.313713192939758E-1  -1.190164014697075E-1   7.365459203720093E-2  -1.189592406153679E-1   7.389645278453827E-2  -3.170507550239563E-1   9.365034699440002E-1  
 5.170000000000000E7     9.805254936218262E-1   2.261115610599518E-2  -1.145605146884918E-1   8.149348199367523E-2  -1.146737784147263E-1   8.135465532541275E-2  -3.061453104019165E-1   9.377234578132629E-1  
 5.200000000000000E7     9.776880145072937E-1  -8.319847285747528E-2  -1.098991706967354E-1   8.818288147449493E-2  -1.098698377609253E-1   8.755631744861603E-2  -2.949266433715820E-1   9.403233528137207E-1  
 5.230000000000000E7     9.648514986038208E-1  -1.828969419002533E-1  -1.052065119147301E-1   9.430880844593048E-2  -1.051108092069626E-1   9.448463469743729E-2  -2.848615050315857E-1   9.447262287139893E-1  
 5.260000000000000E7     9.415062069892883E-1  -2.784528434276581E-1  -9.951537102460861E-2   1.001159548759460E-1  -9.948949515819550E-2   9.971424192190170E-2  -2.740294337272644E-1   9.484071135520935E-1  
 5.290000000000000E7     9.120102524757385E-1  -3.672427833080292E-1  -9.370027482509613E-2   1.045725792646408E-1  -9.353215992450714E-2   1.046221852302551E-1  -2.634489536285400E-1   9.505774974822998E-1  
 5.320000000000000E7     8.737015128135681E-1  -4.501231014728546E-1  -8.776883035898209E-2   1.087677180767059E-1  -8.798211812973023E-2   1.089532822370529E-1  -2.526946663856506E-1   9.544100761413574E-1  
 5.350000000000000E7     8.300257921218872E-1  -5.265991687774658E-1  -8.178892731666565E-2   1.123431921005249E-1  -8.183570951223373E-2   1.127066984772682E-1  -2.430970370769501E-1   9.576990604400635E-1  
 5.380000000000000E7     7.809033393859863E-1  -5.970742106437683E-1  -7.551570236682892E-2   1.154342964291573E-1  -7.498564571142197E-2   1.153579205274582E-1  -2.305447757244110E-1   9.593411684036255E-1  
 5.410000000000000E7     7.307190895080566E-1  -6.605808138847351E-1  -6.968989223241806E-2   1.179627701640129E-1  -6.937605887651444E-2   1.180478930473328E-1  -2.202927023172379E-1   9.627204537391663E-1  
 5.440000000000000E7     6.743797063827515E-1  -7.179517745971680E-1  -6.327125430107117E-2   1.199125647544861E-1  -6.322668492794037E-2   1.198250055313110E-1  -2.094261050224304E-1   9.647980928421021E-1  
 5.470000000000000E7     6.169506311416626E-1  -7.676752209663391E-1  -5.703821033239365E-2   1.210173815488815E-1  -5.717694386839867E-2   1.212961599230766E-1  -1.974930763244629E-1   9.671062827110291E-1  
 5.500000000000000E7     5.576488971710205E-1  -8.129761815071106E-1  -5.131911113858223E-2   1.225946471095085E-1  -5.111166089773178E-2   1.223282143473625E-1  -1.864036768674851E-1   9.708435535430908E-1  
 5.530000000000000E7     4.961933493614197E-1  -8.518704175949097E-1  -4.575398191809654E-2   1.229971870779991E-1  -4.552234709262848E-2   1.229512915015221E-1  -1.753754615783691E-1   9.720642566680908E-1  
 5.560000000000000E7     4.341761767864227E-1  -8.859771490097046E-1  -3.987324237823486E-2   1.234810799360275E-1  -3.996768221259117E-2   1.229640692472458E-1  -1.652380079030991E-1   9.746807813644409E-1  
 5.590000000000000E7     3.727690279483795E-1  -9.137252569198608E-1  -3.449990227818489E-2   1.231340914964676E-1  -3.445342555642128E-2   1.232121735811234E-1  -1.532011181116104E-1   9.763753414154053E-1  
 5.620000000000000E7     3.092909455299377E-1  -9.374259114265442E-1  -2.929137647151947E-2   1.229995116591454E-1  -2.890770137310028E-2   1.224138662219048E-1  -1.431008577346802E-1   9.788449406623840E-1  
 5.650000000000000E7     2.484906464815140E-1  -9.560154080390930E-1  -2.412884868681431E-2   1.219208091497421E-1  -2.409451827406883E-2   1.218016147613525E-1  -1.316136866807938E-1   9.800986051559448E-1  
 5.680000000000000E7     1.871180534362793E-1  -9.705278277397156E-1  -1.922158524394035E-2   1.213024184107781E-1  -1.918768323957920E-2   1.210757121443749E-1  -1.197680085897446E-1   9.813145995140076E-1  
 5.710000000000000E7     1.252640485763550E-1  -9.804095625877380E-1  -1.439813058823347E-2   1.201169714331627E-1  -1.459816843271256E-2   1.203087568283081E-1  -1.090202927589417E-1   9.832828640937805E-1  
 5.740000000000000E7     6.482200324535370E-2  -9.871948361396790E-1  -9.837768971920013E-3   1.188611760735512E-1  -9.997132234275341E-3   1.187825128436089E-1  -9.701424092054367E-2   9.845807552337647E-1  
 5.770000000000000E7     7.234541699290276E-3  -9.885008335113525E-1  -5.852003581821919E-3   1.173276975750923E-1  -5.850224755704403E-3   1.168067902326584E-1  -8.716045320034027E-2   9.852245450019836E-1  
 5.800000000000000E7    -5.132640525698662E-2  -9.878435134887695E-1  -1.442487235181034E-3   1.159801110625267E-1  -1.177910598926246E-3   1.157084554433823E-1  -7.400444149971008E-2   9.879844784736633E-1  
 5.830000000000000E7    -1.068462058901787E-1  -9.836677312850952E-1   2.400500001385808E-3   1.137702092528343E-1   2.450587460771203E-3   1.138578876852989E-1  -6.404995918273926E-2   9.887652993202210E-1  
 5.860000000000000E7    -1.615014225244522E-1  -9.780454635620117E-1   6.044178735464811E-3   1.118876263499260E-1   6.162479054182768E-3   1.118780970573425E-1  -5.244970321655273E-2   9.889873862266541E-1  
 5.890000000000000E7    -2.155491411685944E-1  -9.665562510490418E-1   9.664779528975487E-3   1.098886132240295E-1   9.402213618159294E-3   1.097399368882179E-1  -4.164871200919151E-2   9.896510243415833E-1  
 5.920000000000000E7    -2.676441073417664E-1  -9.544298648834229E-1   1.320865936577320E-2   1.078263074159622E-1   1.338268257677555E-2   1.077251359820366E-1  -2.979310229420662E-2   9.910123348236084E-1  
 5.950000000000000E7    -3.174786567687988E-1  -9.383585453033447E-1   1.633404009044170E-2   1.053504347801209E-1   1.632315106689930E-2   1.052524149417877E-1  -1.829904876649380E-2   9.898803830146790E-1  
 5.980000000000000E7    -3.662870228290558E-1  -9.211862683296204E-1   1.962960883975029E-2   1.030687987804413E-1   1.934264786541462E-2   1.029144078493118E-1  -6.026661023497582E-3   9.906523227691650E-1  
 6.010000000000000E7    -4.114885330200195E-1  -9.004957675933838E-1   2.190176397562027E-2   1.008780077099800E-1   2.196236886084080E-2   1.004306375980377E-1   4.457414150238037E-3   9.916317462921143E-1  
 6.040000000000000E7    -4.580415785312653E-1  -8.791987895965576E-1   2.482635900378227E-2   9.841974824666977E-2   2.488325722515583E-2   9.842480719089508E-2   1.651084236800671E-2   9.922318458557129E-1  
 6.070000000000000E7    -4.999003410339356E-1  -8.569430708885193E-1   2.718798816204071E-2   9.602327644824982E-2   2.710283547639847E-2   9.580073505640030E-2   2.720917575061321E-2   9.912471771240234E-1  
 6.100000000000000E7    -5.407584905624390E-1  -8.305649161338806E-1   2.984529174864292E-2   9.313860535621643E-2   2.980143576860428E-2   9.319193661212921E-2   4.011933505535126E-2   9.914440512657166E-1  
 6.130000000000000E7    -5.813507437705994E-1  -8.046304583549500E-1   3.195607289671898E-2   9.089934080839157E-2   3.189900517463684E-2   9.078076481819153E-2   5.171978473663330E-2   9.916533827781677E-1  
 6.160000000000000E7    -6.187571287155151E-1  -7.757827043533325E-1   3.372510150074959E-2   8.813092857599258E-2   3.388945013284683E-2   8.799765259027481E-2   6.216032058000565E-2   9.896358847618103E-1  
 6.190000000000000E7    -6.545051336288452E-1  -7.457132339477539E-1   3.559803217649460E-2   8.551553636789322E-2   3.581475093960762E-2   8.516480028629303E-2   7.332065701484680E-2   9.888032674789429E-1  
 6.220000000000000E7    -6.878339052200317E-1  -7.147413492202759E-1   3.720932453870773E-2   8.274354040622711E-2   3.752041608095169E-2   8.290673792362213E-2   8.441566675901413E-2   9.895676374435425E-1  
 6.250000000000000E7    -7.209494113922119E-1  -6.824769973754883E-1   3.887177258729935E-2   8.017352968454361E-2   3.911954537034035E-2   8.009576052427292E-2   9.604038298130035E-2   9.886369109153748E-1  
 6.280000000000000E7    -7.507088184356690E-1  -6.490511894226074E-1   4.055572673678398E-2   7.762286812067032E-2   4.045219719409943E-2   7.738348841667175E-2   1.077785491943359E-1   9.876669049263001E-1  
 6.310000000000000E7    -7.805412411689758E-1  -6.135457158088684E-1   4.208588972687721E-2   7.511886954307556E-2   4.186861217021942E-2   7.479637116193771E-2   1.194797679781914E-1   9.864341616630554E-1  
 6.340000000000000E7    -8.063816428184509E-1  -5.784684419631958E-1   4.324220120906830E-2   7.238633930683136E-2   4.314339160919190E-2   7.210823148488998E-2   1.313370615243912E-1   9.854227900505066E-1  
 6.370000000000000E7    -8.312349319458008E-1  -5.428628921508789E-1   4.431105405092239E-2   6.958794593811035E-2   4.426839202642441E-2   6.941025704145432E-2   1.421336829662323E-1   9.830736517906189E-1  
 6.400000000000000E7    -8.543065190315247E-1  -5.052252411842346E-1   4.535513371229172E-2   6.683699786663055E-2   4.530695825815201E-2   6.669380515813828E-2   1.541917026042938E-1   9.824310541152954E-1  
 6.430000000000000E7    -8.759932518005371E-1  -4.674471020698547E-1   4.607687518000603E-2   6.442654877901077E-2   4.606288298964500E-2   6.402232497930527E-2   1.657055616378784E-1   9.801991581916809E-1  
 6.460000000000000E7    -8.955462574958801E-1  -4.300171732902527E-1   4.673469439148903E-2   6.166962161660194E-2   4.667904973030090E-2   6.157290190458298E-2   1.763432174921036E-1   9.779232740402222E-1  
 6.490000000000000E7    -9.130587577819824E-1  -3.923877477645874E-1   4.715203121304512E-2   5.901270359754562E-2   4.722517728805542E-2   5.917362123727799E-2   1.874962002038956E-1   9.766296148300171E-1  
 6.520000000000000E7    -9.287105798721314E-1  -3.536358475685120E-1   4.787494987249374E-2   5.678758025169373E-2   4.777752235531807E-2   5.633585527539253E-2   1.997096985578537E-1   9.752697944641113E-1  
 6.550000000000000E7    -9.421946406364441E-1  -3.145115971565247E-1   4.823641851544380E-2   5.392967164516449E-2   4.803715273737907E-2   5.391056463122368E-2   2.107221037149429E-1   9.711272716522217E-1  
 6.580000000000000E7    -9.551339745521545E-1  -2.741087973117828E-1   4.858446493744850E-2   5.134767293930054E-2   4.845790937542915E-2   5.135658383369446E-2   2.224628180265427E-1   9.699363112449646E-1  
 6.610000000000000E7    -9.650830626487732E-1  -2.333820462226868E-1   4.871351271867752E-2   4.885534942150116E-2   4.862511157989502E-2   4.849286004900932E-2   2.350955009460449E-1   9.659256935119629E-1  
 6.640000000000000E7    -9.748947024345398E-1  -1.954567283391953E-1   4.869282245635986E-2   4.656397178769112E-2   4.861150681972504E-2   4.645862430334091E-2   2.465612590312958E-1   9.635310173034668E-1  
 6.670000000000000E7    -9.819348454475403E-1  -1.544071584939957E-1   4.877143353223801E-2   4.384056478738785E-2   4.845495894551277E-2   4.400590807199478E-2   2.568708658218384E-1   9.615082144737244E-1  
 6.700000000000000E7    -9.872475266456604E-1  -1.142889782786369E-1   4.857239127159119E-2   4.163563251495361E-2   4.845449700951576E-2   4.142817109823227E-2   2.683930993080139E-1   9.575742483139038E-1  
 6.730000000000000E7    -9.913684129714966E-1  -7.437483966350555E-2   4.815454035997391E-2   3.931629657745361E-2   4.830759018659592E-2   3.901514410972595E-2   2.802689075469971E-1   9.554677009582520E-1  
 6.760000000000000E7    -9.936577677726746E-1  -3.493100404739380E-2   4.804616048932076E-2   3.693411871790886E-2   4.787544533610344E-2   3.692093491554260E-2   2.919622957706451E-1   9.515473246574402E-1  
 6.790000000000000E7    -9.941049814224243E-1   5.237594246864319E-3   4.746463522315025E-2   3.465042635798454E-2   4.747610911726952E-2   3.457979112863541E-2   3.023657798767090E-1   9.473764896392822E-1  
 6.820000000000000E7    -9.929228425025940E-1   4.481046274304390E-2   4.699530825018883E-2   3.245621174573898E-2   4.693429172039032E-2   3.242137283086777E-2   3.140821158885956E-1   9.445649981498718E-1  
 6.850000000000000E7    -9.916968345642090E-1   8.446070551872253E-2   4.651829972863197E-2   3.059112094342709E-2   4.629357531666756E-2   3.038494288921356E-2   3.246349096298218E-1   9.413438439369202E-1  
 6.880000000000000E7    -9.868998527526856E-1   1.231973618268967E-1   4.574495181441307E-2   2.828739769756794E-2   4.568595066666603E-2   2.807720750570297E-2   3.367061614990234E-1   9.364181160926819E-1  
 6.910000000000000E7    -9.810284972190857E-1   1.619541943073273E-1   4.506385326385498E-2   2.622999809682369E-2   4.485109820961952E-2   2.625057473778725E-2   3.485003113746643E-1   9.327651262283325E-1  
 6.940000000000000E7    -9.750517010688782E-1   1.995653659105301E-1   4.411250725388527E-2   2.426859922707081E-2   4.404365271329880E-2   2.428386174142361E-2   3.587900996208191E-1   9.288364052772522E-1  
 6.970000000000000E7    -9.656991958618164E-1   2.381738275289536E-1   4.309239238500595E-2   2.234315872192383E-2   4.319519549608231E-2   2.227054908871651E-2   3.705339729785919E-1   9.239820241928101E-1  
 7.000000000000000E7    -9.564310312271118E-1   2.758235037326813E-1   4.228048771619797E-2   2.050328440964222E-2   4.210306331515312E-2   2.042510546743870E-2   3.818546831607819E-1   9.204962849617004E-1  
