#  HZ   S   RI   R     50.00 
! Rohde & Schwarz ZVT8 8Ports - Version 4.11 - 1300.0000k08 SN: 100242
! Date: 2026-07-31 14:30:56
! Measurements: S11 S21 S12 S22 
! 
 1.000000000000000E7    -4.067907929420471E-1   9.098098278045654E-1   5.199611932039261E-2   5.261253938078880E-2   5.196280777454376E-2   5.262016505002976E-2  -9.175053834915161E-1   3.887386322021484E-1  
 1.030000000000000E7    -3.747681975364685E-1   9.219964146614075E-1   5.529714375734329E-2   5.303731188178062E-2   5.530826002359390E-2   5.305746942758560E-2  -9.113335609436035E-1   4.017968475818634E-1  
 1.060000000000000E7    -3.391714692115784E-1   9.355366826057434E-1   5.874367058277130E-2   5.393756926059723E-2   5.876059830188751E-2   5.371513590216637E-2  -9.072949290275574E-1   4.138442575931549E-1  
 1.090000000000000E7    -3.076721727848053E-1   9.458141922950745E-1   6.232620403170586E-2   5.418627709150314E-2   6.226620078086853E-2   5.423916876316071E-2  -9.012728929519653E-1   4.257360994815826E-1  
 1.120000000000000E7    -2.723404765129089E-1   9.553596377372742E-1   6.597954779863358E-2   5.508920922875404E-2   6.567084789276123E-2   5.478896573185921E-2  -8.950994610786438E-1   4.383731484413147E-1  
 1.150000000000000E7    -2.373939156532288E-1   9.654082059860230E-1   6.961371004581451E-2   5.490814521908760E-2   6.929375231266022E-2   5.497709289193153E-2  -8.878232836723328E-1   4.483051002025604E-1  
 1.180000000000000E7    -2.027067095041275E-1   9.712284803390503E-1   7.324358075857163E-2   5.523575842380524E-2   7.305362075567246E-2   5.512123182415962E-2  -8.827165961265564E-1   4.598394930362701E-1  
 1.210000000000000E7    -1.688677072525024E-1   9.782446026802063E-1   7.743905484676361E-2   5.538831651210785E-2   7.725182175636292E-2   5.523139610886574E-2  -8.744065165519714E-1   4.730685055255890E-1  
 1.240000000000000E7    -1.337228119373322E-1   9.825370311737061E-1   8.141494542360306E-2   5.552781745791435E-2   8.134093880653381E-2   5.515807121992111E-2  -8.679561614990234E-1   4.833794236183167E-1  
 1.270000000000000E7    -9.813521057367325E-2   9.862580895423889E-1   8.605217188596726E-2   5.485226958990097E-2   8.557192981243134E-2   5.476452037692070E-2  -8.600944876670837E-1   4.978460073471069E-1  
 1.300000000000000E7    -6.351646035909653E-2   9.891285896301270E-1   8.999259024858475E-2   5.466871708631516E-2   8.990061283111572E-2   5.455930531024933E-2  -8.518968820571899E-1   5.091532468795776E-1  
 1.330000000000000E7    -2.749993652105331E-2   9.911842942237854E-1   9.459581226110458E-2   5.431679636240006E-2   9.448210895061493E-2   5.379370227456093E-2  -8.439064621925354E-1   5.218678116798401E-1  
 1.360000000000000E7     9.387224912643433E-3   9.909600615501404E-1   9.927523881196976E-2   5.371649563312531E-2   9.928026050329208E-2   5.313738062977791E-2  -8.360595703125000E-1   5.318725109100342E-1  
 1.390000000000000E7     4.350391775369644E-2   9.891068935394287E-1   1.041273474693298E-1   5.252741277217865E-2   1.037344932556152E-1   5.291675031185150E-2  -8.277587294578552E-1   5.447788238525391E-1  
 1.420000000000000E7     8.065052330493927E-2   9.869824051856995E-1   1.088164895772934E-1   5.187737196683884E-2   1.087697967886925E-1   5.174102261662483E-2  -8.206261396408081E-1   5.562526583671570E-1  
 1.450000000000000E7     1.160216480493546E-1   9.815503358840942E-1   1.139988675713539E-1   5.038375407457352E-2   1.138070523738861E-1   5.036003887653351E-2  -8.089753389358521E-1   5.693679451942444E-1  
 1.480000000000000E7     1.528227925300598E-1   9.767789244651794E-1   1.190667301416397E-1   4.908641427755356E-2   1.190812289714813E-1   4.917420819401741E-2  -8.010597229003906E-1   5.805878043174744E-1  
 1.510000000000000E7     1.879092752933502E-1   9.694858193397522E-1   1.244031637907028E-1   4.728284105658531E-2   1.241741180419922E-1   4.731674864888191E-2  -7.893220782279968E-1   5.932646393775940E-1  
 1.540000000000000E7     2.224179059267044E-1   9.616038799285889E-1   1.296527087688446E-1   4.624459147453308E-2   1.295980960130692E-1   4.576579481363297E-2  -7.820601463317871E-1   6.042266488075256E-1  
 1.570000000000000E7     2.588371932506561E-1   9.535703659057617E-1   1.354171931743622E-1   4.387402534484863E-2   1.354407370090485E-1   4.368000850081444E-2  -7.702537178993225E-1   6.179879903793335E-1  
 1.600000000000000E7     2.943001687526703E-1   9.409628510475159E-1   1.408773511648178E-1   4.142706841230393E-2   1.412227004766464E-1   4.122090712189674E-2  -7.605186700820923E-1   6.282603740692139E-1  
 1.630000000000000E7     3.285115957260132E-1   9.288044571876526E-1   1.474036723375320E-1   3.855568170547485E-2   1.470689326524735E-1   3.874293714761734E-2  -7.488384246826172E-1   6.426431536674500E-1  
 1.660000000000000E7     3.634249567985535E-1   9.138914942741394E-1   1.535927206277847E-1   3.549142181873322E-2   1.532421112060547E-1   3.525322675704956E-2  -7.353094220161438E-1   6.548805832862854E-1  
 1.690000000000000E7     3.971068859100342E-1   8.989399671554565E-1   1.599213778972626E-1   3.290468081831932E-2   1.595582813024521E-1   3.255886584520340E-2  -7.237999439239502E-1   6.656677126884460E-1  
 1.720000000000000E7     4.326654672622681E-1   8.824717402458191E-1   1.656533181667328E-1   2.861349098384380E-2   1.658383905887604E-1   2.906564623117447E-2  -7.106518149375916E-1   6.778975129127502E-1  
 1.750000000000000E7     4.611107110977173E-1   8.668455481529236E-1   1.729382723569870E-1   2.601261995732784E-2   1.730143278837204E-1   2.572206780314446E-2  -6.983243227005005E-1   6.918179392814636E-1  
 1.780000000000000E7     4.963353574275971E-1   8.441168665885925E-1   1.788039058446884E-1   2.111131325364113E-2   1.791033446788788E-1   2.138822525739670E-2  -6.836478710174561E-1   7.017480134963989E-1  
 1.810000000000000E7     5.267984867095947E-1   8.248117566108704E-1   1.868424117565155E-1   1.676850020885468E-2   1.857243627309799E-1   1.593246683478355E-2  -6.685868501663208E-1   7.169940471649170E-1  
 1.840000000000000E7     5.600459575653076E-1   8.025264143943787E-1   1.940996199846268E-1   1.045142300426960E-2   1.933286339044571E-1   1.087596081197262E-2  -6.522973775863648E-1   7.286888957023621E-1  
 1.870000000000000E7     5.882720351219177E-1   7.796521186828613E-1   2.011891007423401E-1   5.768222734332085E-3   2.005006372928619E-1   5.357475951313973E-3  -6.362058520317078E-1   7.404870390892029E-1  
 1.900000000000000E7     6.173959374427795E-1   7.549881339073181E-1   2.083574980497360E-1   1.006126403808594E-4   2.081603407859802E-1  -6.926581263542175E-4  -6.192030310630798E-1   7.519327402114868E-1  
 1.930000000000000E7     6.464589238166809E-1   7.278946042060852E-1   2.156801223754883E-1  -7.727632299065590E-3   2.160966247320175E-1  -7.011719048023224E-3  -6.018345355987549E-1   7.657485008239746E-1  
 1.960000000000000E7     6.746985912322998E-1   6.993409991264343E-1   2.234842181205750E-1  -1.475213188678026E-2   2.235402464866638E-1  -1.435221824795008E-2  -5.847778916358948E-1   7.765904068946838E-1  
 1.990000000000000E7     6.987819671630859E-1   6.703178286552429E-1   2.311735898256302E-1  -2.282103896141052E-2   2.315580993890762E-1  -2.276940643787384E-2  -5.624743700027466E-1   7.898180484771729E-1  
 2.020000000000000E7     7.242127060890198E-1   6.397548913955689E-1   2.396973520517349E-1  -3.118992596864700E-2   2.390185743570328E-1  -3.101688809692860E-2  -5.433063507080078E-1   7.992135286331177E-1  
 2.050000000000000E7     7.500401735305786E-1   6.076657772064209E-1   2.475885897874832E-1  -4.017356410622597E-2   2.460749596357346E-1  -4.068862646818161E-2  -5.217998027801514E-1   8.110896348953247E-1  
 2.080000000000000E7     7.716042399406433E-1   5.733922123908997E-1   2.560377717018127E-1  -5.071999877691269E-2   2.558415830135346E-1  -5.057565867900848E-2  -4.987906217575073E-1   8.236443400382996E-1  
 2.110000000000000E7     7.936675548553467E-1   5.392181873321533E-1   2.646170854568481E-1  -6.277333199977875E-2   2.643759548664093E-1  -6.261347234249115E-2  -4.739704728126526E-1   8.343434929847717E-1  
 2.140000000000000E7     8.127366900444031E-1   5.039514899253845E-1   2.730455696582794E-1  -7.543024420738220E-2   2.719562053680420E-1  -7.432979345321655E-2  -4.490079283714294E-1   8.446825742721558E-1  
 2.170000000000000E7     8.293128013610840E-1   4.681562781333923E-1   2.813110351562500E-1  -8.810399472713471E-2   2.811049818992615E-1  -8.730468153953552E-2  -4.218928217887878E-1   8.547263145446777E-1  
 2.200000000000000E7     8.471487760543823E-1   4.281715452671051E-1   2.892086207866669E-1  -1.030103266239166E-1   2.894284725189209E-1  -1.026546657085419E-1  -3.919371664524078E-1   8.632342219352722E-1  
 2.230000000000000E7     8.599263429641724E-1   3.890286087989807E-1   2.976337075233460E-1  -1.188896894454956E-1   2.971001565456390E-1  -1.180446594953537E-1  -3.620713651180267E-1   8.714910745620728E-1  
 2.260000000000000E7     8.723388910293579E-1   3.481931984424591E-1   3.050412237644196E-1  -1.361834704875946E-1   3.067471683025360E-1  -1.361387819051743E-1  -3.299343883991242E-1   8.788233995437622E-1  
 2.290000000000000E7     8.821443319320679E-1   3.065879642963409E-1   3.127559423446655E-1  -1.549037992954254E-1   3.136104643344879E-1  -1.545002758502960E-1  -2.938281297683716E-1   8.844050765037537E-1  
 2.320000000000000E7     8.885263204574585E-1   2.643914818763733E-1   3.203362226486206E-1  -1.767886132001877E-1   3.196303844451904E-1  -1.768159568309784E-1  -2.576347589492798E-1   8.909142017364502E-1  
 2.350000000000000E7     8.932399749755859E-1   2.199037075042725E-1   3.267318010330200E-1  -2.005177587270737E-1   3.262350857257843E-1  -1.993476897478104E-1  -2.186944484710693E-1   8.942257165908814E-1  
 2.380000000000000E7     8.950861692428589E-1   1.764522790908814E-1   3.323592543601990E-1  -2.242106348276138E-1   3.324087560176849E-1  -2.240130603313446E-1  -1.774929165840149E-1   8.951916098594666E-1  
 2.410000000000000E7     8.944484591484070E-1   1.309449523687363E-1   3.364131152629852E-1  -2.522456049919128E-1   3.355824053287506E-1  -2.516154348850250E-1  -1.327968239784241E-1   8.931307196617127E-1  
 2.440000000000000E7     8.891448378562927E-1   8.698507398366928E-2   3.394649624824524E-1  -2.827224135398865E-1   3.396104872226715E-1  -2.828870415687561E-1  -8.709729462862015E-2   8.888210654258728E-1  
 2.470000000000000E7     8.807371854782105E-1   4.228804260492325E-2   3.398513197898865E-1  -3.155695199966431E-1   3.404467403888702E-1  -3.131901025772095E-1  -3.658084571361542E-2   8.795921206474304E-1  
 2.500000000000000E7     8.701108694076538E-1  -3.056388348340988E-3   3.386778533458710E-1  -3.497303426265717E-1   3.381124436855316E-1  -3.507808446884155E-1   1.644449308514595E-2   8.678702116012573E-1  
 2.530000000000000E7     8.535155653953552E-1  -4.718982428312302E-2   3.353598713874817E-1  -3.884477019309998E-1   3.348906636238098E-1  -3.877132236957550E-1   7.138088345527649E-2   8.494651913642883E-1  
 2.560000000000000E7     8.340082764625549E-1  -8.907619863748550E-2   3.274677395820618E-1  -4.285570681095123E-1   3.277361094951630E-1  -4.289187788963318E-1   1.283181458711624E-1   8.257632255554199E-1  
 2.590000000000000E7     8.090605139732361E-1  -1.276091188192368E-1   3.128806352615356E-1  -4.733089804649353E-1   3.134022951126099E-1  -4.740099906921387E-1   1.888050884008408E-1   7.960442304611206E-1  
 2.620000000000000E7     7.796987295150757E-1  -1.655993312597275E-1   2.934926450252533E-1  -5.211247205734253E-1   2.939420640468597E-1  -5.195010304450989E-1   2.507999539375305E-1   7.549787163734436E-1  
 2.650000000000000E7     7.465441823005676E-1  -1.993126124143601E-1   2.698577344417572E-1  -5.680980682373047E-1   2.692186236381531E-1  -5.688999295234680E-1   3.102324306964874E-1   7.051134705543518E-1  
 2.680000000000000E7     7.085020542144775E-1  -2.268729507923126E-1   2.364492714405060E-1  -6.182238459587097E-1   2.359062135219574E-1  -6.184802055358887E-1   3.683645129203796E-1   6.437585949897766E-1  
 2.710000000000000E7     6.691660881042481E-1  -2.497082203626633E-1   1.920109093189240E-1  -6.661422848701477E-1   1.911563724279404E-1  -6.661415696144104E-1   4.243758916854858E-1   5.729393362998962E-1  
 2.740000000000000E7     6.247919201850891E-1  -2.652161717414856E-1   1.402520984411240E-1  -7.150181531906128E-1   1.396810710430145E-1  -7.143293023109436E-1   4.698513746261597E-1   4.848738908767700E-1  
 2.770000000000000E7     5.837802290916443E-1  -2.712514698505402E-1   7.597132027149200E-2  -7.555136680603027E-1   7.577286660671234E-2  -7.563202977180481E-1   5.075260996818543E-1   3.875452876091003E-1  
 2.800000000000000E7     5.417604446411133E-1  -2.705098688602448E-1   2.536460757255554E-3  -7.908510565757752E-1   4.502929747104645E-3  -7.910242080688477E-1   5.318156480789185E-1   2.759218513965607E-1  
 2.830000000000000E7     5.026095509529114E-1  -2.614239454269409E-1  -8.008698374032974E-2  -8.143218755722046E-1  -8.205951750278473E-2  -8.135077953338623E-1   5.378373265266419E-1   1.621102839708328E-1  
 2.860000000000000E7     4.716495275497437E-1  -2.424265444278717E-1  -1.720023453235626E-1  -8.244323134422302E-1  -1.735680997371674E-1  -8.227571845054627E-1   5.227034687995911E-1   3.739381954073906E-2  
 2.890000000000000E7     4.500222206115723E-1  -2.185892164707184E-1  -2.681180834770203E-1  -8.174965977668762E-1  -2.682894766330719E-1  -8.164224624633789E-1   4.848494529724121E-1  -8.401827514171600E-2  
 2.920000000000000E7     4.352987408638001E-1  -1.904336214065552E-1  -3.633659183979034E-1  -7.963857054710388E-1  -3.637520670890808E-1  -7.935105562210083E-1   4.248992502689362E-1  -1.991800367832184E-1  
 2.950000000000000E7     4.364104568958283E-1  -1.627314984798431E-1  -4.544837474822998E-1  -7.544446587562561E-1  -4.528841674327850E-1  -7.531191110610962E-1   3.422164022922516E-1  -3.015385568141937E-1  
 2.980000000000000E7     4.436997473239899E-1  -1.373796612024307E-1  -5.363333225250244E-1  -6.987551450729370E-1  -5.362915396690369E-1  -6.981096863746643E-1   2.422539740800858E-1  -3.866852223873138E-1  
 3.010000000000000E7     4.623718559741974E-1  -1.201419606804848E-1  -6.059899330139160E-1  -6.306405067443848E-1  -6.042026877403259E-1  -6.298542022705078E-1   1.320718526840210E-1  -4.509027004241943E-1  
 3.040000000000000E7     4.888682067394257E-1  -1.081090345978737E-1  -6.606435775756836E-1  -5.523452758789063E-1  -6.613714694976807E-1  -5.537251830101013E-1   1.599300093948841E-2  -4.908828735351563E-1  
 3.070000000000000E7     5.166490674018860E-1  -1.077484562993050E-1  -7.015346288681030E-1  -4.706686735153198E-1  -6.991684436798096E-1  -4.707687497138977E-1  -9.793454408645630E-2  -5.126067399978638E-1  
 3.100000000000000E7     5.484019517898560E-1  -1.171908229589462E-1  -7.259405255317688E-1  -3.881886601448059E-1  -7.244488596916199E-1  -3.881442248821259E-1  -2.089249789714813E-1  -5.148383975028992E-1  
 3.130000000000000E7     5.771601796150208E-1  -1.350192427635193E-1  -7.383815050125122E-1  -3.085792958736420E-1  -7.381145954132080E-1  -3.091343939304352E-1  -3.133559823036194E-1  -4.985039830207825E-1  
 3.160000000000000E7     6.057366728782654E-1  -1.615611016750336E-1  -7.379947304725647E-1  -2.323302626609802E-1  -7.395284175872803E-1  -2.328824996948242E-1  -4.048436582088471E-1  -4.708417057991028E-1  
 3.190000000000000E7     6.273126602172852E-1  -1.934397220611572E-1  -7.310026288032532E-1  -1.618894934654236E-1  -7.299793362617493E-1  -1.620322316884995E-1  -4.879797101020813E-1  -4.342648386955261E-1  
 3.220000000000000E7     6.460949778556824E-1  -2.313729822635651E-1  -7.170016765594482E-1  -9.745803475379944E-2  -7.162279486656189E-1  -9.761400520801544E-2  -5.597608685493469E-1  -3.911955356597900E-1  
 3.250000000000000E7     6.573255062103272E-1  -2.747200131416321E-1  -6.961300969123840E-1  -4.047692939639092E-2  -6.964906454086304E-1  -4.006684571504593E-2  -6.198037862777710E-1  -3.427890241146088E-1  
 3.280000000000000E7     6.623060107231140E-1  -3.210552036762238E-1  -6.709520816802979E-1   1.068919803947210E-2  -6.714313030242920E-1   1.076100952923298E-2  -6.729406714439392E-1  -2.927571535110474E-1  
 3.310000000000000E7     6.609088778495789E-1  -3.662379682064056E-1  -6.462509632110596E-1   5.700764060020447E-2  -6.464911699295044E-1   5.651780217885971E-2  -7.151416540145874E-1  -2.420188486576080E-1  
 3.340000000000000E7     6.541489362716675E-1  -4.159840941429138E-1  -6.193755269050598E-1   9.755651652812958E-2  -6.181513071060181E-1   9.784995019435883E-2  -7.509567141532898E-1  -1.904466003179550E-1  
 3.370000000000000E7     6.415935158729553E-1  -4.638578295707703E-1  -5.892545580863953E-1   1.327683329582214E-1  -5.897859930992127E-1   1.312941610813141E-1  -7.788617610931397E-1  -1.405243873596191E-1  
 3.400000000000000E7     6.226360201835632E-1  -5.128672122955322E-1  -5.604398250579834E-1   1.640089154243469E-1  -5.611429214477539E-1   1.637780219316483E-1  -8.008137941360474E-1  -9.271948039531708E-2  
 3.430000000000000E7     5.988389849662781E-1  -5.604168772697449E-1  -5.324081182479858E-1   1.921426355838776E-1  -5.307520031929016E-1   1.911565959453583E-1  -8.190833330154419E-1  -4.702133685350418E-2  
 3.460000000000000E7     5.693007111549377E-1  -6.069304347038269E-1  -5.033340454101563E-1   2.165977954864502E-1  -5.032632350921631E-1   2.157336771488190E-1  -8.327449560165405E-1  -3.925491124391556E-3  
 3.490000000000000E7     5.340886116027832E-1  -6.508895158767700E-1  -4.759651422500610E-1   2.381262630224228E-1  -4.723880887031555E-1   2.367795705795288E-1  -8.423705101013184E-1   3.866840526461601E-2  
 3.520000000000000E7     4.960675537586212E-1  -6.938583850860596E-1  -4.464271664619446E-1   2.565546631813049E-1  -4.461134076118469E-1   2.548500597476959E-1  -8.501275181770325E-1   7.878156751394272E-2  
 3.550000000000000E7     4.504239261150360E-1  -7.338074445724487E-1  -4.187078177928925E-1   2.717947065830231E-1  -4.185614883899689E-1   2.720102071762085E-1  -8.541673421859741E-1   1.159684807062149E-1  
 3.580000000000000E7     4.014824032783508E-1  -7.702690362930298E-1  -3.912591934204102E-1   2.871795892715454E-1  -3.915674686431885E-1   2.868208885192871E-1  -8.568013906478882E-1   1.528708934783936E-1  
 3.610000000000000E7     3.470693230628967E-1  -8.037726283073425E-1  -3.666709661483765E-1   3.002949655056000E-1  -3.649147748947144E-1   2.997187674045563E-1  -8.583267331123352E-1   1.874219179153442E-1  
 3.640000000000000E7     2.890596687793732E-1  -8.337692618370056E-1  -3.396180868148804E-1   3.108499646186829E-1  -3.400840163230896E-1   3.113681375980377E-1  -8.561367988586426E-1   2.189437150955200E-1  
 3.670000000000000E7     2.270592451095581E-1  -8.595478534698486E-1  -3.145667910575867E-1   3.214228153228760E-1  -3.132419884204865E-1   3.207950592041016E-1  -8.546781539916992E-1   2.488114237785339E-1  
 3.700000000000000E7     1.589439213275909E-1  -8.793300390243530E-1  -2.887158095836639E-1   3.302831053733826E-1  -2.890232205390930E-1   3.304905593395233E-1  -8.513982892036438E-1   2.788342535495758E-1  
 3.730000000000000E7     8.818544447422028E-2  -8.941521048545837E-1  -2.620798051357269E-1   3.381065130233765E-1  -2.630216479301453E-1   3.380808532238007E-1  -8.457529544830322E-1   3.053255081176758E-1  
 3.760000000000000E7     1.268450915813446E-2  -9.021999835968018E-1  -2.383889108896256E-1   3.454409539699554E-1  -2.385603636503220E-1   3.453579246997833E-1  -8.421449065208435E-1   3.321652114391327E-1  
 3.790000000000000E7    -6.677874922752380E-2  -9.036139845848084E-1  -2.139401733875275E-1   3.500334024429321E-1  -2.130143344402313E-1   3.499397635459900E-1  -8.363648056983948E-1   3.564193248748779E-1  
 3.820000000000000E7    -1.514340192079544E-1  -8.969023227691650E-1  -1.893645823001862E-1   3.553710877895355E-1  -1.881627142429352E-1   3.552928864955902E-1  -8.291527032852173E-1   3.788621425628662E-1  
 3.850000000000000E7    -2.373297363519669E-1  -8.810688853263855E-1  -1.640371084213257E-1   3.578280508518219E-1  -1.627818346023560E-1   3.579715192317963E-1  -8.244175314903259E-1   4.015668630599976E-1  
 3.880000000000000E7    -3.247647285461426E-1  -8.550140261650085E-1  -1.377673745155335E-1   3.614118695259094E-1  -1.386295258998871E-1   3.595915436744690E-1  -8.176957368850708E-1   4.231112003326416E-1  
 3.910000000000000E7    -4.162636697292328E-1  -8.184260129928589E-1  -1.114001721143723E-1   3.615178465843201E-1  -1.117103621363640E-1   3.612259626388550E-1  -8.112647533416748E-1   4.441063404083252E-1  
 3.940000000000000E7    -5.056812763214111E-1  -7.685558199882507E-1  -8.630520850419998E-2   3.606070578098297E-1  -8.632715791463852E-2   3.602313101291657E-1  -8.024834990501404E-1   4.623033404350281E-1  
 3.970000000000000E7    -5.960723757743835E-1  -7.066113352775574E-1  -5.931235104799271E-2   3.584776222705841E-1  -5.843732506036758E-2   3.583956360816956E-1  -7.943699359893799E-1   4.806028604507446E-1  
 4.000000000000000E7    -6.802591085433960E-1  -6.269011497497559E-1  -3.218717873096466E-2   3.540382981300354E-1  -3.190195560455322E-2   3.539325594902039E-1  -7.884812355041504E-1   4.985989630222321E-1  
 4.030000000000000E7    -7.596917152404785E-1  -5.329054594039917E-1  -5.484407767653465E-3   3.486751914024353E-1  -5.569932051002979E-3   3.466320335865021E-1  -7.809865474700928E-1   5.158540010452271E-1  
 4.060000000000000E7    -8.296905755996704E-1  -4.223750233650208E-1   2.165985293686390E-2   3.389172255992889E-1   2.253759279847145E-2   3.387673795223236E-1  -7.728068232536316E-1   5.315329432487488E-1  
 4.090000000000000E7    -8.850750923156738E-1  -2.952618896961212E-1   4.887903109192848E-2   3.261274695396423E-1   4.833162948489189E-2   3.257865011692047E-1  -7.656044960021973E-1   5.474480390548706E-1  
 4.120000000000000E7    -9.242626428604126E-1  -1.519304811954498E-1   7.442948967218399E-2   3.105431497097015E-1   7.581550627946854E-2   3.116644918918610E-1  -7.576423883438110E-1   5.634991526603699E-1  
 4.150000000000000E7    -9.385554790496826E-1   4.834800958633423E-3   1.004016548395157E-1   2.932545840740204E-1   1.004298850893974E-1   2.925295233726502E-1  -7.502676844596863E-1   5.791279077529907E-1  
 4.180000000000000E7    -9.261148571968079E-1   1.687768697738648E-1   1.229289919137955E-1   2.707601487636566E-1   1.220027506351471E-1   2.710604667663574E-1  -7.438046932220459E-1   5.934373140335083E-1  
 4.210000000000000E7    -8.838801383972168E-1   3.368355631828308E-1   1.426255255937576E-1   2.460570633411408E-1   1.425714343786240E-1   2.463761270046234E-1  -7.366842031478882E-1   6.094253063201904E-1  
 4.240000000000000E7    -8.072059750556946E-1   4.997542500495911E-1   1.581893414258957E-1   2.185207605361939E-1   1.584140360355377E-1   2.182798087596893E-1  -7.305670380592346E-1   6.243566274642944E-1  
 4.270000000000000E7    -6.969477534294128E-1   6.497334837913513E-1   1.704345196485519E-1   1.885783821344376E-1   1.698878407478333E-1   1.882407814264298E-1  -7.218975424766541E-1   6.409763693809509E-1  
 4.300000000000000E7    -5.576100349426270E-1   7.779227495193481E-1   1.766091287136078E-1   1.578562557697296E-1   1.764871180057526E-1   1.575419902801514E-1  -7.138218879699707E-1   6.570368409156799E-1  
 4.330000000000000E7    -3.927580118179321E-1   8.779439926147461E-1   1.776078343391419E-1   1.266118139028549E-1   1.778457909822464E-1   1.271346509456635E-1  -7.049294710159302E-1   6.711040735244751E-1  
 4.360000000000000E7    -2.123106867074966E-1   9.433204531669617E-1   1.737405359745026E-1   9.855979681015015E-2   1.741821765899658E-1   9.803581982851028E-2  -6.965871453285217E-1   6.865496635437012E-1  
 4.390000000000000E7    -2.572022378444672E-2   9.692547917366028E-1   1.655822843313217E-1   7.196044921875000E-2   1.650502681732178E-1   7.125209271907806E-2  -6.857163310050964E-1   7.011404037475586E-1  
 4.420000000000000E7     1.604277491569519E-1   9.592580795288086E-1   1.539797484874725E-1   4.783854261040688E-2   1.534535437822342E-1   4.809890314936638E-2  -6.744713783264160E-1   7.158235311508179E-1  
 4.450000000000000E7     3.344525694847107E-1   9.172815680503845E-1   1.399693489074707E-1   2.911032550036907E-2   1.398198902606964E-1   2.873390540480614E-2  -6.651705503463745E-1   7.299651503562927E-1  
 4.480000000000000E7     4.908798038959503E-1   8.470592498779297E-1   1.242119073867798E-1   1.351445168256760E-2   1.240874081850052E-1   1.331812795251608E-2  -6.529454588890076E-1   7.428348064422607E-1  
 4.510000000000000E7     6.260597705841065E-1   7.558541297912598E-1   1.082076653838158E-1   1.912797801196575E-3   1.080752313137054E-1   1.911730505526066E-3  -6.417704224586487E-1   7.569062113761902E-1  
 4.540000000000000E7     7.396093010902405E-1   6.492925286293030E-1   9.239622950553894E-2  -6.936954334378243E-3   9.252054989337921E-2  -6.771386601030827E-3  -6.288050413131714E-1   7.693945765495300E-1  
 4.570000000000000E7     8.303325176239014E-1   5.319634079933167E-1   7.736028730869293E-2  -1.211779564619064E-2   7.701683044433594E-2  -1.205747202038765E-2  -6.159253120422363E-1   7.806341648101807E-1  
 4.600000000000000E7     8.973700404167175E-1   4.120223820209503E-1   6.314043700695038E-2  -1.473022811114788E-2   6.322507560253143E-2  -1.482410728931427E-2  -6.039919257164002E-1   7.916831970214844E-1  
 4.630000000000000E7     9.455695748329163E-1   2.902101576328278E-1   5.062504485249519E-2  -1.589022390544415E-2   5.070684105157852E-2  -1.577329449355602E-2  -5.915991663932800E-1   8.013587594032288E-1  
 4.660000000000000E7     9.751626253128052E-1   1.711392253637314E-1   3.954723477363586E-2  -1.541360933333635E-2   3.948711231350899E-2  -1.541963778436184E-2  -5.777677297592163E-1   8.124117255210877E-1  
 4.690000000000000E7     9.898762702941895E-1   5.487422645092011E-2   2.987696602940559E-2  -1.382788736373186E-2   2.962766215205193E-2  -1.390166673809290E-2  -5.654874444007874E-1   8.220543861389160E-1  
 4.720000000000000E7     9.902079701423645E-1  -5.440934747457504E-2   2.125282026827335E-2  -1.144146919250488E-2   2.122060768306255E-2  -1.149715110659599E-2  -5.520396828651428E-1   8.302453756332398E-1  
 4.750000000000000E7     9.799628257751465E-1  -1.562308967113495E-1   1.404862944036722E-2  -8.678053505718708E-3   1.416274625808001E-2  -8.682650513947010E-3  -5.397269725799561E-1   8.390329480171204E-1  
 4.780000000000000E7     9.598153829574585E-1  -2.518074512481690E-1   8.045435883104801E-3  -5.377683322876692E-3   8.134509436786175E-3  -5.368978716433048E-3  -5.258525013923645E-1   8.460652828216553E-1  
 4.810000000000000E7     9.329664111137390E-1  -3.402886986732483E-1   2.983340993523598E-3  -2.054736949503422E-3   3.083736402913928E-3  -2.074848394840956E-3  -5.145462155342102E-1   8.541482090950012E-1  
 4.840000000000000E7     8.993766903877258E-1  -4.210058748722076E-1  -9.599340846762061E-4   1.367482938803732E-3  -9.634604793973267E-4   1.290546730160713E-3  -5.021685361862183E-1   8.617205619812012E-1  
 4.870000000000000E7     8.614707589149475E-1  -4.962321519851685E-1  -4.294193349778652E-3   4.759656265377998E-3  -4.299712833017111E-3   4.721695091575384E-3  -4.896403849124908E-1   8.688029050827026E-1  
 4.900000000000000E7     8.192244172096252E-1  -5.640766024589539E-1  -6.769463419914246E-3   8.019587025046349E-3  -6.786777637898922E-3   7.995567284524441E-3  -4.774274230003357E-1   8.752392530441284E-1  
 4.930000000000000E7     7.740024328231812E-1  -6.258288025856018E-1  -8.837514556944370E-3   1.118991710245609E-2  -8.782929740846157E-3   1.106507424265146E-2  -4.648319184780121E-1   8.822110891342163E-1  
 4.960000000000000E7     7.239102721214294E-1  -6.819291710853577E-1  -1.031187269836664E-2   1.414830144494772E-2  -1.031519100070000E-2   1.406443398445845E-2  -4.527434706687927E-1   8.882365226745606E-1  
 4.990000000000000E7     6.748223900794983E-1  -7.311137318611145E-1  -1.128302980214357E-2   1.679641567170620E-2  -1.125189941376448E-2   1.675219461321831E-2  -4.401611387729645E-1   8.941293954849243E-1  
 5.020000000000000E7     6.239227056503296E-1  -7.751030921936035E-1  -1.193006522953510E-2   1.933556236326695E-2  -1.203350443392992E-2   1.927294768393040E-2  -4.289781153202057E-1   9.003375768661499E-1  
 5.050000000000000E7     5.710290074348450E-1  -8.149834275245667E-1  -1.228447258472443E-2   2.168570086359978E-2  -1.227942761033773E-2   2.161649800837040E-2  -4.165714383125305E-1   9.069325923919678E-1  
 5.080000000000000E7     5.181860327720642E-1  -8.501113653182983E-1  -1.226259116083384E-2   2.375711686909199E-2  -1.237155962735415E-2   2.365960553288460E-2  -4.040376543998718E-1   9.103112816810608E-1  
 5.110000000000000E7     4.642454981803894E-1  -8.804424405097961E-1  -1.202976051717997E-2   2.570219896733761E-2  -1.217847038060427E-2   2.561212703585625E-2  -3.929428756237030E-1   9.160839319229126E-1  
 5.140000000000000E7     4.098149538040161E-1  -9.075013399124146E-1  -1.174692157655954E-2   2.730805985629559E-2  -1.172120310366154E-2   2.735949493944645E-2  -3.799957633018494E-1   9.230846166610718E-1  
 5.170000000000000E7     3.567856252193451E-1  -9.290774464607239E-1  -1.110897026956081E-2   2.878226153552532E-2  -1.117255538702011E-2   2.879020757973194E-2  -3.674333393573761E-1   9.257051944732666E-1  
 5.200000000000000E7     3.037406206130981E-1  -9.491018056869507E-1  -1.049583312124014E-2   3.013995476067066E-2  -1.064197067171335E-2   3.005403652787209E-2  -3.551864922046661E-1   9.293704032897949E-1  
 5.230000000000000E7     2.503715157508850E-1  -9.639986753463745E-1  -9.792433120310307E-3   3.129780665040016E-2  -9.711179882287979E-3   3.122324496507645E-2  -3.439584374427795E-1   9.352235794067383E-1  
 5.260000000000000E7     1.973812133073807E-1  -9.753511548042297E-1  -8.873712271451950E-3   3.227272257208824E-2  -8.914717473089695E-3   3.216126188635826E-2  -3.316043913364410E-1   9.396153092384338E-1  
 5.290000000000000E7     1.452161073684692E-1  -9.854295849800110E-1  -7.879277691245079E-3   3.299713134765625E-2  -7.949439808726311E-3   3.294334188103676E-2  -3.203744888305664E-1   9.432153105735779E-1  
 5.320000000000000E7     9.519623219966888E-2  -9.922559857368469E-1  -7.072747685015202E-3   3.354099392890930E-2  -7.010155823081732E-3   3.363011032342911E-2  -3.082717061042786E-1   9.473630785942078E-1  
 5.350000000000000E7     4.417720809578896E-2  -9.946226477622986E-1  -5.986643489450216E-3   3.411737456917763E-2  -5.953443702310324E-3   3.405452892184258E-2  -2.974618375301361E-1   9.511344432830811E-1  
 5.380000000000000E7    -5.138747394084930E-3  -9.949086308479309E-1  -4.913100507110357E-3   3.442585840821266E-2  -4.902655258774757E-3   3.430275991559029E-2  -2.838447690010071E-1   9.542375802993774E-1  
 5.410000000000000E7    -5.489936098456383E-2  -9.959337711334229E-1  -3.891298547387123E-3   3.468421846628189E-2  -3.859595861285925E-3   3.464466333389282E-2  -2.725623250007629E-1   9.583687782287598E-1  
 5.440000000000000E7    -1.030954867601395E-1  -9.909230470657349E-1  -2.884562360122800E-3   3.473730012774468E-2  -2.843082882463932E-3   3.468590229749680E-2  -2.611372470855713E-1   9.609919190406799E-1  
 5.470000000000000E7    -1.480090618133545E-1  -9.850687384605408E-1  -1.799649558961391E-3   3.456265106797218E-2  -1.798799843527377E-3   3.467062860727310E-2  -2.482022494077683E-1   9.642055630683899E-1  
 5.500000000000000E7    -1.948341429233551E-1  -9.775754809379578E-1  -7.429046090692282E-4   3.464841470122337E-2  -7.970016449689865E-4   3.451599553227425E-2  -2.360504269599915E-1   9.683527350425720E-1  
 5.530000000000000E7    -2.396101653575897E-1  -9.671370983123779E-1   1.851430861279368E-4   3.436360135674477E-2   2.253388520330191E-4   3.430814296007156E-2  -2.247476279735565E-1   9.701390862464905E-1  
 5.560000000000000E7    -2.844270467758179E-1  -9.552416801452637E-1   1.297161914408207E-3   3.412880748510361E-2   1.143818954005837E-3   3.395306691527367E-2  -2.131949067115784E-1   9.731915593147278E-1  
 5.590000000000000E7    -3.262742161750794E-1  -9.423104524612427E-1   2.217052038758993E-3   3.350839018821716E-2   2.162908669561148E-3   3.360459953546524E-2  -2.004052549600601E-1   9.755442738533020E-1  
 5.620000000000000E7    -3.685395717620850E-1  -9.257288575172424E-1   3.128815209493041E-3   3.315602988004684E-2   3.019474679604173E-3   3.297802060842514E-2  -1.896553784608841E-1   9.783788919448853E-1  
 5.650000000000000E7    -4.074541628360748E-1  -9.097361564636231E-1   3.867581486701965E-3   3.250200301408768E-2   3.843912854790688E-3   3.245596960186958E-2  -1.771484315395355E-1   9.799876213073731E-1  
 5.680000000000000E7    -4.469277858734131E-1  -8.910404443740845E-1   4.779449664056301E-3   3.191286325454712E-2   4.770216066390276E-3   3.188315406441689E-2  -1.651791036128998E-1   9.817837476730347E-1  
 5.710000000000000E7    -4.855307638645172E-1  -8.708075284957886E-1   5.500599276274443E-3   3.115255013108254E-2   5.522686056792736E-3   3.123492002487183E-2  -1.535334140062332E-1   9.842764735221863E-1  
 5.740000000000000E7    -5.225147008895874E-1  -8.498455286026001E-1   6.300606299191713E-3   3.045880608260632E-2   6.259012501686811E-3   3.040421009063721E-2  -1.407288759946823E-1   9.861093759536743E-1  
 5.770000000000000E7    -5.563527941703796E-1  -8.268833756446838E-1   6.865053437650204E-3   2.970315143465996E-2   6.840550340712071E-3   2.955214120447636E-2  -1.303390860557556E-1   9.870426654815674E-1  
 5.800000000000000E7    -5.911092162132263E-1  -8.024058341979981E-1   7.564725354313850E-3   2.880984358489513E-2   7.621145807206631E-3   2.872046455740929E-2  -1.170019209384918E-1   9.902436733245850E-1  
 5.830000000000000E7    -6.233270764350891E-1  -7.774695754051209E-1   8.179081603884697E-3   2.786839939653873E-2   8.090822026133537E-3   2.790492586791515E-2  -1.062542647123337E-1   9.915034174919128E-1  
 5.860000000000000E7    -6.557416915893555E-1  -7.525154948234558E-1   8.608005940914154E-3   2.694262191653252E-2   8.621782064437866E-3   2.695920318365097E-2  -9.371622651815414E-2   9.919276237487793E-1  
 5.890000000000000E7    -6.850173473358154E-1  -7.241081595420837E-1   9.067464619874954E-3   2.596258185803890E-2   8.989563211798668E-3   2.598505280911923E-2  -8.243279159069061E-2   9.926689863204956E-1  
 5.920000000000000E7    -7.147699594497681E-1  -6.958103775978088E-1   9.522333741188049E-3   2.492985129356384E-2   9.532844647765160E-3   2.492825500667095E-2  -6.993404030799866E-2   9.945339560508728E-1  
 5.950000000000000E7    -7.412168383598328E-1  -6.662091612815857E-1   9.843646548688412E-3   2.392238192260265E-2   9.769347496330738E-3   2.387296780943871E-2  -5.807552486658096E-2   9.936691522598267E-1  
 5.980000000000000E7    -7.681149840354919E-1  -6.360061168670654E-1   1.010497845709324E-2   2.287108451128006E-2   1.001184247434139E-2   2.281008847057819E-2  -4.557258635759354E-2   9.946528673171997E-1  
 6.010000000000000E7    -7.906612753868103E-1  -6.054113507270813E-1   1.021739840507507E-2   2.183688804507256E-2   1.014828216284514E-2   2.174806594848633E-2  -3.434938192367554E-2   9.960171580314636E-1  
 6.040000000000000E7    -8.155511617660523E-1  -5.730618834495544E-1   1.042208354920149E-2   2.073655650019646E-2   1.039617508649826E-2   2.069545350968838E-2  -2.227573096752167E-2   9.970951676368713E-1  
 6.070000000000000E7    -8.369114398956299E-1  -5.426194667816162E-1   1.042799092829227E-2   1.966727897524834E-2   1.039733644574881E-2   1.962195150554180E-2  -1.101544499397278E-2   9.965885877609253E-1  
 6.100000000000000E7    -8.570027351379395E-1  -5.090357661247253E-1   1.051498763263226E-2   1.846860349178314E-2   1.043267641216517E-2   1.845499686896801E-2   2.501018345355988E-3   9.970894455909729E-1  
 6.130000000000000E7    -8.770167231559753E-1  -4.754338264465332E-1   1.047234982252121E-2   1.743886619806290E-2   1.041372586041689E-2   1.740698888897896E-2   1.469031721353531E-2   9.972073435783386E-1  
 6.160000000000000E7    -8.938334584236145E-1  -4.412647783756256E-1   1.026259083300829E-2   1.625423692166805E-2   1.028274931013584E-2   1.622026041150093E-2   2.568210661411285E-2   9.955807328224182E-1  
 6.190000000000000E7    -9.099472761154175E-1  -4.068050980567932E-1   1.010447274893522E-2   1.515693403780460E-2   1.010890491306782E-2   1.508557796478272E-2   3.716973215341568E-2   9.951924681663513E-1  
 6.220000000000000E7    -9.248211979866028E-1  -3.721473515033722E-1   9.817011654376984E-3   1.401763223111630E-2   9.865108877420425E-3   1.402023620903492E-2   4.849600791931152E-2   9.959800243377686E-1  
 6.250000000000000E7    -9.386375546455383E-1  -3.364952802658081E-1   9.577254764735699E-3   1.296795718371868E-2   9.590200148522854E-3   1.289127860218287E-2   6.037968397140503E-2   9.952655434608460E-1  
 6.280000000000000E7    -9.500877261161804E-1  -3.006127774715424E-1   9.236109443008900E-3   1.183837000280619E-2   9.181180968880653E-3   1.181603129953146E-2   7.285273075103760E-2   9.947234988212585E-1  
 6.310000000000000E7    -9.611940383911133E-1  -2.631534934043884E-1   8.816735818982124E-3   1.071445364505053E-2   8.760158903896809E-3   1.073795743286610E-2   8.457798510789871E-2   9.938776493072510E-1  
 6.340000000000000E7    -9.699922204017639E-1  -2.273110896348953E-1   8.305380120873451E-3   9.666129946708679E-3   8.273446932435036E-3   9.636639617383480E-3   9.680318087339401E-2   9.929434061050415E-1  
 6.370000000000000E7    -9.779794216156006E-1  -1.911392956972122E-1   7.791707292199135E-3   8.575034327805042E-3   7.740204688161612E-3   8.576176129281521E-3   1.080991476774216E-1   9.909576773643494E-1  
 6.400000000000000E7    -9.837237596511841E-1  -1.539584845304489E-1   7.153052836656570E-3   7.549253758043051E-3   7.147361990064383E-3   7.501874584704638E-3   1.206486970186234E-1   9.904943704605103E-1  
 6.430000000000000E7    -9.894284605979919E-1  -1.163300871849060E-1   6.467500701546669E-3   6.538076326251030E-3   6.469737738370895E-3   6.488746963441372E-3   1.326743364334106E-1   9.885786771774292E-1  
 6.460000000000000E7    -9.936082959175110E-1  -8.002983033657074E-2   5.758795421570540E-3   5.552559159696102E-3   5.699806846678257E-3   5.525064654648304E-3   1.434148699045181E-1   9.861685633659363E-1  
 6.490000000000000E7    -9.961469173431397E-1  -4.424297809600830E-2   4.931130446493626E-3   4.556368105113506E-3   4.956261254847050E-3   4.566027317196131E-3   1.549692004919052E-1   9.850736856460571E-1  
 6.520000000000000E7    -9.965378642082214E-1  -7.512941956520081E-3   4.095419775694609E-3   3.654784988611937E-3   4.106259904801846E-3   3.629986895248294E-3   1.671949774026871E-1   9.840876460075378E-1  
 6.550000000000000E7    -9.961908459663391E-1   2.853292226791382E-2   3.189618699252605E-3   2.757728565484285E-3   3.191655268892646E-3   2.731963293626905E-3   1.788879483938217E-1   9.801736474037170E-1  
 6.580000000000000E7    -9.941038489341736E-1   6.584148108959198E-2   2.239084104076028E-3   1.839212258346379E-3   2.221136353909969E-3   1.837851828895509E-3   1.911163330078125E-1   9.795374870300293E-1  
 6.610000000000000E7    -9.903481602668762E-1   1.027664542198181E-1   1.216650824062526E-3   1.031971536576748E-3   1.194729935377836E-3   9.957848815247417E-4   2.036151736974716E-1   9.757936596870422E-1  
 6.640000000000000E7    -9.878584146499634E-1   1.381486505270004E-1   1.401778426952660E-4   2.227179065812379E-4   1.510672736912966E-4   2.498239628039300E-4   2.154282182455063E-1   9.732673168182373E-1  
 6.670000000000000E7    -9.812610745429993E-1   1.744230985641480E-1  -9.973023552447557E-4  -4.961951635777950E-4  -9.893003152683377E-4  -5.024466663599014E-4   2.260108441114426E-1   9.715965986251831E-1  
 6.700000000000000E7    -9.737403988838196E-1   2.102618217468262E-1  -2.159666270017624E-3  -1.215497381053865E-3  -2.151088789105415E-3  -1.206489396281540E-3   2.377332448959351E-1   9.676360487937927E-1  
 6.730000000000000E7    -9.655645489692688E-1   2.454102337360382E-1  -3.376538865268230E-3  -1.864178804680705E-3  -3.409213153645396E-3  -1.871587242931128E-3   2.502574026584625E-1   9.658682346343994E-1  
 6.760000000000000E7    -9.561948776245117E-1   2.799990475177765E-1  -4.692684859037399E-3  -2.468165243044496E-3  -4.690608941018581E-3  -2.497539622709155E-3   2.622048854827881E-1   9.623569250106812E-1  
 6.790000000000000E7    -9.450848102569580E-1   3.147198557853699E-1  -6.022382061928511E-3  -3.032532520592213E-3  -5.987012293189764E-3  -3.053642343729734E-3   2.728714048862457E-1   9.584271311759949E-1  
 6.820000000000000E7    -9.327448010444641E-1   3.483519554138184E-1  -7.357413414865732E-3  -3.556051757186651E-3  -7.370452862232924E-3  -3.527261316776276E-3   2.844876945018768E-1   9.555972814559937E-1  
 6.850000000000000E7    -9.205980300903320E-1   3.824824094772339E-1  -8.829861879348755E-3  -4.014435224235058E-3  -8.811937645077705E-3  -3.990658093243837E-3   2.957379221916199E-1   9.524017572402954E-1  
 6.880000000000000E7    -9.055052995681763E-1   4.149456918239594E-1  -1.031225640326738E-2  -4.387132357805967E-3  -1.026709377765656E-2  -4.357311408966780E-3   3.082119524478912E-1   9.480183124542236E-1  
 6.910000000000000E7    -8.900286555290222E-1   4.474830925464630E-1  -1.185318734496832E-2  -4.688538610935211E-3  -1.180607732385397E-2  -4.702992737293243E-3   3.204127550125122E-1   9.443218111991882E-1  
 6.940000000000000E7    -8.741528391838074E-1   4.788774549961090E-1  -1.336003933101893E-2  -4.972752183675766E-3  -1.335025392472744E-2  -4.983131773769856E-3   3.308591246604919E-1   9.405981898307800E-1  
 6.970000000000000E7    -8.552994728088379E-1   5.105056166648865E-1  -1.495275553315878E-2  -5.180167965590954E-3  -1.496675144881010E-2  -5.114899016916752E-3   3.427628278732300E-1   9.358432292938232E-1  
 7.000000000000000E7    -8.369116187095642E-1   5.411000847816467E-1  -1.663268171250820E-2  -5.312602035701275E-3  -1.656411588191986E-2  -5.269311368465424E-3   3.540095984935761E-1   9.323186278343201E-1  
