#  HZ   S   RI   R     50.00 
! Rohde & Schwarz ZVT8 8Ports - Version 4.11 - 1300.0000k08 SN: 100242
! Date: 2026-07-31 14:33:42
! Measurements: S11 S21 S12 S22 
! 
 1.000000000000000E7    -4.000866115093231E-1   9.125224351882935E-1   5.446048453450203E-2   5.444470793008804E-2   5.428170412778854E-2   5.452780425548554E-2  -9.165740013122559E-1   3.896281719207764E-1  
 1.030000000000000E7    -3.665443956851959E-1   9.247816801071167E-1   5.808710679411888E-2   5.487720295786858E-2   5.766245722770691E-2   5.518371611833572E-2  -9.106789827346802E-1   4.033548831939697E-1  
 1.060000000000000E7    -3.302154242992401E-1   9.382878541946411E-1   6.190972775220871E-2   5.597905442118645E-2   6.167157739400864E-2   5.592275783419609E-2  -9.061841964721680E-1   4.151123464107513E-1  
 1.090000000000000E7    -2.977095842361450E-1   9.485203623771668E-1   6.566677987575531E-2   5.650446563959122E-2   6.560672074556351E-2   5.657092109322548E-2  -9.000957012176514E-1   4.275651574134827E-1  
 1.120000000000000E7    -2.619626522064209E-1   9.577273726463318E-1   6.999561190605164E-2   5.733935162425041E-2   6.947027891874313E-2   5.724748596549034E-2  -8.940432667732239E-1   4.393940865993500E-1  
 1.150000000000000E7    -2.258024811744690E-1   9.674936532974243E-1   7.378540188074112E-2   5.745910480618477E-2   7.372006773948669E-2   5.753585323691368E-2  -8.864763379096985E-1   4.499046802520752E-1  
 1.180000000000000E7    -1.898166537284851E-1   9.730049371719360E-1   7.815153151750565E-2   5.781532451510429E-2   7.788851857185364E-2   5.784796923398972E-2  -8.812373280525208E-1   4.616598188877106E-1  
 1.210000000000000E7    -1.543299853801727E-1   9.797411561012268E-1   8.296193182468414E-2   5.828531831502914E-2   8.259399235248566E-2   5.804234370589256E-2  -8.730219602584839E-1   4.746091961860657E-1  
 1.240000000000000E7    -1.180043816566467E-1   9.836617112159729E-1   8.738232403993607E-2   5.836001038551331E-2   8.741208910942078E-2   5.798828229308128E-2  -8.657603859901428E-1   4.852091073989868E-1  
 1.270000000000000E7    -8.122517168521881E-2   9.869697093963623E-1   9.275929629802704E-2   5.796797946095467E-2   9.225829690694809E-2   5.773279070854187E-2  -8.578102588653565E-1   5.001095533370972E-1  
 1.300000000000000E7    -4.466157406568527E-2   9.894292950630188E-1   9.741368144750595E-2   5.768471956253052E-2   9.744060039520264E-2   5.764016881585121E-2  -8.494370579719544E-1   5.114498734474182E-1  
 1.330000000000000E7    -7.138624787330627E-3   9.903047084808350E-1   1.030633375048637E-1   5.732788145542145E-2   1.028350964188576E-1   5.700141564011574E-2  -8.412277102470398E-1   5.241125226020813E-1  
 1.360000000000000E7     3.209554404020309E-2   9.897098541259766E-1   1.085545942187309E-1   5.680413171648979E-2   1.088301837444305E-1   5.608724430203438E-2  -8.332287669181824E-1   5.349918007850647E-1  
 1.390000000000000E7     6.791756302118301E-2   9.864525794982910E-1   1.146366298198700E-1   5.559626594185829E-2   1.140784248709679E-1   5.596681311726570E-2  -8.245941400527954E-1   5.475931763648987E-1  
 1.420000000000000E7     1.071968078613281E-1   9.830046892166138E-1   1.203154921531677E-1   5.490752309560776E-2   1.203600913286209E-1   5.498813465237618E-2  -8.165379762649536E-1   5.595511794090271E-1  
 1.450000000000000E7     1.445219069719315E-1   9.762192964553833E-1   1.267286986112595E-1   5.355717241764069E-2   1.264434158802033E-1   5.332899466156960E-2  -8.051997423171997E-1   5.726905465126038E-1  
 1.480000000000000E7     1.840448081493378E-1   9.693598747253418E-1   1.331105679273605E-1   5.170897394418716E-2   1.331640779972076E-1   5.193256214261055E-2  -7.962379455566406E-1   5.849003195762634E-1  
 1.510000000000000E7     2.213263362646103E-1   9.601451158523560E-1   1.397282183170319E-1   4.966089501976967E-2   1.394577771425247E-1   4.977468773722649E-2  -7.830678224563599E-1   5.974307656288147E-1  
 1.540000000000000E7     2.587832212448120E-1   9.498977661132813E-1   1.468143314123154E-1   4.872399568557739E-2   1.464698612689972E-1   4.802841693162918E-2  -7.752924561500549E-1   6.085963249206543E-1  
 1.570000000000000E7     2.975169718265533E-1   9.389222264289856E-1   1.540733128786087E-1   4.553746059536934E-2   1.540448963642120E-1   4.546799510717392E-2  -7.626937627792358E-1   6.225174665451050E-1  
 1.600000000000000E7     3.358647227287293E-1   9.232474565505981E-1   1.613543033599854E-1   4.257898405194283E-2   1.618299484252930E-1   4.225464910268784E-2  -7.514039278030396E-1   6.330361366271973E-1  
 1.630000000000000E7     3.730538487434387E-1   9.079966545104981E-1   1.700524836778641E-1   3.890036419034004E-2   1.696603000164032E-1   3.932362794876099E-2  -7.386547327041626E-1   6.470092535018921E-1  
 1.660000000000000E7     4.097887277603149E-1   8.888095617294312E-1   1.782716512680054E-1   3.511172533035278E-2   1.779348403215408E-1   3.484181314706802E-2  -7.245458364486694E-1   6.598127484321594E-1  
 1.690000000000000E7     4.463455677032471E-1   8.697047829627991E-1   1.870930641889572E-1   3.168425709009171E-2   1.867724210023880E-1   3.121254593133926E-2  -7.119127511978149E-1   6.715724468231201E-1  
 1.720000000000000E7     4.847612679004669E-1   8.485715389251709E-1   1.952992379665375E-1   2.601051144301891E-2   1.953727155923843E-1   2.634973078966141E-2  -6.973268985748291E-1   6.833908557891846E-1  
 1.750000000000000E7     5.171250104904175E-1   8.274827599525452E-1   2.057806253433228E-1   2.214721962809563E-2   2.058628499507904E-1   2.162093296647072E-2  -6.834324598312378E-1   6.978786587715149E-1  
 1.780000000000000E7     5.545466542243958E-1   7.981846332550049E-1   2.143032401800156E-1   1.525746099650860E-2   2.147601395845413E-1   1.551713235676289E-2  -6.669689416885376E-1   7.075847387313843E-1  
 1.810000000000000E7     5.877436995506287E-1   7.722077965736389E-1   2.260524332523346E-1   8.782384917140007E-3   2.245471775531769E-1   8.043099194765091E-3  -6.502410769462585E-1   7.230405211448669E-1  
 1.840000000000000E7     6.232359409332275E-1   7.415588498115540E-1   2.364825755357742E-1  -3.720279783010483E-4   2.355765104293823E-1   1.948960125446320E-4  -6.318049430847168E-1   7.344016432762146E-1  
 1.870000000000000E7     6.536672711372376E-1   7.106209397315979E-1   2.474694550037384E-1  -7.834607735276222E-3   2.463337332010269E-1  -8.363384753465653E-3  -6.126490831375122E-1   7.461422085762024E-1  
 1.900000000000000E7     6.851311922073364E-1   6.757198572158814E-1   2.585622966289520E-1  -1.701743155717850E-2   2.581152617931366E-1  -1.769114285707474E-2  -5.929666757583618E-1   7.570710778236389E-1  
 1.930000000000000E7     7.157124876976013E-1   6.384755969047546E-1   2.698915898799896E-1  -2.943432144820690E-2   2.704977989196777E-1  -2.855624072253704E-2  -5.719388127326965E-1   7.704494595527649E-1  
 1.960000000000000E7     7.443779706954956E-1   5.981672406196594E-1   2.819601595401764E-1  -4.148538410663605E-2   2.822847664356232E-1  -4.073406010866165E-2  -5.514478683471680E-1   7.807652950286865E-1  
 1.990000000000000E7     7.693588137626648E-1   5.562284588813782E-1   2.946496903896332E-1  -5.525157600641251E-2   2.948213815689087E-1  -5.531398206949234E-2  -5.248382091522217E-1   7.928408384323120E-1  
 2.020000000000000E7     7.938778996467590E-1   5.109865069389343E-1   3.081186413764954E-1  -7.054895162582398E-2   3.071240782737732E-1  -7.008777558803558E-2  -5.014148950576782E-1   8.009131550788879E-1  
 2.050000000000000E7     8.177788257598877E-1   4.625208377838135E-1   3.211552202701569E-1  -8.748333156108856E-2   3.189081549644470E-1  -8.772727847099304E-2  -4.742589890956879E-1   8.104718923568726E-1  
 2.080000000000000E7     8.361323475837708E-1   4.103446304798126E-1   3.344782888889313E-1  -1.077770516276360E-1   3.344676196575165E-1  -1.076634898781776E-1  -4.453789591789246E-1   8.206017017364502E-1  
 2.110000000000000E7     8.525367975234985E-1   3.569958209991455E-1   3.478389978408814E-1  -1.312453895807266E-1   3.476669788360596E-1  -1.310251653194428E-1  -4.140461087226868E-1   8.272567391395569E-1  
 2.140000000000000E7     8.646608591079712E-1   3.000249266624451E-1   3.608549237251282E-1  -1.571660786867142E-1   3.597671389579773E-1  -1.553430259227753E-1  -3.814597427845001E-1   8.329213857650757E-1  
 2.170000000000000E7     8.717352151870728E-1   2.412263602018356E-1   3.737327158451080E-1  -1.849469393491745E-1   3.735227584838867E-1  -1.838223189115524E-1  -3.462057709693909E-1   8.366407155990601E-1  
 2.200000000000000E7     8.748726248741150E-1   1.764008998870850E-1   3.844957649707794E-1  -2.175860553979874E-1   3.847568631172180E-1  -2.171056717634201E-1  -3.078004419803619E-1   8.376115560531616E-1  
 2.230000000000000E7     8.703075051307678E-1   1.109040901064873E-1   3.945924341678619E-1  -2.540259957313538E-1   3.945629000663757E-1  -2.533119022846222E-1  -2.678109407424927E-1   8.364002108573914E-1  
 2.260000000000000E7     8.605211377143860E-1   4.258077591657639E-2   4.024504423141480E-1  -2.952439188957214E-1   4.042119979858398E-1  -2.959007322788239E-1  -2.264370918273926E-1   8.308839201927185E-1  
 2.290000000000000E7     8.409380316734314E-1  -2.776287682354450E-2   4.073502421379089E-1  -3.413593769073486E-1   4.087346494197846E-1  -3.414077758789063E-1  -1.800962239503861E-1   8.205866813659668E-1  
 2.320000000000000E7     8.113381266593933E-1  -9.711840003728867E-2   4.077947437763214E-1  -3.944606781005859E-1   4.070177376270294E-1  -3.941972553730011E-1  -1.342743933200836E-1   8.079327344894409E-1  
 2.350000000000000E7     7.711084485054016E-1  -1.669914722442627E-1   4.015875458717346E-1  -4.529305398464203E-1   4.016440510749817E-1  -4.512718319892883E-1  -8.606133610010147E-2   7.864419817924500E-1  
 2.380000000000000E7     7.196010351181030E-1  -2.346533238887787E-1   3.890208005905151E-1  -5.144334435462952E-1   3.891846835613251E-1  -5.143410563468933E-1  -3.768313303589821E-2   7.571334242820740E-1  
 2.410000000000000E7     6.541470289230347E-1  -2.960360050201416E-1   3.646623194217682E-1  -5.819906592369080E-1   3.642891347408295E-1  -5.808383822441101E-1   9.129646234214306E-3   7.192915678024292E-1  
 2.440000000000000E7     5.752960443496704E-1  -3.465105891227722E-1   3.280608654022217E-1  -6.533662080764771E-1   3.278330266475678E-1  -6.534932255744934E-1   5.128303542733192E-2   6.721384525299072E-1  
 2.470000000000000E7     4.848503172397614E-1  -3.851296007633209E-1   2.767240703105927E-1  -7.249961495399475E-1   2.786119878292084E-1  -7.230648994445801E-1   9.119328111410141E-2   6.133950352668762E-1  
 2.500000000000000E7     3.822506964206696E-1  -4.085709154605866E-1   2.096784859895706E-1  -7.921254634857178E-1   2.086972743272781E-1  -7.926229834556580E-1   1.194264441728592E-1   5.487783551216126E-1  
 2.530000000000000E7     2.716847658157349E-1  -4.065009057521820E-1   1.252104490995407E-1  -8.543656468391419E-1   1.254619807004929E-1  -8.527765274047852E-1   1.354464888572693E-1   4.730394482612610E-1  
 2.560000000000000E7     1.632470339536667E-1  -3.816469311714172E-1   2.439932897686958E-2  -9.012515544891357E-1   2.372984401881695E-2  -9.009330272674561E-1   1.347702592611313E-1   3.937810957431793E-1  
 2.590000000000000E7     6.624802201986313E-2  -3.274159729480743E-1  -9.179212152957916E-2  -9.288403987884522E-1  -9.162379056215286E-2  -9.296096563339233E-1   1.205121949315071E-1   3.174722194671631E-1  
 2.620000000000000E7    -1.853170990943909E-2  -2.505529224872589E-1  -2.160015702247620E-1  -9.351683855056763E-1  -2.143399417400360E-1  -9.337184429168701E-1   8.692139387130737E-2   2.431631386280060E-1  
 2.650000000000000E7    -8.225285261869431E-2  -1.562543958425522E-1  -3.386141955852509E-1  -9.145597815513611E-1  -3.398932516574860E-1  -9.150123000144959E-1   3.460389748215675E-2   1.812939196825028E-1  
 2.680000000000000E7    -1.158760562539101E-1  -5.098285153508186E-2  -4.567604362964630E-1  -8.706290721893311E-1  -4.566041827201843E-1  -8.702582120895386E-1  -2.816490828990936E-2   1.363518834114075E-1  
 2.710000000000000E7    -1.223469898104668E-1   5.112035572528839E-2  -5.618025660514832E-1  -8.065223693847656E-1  -5.622487068176270E-1  -8.058260679244995E-1  -9.188363701105118E-2   1.073443368077278E-1  
 2.740000000000000E7    -1.035179868340492E-1   1.527545899152756E-1  -6.498317718505859E-1  -7.266283035278320E-1  -6.498706936836243E-1  -7.258003950119019E-1  -1.629694998264313E-1   9.908029437065125E-2  
 2.770000000000000E7    -6.417479366064072E-2   2.355273813009262E-1  -7.200354337692261E-1  -6.370078325271606E-1  -7.205039262771606E-1  -6.379575133323669E-1  -2.252963632345200E-1   1.050633341073990E-1  
 2.800000000000000E7    -1.122608780860901E-2   3.060179650783539E-1  -7.728739380836487E-1  -5.423797965049744E-1  -7.714269757270813E-1  -5.439391136169434E-1  -2.843522727489471E-1   1.236452534794807E-1  
 2.830000000000000E7     5.116442590951920E-2   3.573133051395416E-1  -8.088934421539307E-1  -4.494859874248505E-1  -8.090915083885193E-1  -4.496389031410217E-1  -3.267867863178253E-1   1.518910825252533E-1  
 2.860000000000000E7     1.190170496702194E-1   3.912828862667084E-1  -8.316657543182373E-1  -3.587902784347534E-1  -8.322982788085938E-1  -3.576247394084930E-1  -3.626667857170105E-1   1.888906061649323E-1  
 2.890000000000000E7     1.853190362453461E-1   4.083138406276703E-1  -8.447350859642029E-1  -2.718319892883301E-1  -8.432872891426086E-1  -2.710318565368652E-1  -3.863532543182373E-1   2.294382452964783E-1  
 2.920000000000000E7     2.521128356456757E-1   4.153777956962585E-1  -8.477458953857422E-1  -1.900905370712280E-1  -8.471118211746216E-1  -1.882991790771484E-1  -4.005257785320282E-1   2.716196179389954E-1  
 2.950000000000000E7     3.102870285511017E-1   4.067111015319824E-1  -8.459916114807129E-1  -1.125411838293076E-1  -8.448805809020996E-1  -1.120955124497414E-1  -4.032599627971649E-1   3.167560696601868E-1  
 2.980000000000000E7     3.645006418228149E-1   3.922960162162781E-1  -8.377120494842529E-1  -3.940434008836746E-2  -8.378083109855652E-1  -3.963352739810944E-2  -3.955872654914856E-1   3.594978153705597E-1  
 3.010000000000000E7     4.105980992317200E-1   3.684028983116150E-1  -8.279821872711182E-1   3.174542263150215E-2  -8.263595104217529E-1   3.018263727426529E-2  -3.801573812961578E-1   4.007528126239777E-1  
 3.040000000000000E7     4.512646496295929E-1   3.372370600700378E-1  -8.145126700401306E-1   9.751436859369278E-2  -8.148334622383118E-1   9.853353351354599E-2  -3.515560030937195E-1   4.379636049270630E-1  
 3.070000000000000E7     4.824265539646149E-1   3.032625615596771E-1  -7.988254427909851E-1   1.674765646457672E-1  -7.984009385108948E-1   1.660312116146088E-1  -3.185319304466248E-1   4.701685607433319E-1  
 3.100000000000000E7     5.043232440948486E-1   2.652071714401245E-1  -7.818521261215210E-1   2.349168062210083E-1  -7.805324196815491E-1   2.347139865159988E-1  -2.744270563125610E-1   4.985083937644959E-1  
 3.130000000000000E7     5.174404978752136E-1   2.276588380336762E-1  -7.596705555915833E-1   3.042268753051758E-1  -7.598534226417542E-1   3.025977611541748E-1  -2.179205119609833E-1   5.192576050758362E-1  
 3.160000000000000E7     5.211278796195984E-1   1.872562319040299E-1  -7.356227636337280E-1   3.770678341388702E-1  -7.360212802886963E-1   3.761669993400574E-1  -1.527161747217178E-1   5.299762487411499E-1  
 3.190000000000000E7     5.148653984069824E-1   1.519106179475784E-1  -7.033166885375977E-1   4.545176327228546E-1  -7.018641233444214E-1   4.536216855049133E-1  -7.587140053510666E-2   5.286008119583130E-1  
 3.220000000000000E7     4.997086524963379E-1   1.195603311061859E-1  -6.621181368827820E-1   5.366419553756714E-1  -6.609747409820557E-1   5.366393923759460E-1   1.122757978737354E-2   5.077481269836426E-1  
 3.250000000000000E7     4.709393084049225E-1   9.773853421211243E-2  -6.054851412773132E-1   6.261600255966187E-1  -6.049024462699890E-1   6.264911890029907E-1   1.088661178946495E-1   4.621469080448151E-1  
 3.280000000000000E7     4.319946765899658E-1   8.937682211399078E-2  -5.252314209938049E-1   7.185024023056030E-1  -5.239009857177734E-1   7.161316871643066E-1   2.091207802295685E-1   3.830718696117401E-1  
 3.310000000000000E7     3.940652608871460E-1   1.018175259232521E-1  -4.171610176563263E-1   8.047845363616943E-1  -4.158865511417389E-1   8.032882809638977E-1   3.008738160133362E-1   2.561116814613342E-1  
 3.340000000000000E7     3.578859269618988E-1   1.418974995613098E-1  -2.719050645828247E-1   8.740491867065430E-1  -2.728099524974823E-1   8.728066086769104E-1   3.603271842002869E-1   8.319676667451859E-2  
 3.370000000000000E7     3.406573534011841E-1   2.056132704019547E-1  -9.573201835155487E-2   9.027736783027649E-1  -9.606449306011200E-2   9.012629389762878E-1   3.603457808494568E-1  -1.316217929124832E-1  
 3.400000000000000E7     3.603335916996002E-1   2.862163186073303E-1   9.351059794425964E-2   8.721394538879395E-1   9.262306988239288E-2   8.720979094505310E-1   2.713176310062408E-1  -3.543057143688202E-1  
 3.430000000000000E7     4.235976636409760E-1   3.593022823333740E-1   2.621186077594757E-1   7.775065898895264E-1   2.632670104503632E-1   7.763450145721436E-1   9.814155846834183E-2  -5.352666378021240E-1  
 3.460000000000000E7     5.191035866737366E-1   4.035288095474243E-1   3.815008401870728E-1   6.365848183631897E-1   3.798635005950928E-1   6.356430649757385E-1  -1.303520053625107E-1  -6.351135969161987E-1  
 3.490000000000000E7     6.285337209701538E-1   4.061815142631531E-1   4.369159042835236E-1   4.825963973999023E-1   4.387535452842712E-1   4.798427820205689E-1  -3.618998527526856E-1  -6.468865275382996E-1  
 3.520000000000000E7     7.286066412925720E-1   3.761613070964813E-1   4.435515701770783E-1   3.417472839355469E-1   4.428868293762207E-1   3.411585986614227E-1  -5.609814524650574E-1  -5.907163619995117E-1  
 3.550000000000000E7     8.109700083732605E-1   3.195834457874298E-1   4.157383143901825E-1   2.289914935827255E-1   4.158500432968140E-1   2.292586863040924E-1  -7.127893567085266E-1  -4.946233928203583E-1  
 3.580000000000000E7     8.734708428382874E-1   2.523550689220429E-1   3.747176826000214E-1   1.456467658281326E-1   3.744869232177734E-1   1.456849426031113E-1  -8.197491765022278E-1  -3.854469060897827E-1  
 3.610000000000000E7     9.180321097373962E-1   1.794845610857010E-1   3.288702666759491E-1   8.720636367797852E-2   3.283894956111908E-1   8.622742444276810E-2  -8.916189074516296E-1  -2.761783897876740E-1  
 3.640000000000000E7     9.475755095481873E-1   1.067285612225533E-1   2.835868597030640E-1   4.531730338931084E-2   2.834218442440033E-1   4.559084400534630E-2  -9.347807168960571E-1  -1.737406849861145E-1  
 3.670000000000000E7     9.654706716537476E-1   3.761884942650795E-2   2.430643290281296E-1   1.756704226136208E-2   2.428029328584671E-1   1.718793995678425E-2  -9.602112770080566E-1  -8.165968954563141E-2  
 3.700000000000000E7     9.738195538520813E-1  -2.939520403742790E-2   2.072446644306183E-1  -1.280437223613262E-3   2.071811854839325E-1  -1.289723557420075E-3  -9.733474850654602E-1   1.233124174177647E-3  
 3.730000000000000E7     9.761893153190613E-1  -9.342686831951141E-2   1.760275810956955E-1  -1.409508287906647E-2   1.762264668941498E-1  -1.348260976374149E-2  -9.758148789405823E-1   7.469985634088516E-2  
 3.760000000000000E7     9.728312492370606E-1  -1.509799659252167E-1   1.500185281038284E-1  -2.111496590077877E-2   1.499696969985962E-1  -2.093038707971573E-2  -9.748512506484985E-1   1.396774798631668E-1  
 3.790000000000000E7     9.659870862960815E-1  -2.084131240844727E-1   1.271134763956070E-1  -2.543322555720806E-2   1.271768659353256E-1  -2.571967616677284E-2  -9.677101373672485E-1   1.968263387680054E-1  
 3.820000000000000E7     9.560149312019348E-1  -2.620390951633453E-1   1.082928553223610E-1  -2.766386419534683E-2   1.079636439681053E-1  -2.770780026912689E-2  -9.577276110649109E-1   2.479728162288666E-1  
 3.850000000000000E7     9.417843222618103E-1  -3.131889700889587E-1   9.154226630926132E-2  -2.836390584707260E-2   9.127230942249298E-2  -2.860945276916027E-2  -9.478880763053894E-1   2.941100895404816E-1  
 3.880000000000000E7     9.258762598037720E-1  -3.597741425037384E-1   7.760546356439591E-2  -2.840812318027020E-2   7.741429656744003E-2  -2.823578938841820E-2  -9.356075525283814E-1   3.357936739921570E-1  
 3.910000000000000E7     9.088253378868103E-1  -4.059643447399139E-1   6.544346362352371E-2  -2.741847746074200E-2   6.564310193061829E-2  -2.744335681200028E-2  -9.231119155883789E-1   3.745166957378388E-1  
 3.940000000000000E7     8.879021406173706E-1  -4.474314153194428E-1   5.544206500053406E-2  -2.566564083099365E-2   5.530677363276482E-2  -2.582207322120667E-2  -9.080352187156677E-1   4.082379043102264E-1  
 3.970000000000000E7     8.680658936500549E-1  -4.886457324028015E-1   4.664258658885956E-2  -2.392589859664440E-2   4.662885889410973E-2  -2.404971979558468E-2  -8.926655054092407E-1   4.399974942207336E-1  
 4.000000000000000E7     8.448826074600220E-1  -5.276352763175964E-1   3.924409300088882E-2  -2.215982973575592E-2   3.911499306559563E-2  -2.220014669001102E-2  -8.793832063674927E-1   4.691852033138275E-1  
 4.030000000000000E7     8.217862844467163E-1  -5.643000602722168E-1   3.294616565108299E-2  -2.029280550777912E-2   3.282190114259720E-2  -2.036116272211075E-2  -8.649801015853882E-1   4.959485828876495E-1  
 4.060000000000000E7     7.966440320014954E-1  -5.992481708526611E-1   2.748490124940872E-2  -1.825143955647945E-2   2.739138342440128E-2  -1.822453923523426E-2  -8.494811654090881E-1   5.208029150962830E-1  
 4.090000000000000E7     7.701377868652344E-1  -6.337695717811585E-1   2.276651933789253E-2  -1.635746657848358E-2   2.261267416179180E-2  -1.634852960705757E-2  -8.352201581001282E-1   5.438426733016968E-1  
 4.120000000000000E7     7.440348267555237E-1  -6.653190851211548E-1   1.882189512252808E-2  -1.431927829980850E-2   1.873990893363953E-2  -1.447743363678455E-2  -8.199492692947388E-1   5.663336515426636E-1  
 4.150000000000000E7     7.163731455802918E-1  -6.939478516578674E-1   1.541008893400431E-2  -1.268760580569506E-2   1.538807246834040E-2  -1.265603303909302E-2  -8.057629466056824E-1   5.871289372444153E-1  
 4.180000000000000E7     6.870988607406616E-1  -7.235211133956909E-1   1.242835167795420E-2  -1.097913272678852E-2   1.251047663390636E-2  -1.104941405355930E-2  -7.921096086502075E-1   6.050065159797669E-1  
 4.210000000000000E7     6.578388214111328E-1  -7.502171397209168E-1   1.005904655903578E-2  -9.398302994668484E-3   1.009509526193142E-2  -9.459478780627251E-3  -7.781531810760498E-1   6.239390969276428E-1  
 4.240000000000000E7     6.278152465820313E-1  -7.746607661247253E-1   7.981052622199059E-3  -7.986689917743206E-3   8.057866245508194E-3  -7.904128171503544E-3  -7.651258707046509E-1   6.411144733428955E-1  
 4.270000000000000E7     5.963529944419861E-1  -7.989931702613831E-1   6.288581527769566E-3  -6.535004824399948E-3   6.232463754713535E-3  -6.592483259737492E-3  -7.505971789360046E-1   6.584828495979309E-1  
 4.300000000000000E7     5.642138719558716E-1  -8.224155902862549E-1   4.764028824865818E-3  -5.398460663855076E-3   4.882609006017447E-3  -5.481204017996788E-3  -7.367070317268372E-1   6.744589805603027E-1  
 4.330000000000000E7     5.347918868064880E-1  -8.435608744621277E-1   3.601868171244860E-3  -4.249153658747673E-3   3.607330378144980E-3  -4.341930616647005E-3  -7.223882675170898E-1   6.880462169647217E-1  
 4.360000000000000E7     5.005052685737610E-1  -8.629003763198853E-1   2.647117013111711E-3  -3.210660768672824E-3   2.728509483858943E-3  -3.341439412906766E-3  -7.094891071319580E-1   7.026675343513489E-1  
 4.390000000000000E7     4.672472476959229E-1  -8.825693130493164E-1   1.833079266361892E-3  -2.387256361544132E-3   1.837108749896288E-3  -2.382952254265547E-3  -6.953205466270447E-1   7.150882482528687E-1  
 4.420000000000000E7     4.337697923183441E-1  -8.982956409454346E-1   1.191721297800541E-3  -1.602123025804758E-3   1.309880404733121E-3  -1.633392530493438E-3  -6.807702183723450E-1   7.277132272720337E-1  
 4.450000000000000E7     3.996860682964325E-1  -9.138476252555847E-1   7.982239476405084E-4  -1.040389994159341E-3   6.423774757422507E-4  -1.071652397513390E-3  -6.689494848251343E-1   7.399659156799316E-1  
 4.480000000000000E7     3.656272292137146E-1  -9.282701015472412E-1   2.900802646763623E-4  -4.315015685278922E-4   3.554626891855151E-4  -4.545961273834109E-4  -6.555771231651306E-1   7.514949440956116E-1  
 4.510000000000000E7     3.321643173694611E-1  -9.415243864059448E-1   2.832005520758685E-5  -7.484008528990671E-5  -1.149492527474649E-5   1.175549987237901E-4  -6.428255438804627E-1   7.634720802307129E-1  
 4.540000000000000E7     2.970930337905884E-1  -9.523447155952454E-1  -2.261982735944912E-4   4.519168578553945E-4  -2.760578063316643E-4   4.657939425669611E-4  -6.292610168457031E-1   7.743065357208252E-1  
 4.570000000000000E7     2.616827785968781E-1  -9.629404544830322E-1  -4.099173238500953E-4   7.094545871950686E-4  -3.899820439983159E-4   6.382603314705193E-4  -6.160597205162048E-1   7.845509052276611E-1  
 4.600000000000000E7     2.289984375238419E-1  -9.712481498718262E-1  -4.822899354621768E-4   9.306122665293515E-4  -4.443524521775544E-4   9.017140255309641E-4  -6.038020849227905E-1   7.940963506698608E-1  
 4.630000000000000E7     1.912779957056046E-1  -9.797684550285339E-1  -4.723419551737607E-4   9.595231967978180E-4  -4.609920724760741E-4   9.505804046057165E-4  -5.914540290832520E-1   8.036184310913086E-1  
 4.660000000000000E7     1.556661874055862E-1  -9.867447614669800E-1  -3.784531436394900E-4   1.049272832460702E-3  -3.788862959481776E-4   9.916328126564622E-4  -5.771535634994507E-1   8.137829899787903E-1  
 4.690000000000000E7     1.209633946418762E-1  -9.907109141349793E-1  -4.449192492756993E-4   1.006899983622134E-3  -3.823855076916516E-4   9.089748491533101E-4  -5.653126239776611E-1   8.226065039634705E-1  
 4.720000000000000E7     8.499082922935486E-2  -9.938321709632874E-1  -2.715346927288920E-4   9.735286585055292E-4  -3.203735977876931E-4   8.257158333435655E-4  -5.518493652343750E-1   8.305689096450806E-1  
 4.750000000000000E7     5.030968785285950E-2  -9.970340132713318E-1  -2.535245439503342E-4   7.694187806919217E-4  -2.829498553182930E-4   8.078636019490659E-4  -5.394945740699768E-1   8.391460776329041E-1  
 4.780000000000000E7     1.565591059625149E-2  -9.980639815330505E-1  -1.871355052571744E-4   5.424119881354272E-4  -1.344180200248957E-4   5.011487519368529E-4  -5.259487628936768E-1   8.463848829269409E-1  
 4.810000000000000E7    -2.046676725149155E-2  -9.977677464485169E-1  -1.029608756653033E-5   2.068936155410484E-4  -2.676641815924086E-5   2.905112341977656E-4  -5.146048069000244E-1   8.540498614311218E-1  
 4.840000000000000E7    -5.525186285376549E-2  -9.971451163291931E-1  -3.075379572692327E-5  -1.339466871286277E-5   3.038207614736166E-5  -1.992423785850406E-4  -5.021361112594605E-1   8.616938591003418E-1  
 4.870000000000000E7    -9.074229001998901E-2  -9.941576719284058E-1   2.657550794538111E-5  -4.785085911862552E-4   9.372668864671141E-5  -5.628283252008259E-4  -4.897293448448181E-1   8.686986565589905E-1  
 4.900000000000000E7    -1.258454471826553E-1  -9.910863041877747E-1   1.224682200700045E-4  -9.710122249089181E-4   1.003885990940034E-4  -9.863233426585794E-4  -4.773336350917816E-1   8.750236630439758E-1  
 4.930000000000000E7    -1.606978476047516E-1  -9.858936071395874E-1   2.110471978085116E-4  -1.458106096833944E-3   2.044067805400118E-4  -1.389976125210524E-3  -4.642960131168366E-1   8.823239207267761E-1  
 4.960000000000000E7    -1.942476630210877E-1  -9.776037931442261E-1   2.210854436270893E-4  -1.954309176653624E-3   2.413109468761832E-4  -2.002179156988859E-3  -4.523992836475372E-1   8.883135318756104E-1  
 4.990000000000000E7    -2.276472896337509E-1  -9.710100293159485E-1   2.369192079640925E-4  -2.599854022264481E-3   2.086434251395986E-4  -2.580361207947135E-3  -4.401976466178894E-1   8.943480253219605E-1  
 5.020000000000000E7    -2.610534429550171E-1  -9.637338519096375E-1   2.337036421522498E-4  -3.172268159687519E-3   2.564776805229485E-4  -3.173660254105926E-3  -4.280457496643066E-1   9.004923701286316E-1  
 5.050000000000000E7    -2.948015332221985E-1  -9.539293050765991E-1   2.059896505670622E-4  -3.801094600930810E-3   1.852015266194940E-4  -3.795806784182787E-3  -4.161216616630554E-1   9.073837995529175E-1  
 5.080000000000000E7    -3.270454406738281E-1  -9.434905648231506E-1   1.392706180922687E-4  -4.463773686438799E-3   1.228400506079197E-4  -4.491291940212250E-3  -4.030606746673584E-1   9.112837314605713E-1  
 5.110000000000000E7    -3.597452640533447E-1  -9.309673905372620E-1   3.526033833622932E-5  -5.188465584069490E-3   7.326350896619260E-5  -5.174678284674883E-3  -3.917315006256104E-1   9.173827171325684E-1  
 5.140000000000000E7    -3.916858136653900E-1  -9.175424575805664E-1  -9.985471842810512E-5  -5.869167856872082E-3  -1.178706297650933E-4  -5.918454378843308E-3  -3.786760568618774E-1   9.241988062858582E-1  
 5.170000000000000E7    -4.223026633262634E-1  -9.034999012947083E-1  -2.764320815913379E-4  -6.649371236562729E-3  -2.328156260773540E-4  -6.665026769042015E-3  -3.661588430404663E-1   9.270821809768677E-1  
 5.200000000000000E7    -4.538416564464569E-1  -8.903560042381287E-1  -4.630955518223345E-4  -7.436022628098726E-3  -4.336901474744082E-4  -7.424636278301477E-3  -3.538188934326172E-1   9.308356642723084E-1  
 5.230000000000000E7    -4.839357733726502E-1  -8.726562261581421E-1  -6.709676235914230E-4  -8.170615881681442E-3  -6.954204873181880E-4  -8.200810290873051E-3  -3.422723114490509E-1   9.363557696342468E-1  
 5.260000000000000E7    -5.128919482231140E-1  -8.547399044036865E-1  -9.648835402913392E-4  -9.009047411382198E-3  -9.680882794782519E-4  -8.959610015153885E-3  -3.300053775310516E-1   9.411481618881226E-1  
 5.290000000000000E7    -5.427197813987732E-1  -8.371661901473999E-1  -1.280143158510327E-3  -9.821840561926365E-3  -1.280999276787043E-3  -9.816380217671394E-3  -3.180937170982361E-1   9.445500969886780E-1  
 5.320000000000000E7    -5.703887939453125E-1  -8.195737600326538E-1  -1.627574907615781E-3  -1.064204331487417E-2  -1.657574437558651E-3  -1.069742813706398E-2  -3.059194684028626E-1   9.490852355957031E-1  
 5.350000000000000E7    -5.969989895820618E-1  -7.987446188926697E-1  -2.012840006500483E-3  -1.151106692850590E-2  -2.050583250820637E-3  -1.154248509556055E-2  -2.949749827384949E-1   9.530279040336609E-1  
 5.380000000000000E7    -6.229016184806824E-1  -7.781787514686585E-1  -2.460352145135403E-3  -1.234437152743340E-2  -2.512617502361536E-3  -1.230403967201710E-2  -2.808088660240173E-1   9.558327198028565E-1  
 5.410000000000000E7    -6.514244675636292E-1  -7.570524215698242E-1  -3.009644336998463E-3  -1.321019046008587E-2  -3.030622377991676E-3  -1.319603435695171E-2  -2.694543004035950E-1   9.599924683570862E-1  
 5.440000000000000E7    -6.758833527565002E-1  -7.331097126007080E-1  -3.535475581884384E-3  -1.404473371803761E-2  -3.519476391375065E-3  -1.407696492969990E-2  -2.576409280300140E-1   9.629828929901123E-1  
 5.470000000000000E7    -6.995191574096680E-1  -7.110902070999146E-1  -4.118116572499275E-3  -1.488466374576092E-2  -4.137603566050530E-3  -1.490227878093720E-2  -2.447711229324341E-1   9.657323956489563E-1  
 5.500000000000000E7    -7.240453362464905E-1  -6.864576935768127E-1  -4.775833804160357E-3  -1.577819325029850E-2  -4.758447874337435E-3  -1.572478003799915E-2  -2.317944765090942E-1   9.700251221656799E-1  
 5.530000000000000E7    -7.468287944793701E-1  -6.617431044578552E-1  -5.359888076782227E-3  -1.664363034069538E-2  -5.456042010337114E-3  -1.663793437182903E-2  -2.203134596347809E-1   9.717669486999512E-1  
 5.560000000000000E7    -7.692139148712158E-1  -6.352766156196594E-1  -6.181746255606413E-3  -1.746846176683903E-2  -6.133233197033405E-3  -1.744070090353489E-2  -2.090781331062317E-1   9.749419093132019E-1  
 5.590000000000000E7    -7.901467084884644E-1  -6.102920174598694E-1  -6.905400194227696E-3  -1.826371625065804E-2  -6.965086795389652E-3  -1.827871054410934E-2  -1.955741345882416E-1   9.773741364479065E-1  
 5.620000000000000E7    -8.103290796279907E-1  -5.810632109642029E-1  -7.750568911433220E-3  -1.916426606476307E-2  -7.675203960388899E-3  -1.907388679683209E-2  -1.843658685684204E-1   9.800036549568176E-1  
 5.650000000000000E7    -8.285943865776062E-1  -5.549440383911133E-1  -8.580026216804981E-3  -1.987306587398052E-2  -8.574035018682480E-3  -1.990017667412758E-2  -1.722453534603119E-1   9.820676445960999E-1  
 5.680000000000000E7    -8.470702767372131E-1  -5.265507102012634E-1  -9.514803998172283E-3  -2.074116654694080E-2  -9.534942917525768E-3  -2.067949622869492E-2  -1.595833003520966E-1   9.831263422966003E-1  
 5.710000000000000E7    -8.647712469100952E-1  -4.963397979736328E-1  -1.051483396440744E-2  -2.148335054516792E-2  -1.055605523288250E-2  -2.147464826703072E-2  -1.481446474790573E-1   9.856511950492859E-1  
 5.740000000000000E7    -8.815965652465820E-1  -4.671688079833984E-1  -1.153346337378025E-2  -2.226076088845730E-2  -1.151285879313946E-2  -2.228305861353874E-2  -1.348908245563507E-1   9.873068928718567E-1  
 5.770000000000000E7    -8.957763910293579E-1  -4.384021162986755E-1  -1.253674365580082E-2  -2.307374589145184E-2  -1.245307736098766E-2  -2.301389537751675E-2  -1.241948604583740E-1   9.878315329551697E-1  
 5.800000000000000E7    -9.099755287170410E-1  -4.072270691394806E-1  -1.368459779769182E-2  -2.380798757076263E-2  -1.367909274995327E-2  -2.362192794680595E-2  -1.106764152646065E-1   9.911663532257080E-1  
 5.830000000000000E7    -9.230667948722839E-1  -3.755669891834259E-1  -1.482284907251597E-2  -2.442823722958565E-2  -1.481498591601849E-2  -2.440478280186653E-2  -9.982169419527054E-2   9.920865893363953E-1  
 5.860000000000000E7    -9.364338517189026E-1  -3.449519574642181E-1  -1.604721136391163E-2  -2.510306239128113E-2  -1.602074876427651E-2  -2.513168379664421E-2  -8.681240677833557E-2   9.925523996353149E-1  
 5.890000000000000E7    -9.465224146842957E-1  -3.128670156002045E-1  -1.725775748491287E-2  -2.576561458408833E-2  -1.723083294928074E-2  -2.577795274555683E-2  -7.543348520994186E-2   9.932374954223633E-1  
 5.920000000000000E7    -9.563493728637695E-1  -2.799138426780701E-1  -1.861255429685116E-2  -2.632228471338749E-2  -1.864533312618733E-2  -2.624747902154923E-2  -6.285737454891205E-2   9.951372146606445E-1  
 5.950000000000000E7    -9.652018547058106E-1  -2.477656006813049E-1  -1.993781141936779E-2  -2.688921801745892E-2  -1.991577818989754E-2  -2.689271420240402E-2  -5.067320913076401E-2   9.942082762718201E-1  
 5.980000000000000E7    -9.730642437934876E-1  -2.146101742982864E-1  -2.141748555004597E-2  -2.735761925578117E-2  -2.129935473203659E-2  -2.740613743662834E-2  -3.778605163097382E-2   9.948912858963013E-1  
 6.010000000000000E7    -9.784741401672363E-1  -1.828801333904266E-1  -2.271180599927902E-2  -2.805871516466141E-2  -2.269521728157997E-2  -2.798564545810223E-2  -2.672202885150909E-2   9.961144328117371E-1  
 6.040000000000000E7    -9.847273826599121E-1  -1.481761783361435E-1  -2.426401525735855E-2  -2.844301611185074E-2  -2.427245117723942E-2  -2.842293679714203E-2  -1.421186327934265E-2   9.965285658836365E-1  
 6.070000000000000E7    -9.901040196418762E-1  -1.165616512298584E-1  -2.577921748161316E-2  -2.896185591816902E-2  -2.572370879352093E-2  -2.892662957310677E-2  -2.666890621185303E-3   9.959669113159180E-1  
 6.100000000000000E7    -9.927954077720642E-1  -8.281458914279938E-2  -2.744293399155140E-2  -2.920664101839066E-2  -2.738062292337418E-2  -2.924679964780808E-2   1.074668765068054E-2   9.962655305862427E-1  
 6.130000000000000E7    -9.955134987831116E-1  -4.843065142631531E-2  -2.908454090356827E-2  -2.963974140584469E-2  -2.904252335429192E-2  -2.959655225276947E-2   2.340497076511383E-2   9.963880181312561E-1  
 6.160000000000000E7    -9.958881139755249E-1  -1.547466218471527E-2  -3.058978542685509E-2  -2.994335815310478E-2  -3.065840527415276E-2  -2.987965196371079E-2   3.433142602443695E-2   9.948621988296509E-1  
 6.190000000000000E7    -9.955682754516602E-1   1.806789636611939E-2  -3.238114714622498E-2  -3.015587851405144E-2  -3.224280476570129E-2  -3.002963401377201E-2   4.578459262847900E-2   9.935935735702515E-1  
 6.220000000000000E7    -9.948678016662598E-1   5.156354606151581E-2  -3.396742045879364E-2  -3.029892966151238E-2  -3.409451991319656E-2  -3.040076233446598E-2   5.734454095363617E-2   9.945439696311951E-1  
 6.250000000000000E7    -9.924260377883911E-1   8.507511019706726E-2  -3.580570220947266E-2  -3.060922026634216E-2  -3.586432710289955E-2  -3.055381402373314E-2   6.941299140453339E-2   9.937849640846252E-1  
 6.280000000000000E7    -9.882257580757141E-1   1.185096502304077E-1  -3.779827058315277E-2  -3.065223991870880E-2  -3.761700168251991E-2  -3.070869855582714E-2   8.196178823709488E-2   9.929046630859375E-1  
 6.310000000000000E7    -9.833098649978638E-1   1.529780030250549E-1  -3.962023928761482E-2  -3.066367469727993E-2  -3.950643166899681E-2  -3.071586228907108E-2   9.405037015676498E-2   9.916258454322815E-1  
 6.340000000000000E7    -9.774919748306274E-1   1.857317239046097E-1  -4.163867235183716E-2  -3.066590800881386E-2  -4.149638116359711E-2  -3.059831634163857E-2   1.066484451293945E-1   9.905348420143127E-1  
 6.370000000000000E7    -9.709349274635315E-1   2.186868190765381E-1  -4.349257797002792E-2  -3.052074834704399E-2  -4.339318722486496E-2  -3.045450523495674E-2   1.180968359112740E-1   9.883114099502564E-1  
 6.400000000000000E7    -9.620305895805359E-1   2.510213255882263E-1  -4.553858190774918E-2  -3.035806678235531E-2  -4.540955275297165E-2  -3.021871857345104E-2   1.304493695497513E-1   9.877399802207947E-1  
 6.430000000000000E7    -9.528170228004456E-1   2.845050096511841E-1  -4.749418795108795E-2  -3.029204905033112E-2  -4.748616740107536E-2  -3.002435341477394E-2   1.426863670349121E-1   9.853550195693970E-1  
 6.460000000000000E7    -9.430264830589294E-1   3.168913424015045E-1  -4.951676726341248E-2  -2.990800142288208E-2  -4.946440830826759E-2  -2.984414622187614E-2   1.535072773694992E-1   9.829888343811035E-1  
 6.490000000000000E7    -9.327940940856934E-1   3.479689955711365E-1  -5.152131244540215E-2  -2.966053783893585E-2  -5.166250467300415E-2  -2.967089414596558E-2   1.654919534921646E-1   9.815971255302429E-1  
 6.520000000000000E7    -9.191518425941467E-1   3.789646029472351E-1  -5.373808741569519E-2  -2.929204702377319E-2  -5.355361849069595E-2  -2.918967977166176E-2   1.777473241090775E-1   9.801291227340698E-1  
 6.550000000000000E7    -9.064058661460877E-1   4.096647500991821E-1  -5.596826598048210E-2  -2.870705723762512E-2  -5.575500801205635E-2  -2.873412705957890E-2   1.893488019704819E-1   9.761213660240173E-1  
 6.580000000000000E7    -8.910639286041260E-1   4.407251477241516E-1  -5.816517770290375E-2  -2.811239659786224E-2  -5.801310762763023E-2  -2.819855883717537E-2   2.017565369606018E-1   9.748381972312927E-1  
 6.610000000000000E7    -8.746547102928162E-1   4.702380895614624E-1  -6.028192490339279E-2  -2.744633704423904E-2  -5.998937413096428E-2  -2.724276110529900E-2   2.145893126726151E-1   9.708130359649658E-1  
 6.640000000000000E7    -8.598569631576538E-1   5.002387762069702E-1  -6.253705918788910E-2  -2.683482132852078E-2  -6.248385086655617E-2  -2.692708745598793E-2   2.262902855873108E-1   9.682894349098206E-1  
 6.670000000000000E7    -8.412761092185974E-1   5.288262963294983E-1  -6.471668928861618E-2  -2.592965215444565E-2  -6.463772058486939E-2  -2.606379427015781E-2   2.371956855058670E-1   9.661391377449036E-1  
 6.700000000000000E7    -8.225005865097046E-1   5.573896765708923E-1  -6.701844930648804E-2  -2.511310391128063E-2  -6.675003468990326E-2  -2.511703409254551E-2   2.489816397428513E-1   9.619874358177185E-1  
 6.730000000000000E7    -8.027691245079041E-1   5.849877595901489E-1  -6.915383785963059E-2  -2.427483350038528E-2  -6.915129721164703E-2  -2.402979508042336E-2   2.614520490169525E-1   9.598556756973267E-1  
 6.760000000000000E7    -7.827076911926270E-1   6.121006608009338E-1  -7.172663509845734E-2  -2.297102287411690E-2  -7.144036144018173E-2  -2.304333448410034E-2   2.735750973224640E-1   9.559506773948669E-1  
 6.790000000000000E7    -7.605088949203491E-1   6.387290954589844E-1  -7.377659529447556E-2  -2.199069969356060E-2  -7.381343841552734E-2  -2.189165353775024E-2   2.844408750534058E-1   9.519662261009216E-1  
 6.820000000000000E7    -7.382752299308777E-1   6.632032394409180E-1  -7.612100988626480E-2  -2.068758383393288E-2  -7.605321705341339E-2  -2.078067511320114E-2   2.962752282619476E-1   9.488778114318848E-1  
 6.850000000000000E7    -7.153485417366028E-1   6.894961595535278E-1  -7.855189591646195E-2  -1.958695985376835E-2  -7.851424813270569E-2  -1.945375464856625E-2   3.074324131011963E-1   9.453722238540649E-1  
 6.880000000000000E7    -6.909568905830383E-1   7.127580642700195E-1  -8.092537522315979E-2  -1.796471513807774E-2  -8.056945353746414E-2  -1.796265318989754E-2   3.197528719902039E-1   9.403524398803711E-1  
 6.910000000000000E7    -6.658534407615662E-1   7.360454797744751E-1  -8.337146043777466E-2  -1.631596870720387E-2  -8.313269168138504E-2  -1.649192720651627E-2   3.318062126636505E-1   9.360681176185608E-1  
 6.940000000000000E7    -6.405134201049805E-1   7.586143016815186E-1  -8.565444499254227E-2  -1.495859865099192E-2  -8.557655662298203E-2  -1.486066635698080E-2   3.426215946674347E-1   9.322090148925781E-1  
 6.970000000000000E7    -6.126356720924377E-1   7.798291444778442E-1  -8.793289959430695E-2  -1.323764398694038E-2  -8.793284744024277E-2  -1.292808912694454E-2   3.547736108303070E-1   9.271486997604370E-1  
 7.000000000000000E7    -5.852610468864441E-1   8.013209104537964E-1  -9.043424576520920E-2  -1.136221550405026E-2  -9.023102372884750E-2  -1.127950847148895E-2   3.660043478012085E-1   9.233943819999695E-1  
