#  HZ   S   RI   R     50.00 
! Rohde & Schwarz ZVT8 8Ports - Version 4.11 - 1300.0000k08 SN: 100242
! Date: 2026-07-31 14:24:31
! Measurements: S11 S21 S12 S22 
! 
 1.000000000000000E7    -3.978756964206696E-1   9.132437705993652E-1   5.577613785862923E-2   5.552628636360169E-2   5.556858330965042E-2   5.556821823120117E-2  -9.156506657600403E-1   3.925409317016602E-1  
 1.030000000000000E7    -3.644919395446777E-1   9.260389804840088E-1   5.948629230260849E-2   5.629585683345795E-2   5.936194211244583E-2   5.603140220046043E-2  -9.091612100601196E-1   4.053508639335632E-1  
 1.060000000000000E7    -3.275610506534576E-1   9.389659762382507E-1   6.346728652715683E-2   5.741283297538757E-2   6.358446925878525E-2   5.708298832178116E-2  -9.053336381912231E-1   4.181570708751679E-1  
 1.090000000000000E7    -2.946013808250427E-1   9.491472244262695E-1   6.751281768083572E-2   5.779957026243210E-2   6.756931543350220E-2   5.790597572922707E-2  -8.989340066909790E-1   4.304132759571075E-1  
 1.120000000000000E7    -2.582113146781921E-1   9.582347273826599E-1   7.209439575672150E-2   5.891757830977440E-2   7.171810418367386E-2   5.858778953552246E-2  -8.921315670013428E-1   4.429731369018555E-1  
 1.150000000000000E7    -2.219603657722473E-1   9.685637354850769E-1   7.629422843456268E-2   5.897198244929314E-2   7.612404972314835E-2   5.892780050635338E-2  -8.845211267471314E-1   4.531264007091522E-1  
 1.180000000000000E7    -1.858868598937988E-1   9.736364483833313E-1   8.073641359806061E-2   5.946502089500427E-2   8.084308356046677E-2   5.924893170595169E-2  -8.789862990379334E-1   4.652419686317444E-1  
 1.210000000000000E7    -1.496564596891403E-1   9.801530241966248E-1   8.583645522594452E-2   5.989871919155121E-2   8.567521721124649E-2   5.958928167819977E-2  -8.703578710556030E-1   4.785617291927338E-1  
 1.240000000000000E7    -1.125528961420059E-1   9.839265346527100E-1   9.089388698339462E-2   6.016296148300171E-2   9.089221805334091E-2   5.971587821841240E-2  -8.631666302680969E-1   4.892726540565491E-1  
 1.270000000000000E7    -7.531290501356125E-2   9.872390627861023E-1   9.677918255329132E-2   5.959646776318550E-2   9.639124572277069E-2   5.945031344890595E-2  -8.549255728721619E-1   5.051217675209045E-1  
 1.300000000000000E7    -3.783380240201950E-2   9.893807768821716E-1   1.021492481231690E-1   5.945973470807076E-2   1.019457802176476E-1   5.929293483495712E-2  -8.458380699157715E-1   5.168856978416443E-1  
 1.330000000000000E7     5.805790424346924E-4   9.902037978172302E-1   1.083521246910095E-1   5.911218747496605E-2   1.079782396554947E-1   5.865059792995453E-2  -8.371217250823975E-1   5.298836231231690E-1  
 1.360000000000000E7     3.995416685938835E-2   9.884759783744812E-1   1.141609549522400E-1   5.871940776705742E-2   1.144108623266220E-1   5.794317275285721E-2  -8.282887935638428E-1   5.412119030952454E-1  
 1.390000000000000E7     7.752966880798340E-2   9.852039813995361E-1   1.208308115601540E-1   5.730789527297020E-2   1.204031333327293E-1   5.776161327958107E-2  -8.190324902534485E-1   5.542597174644470E-1  
 1.420000000000000E7     1.169269680976868E-1   9.806339144706726E-1   1.272688657045364E-1   5.653296411037445E-2   1.272872686386108E-1   5.649892240762711E-2  -8.108157515525818E-1   5.665944218635559E-1  
 1.450000000000000E7     1.552138924598694E-1   9.733340144157410E-1   1.346119195222855E-1   5.501960590481758E-2   1.343901455402374E-1   5.496844276785851E-2  -7.978148460388184E-1   5.808992385864258E-1  
 1.480000000000000E7     1.958282142877579E-1   9.656576514244080E-1   1.420222818851471E-1   5.307835340499878E-2   1.419171541929245E-1   5.376987159252167E-2  -7.887366414070129E-1   5.928825139999390E-1  
 1.510000000000000E7     2.340439409017563E-1   9.555640816688538E-1   1.497317701578140E-1   5.121932923793793E-2   1.493924856185913E-1   5.107891932129860E-2  -7.738890051841736E-1   6.066244840621948E-1  
 1.540000000000000E7     2.725971639156342E-1   9.441962242126465E-1   1.578507721424103E-1   4.969399049878120E-2   1.574998646974564E-1   4.899113625288010E-2  -7.652953267097473E-1   6.184406280517578E-1  
 1.570000000000000E7     3.122688829898834E-1   9.317798614501953E-1   1.662488281726837E-1   4.636655375361443E-2   1.664792448282242E-1   4.617570340633392E-2  -7.514577507972717E-1   6.329196095466614E-1  
 1.600000000000000E7     3.517041802406311E-1   9.150201678276062E-1   1.749922335147858E-1   4.281355813145638E-2   1.755639761686325E-1   4.265360906720161E-2  -7.393710017204285E-1   6.441456079483032E-1  
 1.630000000000000E7     3.900308609008789E-1   8.974985480308533E-1   1.853671669960022E-1   3.872245177626610E-2   1.847153455018997E-1   3.911611437797546E-2  -7.249977588653565E-1   6.596008539199829E-1  
 1.660000000000000E7     4.281082153320313E-1   8.765472173690796E-1   1.949947327375412E-1   3.417892754077911E-2   1.946836113929749E-1   3.370597586035729E-2  -7.087531685829163E-1   6.727850437164307E-1  
 1.690000000000000E7     4.661628007888794E-1   8.550992012023926E-1   2.057837694883347E-1   2.954401262104511E-2   2.054865807294846E-1   2.930788695812225E-2  -6.939110159873962E-1   6.853057146072388E-1  
 1.720000000000000E7     5.059881806373596E-1   8.309417963027954E-1   2.158205658197403E-1   2.282268181443214E-2   2.163280695676804E-1   2.342941612005234E-2  -6.771482229232788E-1   6.982704997062683E-1  
 1.750000000000000E7     5.390403866767883E-1   8.073052167892456E-1   2.288082093000412E-1   1.789280027151108E-2   2.289844155311585E-1   1.714350655674934E-2  -6.601415276527405E-1   7.128394842147827E-1  
 1.780000000000000E7     5.777212977409363E-1   7.741844058036804E-1   2.395447641611099E-1   9.073430672287941E-3   2.402363568544388E-1   9.567091241478920E-3  -6.410441398620606E-1   7.238682508468628E-1  
 1.810000000000000E7     6.119659543037415E-1   7.442446947097778E-1   2.540305852890015E-1   7.232371717691422E-4   2.525839805603027E-1  -1.310985535383225E-4  -6.202512979507446E-1   7.394751310348511E-1  
 1.840000000000000E7     6.484487652778626E-1   7.085475921630859E-1   2.674144208431244E-1  -1.124787516891956E-2   2.664591968059540E-1  -1.063193008303642E-2  -5.978708267211914E-1   7.517614960670471E-1  
 1.870000000000000E7     6.797683238983154E-1   6.721921563148499E-1   2.815485596656799E-1  -2.178580500185490E-2   2.805421650409699E-1  -2.224316261708736E-2  -5.749882459640503E-1   7.635328173637390E-1  
 1.900000000000000E7     7.118147015571594E-1   6.313125491142273E-1   2.964341044425964E-1  -3.484686091542244E-2   2.957081794738770E-1  -3.553883358836174E-2  -5.500029325485230E-1   7.753666639328003E-1  
 1.930000000000000E7     7.413004040718079E-1   5.858284831047058E-1   3.107587099075317E-1  -5.187806114554405E-2   3.115370273590088E-1  -5.079448223114014E-2  -5.229372978210449E-1   7.881131172180176E-1  
 1.960000000000000E7     7.690594196319580E-1   5.374224781990051E-1   3.266165256500244E-1  -6.936553120613098E-2   3.270512521266937E-1  -6.858026236295700E-2  -4.960406422615051E-1   7.978858947753906E-1  
 1.990000000000000E7     7.923993468284607E-1   4.868856668472290E-1   3.432513773441315E-1  -9.000453352928162E-2   3.438802361488342E-1  -9.021438658237457E-2  -4.621762335300446E-1   8.091359138488770E-1  
 2.020000000000000E7     8.132557272911072E-1   4.305821955204010E-1   3.605434298515320E-1  -1.137101501226425E-1   3.598808050155640E-1  -1.130721941590309E-1  -4.304698109626770E-1   8.150931000709534E-1  
 2.050000000000000E7     8.324731588363648E-1   3.697631955146790E-1   3.773065507411957E-1  -1.405957639217377E-1   3.751229047775269E-1  -1.401317715644836E-1  -3.941701948642731E-1   8.219994306564331E-1  
 2.080000000000000E7     8.431933522224426E-1   3.049858212471008E-1   3.939583003520966E-1  -1.729858368635178E-1   3.941873908042908E-1  -1.729591190814972E-1  -3.537106215953827E-1   8.272094726562500E-1  
 2.110000000000000E7     8.498373627662659E-1   2.368415296077728E-1   4.094302058219910E-1  -2.115376144647598E-1   4.093886315822601E-1  -2.111788094043732E-1  -3.107003271579742E-1   8.274213075637817E-1  
 2.140000000000000E7     8.485519289970398E-1   1.650730073451996E-1   4.229968488216400E-1  -2.550161480903626E-1   4.223347306251526E-1  -2.524421215057373E-1  -2.649511694908142E-1   8.243019580841065E-1  
 2.170000000000000E7     8.375259637832642E-1   8.950033038854599E-2   4.343900382518768E-1  -3.034519851207733E-1   4.349811077117920E-1  -3.023371696472168E-1  -2.153057456016541E-1   8.159608244895935E-1  
 2.200000000000000E7     8.158853650093079E-1   9.240344166755676E-3   4.400840103626251E-1  -3.602913618087769E-1   4.404624104499817E-1  -3.600513637065888E-1  -1.623803526163101E-1   8.002342581748962E-1  
 2.230000000000000E7     7.804362773895264E-1  -7.041104882955551E-2   4.401293694972992E-1  -4.248079657554627E-1   4.404536485671997E-1  -4.238006472587585E-1  -1.084682121872902E-1   7.772088646888733E-1  
 2.260000000000000E7     7.303093075752258E-1  -1.495295166969299E-1   4.304760694503784E-1  -4.965373277664185E-1   4.318792521953583E-1  -4.980325698852539E-1  -5.469881370663643E-2   7.431040406227112E-1  
 2.290000000000000E7     6.621609330177307E-1  -2.231467813253403E-1   4.087335169315338E-1  -5.760079026222229E-1   4.102354943752289E-1  -5.767817497253418E-1   3.446470946073532E-4   6.974990367889404E-1  
 2.320000000000000E7     5.760346055030823E-1  -2.834562659263611E-1   3.696105480194092E-1  -6.613038778305054E-1   3.686671257019043E-1  -6.605500578880310E-1   4.908689111471176E-2   6.428046226501465E-1  
 2.350000000000000E7     4.726859629154205E-1  -3.282862305641174E-1   3.092466592788696E-1  -7.468355298042297E-1   3.102511465549469E-1  -7.453000545501709E-1   8.886804431676865E-2   5.714969635009766E-1  
 2.380000000000000E7     3.551638126373291E-1  -3.509824872016907E-1   2.294287085533142E-1  -8.257656097412109E-1   2.293796390295029E-1  -8.259361386299133E-1   1.144510582089424E-1   4.880837500095367E-1  
 2.410000000000000E7     2.316958010196686E-1  -3.420161008834839E-1   1.239745393395424E-1  -8.922211527824402E-1   1.241464614868164E-1  -8.913024067878723E-1   1.209797039628029E-1   3.984273076057434E-1  
 2.440000000000000E7     1.136058643460274E-1  -2.977942824363709E-1  -1.161161810159683E-3  -9.374343752861023E-1  -1.029261504299939E-3  -9.377173185348511E-1   1.019578427076340E-1   3.080115318298340E-1  
 2.470000000000000E7     1.066465489566326E-2  -2.242550402879715E-1  -1.383825391530991E-1  -9.552751183509827E-1  -1.371778696775436E-1  -9.543839693069458E-1   6.364806741476059E-2   2.195744216442108E-1  
 2.500000000000000E7    -6.944724172353745E-2  -1.248988211154938E-1  -2.775520980358124E-1  -9.399023652076721E-1  -2.785706222057343E-1  -9.400408864021301E-1   4.049530718475580E-3   1.525602787733078E-1  
 2.530000000000000E7    -1.143916547298431E-1  -7.583887316286564E-3  -4.105907082557678E-1  -8.955267667770386E-1  -4.085728824138641E-1  -8.943568468093872E-1  -7.163576036691666E-2   1.022516191005707E-1  
 2.560000000000000E7    -1.257974803447723E-1   1.070788651704788E-1  -5.253491997718811E-1  -8.253707289695740E-1  -5.246746540069580E-1  -8.243377804756165E-1  -1.531723141670227E-1   7.733737677335739E-2  
 2.590000000000000E7    -1.016406118869782E-1   2.110995948314667E-1  -6.193272471427918E-1  -7.387022376060486E-1  -6.195753812789917E-1  -7.394315600395203E-1  -2.270788401365280E-1   7.288380712270737E-2  
 2.620000000000000E7    -5.669548362493515E-2   3.022693991661072E-1  -6.929224133491516E-1  -6.425746083259583E-1  -6.913638114929199E-1  -6.421145200729370E-1  -2.968401610851288E-1   8.743797987699509E-2  
 2.650000000000000E7     2.605209127068520E-3   3.732390999794006E-1  -7.419423460960388E-1  -5.439094901084900E-1  -7.433652281761169E-1  -5.436091423034668E-1  -3.558458983898163E-1   1.181195601820946E-1  
 2.680000000000000E7     7.218173891305924E-2   4.224929511547089E-1  -7.755648493766785E-1  -4.476934373378754E-1  -7.759855389595032E-1  -4.481750130653381E-1  -3.997341990470886E-1   1.587482094764710E-1  
 2.710000000000000E7     1.419249027967453E-1   4.525473713874817E-1  -7.983003258705139E-1  -3.562650978565216E-1  -7.981959581375122E-1  -3.547189235687256E-1  -4.300431013107300E-1   2.014737427234650E-1  
 2.740000000000000E7     2.139864563941956E-1   4.675899744033814E-1  -8.068044781684876E-1  -2.707211971282959E-1  -8.075655698776245E-1  -2.702495753765106E-1  -4.466142058372498E-1   2.522410750389099E-1  
 2.770000000000000E7     2.784951627254486E-1   4.665957093238831E-1  -8.109008669853210E-1  -1.896945536136627E-1  -8.126004934310913E-1  -1.902291327714920E-1  -4.521689414978027E-1   3.005183339118958E-1  
 2.800000000000000E7     3.387930691242218E-1   4.554939866065979E-1  -8.084999322891235E-1  -1.127951070666313E-1  -8.082748055458069E-1  -1.154746115207672E-1  -4.472405612468720E-1   3.494623601436615E-1  
 2.830000000000000E7     3.917237818241119E-1   4.339751899242401E-1  -8.039472699165344E-1  -4.105961322784424E-2  -8.047637343406677E-1  -4.092866554856300E-2  -4.302389025688171E-1   3.919351696968079E-1  
 2.860000000000000E7     4.363057315349579E-1   4.042768776416779E-1  -7.973691225051880E-1   2.877002395689488E-2  -7.981054782867432E-1   3.013899736106396E-2  -4.019740819931030E-1   4.358742237091065E-1  
 2.890000000000000E7     4.704783260822296E-1   3.686005771160126E-1  -7.901090979576111E-1   1.000876426696777E-1  -7.885049581527710E-1   9.951158612966538E-2  -3.629371225833893E-1   4.728563725948334E-1  
 2.920000000000000E7     4.987775981426239E-1   3.277005851268768E-1  -7.785755395889282E-1   1.703577935695648E-1  -7.773646116256714E-1   1.719861477613449E-1  -3.132150769233704E-1   5.038860440254211E-1  
 2.950000000000000E7     5.107861161231995E-1   2.849462628364563E-1  -7.663179636001587E-1   2.469953894615173E-1  -7.650479674339294E-1   2.468285262584686E-1  -2.483604550361633E-1   5.281403064727783E-1  
 2.980000000000000E7     5.145893096923828E-1   2.412505447864533E-1  -7.475746870040894E-1   3.286438882350922E-1  -7.479306459426880E-1   3.293558359146118E-1  -1.689611673355103E-1   5.383729338645935E-1  
 3.010000000000000E7     5.027503371238709E-1   1.995874792337418E-1  -7.207115292549133E-1   4.217105209827423E-1  -7.208036184310913E-1   4.201498329639435E-1  -7.556252181529999E-2   5.315219163894653E-1  
 3.040000000000000E7     4.744879901409149E-1   1.620625257492065E-1  -6.805298328399658E-1   5.230627059936523E-1  -6.803635954856873E-1   5.238647460937500E-1   3.415674716234207E-2   4.930478334426880E-1  
 3.070000000000000E7     4.318297505378723E-1   1.404866427183151E-1  -6.128649115562439E-1   6.371771097183228E-1  -6.123076677322388E-1   6.355454325675964E-1   1.489498466253281E-1   4.182287156581879E-1  
 3.100000000000000E7     3.730604946613312E-1   1.447059065103531E-1  -5.087808370590210E-1   7.529801726341248E-1  -5.080175399780273E-1   7.514860033988953E-1   2.604295611381531E-1   2.872893512248993E-1  
 3.130000000000000E7     3.149945437908173E-1   1.842398494482040E-1  -3.543883562088013E-1   8.508346080780029E-1  -3.554220199584961E-1   8.503161072731018E-1   3.355048894882202E-1   8.764611929655075E-2  
 3.160000000000000E7     2.755140364170075E-1   2.672343254089356E-1  -1.501480937004089E-1   9.000155329704285E-1  -1.519331932067871E-1   9.004740715026856E-1   3.256455957889557E-1  -1.614621579647064E-1  
 3.190000000000000E7     2.874892354011536E-1   3.756113052368164E-1   7.093913853168488E-2   8.666689991950989E-1   7.028760015964508E-2   8.655460476875305E-1   2.005891352891922E-1  -4.096632003784180E-1  
 3.220000000000000E7     3.595425486564636E-1   4.750323295593262E-1   2.573139071464539E-1   7.483989596366882E-1   2.569063305854797E-1   7.477754354476929E-1  -2.868452481925488E-2  -5.835519433021545E-1  
 3.250000000000000E7     4.754746258258820E-1   5.323683619499207E-1   3.678758442401886E-1   5.821416378021240E-1   3.678850829601288E-1   5.824757814407349E-1  -2.938613295555115E-1  -6.386086940765381E-1  
 3.280000000000000E7     5.991595983505249E-1   5.361662507057190E-1   4.034978151321411E-1   4.171370267868042E-1   4.041346013545990E-1   4.178003966808319E-1  -5.290145277976990E-1  -5.965269207954407E-1  
 3.310000000000000E7     7.063853740692139E-1   5.021198391914368E-1   3.917759060859680E-1   2.844361662864685E-1   3.910089135169983E-1   2.849266231060028E-1  -7.059962153434753E-1  -4.972935020923615E-1  
 3.340000000000000E7     7.930846810340881E-1   4.467759132385254E-1   3.547161519527435E-1   1.862402260303497E-1   3.544577658176422E-1   1.856416165828705E-1  -8.254869580268860E-1  -3.776441812515259E-1  
 3.370000000000000E7     8.568434119224548E-1   3.804397284984589E-1   3.090659379959106E-1   1.165089756250382E-1   3.083961009979248E-1   1.171225532889366E-1  -8.991307020187378E-1  -2.608187794685364E-1  
 3.400000000000000E7     9.037358760833740E-1   3.118430972099304E-1   2.649421095848084E-1   6.964232772588730E-2   2.649757862091065E-1   6.998644769191742E-2  -9.427345991134644E-1  -1.530975103378296E-1  
 3.430000000000000E7     9.377356767654419E-1   2.439599633216858E-1   2.254607826471329E-1   3.807355836033821E-2   2.247880399227142E-1   3.787096962332726E-2  -9.660359025001526E-1  -5.853660777211189E-2  
 3.460000000000000E7     9.611096978187561E-1   1.780128479003906E-1   1.905556768178940E-1   1.671355590224266E-2   1.903529316186905E-1   1.721089147031307E-2  -9.770662784576416E-1   2.343763224780560E-2  
 3.490000000000000E7     9.764166474342346E-1   1.148711293935776E-1   1.609881073236466E-1   2.964352257549763E-3   1.599473506212235E-1   2.595848171040416E-3  -9.768497943878174E-1   9.606009721755981E-2  
 3.520000000000000E7     9.860365390777588E-1   5.576647073030472E-2   1.351194530725479E-1  -6.110923830419779E-3   1.347572207450867E-1  -5.910212174057961E-3  -9.739245176315308E-1   1.589633375406265E-1  
 3.550000000000000E7     9.889357089996338E-1  -2.605143003165722E-3   1.134347543120384E-1  -1.140634901821613E-2   1.135009378194809E-1  -1.142966374754906E-2  -9.662213921546936E-1   2.139079272747040E-1  
 3.580000000000000E7     9.905510544776917E-1  -5.677991360425949E-2   9.550233185291290E-2  -1.497652288526297E-2   9.542938321828842E-2  -1.493764854967594E-2  -9.557012915611267E-1   2.639249563217163E-1  
 3.610000000000000E7     9.879009127616882E-1  -1.084758862853050E-1   8.066280186176300E-2  -1.653940230607987E-2   8.025281131267548E-2  -1.672257855534554E-2  -9.454907178878784E-1   3.087104558944702E-1  
 3.640000000000000E7     9.823023676872253E-1  -1.586887687444687E-1   6.741590052843094E-2  -1.714481599628925E-2   6.738407164812088E-2  -1.707092672586441E-2  -9.322194457054138E-1   3.470697999000549E-1  
 3.670000000000000E7     9.749180078506470E-1  -2.055063247680664E-1   5.661390349268913E-2  -1.697122678160667E-2   5.645149201154709E-2  -1.694954186677933E-2  -9.190781712532044E-1   3.823841214179993E-1  
 3.700000000000000E7     9.642455577850342E-1  -2.511540055274963E-1   4.740448296070099E-2  -1.638124696910381E-2   4.733408614993095E-2  -1.639535464346409E-2  -9.053986668586731E-1   4.162527918815613E-1  
 3.730000000000000E7     9.517024755477905E-1  -2.961904406547546E-1   3.929752483963966E-2  -1.550477370619774E-2   3.952712938189507E-2  -1.542354747653008E-2  -8.904070258140564E-1   4.447194039821625E-1  
 3.760000000000000E7     9.380250573158264E-1  -3.368195593357086E-1   3.276104480028153E-2  -1.436073146760464E-2   3.280822932720184E-2  -1.422003842890263E-2  -8.777230381965637E-1   4.734913408756256E-1  
 3.790000000000000E7     9.224927425384522E-1  -3.784570097923279E-1   2.713819034397602E-2  -1.291151437908411E-2   2.715378627181053E-2  -1.301220431923866E-2  -8.636502623558044E-1   4.986501336097717E-1  
 3.820000000000000E7     9.061080813407898E-1  -4.183101058006287E-1   2.240577526390553E-2  -1.166367996484041E-2   2.236124128103256E-2  -1.166518125683069E-2  -8.494352698326111E-1   5.210668444633484E-1  
 3.850000000000000E7     8.871211409568787E-1  -4.568862915039063E-1   1.830363273620606E-2  -1.036225166171789E-2   1.829660311341286E-2  -1.039254758507013E-2  -8.371544480323792E-1   5.433372855186462E-1  
 3.880000000000000E7     8.673667907714844E-1  -4.924423098564148E-1   1.488638576120138E-2  -9.071547538042069E-3   1.496018003672361E-2  -9.062843397259712E-3  -8.233807086944580E-1   5.645469427108765E-1  
 3.910000000000000E7     8.472341895103455E-1  -5.283862352371216E-1   1.194145530462265E-2  -7.841452024877071E-3   1.206403039395809E-2  -7.764363661408424E-3  -8.106189370155335E-1   5.849832296371460E-1  
 3.940000000000000E7     8.241713643074036E-1  -5.605082511901856E-1   9.540098719298840E-3  -6.627604831010103E-3   9.605023078620434E-3  -6.639174651354551E-3  -7.961797714233398E-1   6.016249060630798E-1  
 3.970000000000000E7     8.029102087020874E-1  -5.935419201850891E-1   7.513537071645260E-3  -5.483611952513456E-3   7.511830888688564E-3  -5.557447671890259E-3  -7.817082405090332E-1   6.187565326690674E-1  
 4.000000000000000E7     7.777960300445557E-1  -6.244948506355286E-1   5.789213348180056E-3  -4.575292114168406E-3   5.800398532301188E-3  -4.488528706133366E-3  -7.699762582778931E-1   6.355476379394531E-1  
 4.030000000000000E7     7.537072300910950E-1  -6.544538736343384E-1   4.305849783122540E-3  -3.614835441112518E-3   4.291920922696590E-3  -3.656470682471991E-3  -7.570537924766541E-1   6.508354544639587E-1  
 4.060000000000000E7     7.279989719390869E-1  -6.829168796539307E-1   3.188263392075896E-3  -2.841874025762081E-3   3.199992934241891E-3  -2.744512632489204E-3  -7.434407472610474E-1   6.652596592903137E-1  
 4.090000000000000E7     7.008842229843140E-1  -7.105080485343933E-1   2.187629463151097E-3  -2.160600852221251E-3   2.173085696995258E-3  -2.046547364443541E-3  -7.312890887260437E-1   6.786257028579712E-1  
 4.120000000000000E7     6.741089224815369E-1  -7.366223335266113E-1   1.366511220112443E-3  -1.347172423265874E-3   1.540491590276361E-3  -1.409204793162644E-3  -7.176342606544495E-1   6.930963993072510E-1  
 4.150000000000000E7     6.465900540351868E-1  -7.604221105575562E-1   9.235042962245643E-4  -8.971287752501667E-4   8.319985936395824E-4  -8.365096291527152E-4  -7.048612236976624E-1   7.056861519813538E-1  
 4.180000000000000E7     6.170605421066284E-1  -7.849342226982117E-1   4.364827764220536E-4  -3.524263738654554E-4   4.462941724341363E-4  -3.765870060306042E-4  -6.933082938194275E-1   7.173936963081360E-1  
 4.210000000000000E7     5.881828665733337E-1  -8.066309690475464E-1   5.832856004417408E-6   2.991800283780322E-5   3.565794759197161E-5  -1.007748596748570E-5  -6.804740428924561E-1   7.299153208732605E-1  
 4.240000000000000E7     5.579226613044739E-1  -8.268905878067017E-1  -1.900775096146390E-4   3.206980763934553E-4  -2.062491694232449E-4   2.553869562689215E-4  -6.693761348724365E-1   7.414471507072449E-1  
 4.270000000000000E7     5.263725519180298E-1  -8.470527529716492E-1  -3.324045392218977E-4   4.640044062398374E-4  -3.155147715006024E-4   5.262941122055054E-4  -6.557744741439819E-1   7.530519962310791E-1  
 4.300000000000000E7     4.947261810302734E-1  -8.663747310638428E-1  -4.009725525975227E-4   7.515625329688191E-4  -4.629129543900490E-4   6.245098193176091E-4  -6.436472535133362E-1   7.640119791030884E-1  
 4.330000000000000E7     4.654997587203980E-1  -8.838366866111755E-1  -4.506944096647203E-4   6.929459632374346E-4  -4.701786092482507E-4   7.327844505198300E-4  -6.310599446296692E-1   7.731946706771851E-1  
 4.360000000000000E7     4.321203827857971E-1  -8.993178009986877E-1  -4.567479481920600E-4   6.920075393281877E-4  -4.694780509453267E-4   6.354248034767807E-4  -6.197606921195984E-1   7.832903265953064E-1  
 4.390000000000000E7     3.987261354923248E-1  -9.157410860061646E-1  -3.483090258669108E-4   6.719569209963083E-4  -3.487319336272776E-4   6.209682906046510E-4  -6.069039702415466E-1   7.917977571487427E-1  
 4.420000000000000E7     3.661932945251465E-1  -9.280086159706116E-1  -2.931443159468472E-4   4.991544992662966E-4  -2.471272309776396E-4   4.627693851944059E-4  -5.938699245452881E-1   8.006005883216858E-1  
 4.450000000000000E7     3.326106369495392E-1  -9.403674006462097E-1  -1.921016519190744E-4   2.630878007039428E-4  -9.132346167461947E-5   2.947223838418722E-4  -5.833987593650818E-1   8.095675706863403E-1  
 4.480000000000000E7     2.992485463619232E-1  -9.518658518791199E-1   1.804806015570648E-5   1.035911409417167E-4  -1.259466516785324E-4  -2.864278030756395E-5  -5.716322064399719E-1   8.174872398376465E-1  
 4.510000000000000E7     2.663246691226959E-1  -9.624596238136292E-1   1.426859380444512E-4  -2.900228428188711E-4   8.827612327877432E-5  -3.689351724460721E-4  -5.596067905426025E-1   8.266736865043640E-1  
 4.540000000000000E7     2.319204807281494E-1  -9.702875614166260E-1   2.930835180450231E-4  -6.279562367126346E-4   3.068238438572735E-4  -7.126085693016648E-4  -5.472114086151123E-1   8.349784016609192E-1  
 4.570000000000000E7     1.974528878927231E-1  -9.782280921936035E-1   3.604393277782947E-4  -1.159678213298321E-3   4.107758286409080E-4  -1.120167435146868E-3  -5.352676510810852E-1   8.423973321914673E-1  
 4.600000000000000E7     1.656094640493393E-1  -9.842003583908081E-1   5.579507560469210E-4  -1.595665700733662E-3   5.789800779893994E-4  -1.572694163769484E-3  -5.243529081344605E-1   8.493017554283142E-1  
 4.630000000000000E7     1.283211857080460E-1  -9.898602962493897E-1   7.581471581943333E-4  -2.062554471194744E-3   6.753877969458699E-4  -2.179166302084923E-3  -5.126038193702698E-1   8.563248515129089E-1  
 4.660000000000000E7     9.367475658655167E-2  -9.946342706680298E-1   7.595573551952839E-4  -2.704930491745472E-3   8.536702371202409E-4  -2.650900743901730E-3  -4.996177554130554E-1   8.638390898704529E-1  
 4.690000000000000E7     5.983643606305122E-2  -9.962303638458252E-1   9.383527212776244E-4  -3.239577636122704E-3   9.434371604584158E-4  -3.211384173482657E-3  -4.883160293102264E-1   8.706970810890198E-1  
 4.720000000000000E7     2.496423944830895E-2  -9.972657561302185E-1   1.005359110422432E-3  -3.872215049341321E-3   9.047171915881336E-4  -3.857334842905402E-3  -4.758019745349884E-1   8.765463232994080E-1  
 4.750000000000000E7    -8.906863629817963E-3  -9.985821247100830E-1   1.041494426317513E-3  -4.552953876554966E-3   1.020556082949042E-3  -4.557305946946144E-3  -4.643516838550568E-1   8.831642270088196E-1  
 4.780000000000000E7    -4.268579185009003E-2  -9.975172281265259E-1   1.141450251452625E-3  -5.310206208378077E-3   1.076817279681563E-3  -5.234559997916222E-3  -4.518282711505890E-1   8.883365392684937E-1  
 4.810000000000000E7    -7.769530266523361E-2  -9.951227903366089E-1   1.142826513387263E-3  -6.062196567654610E-3   1.182667911052704E-3  -6.068049464374781E-3  -4.414435327053070E-1   8.945724964141846E-1  
 4.840000000000000E7    -1.114117577672005E-1  -9.926240444183350E-1   1.146442373283207E-3  -6.830497179180384E-3   1.115959021262825E-3  -6.758411414921284E-3  -4.295632243156433E-1   9.003756046295166E-1  
 4.870000000000000E7    -1.460036933422089E-1  -9.877955913543701E-1   9.644998935982585E-4  -7.622197736054659E-3   9.334314381703734E-4  -7.644730620086193E-3  -4.179120361804962E-1   9.059485793113709E-1  
 4.900000000000000E7    -1.801128983497620E-1  -9.828174114227295E-1   1.027619233354926E-3  -8.445228450000286E-3   8.819388458505273E-4  -8.377016521990299E-3  -4.063428640365601E-1   9.104191660881043E-1  
 4.930000000000000E7    -2.137468457221985E-1  -9.755258560180664E-1   8.997828699648380E-4  -9.302441030740738E-3   7.894901209510863E-4  -9.265278466045857E-3  -3.939861357212067E-1   9.161317348480225E-1  
 4.960000000000000E7    -2.463043332099915E-1  -9.657578468322754E-1   7.043277728371322E-4  -1.006280351430178E-2   6.559657049365342E-4  -9.986979886889458E-3  -3.827619254589081E-1   9.207189679145813E-1  
 4.990000000000000E7    -2.786174416542053E-1  -9.576134681701660E-1   4.593361809384078E-4  -1.092954725027084E-2   5.440126406028867E-4  -1.096257753670216E-2  -3.710753321647644E-1   9.252841472625732E-1  
 5.020000000000000E7    -3.106708526611328E-1  -9.488579630851746E-1   2.618424477986991E-4  -1.185271702706814E-2   2.845742274075747E-4  -1.187965180724859E-2  -3.599772453308106E-1   9.300984740257263E-1  
 5.050000000000000E7    -3.432306051254273E-1  -9.373124837875366E-1  -1.735880505293608E-5  -1.279544457793236E-2  -3.533437848091126E-5  -1.274968311190605E-2  -3.484038114547730E-1   9.356995224952698E-1  
 5.080000000000000E7    -3.743982911109924E-1  -9.258626699447632E-1  -3.051916137337685E-4  -1.367364916950464E-2  -2.878693630918860E-4  -1.367189548909664E-2  -3.361347615718842E-1   9.377181529998779E-1  
 5.110000000000000E7    -4.062253236770630E-1  -9.118828773498535E-1  -7.061837241053581E-4  -1.458184234797955E-2  -6.608039839193225E-4  -1.458405982702971E-2  -3.256918787956238E-1   9.429724216461182E-1  
 5.140000000000000E7    -4.367181062698364E-1  -8.969497680664063E-1  -1.070704543963075E-3  -1.551001146435738E-2  -1.080135232768953E-3  -1.553012430667877E-2  -3.127655088901520E-1   9.484482407569885E-1  
 5.170000000000000E7    -4.662052392959595E-1  -8.817896842956543E-1  -1.576563110575080E-3  -1.644183695316315E-2  -1.556780072860420E-3  -1.647814549505711E-2  -3.007750213146210E-1   9.504211544990540E-1  
 5.200000000000000E7    -4.962872266769409E-1  -8.671107888221741E-1  -2.054145559668541E-3  -1.737830974161625E-2  -1.979850465431809E-3  -1.743927411735058E-2  -2.893163263797760E-1   9.527955651283264E-1  
 5.230000000000000E7    -5.252997875213623E-1  -8.484557867050171E-1  -2.526898868381977E-3  -1.831045374274254E-2  -2.571720164269209E-3  -1.834003441035748E-2  -2.780600786209106E-1   9.577770233154297E-1  
 5.260000000000000E7    -5.528823137283325E-1  -8.293387889862061E-1  -3.155536483973265E-3  -1.925928890705109E-2  -3.163493005558848E-3  -1.928319968283176E-2  -2.660874128341675E-1   9.610386490821838E-1  
 5.290000000000000E7    -5.817942023277283E-1  -8.102945685386658E-1  -3.791471011936665E-3  -2.018639259040356E-2  -3.807299770414829E-3  -2.017379179596901E-2  -2.548216879367828E-1   9.635625481605530E-1  
 5.320000000000000E7    -6.081197261810303E-1  -7.917173504829407E-1  -4.411168862134218E-3  -2.114251628518105E-2  -4.493418149650097E-3  -2.114005386829376E-2  -2.429319620132446E-1   9.669533967971802E-1  
 5.350000000000000E7    -6.332708597183228E-1  -7.701606750488281E-1  -5.121353082358837E-3  -2.207773737609386E-2  -5.159223917871714E-3  -2.206607535481453E-2  -2.327867448329926E-1   9.699850082397461E-1  
 5.380000000000000E7    -6.577625274658203E-1  -7.488076686859131E-1  -5.908971186727285E-3  -2.304756268858910E-2  -5.919664166867733E-3  -2.293637767434120E-2  -2.191616147756577E-1   9.718480706214905E-1  
 5.410000000000000E7    -6.852191686630249E-1  -7.260406017303467E-1  -6.716388277709484E-3  -2.391556091606617E-2  -6.790035404264927E-3  -2.387365698814392E-2  -2.080988883972168E-1   9.747717380523682E-1  
 5.440000000000000E7    -7.084953784942627E-1  -7.021121382713318E-1  -7.594365160912275E-3  -2.481178194284439E-2  -7.621837779879570E-3  -2.482130751013756E-2  -1.966161727905273E-1   9.768051505088806E-1  
 5.470000000000000E7    -7.302821278572083E-1  -6.790033578872681E-1  -8.488092571496964E-3  -2.562489919364452E-2  -8.569673635065556E-3  -2.566265873610973E-2  -1.840351670980454E-1   9.791631698608398E-1  
 5.500000000000000E7    -7.538346052169800E-1  -6.537836194038391E-1  -9.521974250674248E-3  -2.663411200046539E-2  -9.491239674389362E-3  -2.654139883816242E-2  -1.720711141824722E-1   9.823262095451355E-1  
 5.530000000000000E7    -7.752500176429749E-1  -6.281262636184692E-1  -1.050876826047897E-2  -2.745432965457439E-2  -1.058473344892263E-2  -2.740044891834259E-2  -1.606788635253906E-1   9.833773374557495E-1  
 5.560000000000000E7    -7.960821390151978E-1  -6.007061600685120E-1  -1.163440011441708E-2  -2.825903333723545E-2  -1.153613068163395E-2  -2.820865251123905E-2  -1.495167911052704E-1   9.852086901664734E-1  
 5.590000000000000E7    -8.157607316970825E-1  -5.751199722290039E-1  -1.270197611302137E-2  -2.907471731305122E-2  -1.273304224014282E-2  -2.907635457813740E-2  -1.370201855897903E-1   9.870243072509766E-1  
 5.620000000000000E7    -8.344205021858215E-1  -5.454133152961731E-1  -1.384630054235458E-2  -2.988554723560810E-2  -1.379220746457577E-2  -2.983961254358292E-2  -1.259745508432388E-1   9.891787171363831E-1  
 5.650000000000000E7    -8.514895439147949E-1  -5.187298655509949E-1  -1.501327101141214E-2  -3.060444258153439E-2  -1.502445247024298E-2  -3.064884990453720E-2  -1.139177754521370E-1   9.898732304573059E-1  
 5.680000000000000E7    -8.684669137001038E-1  -4.896838068962097E-1  -1.631140150129795E-2  -3.135278075933456E-2  -1.635605096817017E-2  -3.133036568760872E-2  -1.018713265657425E-1   9.905368685722351E-1  
 5.710000000000000E7    -8.847308754920960E-1  -4.590776562690735E-1  -1.766009628772736E-2  -3.199634701013565E-2  -1.769403554499149E-2  -3.207764774560928E-2  -9.057076275348663E-2   9.924315214157105E-1  
 5.740000000000000E7    -9.002451300621033E-1  -4.293221831321716E-1  -1.902949251234531E-2  -3.276452794671059E-2  -1.900099962949753E-2  -3.272147849202156E-2  -7.781143486499786E-2   9.927916526794434E-1  
 5.770000000000000E7    -9.125836491584778E-1  -4.001474678516388E-1  -2.032440155744553E-2  -3.345745056867600E-2  -2.025104127824307E-2  -3.342282399535179E-2  -6.773255765438080E-2   9.932626485824585E-1  
 5.800000000000000E7    -9.253355264663696E-1  -3.677824735641480E-1  -2.189413830637932E-2  -3.403840214014053E-2  -2.189340256154537E-2  -3.390327841043472E-2  -5.429325252771378E-2   9.954940080642700E-1  
 5.830000000000000E7    -9.373752474784851E-1  -3.367208838462830E-1  -2.334438450634480E-2  -3.456626459956169E-2  -2.339245751500130E-2  -3.458350524306297E-2  -4.366263747215271E-2   9.959471821784973E-1  
 5.860000000000000E7    -9.495627880096436E-1  -3.056301474571228E-1  -2.488119527697563E-2  -3.517199307680130E-2  -2.491321228444576E-2  -3.515920788049698E-2  -3.136872500181198E-2   9.955722689628601E-1  
 5.890000000000000E7    -9.582502245903015E-1  -2.735574245452881E-1  -2.649466879665852E-2  -3.564901277422905E-2  -2.642831020057201E-2  -3.571522235870361E-2  -2.039463818073273E-2   9.957190155982971E-1  
 5.920000000000000E7    -9.669061303138733E-1  -2.402368187904358E-1  -2.829128503799439E-2  -3.608307614922524E-2  -2.814296633005142E-2  -3.597619011998177E-2  -7.832497358322144E-3   9.965175986289978E-1  
 5.950000000000000E7    -9.739624261856079E-1  -2.076652497053146E-1  -2.986669912934303E-2  -3.639217466115952E-2  -2.976567484438419E-2  -3.647108376026154E-2   4.007577896118164E-3   9.947715401649475E-1  
 5.980000000000000E7    -9.807885289192200E-1  -1.747344881296158E-1  -3.166412934660912E-2  -3.676327317953110E-2  -3.150812536478043E-2  -3.679441288113594E-2   1.657455414533615E-2   9.948787093162537E-1  
 6.010000000000000E7    -9.845269322395325E-1  -1.429986208677292E-1  -3.324798122048378E-2  -3.732622414827347E-2  -3.319368138909340E-2  -3.723085299134255E-2   2.747599780559540E-2   9.954935312271118E-1  
 6.040000000000000E7    -9.893254637718201E-1  -1.083491444587708E-1  -3.517113253474236E-2  -3.746385872364044E-2  -3.515421599149704E-2  -3.745888918638229E-2   3.978163003921509E-2   9.952440261840820E-1  
 6.070000000000000E7    -9.934602379798889E-1  -7.642982900142670E-2  -3.701835870742798E-2  -3.778599202632904E-2  -3.688592463731766E-2  -3.782813623547554E-2   5.075178295373917E-2   9.941660165786743E-1  
 6.100000000000000E7    -9.947937726974487E-1  -4.309107363224030E-2  -3.898517042398453E-2  -3.780957311391830E-2  -3.887096419930458E-2  -3.786582127213478E-2   6.419137120246887E-2   9.936138987541199E-1  
 6.130000000000000E7    -9.957658052444458E-1  -8.332669734954834E-3  -4.095089063048363E-2  -3.801378607749939E-2  -4.089346528053284E-2  -3.793368488550186E-2   7.628048211336136E-2   9.934135675430298E-1  
 6.160000000000000E7    -9.949206113815308E-1   2.422966063022614E-2  -4.274648427963257E-2  -3.801841661334038E-2  -4.281182214617729E-2  -3.788283467292786E-2   8.672600984573364E-2   9.909752607345581E-1  
 6.190000000000000E7    -9.931004047393799E-1   5.758638679981232E-2  -4.470485448837280E-2  -3.807137534022331E-2  -4.463250190019608E-2  -3.785686939954758E-2   9.811241924762726E-2   9.891558885574341E-1  
 6.220000000000000E7    -9.910902976989746E-1   9.088113903999329E-2  -4.667946323752403E-2  -3.795293346047401E-2  -4.692853242158890E-2  -3.797399997711182E-2   1.095987111330032E-1   9.893105030059815E-1  
 6.250000000000000E7    -9.875651597976685E-1   1.242331340909004E-1  -4.888734593987465E-2  -3.794095665216446E-2  -4.888267815113068E-2  -3.784770146012306E-2   1.215975731611252E-1   9.876506328582764E-1  
 6.280000000000000E7    -9.818555116653442E-1   1.577281057834625E-1  -5.113934725522995E-2  -3.772813454270363E-2  -5.087661370635033E-2  -3.783625736832619E-2   1.337396502494812E-1   9.863737821578980E-1  
 6.310000000000000E7    -9.755443334579468E-1   1.914491951465607E-1  -5.330299958586693E-2  -3.744298219680786E-2  -5.322971194982529E-2  -3.750256821513176E-2   1.457486450672150E-1   9.846091866493225E-1  
 6.340000000000000E7    -9.685982465744019E-1   2.236172407865524E-1  -5.543743073940277E-2  -3.724161908030510E-2  -5.535836145281792E-2  -3.708866238594055E-2   1.576859652996063E-1   9.830194711685181E-1  
 6.370000000000000E7    -9.607060551643372E-1   2.563423812389374E-1  -5.755810067057610E-2  -3.678430989384651E-2  -5.760433524847031E-2  -3.667873889207840E-2   1.687903255224228E-1   9.800184965133667E-1  
 6.400000000000000E7    -9.503424763679504E-1   2.884246110916138E-1  -6.003934890031815E-2  -3.619946911931038E-2  -5.982631444931030E-2  -3.612074255943298E-2   1.814034879207611E-1   9.786594510078430E-1  
 6.430000000000000E7    -9.396533966064453E-1   3.211020231246948E-1  -6.228156387805939E-2  -3.586171567440033E-2  -6.213354691863060E-2  -3.556394949555397E-2   1.928139626979828E-1   9.758410453796387E-1  
 6.460000000000000E7    -9.289482235908508E-1   3.532059192657471E-1  -6.444960087537766E-2  -3.517672792077065E-2  -6.439340859651566E-2  -3.513849526643753E-2   2.035229206085205E-1   9.726672768592835E-1  
 6.490000000000000E7    -9.175283908843994E-1   3.840423226356506E-1  -6.675969064235687E-2  -3.454119712114334E-2  -6.692606210708618E-2  -3.449915722012520E-2   2.150553315877914E-1   9.713325500488281E-1  
 6.520000000000000E7    -9.026588797569275E-1   4.141811430454254E-1  -6.933997571468353E-2  -3.393155708909035E-2  -6.906703859567642E-2  -3.373684734106064E-2   2.272839844226837E-1   9.691568017005920E-1  
 6.550000000000000E7    -8.889464139938355E-1   4.440675973892212E-1  -7.175737619400024E-2  -3.286724910140038E-2  -7.160373032093048E-2  -3.290200978517532E-2   2.386685311794281E-1   9.640430212020874E-1  
 6.580000000000000E7    -8.722962737083435E-1   4.747001528739929E-1  -7.418335974216461E-2  -3.177839145064354E-2  -7.398127019405365E-2  -3.198676183819771E-2   2.509059607982636E-1   9.624271988868713E-1  
 6.610000000000000E7    -8.547610044479370E-1   5.036325454711914E-1  -7.654167711734772E-2  -3.081449493765831E-2  -7.613255828619003E-2  -3.054358623921871E-2   2.632585465908051E-1   9.573580622673035E-1  
 6.640000000000000E7    -8.385591506958008E-1   5.327831506729126E-1  -7.902605831623077E-2  -2.986402809619904E-2  -7.907830178737640E-2  -2.987399138510227E-2   2.749159932136536E-1   9.543550610542297E-1  
 6.670000000000000E7    -8.190134167671204E-1   5.603994131088257E-1  -8.135502785444260E-2  -2.850067801773548E-2  -8.137655258178711E-2  -2.870097011327744E-2   2.854276895523071E-1   9.518626332283020E-1  
 6.700000000000000E7    -7.990185022354126E-1   5.881820917129517E-1  -8.387393504381180E-2  -2.721557766199112E-2  -8.359564095735550E-2  -2.720655128359795E-2   2.970746755599976E-1   9.470841884613037E-1  
 6.730000000000000E7    -7.783854603767395E-1   6.149745583534241E-1  -8.621922135353088E-2  -2.607776969671249E-2  -8.615601807832718E-2  -2.567466907203198E-2   3.094807863235474E-1   9.442237019538879E-1  
 6.760000000000000E7    -7.573452591896057E-1   6.410367488861084E-1  -8.891152590513229E-2  -2.427155338227749E-2  -8.876309543848038E-2  -2.432826161384583E-2   3.213414251804352E-1   9.397514462471008E-1  
 6.790000000000000E7    -7.344390749931335E-1   6.667418479919434E-1  -9.129011631011963E-2  -2.289665117859840E-2  -9.120467305183411E-2  -2.272352389991283E-2   3.314918875694275E-1   9.348781108856201E-1  
 6.820000000000000E7    -7.107629776000977E-1   6.905125379562378E-1  -9.377072751522064E-2  -2.101689763367176E-2  -9.369730204343796E-2  -2.117315679788590E-2   3.430448472499847E-1   9.313619732856751E-1  
 6.850000000000000E7    -6.870219707489014E-1   7.153868675231934E-1  -9.656830132007599E-2  -1.950250007212162E-2  -9.625240415334702E-2  -1.935057342052460E-2   3.543639779090881E-1   9.271859526634216E-1  
 6.880000000000000E7    -6.617320775985718E-1   7.378834486007690E-1  -9.892484545707703E-2  -1.746260747313500E-2  -9.851866215467453E-2  -1.737593673169613E-2   3.660481274127960E-1   9.217718839645386E-1  
 6.910000000000000E7    -6.353865861892700E-1   7.603325843811035E-1  -1.014610975980759E-1  -1.531719788908958E-2  -1.011807098984718E-1  -1.533964369446039E-2   3.782112598419190E-1   9.171675443649292E-1  
 6.940000000000000E7    -6.091932058334351E-1   7.816199660301209E-1  -1.039399728178978E-1  -1.347652263939381E-2  -1.038634553551674E-1  -1.333890669047833E-2   3.885721862316132E-1   9.121699333190918E-1  
 6.970000000000000E7    -5.807352066040039E-1   8.017779588699341E-1  -1.063867807388306E-1  -1.121113263070583E-2  -1.063223481178284E-1  -1.081278361380100E-2   4.003458619117737E-1   9.066618680953980E-1  
 7.000000000000000E7    -5.527656078338623E-1   8.221191763877869E-1  -1.090010032057762E-1  -8.837852627038956E-3  -1.087673082947731E-1  -8.722774684429169E-3   4.111244082450867E-1   9.020823240280151E-1  
