#  HZ   S   RI   R     50.00 
! Rohde & Schwarz ZVT8 8Ports - Version 4.11 - 1300.0000k08 SN: 100242
! Date: 2026-07-31 14:33:01
! Measurements: S11 S21 S12 S22 
! 
 1.000000000000000E7    -4.020422995090485E-1   9.114635586738586E-1   5.378380417823792E-2   5.397400259971619E-2   5.344406887888908E-2   5.413731932640076E-2  -9.169053435325623E-1   3.897014260292053E-1  
 1.030000000000000E7    -3.690882921218872E-1   9.245027899742127E-1   5.728728324174881E-2   5.448806658387184E-2   5.699956789612770E-2   5.453972145915031E-2  -9.106890559196472E-1   4.026847779750824E-1  
 1.060000000000000E7    -3.326007723808289E-1   9.374831318855286E-1   6.101145222783089E-2   5.552052706480026E-2   6.101565808057785E-2   5.520204827189446E-2  -9.069565534591675E-1   4.145587980747223E-1  
 1.090000000000000E7    -3.001518547534943E-1   9.477763772010803E-1   6.488627195358276E-2   5.598023533821106E-2   6.449455022811890E-2   5.597471073269844E-2  -9.004056453704834E-1   4.270710945129395E-1  
 1.120000000000000E7    -2.645146846771240E-1   9.570345878601074E-1   6.899053603410721E-2   5.684560537338257E-2   6.838592886924744E-2   5.648301169276238E-2  -8.946137428283691E-1   4.394763112068176E-1  
 1.150000000000000E7    -2.287742644548416E-1   9.670115709304810E-1   7.262492179870606E-2   5.666848644614220E-2   7.241175323724747E-2   5.665537342429161E-2  -8.866025805473328E-1   4.494627714157105E-1  
 1.180000000000000E7    -1.930087655782700E-1   9.727196097373962E-1   7.680226117372513E-2   5.715986341238022E-2   7.660545408725739E-2   5.710545182228088E-2  -8.814700245857239E-1   4.611397683620453E-1  
 1.210000000000000E7    -1.586726009845734E-1   9.794344305992127E-1   8.128325641155243E-2   5.769836902618408E-2   8.122844249010086E-2   5.735748261213303E-2  -8.735479116439819E-1   4.743486046791077E-1  
 1.240000000000000E7    -1.220305562019348E-1   9.828003644943237E-1   8.563616126775742E-2   5.764155834913254E-2   8.579351007938385E-2   5.725938826799393E-2  -8.664562106132507E-1   4.847700893878937E-1  
 1.270000000000000E7    -8.586344867944717E-2   9.865145683288574E-1   9.095622599124908E-2   5.722117424011231E-2   9.034124761819840E-2   5.697464570403099E-2  -8.584384322166443E-1   4.993014037609100E-1  
 1.300000000000000E7    -4.971163347363472E-2   9.895077347755432E-1   9.536097198724747E-2   5.690403655171394E-2   9.536686539649963E-2   5.689135938882828E-2  -8.503685593605042E-1   5.106109380722046E-1  
 1.330000000000000E7    -1.286201924085617E-2   9.908233284950256E-1   1.007554084062576E-1   5.663182213902473E-2   1.007458269596100E-1   5.604069679975510E-2  -8.419020175933838E-1   5.233799219131470E-1  
 1.360000000000000E7     2.566661871969700E-2   9.898076653480530E-1   1.060151234269142E-1   5.605310946702957E-2   1.061031296849251E-1   5.550934374332428E-2  -8.340872526168823E-1   5.341870188713074E-1  
 1.390000000000000E7     6.145627796649933E-2   9.870085716247559E-1   1.115857064723969E-1   5.492280423641205E-2   1.112290471792221E-1   5.499977618455887E-2  -8.253932595252991E-1   5.472879409790039E-1  
 1.420000000000000E7     9.939103573560715E-2   9.842264056205750E-1   1.169349923729897E-1   5.413060635328293E-2   1.169878989458084E-1   5.408257618546486E-2  -8.179146051406860E-1   5.581465363502502E-1  
 1.450000000000000E7     1.365137398242950E-1   9.780180454254150E-1   1.231922954320908E-1   5.251844599843025E-2   1.228644847869873E-1   5.241994559764862E-2  -8.059937953948975E-1   5.720345973968506E-1  
 1.480000000000000E7     1.752573847770691E-1   9.714022278785706E-1   1.292688697576523E-1   5.087387189269066E-2   1.291578114032745E-1   5.131709203124046E-2  -7.978777885437012E-1   5.838351249694824E-1  
 1.510000000000000E7     2.118817567825317E-1   9.626607298851013E-1   1.353652626276016E-1   4.921345040202141E-2   1.350973844528198E-1   4.925960674881935E-2  -7.848901748657227E-1   5.960657000541687E-1  
 1.540000000000000E7     2.482310235500336E-1   9.533262252807617E-1   1.417427808046341E-1   4.805729165673256E-2   1.417744606733322E-1   4.747635871171951E-2  -7.771731019020081E-1   6.077743768692017E-1  
 1.570000000000000E7     2.866168618202210E-1   9.430253505706787E-1   1.486505866050720E-1   4.522587358951569E-2   1.487026810646057E-1   4.510034248232842E-2  -7.650656104087830E-1   6.215572357177734E-1  
 1.600000000000000E7     3.240718245506287E-1   9.290522933006287E-1   1.554229110479355E-1   4.236084967851639E-2   1.558513939380646E-1   4.226763546466827E-2  -7.540557980537415E-1   6.320604681968689E-1  
 1.630000000000000E7     3.599129021167755E-1   9.138900041580200E-1   1.635342240333557E-1   3.909667953848839E-2   1.629368811845779E-1   3.929245844483376E-2  -7.414997816085815E-1   6.459860205650330E-1  
 1.660000000000000E7     3.963262438774109E-1   8.967316150665283E-1   1.710983067750931E-1   3.541323170065880E-2   1.704965233802795E-1   3.504788130521774E-2  -7.279711365699768E-1   6.585934758186340E-1  
 1.690000000000000E7     4.317698180675507E-1   8.788304328918457E-1   1.790060102939606E-1   3.214112296700478E-2   1.786106526851654E-1   3.175323083996773E-2  -7.151235342025757E-1   6.701300740242004E-1  
 1.720000000000000E7     4.695128500461578E-1   8.592020273208618E-1   1.864717304706574E-1   2.700507268309593E-2   1.867098808288574E-1   2.749595791101456E-2  -7.014606595039368E-1   6.820428371429443E-1  
 1.750000000000000E7     5.001571774482727E-1   8.398848772048950E-1   1.958316862583160E-1   2.369410544633865E-2   1.959950625896454E-1   2.296232432126999E-2  -6.879357695579529E-1   6.959808468818665E-1  
 1.780000000000000E7     5.373558998107910E-1   8.128797411918640E-1   2.034285813570023E-1   1.745711639523506E-2   2.040529698133469E-1   1.778985559940338E-2  -6.725445389747620E-1   7.060091495513916E-1  
 1.810000000000000E7     5.696901082992554E-1   7.888287305831909E-1   2.139561772346497E-1   1.151915453374386E-2   2.125255763530731E-1   1.101648248732090E-2  -6.558225750923157E-1   7.210996150970459E-1  
 1.840000000000000E7     6.041383743286133E-1   7.611950039863586E-1   2.234573215246201E-1   3.541572019457817E-3   2.224107235670090E-1   4.030147567391396E-3  -6.381040811538696E-1   7.328271865844727E-1  
 1.870000000000000E7     6.343607902526856E-1   7.330950498580933E-1   2.331507205963135E-1  -2.901671454310417E-3   2.320765703916550E-1  -3.433622419834137E-3  -6.201454401016235E-1   7.444475293159485E-1  
 1.900000000000000E7     6.649018526077271E-1   7.020772695541382E-1   2.431408464908600E-1  -1.085845660418272E-2   2.423956245183945E-1  -1.185162831097841E-2  -6.009238362312317E-1   7.558421492576599E-1  
 1.930000000000000E7     6.948384046554565E-1   6.682589054107666E-1   2.529437541961670E-1  -2.155575901269913E-2   2.533158957958221E-1  -2.074995636940002E-2  -5.814412832260132E-1   7.693524360656738E-1  
 1.960000000000000E7     7.235174179077148E-1   6.317049264907837E-1   2.635242640972138E-1  -3.186320513486862E-2   2.636828720569611E-1  -3.114094957709312E-2  -5.620260238647461E-1   7.800340056419373E-1  
 1.990000000000000E7     7.485477924346924E-1   5.949304103851318E-1   2.744607925415039E-1  -4.349726438522339E-2   2.747681736946106E-1  -4.342966154217720E-2  -5.373910069465637E-1   7.927681803703308E-1  
 2.020000000000000E7     7.733318805694580E-1   5.552694797515869E-1   2.861795425415039E-1  -5.599754676222801E-2   2.853245735168457E-1  -5.582017451524735E-2  -5.152126550674439E-1   8.011420369148254E-1  
 2.050000000000000E7     7.983239293098450E-1   5.130631327629089E-1   2.975409924983978E-1  -6.984910368919373E-2   2.956977486610413E-1  -7.023331522941589E-2  -4.905213117599487E-1   8.117234110832214E-1  
 2.080000000000000E7     8.184261918067932E-1   4.673804640769959E-1   3.093670010566711E-1  -8.644516021013260E-2   3.093863725662231E-1  -8.606779575347900E-2  -4.636674821376801E-1   8.234114646911621E-1  
 2.110000000000000E7     8.374684453010559E-1   4.212713837623596E-1   3.211593925952911E-1  -1.052316427230835E-1   3.209855556488037E-1  -1.049904823303223E-1  -4.345051646232605E-1   8.315472602844238E-1  
 2.140000000000000E7     8.531702756881714E-1   3.730088472366333E-1   3.328455090522766E-1  -1.258487850427628E-1   3.317016363143921E-1  -1.241057515144348E-1  -4.047512114048004E-1   8.390976786613464E-1  
 2.170000000000000E7     8.647909760475159E-1   3.232037127017975E-1   3.443162739276886E-1  -1.472294330596924E-1   3.443186581134796E-1  -1.462270766496658E-1  -3.725907206535339E-1   8.458682298660278E-1  
 2.200000000000000E7     8.748685121536255E-1   2.680375576019287E-1   3.547843098640442E-1  -1.726085692644119E-1   3.551183938980103E-1  -1.722393482923508E-1  -3.369297087192535E-1   8.505366444587708E-1  
 2.230000000000000E7     8.790743350982666E-1   2.130426466464996E-1   3.653180301189423E-1  -2.003276348114014E-1   3.649994730949402E-1  -1.994085013866425E-1  -3.008399307727814E-1   8.532647490501404E-1  
 2.260000000000000E7     8.800849914550781E-1   1.551114022731781E-1   3.741620182991028E-1  -2.314189821481705E-1   3.760624825954437E-1  -2.317579239606857E-1  -2.622352838516235E-1   8.536369800567627E-1  
 2.290000000000000E7     8.753778338432312E-1   9.582575410604477E-2   3.823066353797913E-1  -2.660966515541077E-1   3.835965991020203E-1  -2.657878994941711E-1  -2.196113169193268E-1   8.512033224105835E-1  
 2.320000000000000E7     8.635450005531311E-1   3.597085177898407E-2   3.881841897964478E-1  -3.058650195598602E-1   3.872044086456299E-1  -3.059491813182831E-1  -1.758601516485214E-1   8.475664258003235E-1  
 2.350000000000000E7     8.456629514694214E-1  -2.588998153805733E-2   3.903725445270538E-1  -3.499114215373993E-1   3.903325796127319E-1  -3.483917117118835E-1  -1.299138814210892E-1   8.374730348587036E-1  
 2.380000000000000E7     8.210253119468689E-1  -8.734524250030518E-2   3.898291885852814E-1  -3.958364725112915E-1   3.899577856063843E-1  -3.957703113555908E-1  -8.157950639724731E-2   8.222176432609558E-1  
 2.410000000000000E7     7.879145741462708E-1  -1.479309946298599E-1   3.829583823680878E-1  -4.485361874103546E-1   3.824163079261780E-1  -4.475939571857452E-1  -3.178006410598755E-2   8.011181354522705E-1  
 2.440000000000000E7     7.448001503944397E-1  -2.042666226625443E-1   3.698476254940033E-1  -5.057564377784729E-1   3.698344528675079E-1  -5.059619545936585E-1   1.749985292553902E-2   7.729398012161255E-1  
 2.470000000000000E7     6.932415962219238E-1  -2.569044828414917E-1   3.483569324016571E-1  -5.663447976112366E-1   3.499518930912018E-1  -5.641639232635498E-1   6.953299045562744E-2   7.355577349662781E-1  
 2.500000000000000E7     6.320289373397827E-1  -3.055302500724793E-1   3.181189000606537E-1  -6.284639835357666E-1   3.170080184936523E-1  -6.295661330223084E-1   1.180113181471825E-1   6.916539072990418E-1  
 2.530000000000000E7     5.593382120132446E-1  -3.427639305591583E-1   2.763554751873016E-1  -6.945957541465759E-1   2.764976024627686E-1  -6.929836273193359E-1   1.622774749994278E-1   6.353124380111694E-1  
 2.560000000000000E7     4.811799824237824E-1  -3.682622313499451E-1   2.213234603404999E-1  -7.569806575775147E-1   2.210675477981567E-1  -7.575153708457947E-1   1.997931748628616E-1   5.699024796485901E-1  
 2.590000000000000E7     3.985759913921356E-1  -3.749513030052185E-1   1.487507969141007E-1  -8.152360320091248E-1   1.490120738744736E-1  -8.162041306495667E-1   2.299439758062363E-1   4.977334439754486E-1  
 2.620000000000000E7     3.125588595867157E-1  -3.661422133445740E-1   6.233235076069832E-2  -8.668703436851502E-1   6.380960345268250E-2  -8.650862574577332E-1   2.470279633998871E-1   4.145738780498505E-1  
 2.650000000000000E7     2.280432730913162E-1  -3.397416472434998E-1  -3.429562225937843E-2  -9.038266539573669E-1  -3.553298488259316E-2  -9.044756293296814E-1   2.462974339723587E-1   3.274211287498474E-1  
 2.680000000000000E7     1.536446064710617E-1  -2.928546071052551E-1  -1.442123353481293E-1  -9.249700307846069E-1  -1.449690461158752E-1  -9.239459037780762E-1   2.279491126537323E-1   2.404674589633942E-1  
 2.710000000000000E7     9.520646929740906E-2  -2.335706949234009E-1  -2.593900859355927E-1  -9.240440726280212E-1  -2.598778307437897E-1  -9.237378835678101E-1   1.974617838859558E-1   1.596750766038895E-1  
 2.740000000000000E7     5.077075958251953E-2  -1.578222662210465E-1  -3.757556676864624E-1  -9.039269685745239E-1  -3.758991360664368E-1  -9.026594758033752E-1   1.428979933261871E-1   8.637345582246780E-2  
 2.770000000000000E7     3.133872151374817E-2  -8.165019750595093E-2  -4.855736792087555E-1  -8.605875968933106E-1  -4.859738349914551E-1  -8.617222905158997E-1   8.141029626131058E-2   2.800930850207806E-2  
 2.800000000000000E7     2.861250191926956E-2  -3.715857630595565E-3  -5.871383547782898E-1  -8.004217147827148E-1  -5.851097702980042E-1  -8.017206192016602E-1   7.531769573688507E-3  -1.823082938790321E-2  
 2.830000000000000E7     4.577338322997093E-2   6.696931272745132E-2  -6.725403070449829E-1  -7.265965342521668E-1  -6.723303198814392E-1  -7.257112264633179E-1  -6.310462206602097E-2  -4.272397607564926E-2  
 2.860000000000000E7     8.055111765861511E-2   1.274432390928268E-1  -7.432931661605835E-1  -6.421434283256531E-1  -7.431983351707459E-1  -6.405292153358460E-1  -1.374900043010712E-1  -5.314892530441284E-2  
 2.890000000000000E7     1.250986307859421E-1   1.721391230821610E-1  -7.984808087348938E-1  -5.526283383369446E-1  -7.973117828369141E-1  -5.509143471717835E-1  -2.057371586561203E-1  -4.850380495190620E-2  
 2.920000000000000E7     1.769362390041351E-1   2.072354853153229E-1  -8.386293649673462E-1  -4.611358642578125E-1  -8.376733064651489E-1  -4.591310322284699E-1  -2.672160863876343E-1  -3.297365829348564E-2  
 2.950000000000000E7     2.308061271905899E-1   2.223288118839264E-1  -8.655874729156494E-1  -3.706553578376770E-1  -8.642115592956543E-1  -3.700185716152191E-1  -3.196354806423187E-1  -6.372023373842239E-3  
 2.980000000000000E7     2.836895883083344E-1   2.284644693136215E-1  -8.811074495315552E-1  -2.826704978942871E-1  -8.810019493103027E-1  -2.828864753246307E-1  -3.616509437561035E-1   2.654633857309818E-2  
 3.010000000000000E7     3.329083919525147E-1   2.199966460466385E-1  -8.897728919982910E-1  -1.982491165399551E-1  -8.879013657569885E-1  -1.990310847759247E-1  -3.954407274723053E-1   6.266400963068008E-2  
 3.040000000000000E7     3.805736005306244E-1   2.011741250753403E-1  -8.891093730926514E-1  -1.189731508493424E-1  -8.902666568756104E-1  -1.187344267964363E-1  -4.158078730106354E-1   1.016522645950317E-1  
 3.070000000000000E7     4.182550311088562E-1   1.749824136495590E-1  -8.853063583374023E-1  -4.016529768705368E-2  -8.839566111564636E-1  -4.149602726101875E-2  -4.306589066982269E-1   1.378830969333649E-1  
 3.100000000000000E7     4.491374194622040E-1   1.396733671426773E-1  -8.769277930259705E-1   3.293900191783905E-2  -8.753684163093567E-1   3.285728394985199E-2  -4.367603361606598E-1   1.748714596033096E-1  
 3.130000000000000E7     4.708702862262726E-1   1.010964289307594E-1  -8.645031452178955E-1   1.050165444612503E-1  -8.637825250625610E-1   1.034685373306274E-1  -4.326671957969666E-1   2.121177464723587E-1  
 3.160000000000000E7     4.844415783882141E-1   5.531334877014160E-2  -8.491390943527222E-1   1.742947846651077E-1  -8.499049544334412E-1   1.743303984403610E-1  -4.218290150165558E-1   2.438690513372421E-1  
 3.190000000000000E7     4.873892962932587E-1   1.008148398250341E-2  -8.313812613487244E-1   2.454624772071838E-1  -8.304198980331421E-1   2.447700202465057E-1  -4.047873914241791E-1   2.732489109039307E-1  
 3.220000000000000E7     4.817452728748322E-1  -3.785824030637741E-2  -8.106961250305176E-1   3.168765902519226E-1  -8.097203969955444E-1   3.171265125274658E-1  -3.791815042495728E-1   2.967256605625153E-1  
 3.250000000000000E7     4.602347910404205E-1  -8.531013131141663E-2  -7.859084010124207E-1   3.911979198455811E-1  -7.853070497512817E-1   3.922028541564941E-1  -3.452883958816528E-1   3.146489560604096E-1  
 3.280000000000000E7     4.250381290912628E-1  -1.307637840509415E-1  -7.546722888946533E-1   4.698612987995148E-1  -7.528700232505798E-1   4.699293971061707E-1  -3.059445619583130E-1   3.256700634956360E-1  
 3.310000000000000E7     3.794999122619629E-1  -1.655607670545578E-1  -7.139726877212524E-1   5.544455647468567E-1  -7.137038111686707E-1   5.543705821037293E-1  -2.567156553268433E-1   3.226756155490875E-1  
 3.340000000000000E7     3.142691254615784E-1  -1.902000904083252E-1  -6.607411503791809E-1   6.451684236526489E-1  -6.597701907157898E-1   6.432054042816162E-1  -2.042176872491837E-1   3.056302666664124E-1  
 3.370000000000000E7     2.359520196914673E-1  -1.983193904161453E-1  -5.883562564849854E-1   7.371389269828796E-1  -5.891330838203430E-1   7.366822361946106E-1  -1.466278731822968E-1   2.706524431705475E-1  
 3.400000000000000E7     1.445815414190292E-1  -1.770511567592621E-1  -4.908638298511505E-1   8.302482962608337E-1  -4.909771680831909E-1   8.300434350967407E-1  -9.436494857072830E-2   2.068114727735519E-1  
 3.430000000000000E7     5.286594480276108E-2  -1.177516877651215E-1  -3.600293695926666E-1   9.132673144340515E-1  -3.607862889766693E-1   9.119977355003357E-1  -5.595076084136963E-2   1.188741922378540E-1  
 3.460000000000000E7    -2.663187123835087E-2  -1.419928390532732E-2  -1.947587281465530E-1   9.696755409240723E-1  -1.949854940176010E-1   9.679548740386963E-1  -4.730515927076340E-2   1.105955525417812E-4  
 3.490000000000000E7    -6.134771183133125E-2   1.332378536462784E-1  -2.365064108744264E-3   9.761896133422852E-1  -2.370173577219248E-3   9.765983223915100E-1  -8.274737000465393E-2  -1.285669654607773E-1  
 3.520000000000000E7    -3.789389133453369E-2   3.000640571117401E-1   1.935252696275711E-1   9.191172122955322E-1   1.932719200849533E-1   9.191196560859680E-1  -1.742303669452667E-1  -2.519637644290924E-1  
 3.550000000000000E7     6.171044334769249E-2   4.528209269046783E-1   3.576393723487854E-1   7.974420785903931E-1   3.569139242172241E-1   7.973152399063110E-1  -3.154698908329010E-1  -3.348779380321503E-1  
 3.580000000000000E7     2.143574506044388E-1   5.526881814002991E-1   4.636984765529633E-1   6.390323638916016E-1   4.632801711559296E-1   6.396849155426025E-1  -4.735659360885620E-1  -3.604033887386322E-1  
 3.610000000000000E7     3.871142268180847E-1   5.874212980270386E-1   5.060063004493713E-1   4.773719012737274E-1   5.065916776657105E-1   4.760075211524963E-1  -6.230949759483337E-1  -3.312210738658905E-1  
 3.640000000000000E7     5.474121570587158E-1   5.658439993858337E-1   4.997676908969879E-1   3.319881260395050E-1   4.998565614223480E-1   3.321591019630432E-1  -7.433808445930481E-1  -2.642669379711151E-1  
 3.670000000000000E7     6.807090044021606E-1   5.063672661781311E-1   4.652989208698273E-1   2.189686894416809E-1   4.650121033191681E-1   2.184970825910568E-1  -8.290166854858398E-1  -1.802622526884079E-1  
 3.700000000000000E7     7.823640704154968E-1   4.246181547641754E-1   4.168750643730164E-1   1.342820227146149E-1   4.169453978538513E-1   1.343474686145783E-1  -8.872384428977966E-1  -9.173289686441422E-2  
 3.730000000000000E7     8.574593067169190E-1   3.345793783664703E-1   3.657659590244293E-1   7.300916314125061E-2   3.654379844665527E-1   7.437044382095337E-2  -9.205594658851624E-1  -6.297037005424500E-3  
 3.760000000000000E7     9.081857800483704E-1   2.443722784519196E-1   3.169063329696655E-1   3.280802816152573E-2   3.169122636318207E-1   3.305062279105187E-2  -9.402812123298645E-1   7.116368412971497E-2  
 3.790000000000000E7     9.438225030899048E-1   1.546837985515595E-1   2.720941603183746E-1   4.932058509439230E-3   2.727160453796387E-1   4.710463341325522E-3  -9.472094774246216E-1   1.397731751203537E-1  
 3.820000000000000E7     9.650870561599731E-1   7.050263136625290E-2   2.337060570716858E-1  -1.317679695785046E-2   2.332403063774109E-1  -1.371724437922239E-2  -9.459973573684692E-1   2.017020136117935E-1  
 3.850000000000000E7     9.753794074058533E-1  -9.859109297394753E-3   1.994442343711853E-1  -2.548182196915150E-2   1.991265565156937E-1  -2.616302855312824E-2  -9.418519139289856E-1   2.562633752822876E-1  
 3.880000000000000E7     9.769901037216187E-1  -8.302970230579376E-2   1.707731038331986E-1  -3.353196009993553E-2   1.701193153858185E-1  -3.324097394943237E-2  -9.331353902816773E-1   3.052357137203217E-1  
 3.910000000000000E7     9.736683964729309E-1  -1.526341438293457E-1   1.453638672828674E-1  -3.737884759902954E-2   1.455926448106766E-1  -3.738702461123467E-2  -9.231384992599487E-1   3.498154878616333E-1  
 3.940000000000000E7     9.625056385993958E-1  -2.164806574583054E-1   1.239492371678352E-1  -3.875098004937172E-2   1.238458529114723E-1  -3.894077613949776E-2  -9.094150662422180E-1   3.882110118865967E-1  
 3.970000000000000E7     9.505558609962463E-1  -2.768002450466156E-1   1.057498157024384E-1  -3.904431685805321E-2   1.057461649179459E-1  -3.912786766886711E-2  -8.945395350456238E-1   4.239791631698608E-1  
 4.000000000000000E7     9.336761832237244E-1  -3.333686590194702E-1   9.016310423612595E-2  -3.837524726986885E-2   9.015747904777527E-2  -3.838463127613068E-2  -8.818078637123108E-1   4.559394717216492E-1  
 4.030000000000000E7     9.150475263595581E-1  -3.857373595237732E-1   7.709331065416336E-2  -3.676016256213188E-2   7.677901536226273E-2  -3.686034306883812E-2  -8.675957918167114E-1   4.855485856533051E-1  
 4.060000000000000E7     8.934976458549500E-1  -4.355196952819824E-1   6.548546999692917E-2  -3.468941152095795E-2   6.545323133468628E-2  -3.473682329058647E-2  -8.523264527320862E-1   5.124558210372925E-1  
 4.090000000000000E7     8.700916171073914E-1  -4.828515648841858E-1   5.560421571135521E-2  -3.254797309637070E-2   5.538447573781014E-2  -3.268198668956757E-2  -8.378233313560486E-1   5.365869402885437E-1  
 4.120000000000000E7     8.456996679306030E-1  -5.267640948295593E-1   4.708861187100411E-2  -3.005204163491726E-2   4.714307561516762E-2  -3.003958612680435E-2  -8.223351240158081E-1   5.608155727386475E-1  
 4.150000000000000E7     8.187752366065979E-1  -5.669624209403992E-1   4.004555940628052E-2  -2.776087261736393E-2   3.995541483163834E-2  -2.757570147514343E-2  -8.077130913734436E-1   5.823417305946350E-1  
 4.180000000000000E7     7.908285856246948E-1  -6.068295836448669E-1   3.372232615947723E-2  -2.531761117279530E-2   3.369229286909103E-2  -2.522950433194637E-2  -7.940357923507690E-1   6.012318730354309E-1  
 4.210000000000000E7     7.620404958724976E-1  -6.427128314971924E-1   2.852402627468109E-2  -2.290821634232998E-2   2.846655622124672E-2  -2.289871126413345E-2  -7.798345685005188E-1   6.209915280342102E-1  
 4.240000000000000E7     7.315201759338379E-1  -6.761910915374756E-1   2.387518063187599E-2  -2.052147313952446E-2   2.399264462292194E-2  -2.058844268321991E-2  -7.662711143493652E-1   6.386658549308777E-1  
 4.270000000000000E7     7.002307772636414E-1  -7.086562514305115E-1   1.991664990782738E-2  -1.837943866848946E-2   1.991301774978638E-2  -1.839535869657993E-2  -7.514851093292236E-1   6.563642621040344E-1  
 4.300000000000000E7     6.680236458778381E-1  -7.401799559593201E-1   1.655613444745541E-2  -1.640842296183109E-2   1.655804365873337E-2  -1.631245762109757E-2  -7.379355430603027E-1   6.728740930557251E-1  
 4.330000000000000E7     6.377555131912231E-1  -7.677002549171448E-1   1.370184496045113E-2  -1.434458140283823E-2   1.370224915444851E-2  -1.435905694961548E-2  -7.231241464614868E-1   6.867452859878540E-1  
 4.360000000000000E7     6.030741333961487E-1  -7.940660715103149E-1   1.141617260873318E-2  -1.247844286262989E-2   1.128694508224726E-2  -1.253782212734222E-2  -7.101345658302307E-1   7.011932134628296E-1  
 4.390000000000000E7     5.690396428108215E-1  -8.202978372573853E-1   9.236207231879234E-3  -1.082699000835419E-2   9.197254665195942E-3  -1.090094726532698E-2  -6.955286860466003E-1   7.141407728195190E-1  
 4.420000000000000E7     5.344269871711731E-1  -8.419232368469238E-1   7.437385153025389E-3  -9.354389272630215E-3   7.380170281976461E-3  -9.323142468929291E-3  -6.812824606895447E-1   7.270658612251282E-1  
 4.450000000000000E7     4.994381964206696E-1  -8.631905317306519E-1   5.993391852825880E-3  -7.946328260004520E-3   5.889101885259152E-3  -7.916999980807304E-3  -6.692940592765808E-1   7.392349839210510E-1  
 4.480000000000000E7     4.642140567302704E-1  -8.827278614044190E-1   4.655951168388128E-3  -6.624085828661919E-3   4.781662952154875E-3  -6.630188319832087E-3  -6.563053131103516E-1   7.511094212532044E-1  
 4.510000000000000E7     4.299629330635071E-1  -9.007648229598999E-1   3.685194533318281E-3  -5.457220599055290E-3   3.680270165205002E-3  -5.516568198800087E-3  -6.430686116218567E-1   7.629306912422180E-1  
 4.540000000000000E7     3.932082951068878E-1  -9.164623022079468E-1   2.810114761814475E-3  -4.436036106199026E-3   2.783412812277675E-3  -4.398336634039879E-3  -6.297498941421509E-1   7.742860913276672E-1  
 4.570000000000000E7     3.568401336669922E-1  -9.317052960395813E-1   2.109578577801585E-3  -3.598307026550174E-3   2.007288392633200E-3  -3.585198195651174E-3  -6.162547469139099E-1   7.842865586280823E-1  
 4.600000000000000E7     3.225700855255127E-1  -9.440859556198120E-1   1.567757921293378E-3  -2.765928162261844E-3   1.580880838446319E-3  -2.782074967399240E-3  -6.042896509170532E-1   7.939124703407288E-1  
 4.630000000000000E7     2.835087180137634E-1  -9.566644430160523E-1   1.110278884880245E-3  -2.030075527727604E-3   1.095647341571748E-3  -2.139060758054256E-3  -5.917375087738037E-1   8.035972118377686E-1  
 4.660000000000000E7     2.462935149669647E-1  -9.678657054901123E-1   7.520581712014973E-4  -1.544903265312314E-3   6.605213857255876E-4  -1.493438147008419E-3  -5.772591233253479E-1   8.135371208190918E-1  
 4.690000000000000E7     2.100242972373962E-1  -9.755183458328247E-1   4.896415048278868E-4  -1.038404763676226E-3   3.304668935015798E-4  -1.077540568076074E-3  -5.653226971626282E-1   8.222476840019226E-1  
 4.720000000000000E7     1.725435405969620E-1  -9.823048710823059E-1   2.927205350715667E-4  -6.517095607705414E-4   2.300566702615470E-4  -6.521982722915709E-4  -5.517640709877014E-1   8.307222127914429E-1  
 4.750000000000000E7     1.363507211208344E-1  -9.888843297958374E-1   1.223732397193089E-4  -4.111710295546800E-4   1.248877088073641E-4  -3.158758918289095E-4  -5.395306348800659E-1   8.392316102981567E-1  
 4.780000000000000E7     1.000080779194832E-1  -9.929354786872864E-1  -2.834177030308638E-5  -6.809900514781475E-5   5.355257235351019E-5  -1.449304545531049E-4  -5.258488655090332E-1   8.462692499160767E-1  
 4.810000000000000E7     6.247963383793831E-2  -9.960464835166931E-1  -1.662368413235527E-5  -1.125944800151046E-5  -5.013180725654820E-6  -1.310528314206749E-4  -5.151771306991577E-1   8.543887138366699E-1  
 4.840000000000000E7     2.584506757557392E-2  -9.981550574302673E-1  -5.381964456319111E-7  -1.581458127475344E-5   1.369326218991773E-5   4.436786912265234E-5  -5.016286373138428E-1   8.617748618125916E-1  
 4.870000000000000E7    -1.102323085069656E-2  -9.980882406234741E-1  -7.145936979213730E-5  -3.052033935091458E-5  -4.316963895689696E-5  -2.002466135309078E-5  -4.894362092018127E-1   8.688414692878723E-1  
 4.900000000000000E7    -4.747606441378593E-2  -9.978402853012085E-1   3.339485829201294E-6  -1.243320584762842E-4   4.751329106511548E-5  -1.719953870633617E-4  -4.774405956268311E-1   8.752382993698120E-1  
 4.930000000000000E7    -8.405183255672455E-2  -9.954624772071838E-1   7.691911014262587E-5  -2.598092542029917E-4  -2.440840580675285E-5  -2.694664872251451E-4  -4.645365178585053E-1   8.823539614677429E-1  
 4.960000000000000E7    -1.199328005313873E-1  -9.896088838577271E-1   1.275977410841733E-4  -5.329460836946964E-4   6.439870048779994E-6  -5.608742358162999E-4  -4.523957967758179E-1   8.885520696640015E-1  
 4.990000000000000E7    -1.546926796436310E-1  -9.851445555686951E-1   1.507367705926299E-4  -6.973905838094652E-4   1.148043374996632E-4  -7.747206836938858E-4  -4.400155842304230E-1   8.945919275283814E-1  
 5.020000000000000E7    -1.894042193889618E-1  -9.803668856620789E-1   9.275192132918164E-5  -1.106068957597017E-3   1.211141643580049E-4  -1.124472124502063E-3  -4.280288815498352E-1   9.007796049118042E-1  
 5.050000000000000E7    -2.252418249845505E-1  -9.724208116531372E-1   1.243605947820470E-4  -1.459194347262383E-3   1.298963325098157E-4  -1.475851517170668E-3  -4.161171615123749E-1   9.073966145515442E-1  
 5.080000000000000E7    -2.590186595916748E-1  -9.642713069915772E-1   1.048433259711601E-4  -1.931017497554421E-3   1.112939280574210E-4  -1.904804725199938E-3  -4.028949737548828E-1   9.111309647560120E-1  
 5.110000000000000E7    -2.943183779716492E-1  -9.539194107055664E-1   9.231836884282529E-5  -2.370764967054129E-3   1.135097190854140E-4  -2.387834712862968E-3  -3.921232819557190E-1   9.172046184539795E-1  
 5.140000000000000E7    -3.277511298656464E-1  -9.422627091407776E-1   2.180872252210975E-5  -2.895083744078875E-3   4.413611895870417E-5  -2.900593215599656E-3  -3.791117072105408E-1   9.239868521690369E-1  
 5.170000000000000E7    -3.601630032062531E-1  -9.303184151649475E-1  -4.529606667347252E-5  -3.440975910052657E-3  -1.390304532833397E-5  -3.442820627242327E-3  -3.664993345737457E-1   9.272328615188599E-1  
 5.200000000000000E7    -3.933298885822296E-1  -9.187086820602417E-1  -1.825518847908825E-4  -4.008228424936533E-3  -1.061243528965861E-4  -4.048237577080727E-3  -3.536871969699860E-1   9.306029677391052E-1  
 5.230000000000000E7    -4.254861474037170E-1  -9.025468826293945E-1  -2.335579774808139E-4  -4.607154987752438E-3  -2.674431307241321E-4  -4.635511897504330E-3  -3.422991335391998E-1   9.366307258605957E-1  
 5.260000000000000E7    -4.559645056724548E-1  -8.865221738815308E-1  -4.362690378911793E-4  -5.266238003969193E-3  -3.759494284167886E-4  -5.278242286294699E-3  -3.300660252571106E-1   9.409209489822388E-1  
 5.290000000000000E7    -4.878227114677429E-1  -8.705830574035645E-1  -6.042640306986868E-4  -5.951992701739073E-3  -5.767096299678087E-4  -5.982691422104836E-3  -3.181321024894714E-1   9.445467591285706E-1  
 5.320000000000000E7    -5.170869231224060E-1  -8.539245724678040E-1  -8.374932804144919E-4  -6.650236900895834E-3  -8.285318617708981E-4  -6.627879571169615E-3  -3.058515191078186E-1   9.489657282829285E-1  
 5.350000000000000E7    -5.457230210304260E-1  -8.347220420837402E-1  -1.071476610377431E-3  -7.332512643188238E-3  -1.065318007022142E-3  -7.323693484067917E-3  -2.951241135597229E-1   9.529493451118469E-1  
 5.380000000000000E7    -5.731918811798096E-1  -8.154028654098511E-1  -1.354201463982463E-3  -8.100536651909351E-3  -1.361886970698834E-3  -8.066629990935326E-3  -2.814366221427918E-1   9.560277462005615E-1  
 5.410000000000000E7    -6.040047407150269E-1  -7.953995466232300E-1  -1.763012842275202E-3  -8.839411661028862E-3  -1.726564951241016E-3  -8.797982707619667E-3  -2.697576880455017E-1   9.598799943923950E-1  
 5.440000000000000E7    -6.306784749031067E-1  -7.727903127670288E-1  -2.128028543666005E-3  -9.553589858114719E-3  -2.126990584656596E-3  -9.585194289684296E-3  -2.579574286937714E-1   9.628139734268189E-1  
 5.470000000000000E7    -6.556297540664673E-1  -7.516378760337830E-1  -2.503413707017899E-3  -1.032722648233175E-2  -2.545987255871296E-3  -1.038215309381485E-2  -2.452773749828339E-1   9.659174084663391E-1  
 5.500000000000000E7    -6.821126341819763E-1  -7.281852364540100E-1  -3.016314003616571E-3  -1.116713881492615E-2  -3.015303518623114E-3  -1.113675348460674E-2  -2.326531261205673E-1   9.699411392211914E-1  
 5.530000000000000E7    -7.064805030822754E-1  -7.048494815826416E-1  -3.504477906972170E-3  -1.196495071053505E-2  -3.538321470841765E-3  -1.192133687436581E-2  -2.209048867225647E-1   9.717988967895508E-1  
 5.560000000000000E7    -7.312101125717163E-1  -6.790680289268494E-1  -4.095133394002914E-3  -1.272741518914700E-2  -4.036655649542809E-3  -1.270420290529728E-2  -2.093035876750946E-1   9.745070338249207E-1  
 5.590000000000000E7    -7.539234161376953E-1  -6.547280550003052E-1  -4.662043415009975E-3  -1.349704805761576E-2  -4.689892288297415E-3  -1.350514125078917E-2  -1.961363404989243E-1   9.772995710372925E-1  
 5.620000000000000E7    -7.759959697723389E-1  -6.265875101089478E-1  -5.339580122381449E-3  -1.429995708167553E-2  -5.281027872115374E-3  -1.424619648605585E-2  -1.851274818181992E-1   9.800374507904053E-1  
 5.650000000000000E7    -7.959082126617432E-1  -6.012018322944641E-1  -5.985720548778772E-3  -1.503674313426018E-2  -5.974456667900085E-3  -1.503144856542349E-2  -1.725615859031677E-1   9.816954731941223E-1  
 5.680000000000000E7    -8.165504336357117E-1  -5.733222365379334E-1  -6.790021900087595E-3  -1.583517901599407E-2  -6.760565564036369E-3  -1.581513695418835E-2  -1.602320969104767E-1   9.828356504440308E-1  
 5.710000000000000E7    -8.360497951507568E-1  -5.439981818199158E-1  -7.580330595374107E-3  -1.660092920064926E-2  -7.600266486406326E-3  -1.658768579363823E-2  -1.483509540557861E-1   9.855173826217651E-1  
 5.740000000000000E7    -8.546124696731567E-1  -5.152484774589539E-1  -8.412161841988564E-3  -1.733607798814774E-2  -8.394054137170315E-3  -1.732832752168179E-2  -1.354545354843140E-1   9.871796965599060E-1  
 5.770000000000000E7    -8.704984188079834E-1  -4.865379333496094E-1  -9.215150959789753E-3  -1.811406947672367E-2  -9.167884476482868E-3  -1.809368468821049E-2  -1.249332353472710E-1   9.880747795104981E-1  
 5.800000000000000E7    -8.868254423141480E-1  -4.553031027317047E-1  -1.023749168962240E-2  -1.885089091956615E-2  -1.024382282048464E-2  -1.877245306968689E-2  -1.113704964518547E-1   9.911618828773499E-1  
 5.830000000000000E7    -9.017491936683655E-1  -4.250829815864563E-1  -1.114211231470108E-2  -1.952095143496990E-2  -1.112582813948393E-2  -1.953831873834133E-2  -1.004326790571213E-1   9.920749664306641E-1  
 5.860000000000000E7    -9.170080423355103E-1  -3.948342204093933E-1  -1.218246575444937E-2  -2.023082599043846E-2  -1.221468392759562E-2  -2.022242359817028E-2  -8.759853243827820E-2   9.928062558174133E-1  
 5.890000000000000E7    -9.288296699523926E-1  -3.627385795116425E-1  -1.323573756963015E-2  -2.092363126575947E-2  -1.322133559733629E-2  -2.094192802906036E-2  -7.644635438919067E-2   9.934420585632324E-1  
 5.920000000000000E7    -9.407496452331543E-1  -3.300944268703461E-1  -1.440286636352539E-2  -2.154861390590668E-2  -1.438596937805414E-2  -2.149891108274460E-2  -6.388276815414429E-2   9.952794909477234E-1  
 5.950000000000000E7    -9.512563347816467E-1  -2.979949712753296E-1  -1.553784962743521E-2  -2.213075384497643E-2  -1.552271936088800E-2  -2.214349806308746E-2  -5.166581273078919E-2   9.940618276596069E-1  
 5.980000000000000E7    -9.610768556594849E-1  -2.648654878139496E-1  -1.686329022049904E-2  -2.268334105610848E-2  -1.671475358307362E-2  -2.272377163171768E-2  -3.884495794773102E-2   9.952905774116516E-1  
 6.010000000000000E7    -9.680250287055969E-1  -2.335070371627808E-1  -1.795593090355396E-2  -2.340314164757729E-2  -1.794548891484737E-2  -2.333365939557552E-2  -2.737554907798767E-2   9.961507916450501E-1  
 6.040000000000000E7    -9.762277603149414E-1  -1.989179104566574E-1  -1.933219283819199E-2  -2.390876039862633E-2  -1.935792341828346E-2  -2.390123344957829E-2  -1.509390771389008E-2   9.972508549690247E-1  
 6.070000000000000E7    -9.830856919288635E-1  -1.670244783163071E-1  -2.069582045078278E-2  -2.444140054285526E-2  -2.058380842208862E-2  -2.439946308732033E-2  -3.722086548805237E-3   9.961140751838684E-1  
 6.100000000000000E7    -9.876278638839722E-1  -1.334012597799301E-1  -2.213669382035732E-2  -2.481434680521488E-2  -2.211437560617924E-2  -2.481185644865036E-2   1.013451814651489E-2   9.966289997100830E-1  
 6.130000000000000E7    -9.921329021453857E-1  -9.874804317951202E-2  -2.360608056187630E-2  -2.528959698975086E-2  -2.354164049029350E-2  -2.530740387737751E-2   2.226845920085907E-2   9.967589378356934E-1  
 6.160000000000000E7    -9.942579865455627E-1  -6.553663313388825E-2  -2.497125789523125E-2  -2.565017715096474E-2  -2.499798312783241E-2  -2.563772164285183E-2   3.302067518234253E-2   9.951389431953430E-1  
 6.190000000000000E7    -9.959042668342590E-1  -3.209182620048523E-2  -2.648889459669590E-2  -2.608078904449940E-2  -2.644838020205498E-2  -2.592963539063931E-2   4.482443630695343E-2   9.941567778587341E-1  
 6.220000000000000E7    -9.964460134506226E-1   1.935362815856934E-3  -2.809715270996094E-2  -2.634490840137005E-2  -2.810835838317871E-2  -2.634126693010330E-2   5.641286075115204E-2   9.948680400848389E-1  
 6.250000000000000E7    -9.959540963172913E-1   3.579160571098328E-2  -2.972637489438057E-2  -2.658744342625141E-2  -2.972825244069099E-2  -2.660932391881943E-2   6.838196516036987E-2   9.941863417625427E-1  
 6.280000000000000E7    -9.930981993675232E-1   6.967193633317947E-2  -3.148816525936127E-2  -2.678967267274857E-2  -3.131881356239319E-2  -2.689681202173233E-2   8.095624297857285E-2   9.931610226631165E-1  
 6.310000000000000E7    -9.900140166282654E-1   1.044115647673607E-1  -3.315541893243790E-2  -2.697856351733208E-2  -3.302463144063950E-2  -2.699810080230236E-2   9.290648251771927E-2   9.922516942024231E-1  
 6.340000000000000E7    -9.860023260116577E-1   1.374887973070145E-1  -3.483446314930916E-2  -2.714348398149014E-2  -3.482313081622124E-2  -2.709268033504486E-2   1.054799854755402E-1   9.909821152687073E-1  
 6.370000000000000E7    -9.805501699447632E-1   1.711275577545166E-1  -3.667850792407990E-2  -2.715373411774635E-2  -3.664231300354004E-2  -2.710992842912674E-2   1.170829534530640E-1   9.886938333511353E-1  
 6.400000000000000E7    -9.733054041862488E-1   2.039030939340591E-1  -3.847884014248848E-2  -2.707178145647049E-2  -3.843641653656960E-2  -2.703176438808441E-2   1.295013129711151E-1   9.880377054214478E-1  
 6.430000000000000E7    -9.658944606781006E-1   2.381555140018463E-1  -4.037377983331680E-2  -2.717866376042366E-2  -4.027675837278366E-2  -2.693575806915760E-2   1.413833200931549E-1   9.860030412673950E-1  
 6.460000000000000E7    -9.577686190605164E-1   2.708417773246765E-1  -4.212838038802147E-2  -2.693778835237026E-2  -4.215363785624504E-2  -2.691510692238808E-2   1.523094177246094E-1   9.834659099578857E-1  
 6.490000000000000E7    -9.487537741661072E-1   3.028070032596588E-1  -4.411383718252182E-2  -2.677465975284576E-2  -4.414280503988266E-2  -2.685800939798355E-2   1.641154438257217E-1   9.823823571205139E-1  
 6.520000000000000E7    -9.369872808456421E-1   3.347945213317871E-1  -4.612613841891289E-2  -2.670572698116303E-2  -4.605995491147041E-2  -2.652270346879959E-2   1.766963750123978E-1   9.807971119880676E-1  
 6.550000000000000E7    -9.254086613655090E-1   3.660365939140320E-1  -4.820394143462181E-2  -2.628228068351746E-2  -4.811581596732140E-2  -2.625800110399723E-2   1.883046925067902E-1   9.767882823944092E-1  
 6.580000000000000E7    -9.117984175682068E-1   3.978478908538818E-1  -5.017216131091118E-2  -2.562801912426949E-2  -5.009075626730919E-2  -2.589191310107708E-2   2.004421949386597E-1   9.757111072540283E-1  
 6.610000000000000E7    -8.967103362083435E-1   4.283281564712524E-1  -5.221052467823029E-2  -2.526936493813992E-2  -5.199129879474640E-2  -2.505999617278576E-2   2.134654968976975E-1   9.715036153793335E-1  
 6.640000000000000E7    -8.831184506416321E-1   4.589630365371704E-1  -5.434273183345795E-2  -2.493045851588249E-2  -5.431975051760674E-2  -2.499750629067421E-2   2.251372933387756E-1   9.692747592926025E-1  
 6.670000000000000E7    -8.662458658218384E-1   4.885770082473755E-1  -5.650737881660461E-2  -2.423163689672947E-2  -5.629931390285492E-2  -2.433941885828972E-2   2.359185516834259E-1   9.671857953071594E-1  
 6.700000000000000E7    -8.484494090080261E-1   5.180558562278748E-1  -5.859788879752159E-2  -2.358416654169560E-2  -5.831798538565636E-2  -2.351466193795204E-2   2.478783875703812E-1   9.627791047096252E-1  
 6.730000000000000E7    -8.301875591278076E-1   5.467816591262817E-1  -6.058939918875694E-2  -2.293516136705875E-2  -6.062841415405273E-2  -2.265947312116623E-2   2.604161202907562E-1   9.608964920043945E-1  
 6.760000000000000E7    -8.114216923713684E-1   5.748778581619263E-1  -6.301727145910263E-2  -2.181635983288288E-2  -6.275649368762970E-2  -2.196316234767437E-2   2.724443674087524E-1   9.567359685897827E-1  
 6.790000000000000E7    -7.903559803962708E-1   6.026880741119385E-1  -6.506606191396713E-2  -2.107565663754940E-2  -6.500586122274399E-2  -2.102384343743324E-2   2.829750776290894E-1   9.529542922973633E-1  
 6.820000000000000E7    -7.690938115119934E-1   6.280913949012756E-1  -6.712440401315689E-2  -1.997118256986141E-2  -6.713780015707016E-2  -2.003725059330463E-2   2.947629094123840E-1   9.499090313911438E-1  
 6.850000000000000E7    -7.473093271255493E-1   6.556362509727478E-1  -6.970210373401642E-2  -1.902143470942974E-2  -6.943762302398682E-2  -1.902076043188572E-2   3.058374524116516E-1   9.462557435035706E-1  
 6.880000000000000E7    -7.240679860115051E-1   6.800227761268616E-1  -7.180433720350266E-2  -1.782233081758022E-2  -7.144026458263397E-2  -1.773488894104958E-2   3.186168074607849E-1   9.412355422973633E-1  
 6.910000000000000E7    -7.002171277999878E-1   7.046321034431458E-1  -7.409515976905823E-2  -1.656956039369106E-2  -7.394649833440781E-2  -1.651149801909924E-2   3.307089507579804E-1   9.376618266105652E-1  
 6.940000000000000E7    -6.757975816726685E-1   7.281176447868347E-1  -7.638907432556152E-2  -1.524827256798744E-2  -7.638153433799744E-2  -1.516507100313902E-2   3.412980139255524E-1   9.337192177772522E-1  
 6.970000000000000E7    -6.491454839706421E-1   7.511116862297058E-1  -7.861216366291046E-2  -1.378008071333170E-2  -7.863526046276093E-2  -1.354575064033270E-2   3.535299897193909E-1   9.285573363304138E-1  
 7.000000000000000E7    -6.229145526885986E-1   7.734024524688721E-1  -8.095095306634903E-2  -1.224269811064005E-2  -8.079674839973450E-2  -1.204647868871689E-2   3.648189604282379E-1   9.246304035186768E-1  
