#  HZ   S   RI   R     50.00 
! Rohde & Schwarz ZVT8 8Ports - Version 4.11 - 1300.0000k08 SN: 100242
! Date: 2026-07-31 14:25:45
! Measurements: S11 S21 S12 S22 
! 
 1.000000000000000E7    -4.014110863208771E-1   9.117581248283386E-1   5.446264520287514E-2   5.472255125641823E-2   5.426389724016190E-2   5.464369058609009E-2  -9.160503745079041E-1   3.914911746978760E-1  
 1.030000000000000E7    -3.687781989574432E-1   9.240971207618713E-1   5.797040462493897E-2   5.502538010478020E-2   5.784305185079575E-2   5.514813587069511E-2  -9.097837209701538E-1   4.047005176544190E-1  
 1.060000000000000E7    -3.319860100746155E-1   9.375509619712830E-1   6.188265606760979E-2   5.606773495674133E-2   6.180166453123093E-2   5.576304718852043E-2  -9.052767753601074E-1   4.167771339416504E-1  
 1.090000000000000E7    -3.002585172653198E-1   9.478046298027039E-1   6.573712080717087E-2   5.653705075383186E-2   6.540875881910324E-2   5.651341378688812E-2  -8.993933200836182E-1   4.297509193420410E-1  
 1.120000000000000E7    -2.641073167324066E-1   9.573081731796265E-1   6.994697451591492E-2   5.747175589203835E-2   6.963762640953064E-2   5.724447965621948E-2  -8.929181098937988E-1   4.420853853225708E-1  
 1.150000000000000E7    -2.282220721244812E-1   9.672964811325073E-1   7.388223707675934E-2   5.750670284032822E-2   7.380780577659607E-2   5.756327882409096E-2  -8.850203752517700E-1   4.528710842132568E-1  
 1.180000000000000E7    -1.928396672010422E-1   9.724274277687073E-1   7.813323289155960E-2   5.800804123282433E-2   7.805204391479492E-2   5.792957544326782E-2  -8.800734877586365E-1   4.639052152633667E-1  
 1.210000000000000E7    -1.575137227773666E-1   9.792911410331726E-1   8.288365602493286E-2   5.838055163621903E-2   8.261412382125855E-2   5.810286849737167E-2  -8.715758919715881E-1   4.776884317398071E-1  
 1.240000000000000E7    -1.213501393795013E-1   9.835398197174072E-1   8.750130236148834E-2   5.845066905021668E-2   8.738794177770615E-2   5.790597945451737E-2  -8.639706969261169E-1   4.885708689689636E-1  
 1.270000000000000E7    -8.481226861476898E-2   9.866155982017517E-1   9.284396469593048E-2   5.792124569416046E-2   9.222203493118286E-2   5.789748951792717E-2  -8.563196659088135E-1   5.035941600799561E-1  
 1.300000000000000E7    -4.892249405384064E-2   9.893972277641296E-1   9.767550230026245E-2   5.771221593022347E-2   9.754237532615662E-2   5.764339864253998E-2  -8.477940559387207E-1   5.154120326042175E-1  
 1.330000000000000E7    -1.164848171174526E-2   9.906650781631470E-1   1.030933633446693E-1   5.750979483127594E-2   1.031344160437584E-1   5.692284181714058E-2  -8.386522531509399E-1   5.283379554748535E-1  
 1.360000000000000E7     2.699440903961659E-2   9.895547032356262E-1   1.086133718490601E-1   5.693848058581352E-2   1.087053492665291E-1   5.630287155508995E-2  -8.303085565567017E-1   5.393799543380737E-1  
 1.390000000000000E7     6.285404413938522E-2   9.865263700485230E-1   1.145968735218048E-1   5.575997754931450E-2   1.143167912960053E-1   5.580494180321693E-2  -8.212578296661377E-1   5.530061721801758E-1  
 1.420000000000000E7     1.014491543173790E-1   9.837859272956848E-1   1.203275322914124E-1   5.514305830001831E-2   1.203090250492096E-1   5.474036186933518E-2  -8.131256699562073E-1   5.643890500068665E-1  
 1.450000000000000E7     1.383697986602783E-1   9.770369529724121E-1   1.268131881952286E-1   5.328698456287384E-2   1.267218887805939E-1   5.337192118167877E-2  -8.006248474121094E-1   5.784936547279358E-1  
 1.480000000000000E7     1.773165762424469E-1   9.706304073333740E-1   1.334221512079239E-1   5.170768871903420E-2   1.334351897239685E-1   5.206452682614327E-2  -7.918412089347839E-1   5.907322168350220E-1  
 1.510000000000000E7     2.140312492847443E-1   9.619885683059692E-1   1.399651467800140E-1   4.979678243398666E-2   1.397411674261093E-1   4.987915232777596E-2  -7.783502936363220E-1   6.042891740798950E-1  
 1.540000000000000E7     2.506689131259918E-1   9.519966840744019E-1   1.469176113605499E-1   4.875852167606354E-2   1.469075232744217E-1   4.807469621300697E-2  -7.698997855186462E-1   6.160030961036682E-1  
 1.570000000000000E7     2.884066700935364E-1   9.413301944732666E-1   1.543725878000259E-1   4.561359807848930E-2   1.543850451707840E-1   4.541926458477974E-2  -7.566448450088501E-1   6.304990649223328E-1  
 1.600000000000000E7     3.265081644058228E-1   9.271957874298096E-1   1.617889553308487E-1   4.268338903784752E-2   1.621975004673004E-1   4.233417287468910E-2  -7.446016073226929E-1   6.416540145874023E-1  
 1.630000000000000E7     3.627617359161377E-1   9.119881987571716E-1   1.705618500709534E-1   3.905770555138588E-2   1.698038280010223E-1   3.941226005554199E-2  -7.311325073242188E-1   6.563200950622559E-1  
 1.660000000000000E7     3.989729285240173E-1   8.939954638481140E-1   1.785741597414017E-1   3.512579947710037E-2   1.782310456037521E-1   3.478036075830460E-2  -7.157375216484070E-1   6.696468591690064E-1  
 1.690000000000000E7     4.348872005939484E-1   8.755041360855103E-1   1.875232905149460E-1   3.144931048154831E-2   1.870420277118683E-1   3.106916695833206E-2  -7.019613385200501E-1   6.818414330482483E-1  
 1.720000000000000E7     4.723787605762482E-1   8.555546402931213E-1   1.956816464662552E-1   2.595330961048603E-2   1.958126723766327E-1   2.639725990593433E-2  -6.865628957748413E-1   6.943770051002502E-1  
 1.750000000000000E7     5.034915208816528E-1   8.357627987861633E-1   2.062606364488602E-1   2.191653847694397E-2   2.061952650547028E-1   2.149616181850433E-2  -6.709312200546265E-1   7.092760205268860E-1  
 1.780000000000000E7     5.406121015548706E-1   8.080202937126160E-1   2.148960083723068E-1   1.517818309366703E-2   2.152624279260635E-1   1.557265222072601E-2  -6.535249352455139E-1   7.201176881790161E-1  
 1.810000000000000E7     5.728495121002197E-1   7.832391858100891E-1   2.265915274620056E-1   8.573347702622414E-3   2.250984758138657E-1   7.945917546749115E-3  -6.346567273139954E-1   7.366324067115784E-1  
 1.840000000000000E7     6.075867414474487E-1   7.545920610427856E-1   2.369448244571686E-1  -5.956459790468216E-4   2.361411452293396E-1   6.140954792499542E-5  -6.148051619529724E-1   7.486382722854614E-1  
 1.870000000000000E7     6.374388337135315E-1   7.251953482627869E-1   2.480805516242981E-1  -8.267858996987343E-3   2.469938695430756E-1  -8.611265569925308E-3  -5.936202406883240E-1   7.608376741409302E-1  
 1.900000000000000E7     6.676694154739380E-1   6.932755112648010E-1   2.593338191509247E-1  -1.752231270074844E-2   2.590244710445404E-1  -1.818332448601723E-2  -5.716162323951721E-1   7.731760740280151E-1  
 1.930000000000000E7     6.975261569023132E-1   6.578993797302246E-1   2.706691920757294E-1  -3.001343831419945E-2   2.713076472282410E-1  -2.915766462683678E-2  -5.476254224777222E-1   7.874196767807007E-1  
 1.960000000000000E7     7.256530523300171E-1   6.203507781028748E-1   2.829130589962006E-1  -4.195322468876839E-2   2.830046415328980E-1  -4.133387655019760E-2  -5.244616866111755E-1   7.984604835510254E-1  
 1.990000000000000E7     7.500271201133728E-1   5.817744135856628E-1   2.954884767532349E-1  -5.596167221665382E-2   2.961426079273224E-1  -5.599194020032883E-2  -4.951193928718567E-1   8.116952776908875E-1  
 2.020000000000000E7     7.743238806724548E-1   5.399105548858643E-1   3.091825246810913E-1  -7.148054242134094E-2   3.083733618259430E-1  -7.102292776107788E-2  -4.679808914661408E-1   8.201797604560852E-1  
 2.050000000000000E7     7.980615496635437E-1   4.951007962226868E-1   3.223023414611816E-1  -8.865463733673096E-2   3.203935027122498E-1  -8.864176273345947E-2  -4.372767508029938E-1   8.309568762779236E-1  
 2.080000000000000E7     8.162003159523010E-1   4.478842616081238E-1   3.357373774051666E-1  -1.092337220907211E-1   3.358110785484314E-1  -1.089837551116943E-1  -4.029289186000824E-1   8.414162397384644E-1  
 2.110000000000000E7     8.328619003295898E-1   3.991675674915314E-1   3.492545187473297E-1  -1.328775882720947E-1   3.491468727588654E-1  -1.326091289520264E-1  -3.666536211967468E-1   8.482463359832764E-1  
 2.140000000000000E7     8.458829522132874E-1   3.481312394142151E-1   3.622355163097382E-1  -1.592629253864288E-1   3.611180484294891E-1  -1.574415862560272E-1  -3.280028402805328E-1   8.543543219566345E-1  
 2.170000000000000E7     8.542388081550598E-1   2.954666018486023E-1   3.751115202903748E-1  -1.874823570251465E-1   3.751983046531677E-1  -1.864080727100372E-1  -2.864078283309937E-1   8.583667874336243E-1  
 2.200000000000000E7     8.596184849739075E-1   2.375442236661911E-1   3.860200345516205E-1  -2.206711769104004E-1   3.862588703632355E-1  -2.202513515949249E-1  -2.400769591331482E-1   8.582479953765869E-1  
 2.230000000000000E7     8.578905463218689E-1   1.798136234283447E-1   3.961719274520874E-1  -2.577311992645264E-1   3.959809243679047E-1  -2.565867900848389E-1  -1.923292875289917E-1   8.549659848213196E-1  
 2.260000000000000E7     8.515102267265320E-1   1.195523366332054E-1   4.034741520881653E-1  -2.991389632225037E-1   4.055277109146118E-1  -3.001551330089569E-1  -1.408495604991913E-1   8.470664620399475E-1  
 2.290000000000000E7     8.378918170928955E-1   5.865568667650223E-2   4.084888696670532E-1  -3.464199006557465E-1   4.094686210155487E-1  -3.461782932281494E-1  -8.438974618911743E-2   8.330163359642029E-1  
 2.320000000000000E7     8.152425885200501E-1  -1.298379153013229E-3   4.080457687377930E-1  -4.003210067749023E-1   4.071831703186035E-1  -4.003024697303772E-1  -2.654849737882614E-2   8.151591420173645E-1  
 2.350000000000000E7     7.840431928634644E-1  -6.136485934257507E-2   4.005370736122131E-1  -4.597504138946533E-1   4.010366201400757E-1  -4.580414891242981E-1   3.366333246231079E-2   7.861478328704834E-1  
 2.380000000000000E7     7.440157532691956E-1  -1.183305755257607E-1   3.872203230857849E-1  -5.218663811683655E-1   3.871680498123169E-1  -5.220199227333069E-1   9.541045129299164E-2   7.470623850822449E-1  
 2.410000000000000E7     6.939589381217957E-1  -1.699644178152084E-1   3.611842989921570E-1  -5.906627774238586E-1   3.606683015823364E-1  -5.894997119903565E-1   1.554870456457138E-1   6.961869597434998E-1  
 2.440000000000000E7     6.332862377166748E-1  -2.112683653831482E-1   3.223604559898377E-1  -6.621910929679871E-1   3.220499455928803E-1  -6.626217961311340E-1   2.106416821479797E-1   6.319091320037842E-1  
 2.470000000000000E7     5.650504231452942E-1  -2.426075786352158E-1   2.683405280113220E-1  -7.337387800216675E-1   2.702413797378540E-1  -7.318437695503235E-1   2.619367539882660E-1   5.527943968772888E-1  
 2.500000000000000E7     4.886297881603241E-1  -2.617499828338623E-1   1.986459791660309E-1  -8.006155490875244E-1   1.969826221466065E-1  -8.014019727706909E-1   2.996760308742523E-1   4.632104933261871E-1  
 2.530000000000000E7     4.078581929206848E-1  -2.597295045852661E-1   1.102499514818192E-1  -8.618474006652832E-1   1.110328733921051E-1  -8.595485687255859E-1   3.207100331783295E-1   3.591157197952271E-1  
 2.560000000000000E7     3.320320248603821E-1  -2.409390658140183E-1   7.110781967639923E-3  -9.060329198837280E-1   6.730481050908566E-3  -9.050954580307007E-1   3.204329311847687E-1   2.483634203672409E-1  
 2.590000000000000E7     2.687298357486725E-1  -2.003024220466614E-1  -1.112665608525276E-1  -9.279444217681885E-1  -1.117051467299461E-1  -9.291682243347168E-1   3.001184165477753E-1   1.388461589813232E-1  
 2.620000000000000E7     2.173594832420349E-1  -1.448267996311188E-1  -2.366666793823242E-1  -9.294601082801819E-1  -2.351158112287521E-1  -9.281306266784668E-1   2.535199522972107E-1   3.205436468124390E-2  
 2.650000000000000E7     1.836876273155212E-1  -8.019752800464630E-2  -3.585641682147980E-1  -9.041144251823425E-1  -3.595843315124512E-1  -9.042236804962158E-1   1.829918026924133E-1  -5.995095148682594E-2  
 2.680000000000000E7     1.743414849042893E-1  -1.143147423863411E-2  -4.739974141120911E-1  -8.549531698226929E-1  -4.740324318408966E-1  -8.555351495742798E-1   9.704874455928803E-2  -1.313401609659195E-1  
 2.710000000000000E7     1.849219053983688E-1   4.966261610388756E-2  -5.751817822456360E-1  -7.875692248344421E-1  -5.767192244529724E-1  -7.856270074844360E-1   6.100978702306747E-3  -1.831684261560440E-1  
 2.740000000000000E7     2.131817787885666E-1   1.071253567934036E-1  -6.596854925155640E-1  -7.038251757621765E-1  -6.602858901023865E-1  -7.043759226799011E-1  -9.412951767444611E-2  -2.083798795938492E-1  
 2.770000000000000E7     2.543371915817261E-1   1.455778777599335E-1  -7.243435382843018E-1  -6.135211586952210E-1  -7.262588739395142E-1  -6.152391433715820E-1  -1.862732917070389E-1  -2.160506695508957E-1  
 2.800000000000000E7     3.024178743362427E-1   1.721432507038117E-1  -7.729906439781189E-1  -5.189203619956970E-1  -7.715002894401550E-1  -5.218474864959717E-1  -2.750599384307861E-1  -2.066846936941147E-1  
 2.830000000000000E7     3.540328741073608E-1   1.821043044328690E-1  -8.052623867988586E-1  -4.271035790443420E-1  -8.052050471305847E-1  -4.265310764312744E-1  -3.474392890930176E-1  -1.853952854871750E-1  
 2.860000000000000E7     4.061565101146698E-1   1.767260134220123E-1  -8.241137862205505E-1  -3.374869823455811E-1  -8.243384361267090E-1  -3.370554149150848E-1  -4.120418727397919E-1  -1.531979292631149E-1  
 2.890000000000000E7     4.537870585918427E-1   1.577977240085602E-1  -8.344029784202576E-1  -2.528294324874878E-1  -8.325020670890808E-1  -2.522124946117401E-1  -4.643984436988831E-1  -1.154598295688629E-1  
 2.920000000000000E7     4.982242882251740E-1   1.303086131811142E-1  -8.346499204635620E-1  -1.726077198982239E-1  -8.337747454643250E-1  -1.712086349725723E-1  -5.069264173507690E-1  -7.504579424858093E-2  
 2.950000000000000E7     5.324378013610840E-1   9.039062261581421E-2  -8.307649493217468E-1  -9.849682450294495E-2  -8.298304080963135E-1  -9.811104834079742E-2  -5.383813977241516E-1  -3.178500756621361E-2  
 2.980000000000000E7     5.596956014633179E-1   4.497930780053139E-2  -8.212460875511169E-1  -2.688938006758690E-2  -8.221025466918945E-1  -2.760193496942520E-2  -5.599256157875061E-1   1.056943275034428E-2  
 3.010000000000000E7     5.762278437614441E-1  -8.577879518270493E-3  -8.107482194900513E-1   4.098111391067505E-2  -8.092901706695557E-1   3.922404348850250E-2  -5.747466683387756E-1   5.144530534744263E-2  
 3.040000000000000E7     5.848101973533630E-1  -6.882990151643753E-2  -7.955330014228821E-1   1.052478104829788E-1  -7.975483536720276E-1   1.061350479722023E-1  -5.796647071838379E-1   8.941050618886948E-2  
 3.070000000000000E7     5.796364545822144E-1  -1.308345049619675E-1  -7.796402573585510E-1   1.720286607742310E-1  -7.789057493209839E-1   1.705596745014191E-1  -5.816041231155396E-1   1.233775243163109E-1  
 3.100000000000000E7     5.607488155364990E-1  -1.973458826541901E-1  -7.613554000854492E-1   2.360878139734268E-1  -7.603342533111572E-1   2.358921915292740E-1  -5.766152739524841E-1   1.545864790678024E-1  
 3.130000000000000E7     5.285376906394959E-1  -2.632851898670197E-1  -7.406367659568787E-1   3.032485842704773E-1  -7.404010891914368E-1   3.024109005928040E-1  -5.637132525444031E-1   1.815764755010605E-1  
 3.160000000000000E7     4.779650270938873E-1  -3.305649161338806E-1  -7.148724198341370E-1   3.717112243175507E-1  -7.154895663261414E-1   3.724429905414581E-1  -5.477826595306397E-1   2.009965032339096E-1  
 3.190000000000000E7     4.078028500080109E-1  -3.905801475048065E-1  -6.827294826507568E-1   4.464314281940460E-1  -6.820061206817627E-1   4.454925358295441E-1  -5.272797942161560E-1   2.157553583383560E-1  
 3.220000000000000E7     3.164624273777008E-1  -4.437240660190582E-1  -6.415042877197266E-1   5.259081125259399E-1  -6.414232850074768E-1   5.257984399795532E-1  -5.030103921890259E-1   2.198452800512314E-1  
 3.250000000000000E7     1.971394121646881E-1  -4.765005409717560E-1  -5.872145891189575E-1   6.098601222038269E-1  -5.863456130027771E-1   6.108175516128540E-1  -4.761902689933777E-1   2.137417942285538E-1  
 3.280000000000000E7     5.141571164131165E-2  -4.788315892219544E-1  -5.112240314483643E-1   6.964322924613953E-1  -5.103545784950256E-1   6.964551210403442E-1  -4.500207602977753E-1   1.959281861782074E-1  
 3.310000000000000E7    -1.089684367179871E-1  -4.347159564495087E-1  -4.066143035888672E-1   7.812838554382324E-1  -4.058247506618500E-1   7.814695835113525E-1  -4.305616617202759E-1   1.580959856510162E-1  
 3.340000000000000E7    -2.749068737030029E-1  -3.232965171337128E-1  -2.686018049716950E-1   8.489707708358765E-1  -2.686943411827087E-1   8.476127982139587E-1  -4.273782074451447E-1   1.077958494424820E-1  
 3.370000000000000E7    -4.101992547512054E-1  -1.382191032171249E-1  -9.963261336088181E-2   8.782963752746582E-1  -9.987877309322357E-2   8.784837126731873E-1  -4.468021392822266E-1   4.577496647834778E-2  
 3.400000000000000E7    -4.692561626434326E-1   1.110966205596924E-1   8.262844383716583E-2   8.517369031906128E-1   8.370927721261978E-2   8.511311411857605E-1  -5.011770129203796E-1  -1.147431507706642E-2  
 3.430000000000000E7    -4.193611443042755E-1   3.777277469635010E-1   2.491585910320282E-1   7.634357810020447E-1   2.487665563821793E-1   7.630167007446289E-1  -5.800982713699341E-1  -4.554265737533569E-2  
 3.460000000000000E7    -2.679584026336670E-1   6.038582921028137E-1   3.675940632820129E-1   6.284439563751221E-1   3.654691278934479E-1   6.274912953376770E-1  -6.744895577430725E-1  -4.623469337821007E-2  
 3.490000000000000E7    -5.181219056248665E-2   7.441818714141846E-1   4.267939925193787E-1   4.792657196521759E-1   4.262397289276123E-1   4.779784679412842E-1  -7.577155232429504E-1  -1.462615653872490E-2  
 3.520000000000000E7     1.745433211326599E-1   7.985309958457947E-1   4.340910911560059E-1   3.403771221637726E-1   4.338403940200806E-1   3.408310413360596E-1  -8.254308700561523E-1   3.933386877179146E-2  
 3.550000000000000E7     3.811921477317810E-1   7.805399298667908E-1   4.083788096904755E-1   2.294735461473465E-1   4.082863926887512E-1   2.296263277530670E-1  -8.705706596374512E-1   1.030701547861099E-1  
 3.580000000000000E7     5.506241917610169E-1   7.203380465507507E-1   3.686146140098572E-1   1.457801610231400E-1   3.687168061733246E-1   1.461589038372040E-1  -8.964810371398926E-1   1.678469330072403E-1  
 3.610000000000000E7     6.825740933418274E-1   6.362513899803162E-1   3.245070278644562E-1   8.783487230539322E-2   3.237370550632477E-1   8.675512671470642E-2  -9.100930690765381E-1   2.288690209388733E-1  
 3.640000000000000E7     7.827827334403992E-1   5.407541394233704E-1   2.795850932598114E-1   4.606223851442337E-2   2.791943252086639E-1   4.601946845650673E-2  -9.120661616325378E-1   2.823962867259979E-1  
 3.670000000000000E7     8.558803200721741E-1   4.444574713706970E-1   2.396583110094070E-1   1.818428561091423E-2   2.392840236425400E-1   1.796181127429009E-2  -9.086883664131165E-1   3.306432068347931E-1  
 3.700000000000000E7     9.078428149223328E-1   3.495870828628540E-1   2.041012942790985E-1  -5.227262154221535E-4   2.041076421737671E-1  -8.387276902794838E-4  -9.013922810554504E-1   3.748346567153931E-1  
 3.730000000000000E7     9.444671273231506E-1   2.574259936809540E-1   1.729612201452255E-1  -1.339000556617975E-2   1.733532696962357E-1  -1.273795310407877E-2  -8.894926309585571E-1   4.123829007148743E-1  
 3.760000000000000E7     9.675440788269043E-1   1.730462163686752E-1   1.473552584648132E-1  -2.067128568887711E-2   1.473875939846039E-1  -2.059506252408028E-2  -8.787333369255066E-1   4.477094411849976E-1  
 3.790000000000000E7     9.829025268554688E-1   9.068347513675690E-2   1.248054429888725E-1  -2.485669776797295E-2   1.249765083193779E-1  -2.504289336502552E-2  -8.661834597587585E-1   4.781783521175385E-1  
 3.820000000000000E7     9.901821017265320E-1   1.484186202287674E-2   1.060508042573929E-1  -2.706649713218212E-2   1.058033630251885E-1  -2.710043638944626E-2  -8.521121740341187E-1   5.050571560859680E-1  
 3.850000000000000E7     9.905964732170105E-1  -5.750544369220734E-2   8.972304314374924E-2  -2.777742408216000E-2   8.943381160497665E-2  -2.801623381674290E-2  -8.400296568870544E-1   5.304678082466126E-1  
 3.880000000000000E7     9.850826859474182E-1  -1.239426285028458E-1   7.575037330389023E-2  -2.775854244828224E-2   7.560347020626068E-2  -2.764801308512688E-2  -8.261829018592835E-1   5.542632937431335E-1  
 3.910000000000000E7     9.770615696907044E-1  -1.873841881752014E-1   6.397064030170441E-2  -2.660849504172802E-2   6.414048373699188E-2  -2.678870782256126E-2  -8.133248090744019E-1   5.769433975219727E-1  
 3.940000000000000E7     9.631658196449280E-1  -2.460444718599320E-1   5.390809103846550E-2  -2.513986825942993E-2   5.380892381072044E-2  -2.508274279534817E-2  -7.986750006675720E-1   5.952053070068359E-1  
 3.970000000000000E7     9.486871361732483E-1  -3.016655743122101E-1   4.535815864801407E-2  -2.323408797383308E-2   4.522120580077171E-2  -2.336913533508778E-2  -7.838630676269531E-1   6.137092709541321E-1  
 4.000000000000000E7     9.302234649658203E-1  -3.547259867191315E-1   3.802556172013283E-2  -2.158159017562866E-2   3.801250830292702E-2  -2.155074663460255E-2  -7.721111774444580E-1   6.315045356750488E-1  
 4.030000000000000E7     9.109013080596924E-1  -4.041241109371185E-1   3.185070306062698E-2  -1.965683884918690E-2   3.183989971876144E-2  -1.959187537431717E-2  -7.588244080543518E-1   6.480281352996826E-1  
 4.060000000000000E7     8.885892033576965E-1  -4.509648680686951E-1   2.637703716754913E-2  -1.762066967785358E-2   2.639179863035679E-2  -1.752514950931072E-2  -7.448697090148926E-1   6.628293395042419E-1  
 4.090000000000000E7     8.647346496582031E-1  -4.963546991348267E-1   2.179875783622265E-2  -1.574179157614708E-2   2.175543829798698E-2  -1.574486680328846E-2  -7.323790192604065E-1   6.772482395172119E-1  
 4.120000000000000E7     8.401281237602234E-1  -5.384847521781921E-1   1.792024448513985E-2  -1.378543674945831E-2   1.797050423920155E-2  -1.379437651485205E-2  -7.184799909591675E-1   6.916099190711975E-1  
 4.150000000000000E7     8.132291436195374E-1  -5.764780640602112E-1   1.469491142779589E-2  -1.212456263601780E-2   1.458215992897749E-2  -1.198795437812805E-2  -7.055462598800659E-1   7.048786282539368E-1  
 4.180000000000000E7     7.851121425628662E-1  -6.150560379028320E-1   1.184154860675335E-2  -1.041882764548063E-2   1.175329927355051E-2  -1.049403659999371E-2  -6.939662694931030E-1   7.163871526718140E-1  
 4.210000000000000E7     7.566742300987244E-1  -6.500649452209473E-1   9.430356323719025E-3  -9.005673229694367E-3   9.517853148281574E-3  -8.805131539702416E-3  -6.805738806724548E-1   7.292431592941284E-1  
 4.240000000000000E7     7.263114452362061E-1  -6.824867129325867E-1   7.434116676449776E-3  -7.380866911262274E-3   7.515437901020050E-3  -7.459284737706184E-3  -6.693767309188843E-1   7.410233020782471E-1  
 4.270000000000000E7     6.948609352111816E-1  -7.141421437263489E-1   5.825862288475037E-3  -6.089373957365751E-3   5.786986555904150E-3  -5.968009587377310E-3  -6.558709740638733E-1   7.527452111244202E-1  
 4.300000000000000E7     6.632618904113770E-1  -7.448011636734009E-1   4.374127835035324E-3  -4.792043007910252E-3   4.398661665618420E-3  -4.823657684028149E-3  -6.438858509063721E-1   7.637603878974915E-1  
 4.330000000000000E7     6.329842209815979E-1  -7.720603346824646E-1   3.209455870091915E-3  -3.862393321469426E-3   3.214246360585094E-3  -3.722774330526590E-3  -6.311607360839844E-1   7.730618119239807E-1  
 4.360000000000000E7     5.985527038574219E-1  -7.978329062461853E-1   2.313427627086639E-3  -2.771900733932853E-3   2.239241031929851E-3  -2.756603062152863E-3  -6.195574402809143E-1   7.830758094787598E-1  
 4.390000000000000E7     5.648103356361389E-1  -8.236255645751953E-1   1.459931023418903E-3  -1.948817167431116E-3   1.584672718308866E-3  -1.969163538888097E-3  -6.070806980133057E-1   7.913729548454285E-1  
 4.420000000000000E7     5.304501652717590E-1  -8.447022438049316E-1   1.036572386510670E-3  -1.180828199721873E-3   8.508168393746018E-4  -1.317931688390672E-3  -5.940575003623962E-1   8.005934357643127E-1  
 4.450000000000000E7     4.952410459518433E-1  -8.653398752212524E-1   3.573106077965349E-4  -5.439612432383001E-4   3.552817797753960E-4  -6.255084881559014E-4  -5.832739472389221E-1   8.093625903129578E-1  
 4.480000000000000E7     4.606368243694305E-1  -8.850005269050598E-1   8.944182627601549E-5   1.233701641467633E-5   7.867508247727528E-5  -2.053213393082842E-5  -5.714761018753052E-1   8.176187872886658E-1  
 4.510000000000000E7     4.262642264366150E-1  -9.027057886123657E-1  -1.506521366536617E-4   4.518197674769908E-4  -2.297784812981263E-4   4.744525649584830E-4  -5.597542524337769E-1   8.267190456390381E-1  
 4.540000000000000E7     3.896186351776123E-1  -9.184226989746094E-1  -3.712945908773691E-4   7.704865420237184E-4  -3.499058366287500E-4   7.590583991259337E-4  -5.474892854690552E-1   8.345102071762085E-1  
 4.570000000000000E7     3.532310128211975E-1  -9.331976175308228E-1  -5.531532806344330E-4   1.007635612040758E-3  -5.675254506058991E-4   9.624175727367401E-4  -5.352323651313782E-1   8.424332141876221E-1  
 4.600000000000000E7     3.192185163497925E-1  -9.451878666877747E-1  -5.223717307671905E-4   1.188038848340511E-3  -5.444586277008057E-4   1.315670087933540E-3  -5.241155028343201E-1   8.490900993347168E-1  
 4.630000000000000E7     2.800955474376679E-1  -9.578819870948792E-1  -5.686953663825989E-4   1.342501258477569E-3  -5.650396924465895E-4   1.275198999792337E-3  -5.127577781677246E-1   8.558567166328430E-1  
 4.660000000000000E7     2.432474642992020E-1  -9.686456322669983E-1  -5.470908363349736E-4   1.406061346642673E-3  -5.102482391521335E-4   1.348494552075863E-3  -4.994658231735230E-1   8.638663887977600E-1  
 4.690000000000000E7     2.071066200733185E-1  -9.759951829910278E-1  -4.894072772003710E-4   1.235781586728990E-3  -5.350613500922918E-4   1.289910986088216E-3  -4.884856939315796E-1   8.706831336021423E-1  
 4.720000000000000E7     1.696243733167648E-1  -9.828542470932007E-1  -4.103963146917522E-4   1.122409943491221E-3  -4.573533951770514E-4   1.198751037009060E-3  -4.761085510253906E-1   8.767137527465820E-1  
 4.750000000000000E7     1.336397975683212E-1  -9.892342090606690E-1  -2.388281718594953E-4   9.678810602054000E-4  -2.890590694732964E-4   1.009054132737219E-3  -4.645421802997589E-1   8.832796216011047E-1  
 4.780000000000000E7     9.704913198947907E-2  -9.931137561798096E-1  -1.958756474778056E-4   8.666467037983239E-4  -2.229030214948580E-4   7.543692481704056E-4  -4.522435069084168E-1   8.878965973854065E-1  
 4.810000000000000E7     5.985453724861145E-2  -9.960206151008606E-1  -1.703395246295258E-4   4.218759131617844E-4  -1.625487930141389E-4   4.647231835406274E-4  -4.417198598384857E-1   8.944887518882752E-1  
 4.840000000000000E7     2.343385294079781E-2  -9.980157017707825E-1  -1.025706151267514E-4   1.550161250634119E-4  -5.218544174567796E-5   8.420654194196686E-5  -4.299404323101044E-1   8.999877572059631E-1  
 4.870000000000000E7    -1.356986537575722E-2  -9.978119134902954E-1   9.803107241168618E-5  -2.848862786777318E-4  -4.156348586548120E-5  -2.474477223586291E-4  -4.185037910938263E-1   9.057778716087341E-1  
 4.900000000000000E7    -5.006495490670204E-2  -9.980137944221497E-1   8.214369881898165E-5  -7.239760598167777E-4   1.269558415515348E-4  -7.484933012165129E-4  -4.068270325660706E-1   9.102828502655029E-1  
 4.930000000000000E7    -8.672922849655151E-2  -9.950129985809326E-1   1.318265567533672E-4  -1.325409044511616E-3   2.011975739151239E-4  -1.223832368850708E-3  -3.945268094539642E-1   9.161843657493591E-1  
 4.960000000000000E7    -1.223787218332291E-1  -9.893177747726440E-1   1.710223732516170E-4  -1.782969571650028E-3   2.235080173704773E-4  -1.714156940579414E-3  -3.834710121154785E-1   9.206672906875610E-1  
 4.990000000000000E7    -1.572802513837814E-1  -9.845635890960693E-1   2.256788429804146E-4  -2.352135023102164E-3   1.983390538953245E-4  -2.354155527427793E-3  -3.716372847557068E-1   9.249216914176941E-1  
 5.020000000000000E7    -1.920599043369293E-1  -9.797191619873047E-1   2.103185106534511E-4  -2.997954143211246E-3   2.526034368202090E-4  -3.007220104336739E-3  -3.604878187179565E-1   9.300124645233154E-1  
 5.050000000000000E7    -2.279410660266876E-1  -9.720129966735840E-1   2.132672816514969E-4  -3.645527875050902E-3   2.212587860412896E-4  -3.644002601504326E-3  -3.488879799842835E-1   9.357339143753052E-1  
 5.080000000000000E7    -2.618781030178070E-1  -9.636930227279663E-1   1.145323622040451E-4  -4.331133794039488E-3   1.463852386223152E-4  -4.344660323113203E-3  -3.370337486267090E-1   9.375905394554138E-1  
 5.110000000000000E7    -2.962836921215057E-1  -9.528679251670837E-1   5.822049570269883E-5  -5.029565189033747E-3   9.503331966698170E-6  -5.030608735978603E-3  -3.262175321578980E-1   9.424867033958435E-1  
 5.140000000000000E7    -3.299582004547119E-1  -9.417803883552551E-1  -1.159820822067559E-4  -5.787702277302742E-3  -9.065505582839251E-5  -5.779712926596403E-3  -3.138666152954102E-1   9.484263658523560E-1  
 5.170000000000000E7    -3.624069988727570E-1  -9.294945597648621E-1  -2.806438715197146E-4  -6.516841705888510E-3  -2.524156589061022E-4  -6.526174023747444E-3  -3.014436066150665E-1   9.501521587371826E-1  
 5.200000000000000E7    -3.953360319137573E-1  -9.176188707351685E-1  -4.746431368403137E-4  -7.298015523701906E-3  -4.457649192772806E-4  -7.323401048779488E-3  -2.899016439914703E-1   9.525703191757202E-1  
 5.230000000000000E7    -4.274852871894836E-1  -9.017973542213440E-1  -6.972975679673255E-4  -8.112073875963688E-3  -6.756749353371561E-4  -8.113626390695572E-3  -2.788107395172119E-1   9.574717283248901E-1  
 5.260000000000000E7    -4.581953883171082E-1  -8.852882981300354E-1  -9.855482494458556E-4  -8.891063742339611E-3  -9.538423037156463E-4  -8.914443664252758E-3  -2.670659124851227E-1   9.609435796737671E-1  
 5.290000000000000E7    -4.900623559951782E-1  -8.690518140792847E-1  -1.299314200878143E-3  -9.720040485262871E-3  -1.291288994252682E-3  -9.737033396959305E-3  -2.561518251895905E-1   9.633832573890686E-1  
 5.320000000000000E7    -5.195215344429016E-1  -8.526847362518311E-1  -1.671501318924129E-3  -1.061375346034765E-2  -1.685687107965350E-3  -1.059269346296787E-2  -2.441280186176300E-1   9.667019248008728E-1  
 5.350000000000000E7    -5.476222038269043E-1  -8.336632847785950E-1  -2.045234199613333E-3  -1.141834072768688E-2  -2.041214145720005E-3  -1.143255364149809E-2  -2.336840480566025E-1   9.698889851570129E-1  
 5.380000000000000E7    -5.752970576286316E-1  -8.138439655303955E-1  -2.481631468981504E-3  -1.227468065917492E-2  -2.499044407159090E-3  -1.224277913570404E-2  -2.205912768840790E-1   9.718105792999268E-1  
 5.410000000000000E7    -6.059048175811768E-1  -7.938554883003235E-1  -3.004143247380853E-3  -1.318259071558714E-2  -3.023223485797644E-3  -1.307649910449982E-2  -2.093965113162994E-1   9.747175574302673E-1  
 5.440000000000000E7    -6.324692368507385E-1  -7.716805338859558E-1  -3.532183589413762E-3  -1.402069814503193E-2  -3.546831663697958E-3  -1.400105841457844E-2  -1.979928314685822E-1   9.767001271247864E-1  
 5.470000000000000E7    -6.570773720741272E-1  -7.504533529281616E-1  -4.130306653678417E-3  -1.481510140001774E-2  -4.144500009715557E-3  -1.485608797520399E-2  -1.853395998477936E-1   9.791030883789063E-1  
 5.500000000000000E7    -6.837633252143860E-1  -7.271208763122559E-1  -4.798338748514652E-3  -1.571644283831120E-2  -4.754798486828804E-3  -1.569906808435917E-2  -1.732760518789291E-1   9.825055003166199E-1  
 5.530000000000000E7    -7.081431746482849E-1  -7.031517028808594E-1  -5.403379444032908E-3  -1.657887734472752E-2  -5.484300665557385E-3  -1.656165160238743E-2  -1.618861258029938E-1   9.835481643676758E-1  
 5.560000000000000E7    -7.324333190917969E-1  -6.775411367416382E-1  -6.171358749270439E-3  -1.741635985672474E-2  -6.164247170090675E-3  -1.740366965532303E-2  -1.510138660669327E-1   9.860075712203980E-1  
 5.590000000000000E7    -7.552153468132019E-1  -6.530814766883850E-1  -6.927154958248138E-3  -1.827000267803669E-2  -6.967835593968630E-3  -1.826138049364090E-2  -1.386353671550751E-1   9.869627952575684E-1  
 5.620000000000000E7    -7.769532203674316E-1  -6.248457431793213E-1  -7.716941181570292E-3  -1.913269981741905E-2  -7.727348245680332E-3  -1.901008561253548E-2  -1.275649368762970E-1   9.890842437744141E-1  
 5.650000000000000E7    -7.975969314575195E-1  -5.993161797523499E-1  -8.597122505307198E-3  -1.990017294883728E-2  -8.597264997661114E-3  -1.990707032382488E-2  -1.157691478729248E-1   9.899774789810181E-1  
 5.680000000000000E7    -8.180350065231323E-1  -5.714262127876282E-1  -9.523336775600910E-3  -2.072836272418499E-2  -9.533770382404327E-3  -2.069927193224430E-2  -1.035407260060310E-1   9.907482862472534E-1  
 5.710000000000000E7    -8.372400999069214E-1  -5.416514873504639E-1  -1.055900380015373E-2  -2.139149792492390E-2  -1.053981017321348E-2  -2.148255705833435E-2  -9.213507175445557E-2   9.925192594528198E-1  
 5.740000000000000E7    -8.560833334922791E-1  -5.132275223731995E-1  -1.155201345682144E-2  -2.228325232863426E-2  -1.152056921273470E-2  -2.223639003932476E-2  -7.942603528499603E-2   9.931852221488953E-1  
 5.770000000000000E7    -8.713947534561157E-1  -4.847449064254761E-1  -1.252371259033680E-2  -2.301909029483795E-2  -1.252678968012333E-2  -2.301375567913055E-2  -6.927104294300079E-2   9.934294819831848E-1  
 5.800000000000000E7    -8.878861665725708E-1  -4.532081186771393E-1  -1.377508789300919E-2  -2.373123541474342E-2  -1.374435331672430E-2  -2.365702018141747E-2  -5.590489506721497E-2   9.958046674728394E-1  
 5.830000000000000E7    -9.025651812553406E-1  -4.226934909820557E-1  -1.485922932624817E-2  -2.437631227076054E-2  -1.489305216819048E-2  -2.440993301570416E-2  -4.533735662698746E-2   9.960360527038574E-1  
 5.860000000000000E7    -9.176925420761108E-1  -3.923586010932922E-1  -1.607736386358738E-2  -2.510082721710205E-2  -1.606997847557068E-2  -2.507884055376053E-2  -3.332418203353882E-2   9.956752061843872E-1  
 5.890000000000000E7    -9.295735359191895E-1  -3.606079220771790E-1  -1.733426190912724E-2  -2.576019987463951E-2  -1.728531159460545E-2  -2.579848095774651E-2  -2.204889804124832E-2   9.959751367568970E-1  
 5.920000000000000E7    -9.414852857589722E-1  -3.277884125709534E-1  -1.866945996880531E-2  -2.631914988160133E-2  -1.868399418890476E-2  -2.625247836112976E-2  -9.428434073925018E-3   9.970413446426392E-1  
 5.950000000000000E7    -9.515372514724731E-1  -2.957275509834290E-1  -1.998966373503208E-2  -2.688969857990742E-2  -1.997664757072926E-2  -2.683523856103420E-2   2.086743712425232E-3   9.954413771629334E-1  
 5.980000000000000E7    -9.614896178245544E-1  -2.624704837799072E-1  -2.145324274897575E-2  -2.737194485962391E-2  -2.134883217513561E-2  -2.738424949347973E-2   1.449765264987946E-2   9.955784082412720E-1  
 6.010000000000000E7    -9.683294296264648E-1  -2.308060973882675E-1  -2.280138060450554E-2  -2.801755443215370E-2  -2.273685857653618E-2  -2.794043160974979E-2   2.549264580011368E-2   9.960923194885254E-1  
 6.040000000000000E7    -9.764953851699829E-1  -1.965400129556656E-1  -2.431915141642094E-2  -2.846243605017662E-2  -2.433877810835838E-2  -2.844589203596115E-2   3.783698379993439E-2   9.963427782058716E-1  
 6.070000000000000E7    -9.837629199028015E-1  -1.646899878978729E-1  -2.586605772376061E-2  -2.893657051026821E-2  -2.574804425239563E-2  -2.893787249922752E-2   4.845780134201050E-2   9.947993159294128E-1  
 6.100000000000000E7    -9.881765842437744E-1  -1.309549361467362E-1  -2.748651802539825E-2  -2.917403168976307E-2  -2.743370831012726E-2  -2.922887355089188E-2   6.190966069698334E-2   9.943984746932983E-1  
 6.130000000000000E7    -9.921662807464600E-1  -9.619984030723572E-2  -2.911270596086979E-2  -2.960805781185627E-2  -2.910247258841991E-2  -2.963148988783360E-2   7.394916564226151E-2   9.939610362052918E-1  
 6.160000000000000E7    -9.941104054450989E-1  -6.333972513675690E-2  -3.061722777783871E-2  -2.987641096115112E-2  -3.075732290744782E-2  -2.985371649265289E-2   8.482718467712402E-2   9.916970729827881E-1  
 6.190000000000000E7    -9.956054091453552E-1  -2.924942970275879E-2  -3.237073123455048E-2  -3.019306622445583E-2  -3.235193341970444E-2  -3.003096207976341E-2   9.601052850484848E-2   9.902518987655640E-1  
 6.220000000000000E7    -9.962663650512695E-1   4.460275173187256E-3  -3.406762331724167E-2  -3.018040582537651E-2  -3.418072685599327E-2  -3.039514645934105E-2   1.074426695704460E-1   9.903250336647034E-1  
 6.250000000000000E7    -9.953983426094055E-1   3.851829469203949E-2  -3.587594255805016E-2  -3.061094507575035E-2  -3.594852238893509E-2  -3.048923239111900E-2   1.190270557999611E-1   9.889386892318726E-1  
 6.280000000000000E7    -9.927741289138794E-1   7.218906283378601E-2  -3.781532123684883E-2  -3.059402853250504E-2  -3.768866509199143E-2  -3.068546950817108E-2   1.314260959625244E-1   9.876135587692261E-1  
 6.310000000000000E7    -9.895896911621094E-1   1.073221415281296E-1  -3.981496766209602E-2  -3.067559562623501E-2  -3.961564972996712E-2  -3.067160025238991E-2   1.428642123937607E-1   9.860126376152039E-1  
 6.340000000000000E7    -9.851914048194885E-1   1.401160061359406E-1  -4.165928065776825E-2  -3.068287298083305E-2  -4.154432937502861E-2  -3.061638399958611E-2   1.554315537214279E-1   9.844858646392822E-1  
 6.370000000000000E7    -9.801171422004700E-1   1.734361946582794E-1  -4.352766647934914E-2  -3.051849454641342E-2  -4.351162537932396E-2  -3.042821213603020E-2   1.664225459098816E-1   9.814000129699707E-1  
 6.400000000000000E7    -9.723898768424988E-1   2.065204083919525E-1  -4.559749364852905E-2  -3.031448088586330E-2  -4.539158940315247E-2  -3.020041994750500E-2   1.786869764328003E-1   9.801774621009827E-1  
 6.430000000000000E7    -9.648662209510803E-1   2.407516092061997E-1  -4.759724438190460E-2  -3.028187900781632E-2  -4.752804711461067E-2  -2.995034307241440E-2   1.904226690530777E-1   9.771329164505005E-1  
 6.460000000000000E7    -9.565215706825256E-1   2.733528017997742E-1  -4.953715205192566E-2  -2.988426387310028E-2  -4.949431121349335E-2  -2.988107502460480E-2   2.010982632637024E-1   9.743832945823669E-1  
 6.490000000000000E7    -9.477410316467285E-1   3.054654598236084E-1  -5.164028704166412E-2  -2.954206615686417E-2  -5.170900747179985E-2  -2.960820496082306E-2   2.127010077238083E-1   9.725701212882996E-1  
 6.520000000000000E7    -9.356433749198914E-1   3.367117643356323E-1  -5.383185297250748E-2  -2.930872142314911E-2  -5.368721485137940E-2  -2.909477427601814E-2   2.248827517032623E-1   9.705610275268555E-1  
 6.550000000000000E7    -9.239554405212402E-1   3.682376742362976E-1  -5.599884688854218E-2  -2.869002893567085E-2  -5.586018040776253E-2  -2.866969443857670E-2   2.361262142658234E-1   9.658445119857788E-1  
 6.580000000000000E7    -9.102802872657776E-1   4.000747203826904E-1  -5.826681479811668E-2  -2.802439033985138E-2  -5.810968205332756E-2  -2.806999906897545E-2   2.480917572975159E-1   9.643328785896301E-1  
 6.610000000000000E7    -8.950655460357666E-1   4.306147098541260E-1  -6.035370752215385E-2  -2.735353633761406E-2  -6.007143855094910E-2  -2.710139378905296E-2   2.603940963745117E-1   9.594972133636475E-1  
 6.640000000000000E7    -8.814141750335693E-1   4.613013565540314E-1  -6.265985220670700E-2  -2.675450965762138E-2  -6.259306520223618E-2  -2.687282860279083E-2   2.722821533679962E-1   9.564183354377747E-1  
 6.670000000000000E7    -8.641810417175293E-1   4.909562468528748E-1  -6.490530818700790E-2  -2.584864385426045E-2  -6.474425643682480E-2  -2.595653384923935E-2   2.828623056411743E-1   9.538948535919190E-1  
 6.700000000000000E7    -8.465892672538757E-1   5.199253559112549E-1  -6.703979521989822E-2  -2.499916590750217E-2  -6.686133891344070E-2  -2.502124011516571E-2   2.941137552261353E-1   9.494924545288086E-1  
 6.730000000000000E7    -8.281165957450867E-1   5.488026142120361E-1  -6.924264878034592E-2  -2.422735467553139E-2  -6.922409683465958E-2  -2.393842302262783E-2   3.066277205944061E-1   9.464795589447022E-1  
 6.760000000000000E7    -8.091285228729248E-1   5.766004920005798E-1  -7.175702601671219E-2  -2.288571558892727E-2  -7.151802629232407E-2  -2.300099655985832E-2   3.185505867004395E-1   9.421401619911194E-1  
 6.790000000000000E7    -7.880215048789978E-1   6.043575406074524E-1  -7.390968501567841E-2  -2.198528498411179E-2  -7.391256839036942E-2  -2.176310122013092E-2   3.288673758506775E-1   9.374051690101624E-1  
 6.820000000000000E7    -7.667461037635803E-1   6.300575733184815E-1  -7.614444941282272E-2  -2.058628760278225E-2  -7.601198554039002E-2  -2.063455246388912E-2   3.405000865459442E-1   9.337142705917358E-1  
 6.850000000000000E7    -7.450529932975769E-1   6.571140885353088E-1  -7.881066203117371E-2  -1.950418762862682E-2  -7.848591357469559E-2  -1.935093104839325E-2   3.512229323387146E-1   9.299027323722839E-1  
 6.880000000000000E7    -7.215423583984375E-1   6.818572282791138E-1  -8.103048056364059E-2  -1.793297193944454E-2  -8.074598014354706E-2  -1.787080988287926E-2   3.632991313934326E-1   9.244212508201599E-1  
 6.910000000000000E7    -6.972637176513672E-1   7.061212062835693E-1  -8.345653861761093E-2  -1.633747667074204E-2  -8.317250758409500E-2  -1.638091355562210E-2   3.751051127910614E-1   9.199357628822327E-1  
 6.940000000000000E7    -6.732979416847229E-1   7.297415137290955E-1  -8.579032123088837E-2  -1.493211556226015E-2  -8.571913093328476E-2  -1.471914537250996E-2   3.859028220176697E-1   9.154373407363892E-1  
 6.970000000000000E7    -6.462669968605042E-1   7.523976564407349E-1  -8.809265494346619E-2  -1.312074437737465E-2  -8.808356523513794E-2  -1.282726787030697E-2   3.975432515144348E-1   9.097775816917419E-1  
 7.000000000000000E7    -6.200876235961914E-1   7.750782370567322E-1  -9.050494432449341E-2  -1.132320147007704E-2  -9.031877666711807E-2  -1.117321010679007E-2   4.086193740367889E-1   9.055823087692261E-1  
