#  HZ   S   RI   R     50.00 
! Rohde & Schwarz ZVT8 8Ports - Version 4.11 - 1300.0000k08 SN: 100242
! Date: 2026-07-31 14:30:22
! Measurements: S11 S21 S12 S22 
! 
 1.000000000000000E7    -4.083861708641052E-1   9.087325930595398E-1   5.169030278921127E-2   5.213243141770363E-2   5.140260234475136E-2   5.228411033749580E-2  -9.171720743179321E-1   3.885787427425385E-1  
 1.030000000000000E7    -3.766032159328461E-1   9.218157529830933E-1   5.482363700866699E-2   5.269035696983337E-2   5.453647673130035E-2   5.260135978460312E-2  -9.112604260444641E-1   4.018976688385010E-1  
 1.060000000000000E7    -3.410284221172333E-1   9.347574710845947E-1   5.806055292487145E-2   5.353477224707604E-2   5.807406455278397E-2   5.335363373160362E-2  -9.073839783668518E-1   4.135068058967590E-1  
 1.090000000000000E7    -3.096121549606323E-1   9.449917078018189E-1   6.146356090903282E-2   5.365674570202828E-2   6.137062609195709E-2   5.367887392640114E-2  -9.017540812492371E-1   4.259766638278961E-1  
 1.120000000000000E7    -2.749948501586914E-1   9.550723433494568E-1   6.510814279317856E-2   5.447739362716675E-2   6.488742679357529E-2   5.421348288655281E-2  -8.956694602966309E-1   4.378116130828857E-1  
 1.150000000000000E7    -2.396535873413086E-1   9.653155803680420E-1   6.871186196804047E-2   5.422402173280716E-2   6.843030452728272E-2   5.439300835132599E-2  -8.880860805511475E-1   4.480030536651611E-1  
 1.180000000000000E7    -2.060099691152573E-1   9.706405401229858E-1   7.220437377691269E-2   5.460372939705849E-2   7.200735062360764E-2   5.464730784296989E-2  -8.835969567298889E-1   4.594346880912781E-1  
 1.210000000000000E7    -1.721188873052597E-1   9.779220819473267E-1   7.622610777616501E-2   5.489823967218399E-2   7.598832249641419E-2   5.486307665705681E-2  -8.753730058670044E-1   4.724014997482300E-1  
 1.240000000000000E7    -1.367914676666260E-1   9.822026491165161E-1   8.005458116531372E-2   5.491409078240395E-2   7.995194196701050E-2   5.442764610052109E-2  -8.683219552040100E-1   4.830053448677063E-1  
 1.270000000000000E7    -1.018435135483742E-1   9.857363700866699E-1   8.449985086917877E-2   5.433458089828491E-2   8.396276086568832E-2   5.407005175948143E-2  -8.607599735260010E-1   4.976061880588532E-1  
 1.300000000000000E7    -6.707873940467835E-2   9.891427755355835E-1   8.839100599288940E-2   5.408442765474320E-2   8.833023160696030E-2   5.386461690068245E-2  -8.525532484054565E-1   5.085895061492920E-1  
 1.330000000000000E7    -3.219019249081612E-2   9.913583397865295E-1   9.288491308689117E-2   5.347946286201477E-2   9.273728728294373E-2   5.322875455021858E-2  -8.451262116432190E-1   5.210928320884705E-1  
 1.360000000000000E7     4.658851772546768E-3   9.910666346549988E-1   9.720643609762192E-2   5.297616496682167E-2   9.745211154222488E-2   5.246185138821602E-2  -8.368952870368958E-1   5.316778421401978E-1  
 1.390000000000000E7     3.839837387204170E-2   9.895300865173340E-1   1.019494831562042E-1   5.192796513438225E-2   1.016305536031723E-1   5.198052898049355E-2  -8.285219669342041E-1   5.437571406364441E-1  
 1.420000000000000E7     7.500126212835312E-2   9.880785942077637E-1   1.064049974083901E-1   5.101513490080833E-2   1.063656359910965E-1   5.125856027007103E-2  -8.214403390884399E-1   5.550878643989563E-1  
 1.450000000000000E7     1.099306792020798E-1   9.827045202255249E-1   1.113728284835815E-1   4.974806681275368E-2   1.112430766224861E-1   4.969995096325874E-2  -8.100296258926392E-1   5.686439275741577E-1  
 1.480000000000000E7     1.465733647346497E-1   9.779176712036133E-1   1.162401586771011E-1   4.817829653620720E-2   1.163128316402435E-1   4.871090501546860E-2  -8.024067878723145E-1   5.800976753234863E-1  
 1.510000000000000E7     1.812754273414612E-1   9.710282087326050E-1   1.213137879967690E-1   4.666513577103615E-2   1.212001740932465E-1   4.679803177714348E-2  -7.899257540702820E-1   5.926616787910461E-1  
 1.540000000000000E7     2.154838740825653E-1   9.638341665267944E-1   1.263672560453415E-1   4.590224847197533E-2   1.261527091264725E-1   4.524759948253632E-2  -7.832831740379334E-1   6.033504009246826E-1  
 1.570000000000000E7     2.510389387607575E-1   9.558100104331970E-1   1.318020969629288E-1   4.324096813797951E-2   1.318452805280685E-1   4.311630874872208E-2  -7.717814445495606E-1   6.172870993614197E-1  
 1.600000000000000E7     2.864949107170105E-1   9.441170096397400E-1   1.369773298501968E-1   4.099995270371437E-2   1.372903734445572E-1   4.079924523830414E-2  -7.618720531463623E-1   6.276239156723023E-1  
 1.630000000000000E7     3.202168941497803E-1   9.321839809417725E-1   1.431395858526230E-1   3.823464363813400E-2   1.428040415048599E-1   3.849400952458382E-2  -7.504029870033264E-1   6.413145065307617E-1  
 1.660000000000000E7     3.544379770755768E-1   9.179066419601440E-1   1.488707810640335E-1   3.543991222977638E-2   1.484153419733048E-1   3.522205725312233E-2  -7.370822429656982E-1   6.537356376647949E-1  
 1.690000000000000E7     3.873892724514008E-1   9.038504958152771E-1   1.546019017696381E-1   3.280000761151314E-2   1.545123904943466E-1   3.262694552540779E-2  -7.255336046218872E-1   6.651127934455872E-1  
 1.720000000000000E7     4.227843880653381E-1   8.883515000343323E-1   1.600718051195145E-1   2.880827337503433E-2   1.602688282728195E-1   2.914696931838989E-2  -7.129814028739929E-1   6.769940853118897E-1  
 1.750000000000000E7     4.507408142089844E-1   8.731827735900879E-1   1.669611185789108E-1   2.644462510943413E-2   1.672303527593613E-1   2.590882778167725E-2  -7.007665038108826E-1   6.911091208457947E-1  
 1.780000000000000E7     4.859033226966858E-1   8.517367243766785E-1   1.723726987838745E-1   2.163181826472282E-2   1.726880073547363E-1   2.213905379176140E-2  -6.861963868141174E-1   7.003055810928345E-1  
 1.810000000000000E7     5.159633159637451E-1   8.333060145378113E-1   1.800269633531570E-1   1.765991188585758E-2   1.790012866258621E-1   1.715866476297379E-2  -6.715617775917053E-1   7.158548235893250E-1  
 1.840000000000000E7     5.485465526580811E-1   8.122428655624390E-1   1.867734044790268E-1   1.196827553212643E-2   1.859631538391113E-1   1.233358867466450E-2  -6.564247012138367E-1   7.275093793869019E-1  
 1.870000000000000E7     5.766881108283997E-1   7.903476357460022E-1   1.932253837585449E-1   7.293693721294403E-3   1.926127076148987E-1   7.072698324918747E-3  -6.401030421257019E-1   7.390999794006348E-1  
 1.900000000000000E7     6.054901480674744E-1   7.670488953590393E-1   1.999938488006592E-1   2.254448831081390E-3   1.994577199220657E-1   1.655688509345055E-3  -6.238179206848145E-1   7.508206367492676E-1  
 1.930000000000000E7     6.341636180877686E-1   7.414072751998901E-1   2.065026313066483E-1  -4.993477836251259E-3   2.070272266864777E-1  -4.172584041953087E-3  -6.064741015434265E-1   7.646829485893250E-1  
 1.960000000000000E7     6.620405912399292E-1   7.145841717720032E-1   2.135107368230820E-1  -1.170424558222294E-2   2.135648876428604E-1  -1.082790270447731E-2  -5.900489687919617E-1   7.750238180160523E-1  
 1.990000000000000E7     6.862885951995850E-1   6.870936751365662E-1   2.209257930517197E-1  -1.881742291152477E-2   2.210970073938370E-1  -1.868037693202496E-2  -5.685217380523682E-1   7.888558506965637E-1  
 2.020000000000000E7     7.114958763122559E-1   6.584306955337524E-1   2.283899188041687E-1  -2.636449038982391E-2   2.276666164398193E-1  -2.634275518357754E-2  -5.496959090232849E-1   7.981469631195068E-1  
 2.050000000000000E7     7.372239232063294E-1   6.282244920730591E-1   2.357480078935623E-1  -3.452914953231812E-2   2.343666553497315E-1  -3.491806238889694E-2  -5.288347005844116E-1   8.102403879165649E-1  
 2.080000000000000E7     7.591551542282105E-1   5.957474708557129E-1   2.435095608234406E-1  -4.403963312506676E-2   2.434148788452148E-1  -4.368812963366509E-2  -5.069770812988281E-1   8.230898976325989E-1  
 2.110000000000000E7     7.814971208572388E-1   5.638509988784790E-1   2.512763142585754E-1  -5.486095696687698E-2   2.511624395847321E-1  -5.467240139842033E-2  -4.825156629085541E-1   8.342643976211548E-1  
 2.140000000000000E7     8.011369705200195E-1   5.307400822639465E-1   2.590809166431427E-1  -6.617633998394013E-2   2.579602897167206E-1  -6.516934186220169E-2  -4.585032761096954E-1   8.444223403930664E-1  
 2.170000000000000E7     8.182836771011353E-1   4.973528981208801E-1   2.665849030017853E-1  -7.740336656570435E-2   2.663642764091492E-1  -7.639999687671661E-2  -4.327921867370606E-1   8.550350069999695E-1  
 2.200000000000000E7     8.368299603462219E-1   4.600865244865418E-1   2.739517092704773E-1  -9.047563374042511E-2   2.739295959472656E-1  -9.023624658584595E-2  -4.036073684692383E-1   8.643081188201904E-1  
 2.230000000000000E7     8.509987592697144E-1   4.236577153205872E-1   2.815450131893158E-1  -1.044209897518158E-1   2.810482978820801E-1  -1.037937551736832E-1  -3.746853470802307E-1   8.732585906982422E-1  
 2.260000000000000E7     8.649348616600037E-1   3.859187960624695E-1   2.884810864925385E-1  -1.196473836898804E-1   2.901307940483093E-1  -1.194377392530441E-1  -3.440347015857697E-1   8.816284537315369E-1  
 2.290000000000000E7     8.766258358955383E-1   3.470999002456665E-1   2.956752479076386E-1  -1.362273246049881E-1   2.964411973953247E-1  -1.355359256267548E-1  -3.094815015792847E-1   8.882489204406738E-1  
 2.320000000000000E7     8.845251798629761E-1   3.078375458717346E-1   3.027320206165314E-1  -1.549939811229706E-1   3.021672964096069E-1  -1.553479135036469E-1  -2.744595408439636E-1   8.963743448257446E-1  
 2.350000000000000E7     8.920562863349915E-1   2.665879130363464E-1   3.090712726116180E-1  -1.757971048355103E-1   3.087098896503449E-1  -1.746421605348587E-1  -2.373538613319397E-1   9.011138677597046E-1  
 2.380000000000000E7     8.969433307647705E-1   2.263942956924439E-1   3.149151504039764E-1  -1.961216032505035E-1   3.148075044155121E-1  -1.958782225847244E-1  -1.977179199457169E-1   9.042083621025085E-1  
 2.410000000000000E7     8.997148871421814E-1   1.840167641639710E-1   3.191380500793457E-1  -2.202490717172623E-1   3.184377849102020E-1  -2.197658270597458E-1  -1.545860171318054E-1   9.043646454811096E-1  
 2.440000000000000E7     8.985175490379334E-1   1.432600915431976E-1   3.229741752147675E-1  -2.465009689331055E-1   3.231534063816071E-1  -2.466588765382767E-1  -1.104791313409805E-1   9.029189348220825E-1  
 2.470000000000000E7     8.952445387840271E-1   1.011445373296738E-1   3.248991966247559E-1  -2.748960256576538E-1   3.252533376216888E-1  -2.726278901100159E-1  -6.157519668340683E-2   8.975949883460999E-1  
 2.500000000000000E7     8.902021050453186E-1   5.865146592259407E-2   3.254810571670532E-1  -3.042673170566559E-1   3.252172172069550E-1  -3.050765395164490E-1  -1.027772948145866E-2   8.899818062782288E-1  
 2.530000000000000E7     8.805936574935913E-1   1.690141111612320E-2   3.252376616001129E-1  -3.376246392726898E-1   3.249134719371796E-1  -3.366241455078125E-1   4.349436610937119E-2   8.770891427993774E-1  
 2.560000000000000E7     8.677414655685425E-1  -2.296160161495209E-2   3.209581673145294E-1  -3.718804419040680E-1   3.213260769844055E-1  -3.722694814205170E-1   9.995545446872711E-2   8.594369292259216E-1  
 2.590000000000000E7     8.503956794738770E-1  -6.141977012157440E-2   3.113339543342590E-1  -4.111942350864410E-1   3.120007514953613E-1  -4.117827713489533E-1   1.607711166143417E-1   8.368009328842163E-1  
 2.620000000000000E7     8.302814364433289E-1  -9.941910952329636E-2   2.989043593406677E-1  -4.533550441265106E-1   2.988932132720947E-1  -4.518720507621765E-1   2.241481840610504E-1   8.035758137702942E-1  
 2.650000000000000E7     8.060289025306702E-1  -1.347647905349731E-1   2.829586267471314E-1  -4.949837327003479E-1   2.823399007320404E-1  -4.957816898822784E-1   2.864449918270111E-1   7.629542946815491E-1  
 2.680000000000000E7     7.778588533401489E-1  -1.660086512565613E-1   2.594891488552094E-1  -5.408593416213989E-1   2.589316368103027E-1  -5.408891439437866E-1   3.495205342769623E-1   7.116940021514893E-1  
 2.710000000000000E7     7.475718259811401E-1  -1.939865648746491E-1   2.264664471149445E-1  -5.859593152999878E-1   2.259741723537445E-1  -5.860496759414673E-1   4.130690991878510E-1   6.512913107872009E-1  
 2.740000000000000E7     7.127174735069275E-1  -2.169013023376465E-1   1.885801255702972E-1  -6.337031722068787E-1   1.878004670143127E-1  -6.333407759666443E-1   4.703943431377411E-1   5.734898447990418E-1  
 2.770000000000000E7     6.791773438453674E-1  -2.322290241718292E-1   1.384831964969635E-1  -6.764756441116333E-1   1.383556425571442E-1  -6.772355437278748E-1   5.227233171463013E-1   4.849401712417603E-1  
 2.800000000000000E7     6.435662508010864E-1  -2.428381443023682E-1   8.033771812915802E-2  -7.168822288513184E-1   8.188568055629730E-2  -7.166802287101746E-1   5.657554268836975E-1   3.799217343330383E-1  
 2.830000000000000E7     6.074631214141846E-1  -2.466530948877335E-1   1.185517385601997E-2  -7.489675283432007E-1   9.969171136617661E-3  -7.489340305328369E-1   5.932115316390991E-1   2.682111263275147E-1  
 2.860000000000000E7     5.763719677925110E-1  -2.409217953681946E-1  -6.761337071657181E-2  -7.724807858467102E-1  -6.925950944423676E-2  -7.708752155303955E-1   6.023858785629273E-1   1.397497355937958E-1  
 2.890000000000000E7     5.517731308937073E-1  -2.293390929698944E-1  -1.544167250394821E-1  -7.818977236747742E-1  -1.550378203392029E-1  -7.806903719902039E-1   5.895050168037415E-1   7.550749927759171E-3  
 2.920000000000000E7     5.311095118522644E-1  -2.125034779310226E-1  -2.443474978208542E-1  -7.786588072776794E-1  -2.452124655246735E-1  -7.757713794708252E-1   5.520491003990173E-1  -1.251579821109772E-1  
 2.950000000000000E7     5.233944654464722E-1  -1.923889815807343E-1  -3.355575501918793E-1  -7.547240853309631E-1  -3.342159390449524E-1  -7.532419562339783E-1   4.867801368236542E-1  -2.521184682846069E-1  
 2.980000000000000E7     5.213310718536377E-1  -1.728807687759399E-1  -4.217230975627899E-1  -7.159841656684876E-1  -4.216745793819428E-1  -7.155033946037293E-1   3.980355560779572E-1  -3.665825426578522E-1  
 3.010000000000000E7     5.310040712356567E-1  -1.575473695993424E-1  -4.991528987884522E-1  -6.618726253509522E-1  -4.980134963989258E-1  -6.608785986900330E-1   2.900444567203522E-1  -4.616768658161163E-1  
 3.040000000000000E7     5.484130978584290E-1  -1.450561881065369E-1  -5.639805793762207E-1  -5.937415361404419E-1  -5.645174980163574E-1  -5.951855778694153E-1   1.675722450017929E-1  -5.312300920486450E-1  
 3.070000000000000E7     5.694463849067688E-1  -1.422934979200363E-1  -6.155092716217041E-1  -5.188594460487366E-1  -6.131973862648010E-1  -5.187152028083801E-1   4.114429652690888E-2  -5.784932971000671E-1  
 3.100000000000000E7     5.962589979171753E-1  -1.474851816892624E-1  -6.498320102691650E-1  -4.398442208766937E-1  -6.485832333564758E-1  -4.393027424812317E-1  -8.741891384124756E-2  -6.015708446502686E-1  
 3.130000000000000E7     6.216937899589539E-1  -1.610850393772125E-1  -6.704535484313965E-1  -3.613173961639404E-1  -6.700919866561890E-1  -3.616928458213806E-1  -2.122825533151627E-1  -6.003476381301880E-1  
 3.160000000000000E7     6.479884982109070E-1  -1.826515197753906E-1  -6.767709851264954E-1  -2.842245101928711E-1  -6.781672835350037E-1  -2.850241065025330E-1  -3.251845240592957E-1  -5.815827250480652E-1  
 3.190000000000000E7     6.690692305564880E-1  -2.100865542888641E-1  -6.745983362197876E-1  -2.128983289003372E-1  -6.732749342918396E-1  -2.130993753671646E-1  -4.284419119358063E-1  -5.492037534713745E-1  
 3.220000000000000E7     6.880804896354675E-1  -2.433399409055710E-1  -6.637519001960754E-1  -1.474839001893997E-1  -6.628738641738892E-1  -1.479611545801163E-1  -5.193873643875122E-1  -5.068274140357971E-1  
 3.250000000000000E7     7.007740736007690E-1  -2.817063927650452E-1  -6.446179747581482E-1  -8.976866304874420E-2  -6.451243162155151E-1  -8.951479196548462E-2  -5.964759588241577E-1  -4.557044506072998E-1  
 3.280000000000000E7     7.079159617424011E-1  -3.237154185771942E-1  -6.203495860099793E-1  -3.835981339216232E-2  -6.210463643074036E-1  -3.840689361095429E-2  -6.635431051254273E-1  -4.006136953830719E-1  
 3.310000000000000E7     7.098883390426636E-1  -3.650114834308624E-1  -5.967560410499573E-1   7.297292817384005E-3  -5.967652201652527E-1   6.612028926610947E-3  -7.185484170913696E-1  -3.441902399063110E-1  
 3.340000000000000E7     7.069548964500427E-1  -4.102015197277069E-1  -5.696028470993042E-1   4.614169895648956E-2  -5.686447024345398E-1   4.645254462957382E-2  -7.644317150115967E-1  -2.859214544296265E-1  
 3.370000000000000E7     6.991133689880371E-1  -4.538994431495667E-1  -5.398061871528626E-1   7.956277579069138E-2  -5.401775836944580E-1   7.820297032594681E-2  -8.005966544151306E-1  -2.284732609987259E-1  
 3.400000000000000E7     6.863667964935303E-1  -4.989591240882874E-1  -5.111299157142639E-1   1.081789284944534E-1  -5.117919445037842E-1   1.081087887287140E-1  -8.294873833656311E-1  -1.730630695819855E-1  
 3.430000000000000E7     6.694092154502869E-1  -5.427318811416626E-1  -4.833731651306152E-1   1.330758482217789E-1  -4.817923605442047E-1   1.325879395008087E-1  -8.527873158454895E-1  -1.201434358954430E-1  
 3.460000000000000E7     6.479745507240295E-1  -5.853213667869568E-1  -4.548604786396027E-1   1.540142297744751E-1  -4.549580812454224E-1   1.534008085727692E-1  -8.706117272377014E-1  -7.021031528711319E-2  
 3.490000000000000E7     6.223863363265991E-1  -6.265122890472412E-1  -4.283398389816284E-1   1.714205890893936E-1  -4.254546761512756E-1   1.707432568073273E-1  -8.833155035972595E-1  -2.102179080247879E-2  
 3.520000000000000E7     5.952395200729370E-1  -6.665354967117310E-1  -4.005154371261597E-1   1.860258430242539E-1  -3.998932242393494E-1   1.845940798521042E-1  -8.932466506958008E-1   2.538581192493439E-2  
 3.550000000000000E7     5.624082088470459E-1  -7.048427462577820E-1  -3.745615482330322E-1   1.970071494579315E-1  -3.745877742767334E-1   1.971995383501053E-1  -8.993366360664368E-1   6.900221109390259E-2  
 3.580000000000000E7     5.277416706085205E-1  -7.404605746269226E-1  -3.496747314929962E-1   2.078103721141815E-1  -3.497191071510315E-1   2.073215991258621E-1  -9.028313755989075E-1   1.111254841089249E-1  
 3.610000000000000E7     4.895623326301575E-1  -7.743069529533386E-1  -3.275255560874939E-1   2.158281356096268E-1  -3.260456621646881E-1   2.156028300523758E-1  -9.055209755897522E-1   1.510063409805298E-1  
 3.640000000000000E7     4.493101835250855E-1  -8.056166172027588E-1  -3.038831651210785E-1   2.217392027378082E-1  -3.044609725475311E-1   2.219699323177338E-1  -9.037367105484009E-1   1.873558908700943E-1  
 3.670000000000000E7     4.073180258274078E-1  -8.347663879394531E-1  -2.827273011207581E-1   2.269929647445679E-1  -2.817431390285492E-1   2.268646359443665E-1  -9.021526575088501E-1   2.221643626689911E-1  
 3.700000000000000E7     3.609727323055267E-1  -8.610110282897949E-1  -2.616233825683594E-1   2.311814725399017E-1  -2.619705200195313E-1   2.311486601829529E-1  -8.988629579544067E-1   2.564430236816406E-1  
 3.730000000000000E7     3.134459257125855E-1  -8.842287659645081E-1  -2.405201494693756E-1   2.341571152210236E-1  -2.414985001087189E-1   2.339024841785431E-1  -8.926045894622803E-1   2.872742414474487E-1  
 3.760000000000000E7     2.645565569400787E-1  -9.044958949089050E-1  -2.229745537042618E-1   2.362814545631409E-1  -2.229219079017639E-1   2.361222058534622E-1  -8.882657289505005E-1   3.182566761970520E-1  
 3.790000000000000E7     2.125401496887207E-1  -9.222185611724854E-1  -2.049510180950165E-1   2.363988608121872E-1  -2.041445076465607E-1   2.366844415664673E-1  -8.817321062088013E-1   3.463738560676575E-1  
 3.820000000000000E7     1.572847962379456E-1  -9.368028044700623E-1  -1.878830194473267E-1   2.371138185262680E-1  -1.871120780706406E-1   2.371262460947037E-1  -8.735271692276001E-1   3.723844289779663E-1  
 3.850000000000000E7     1.018141731619835E-1  -9.469546079635620E-1  -1.709022521972656E-1   2.357548177242279E-1  -1.700024008750916E-1   2.361121326684952E-1  -8.677500486373901E-1   3.983152508735657E-1  
 3.880000000000000E7     4.487085342407227E-2  -9.536798596382141E-1  -1.544391214847565E-1   2.357110530138016E-1  -1.546069085597992E-1   2.343022078275681E-1  -8.595864176750183E-1   4.234316349029541E-1  
 3.910000000000000E7    -1.435578614473343E-2  -9.581897854804993E-1  -1.385867893695831E-1   2.332698404788971E-1  -1.387421637773514E-1   2.333776652812958E-1  -8.517225384712219E-1   4.476110935211182E-1  
 3.940000000000000E7    -7.357630133628845E-2  -9.573717117309570E-1  -1.246347650885582E-1   2.305587828159332E-1  -1.242813318967819E-1   2.301975339651108E-1  -8.410315513610840E-1   4.686838686466217E-1  
 3.970000000000000E7    -1.347166448831558E-1  -9.549546837806702E-1  -1.103664934635162E-1   2.276015281677246E-1  -1.097293943166733E-1   2.277620583772659E-1  -8.308042883872986E-1   4.898206293582916E-1  
 4.000000000000000E7    -1.970864236354828E-1  -9.448102116584778E-1  -9.627541899681091E-2   2.241650074720383E-1  -9.625146538019180E-2   2.240412980318070E-1  -8.226003646850586E-1   5.104441642761231E-1  
 4.030000000000000E7    -2.590498328208923E-1  -9.321219325065613E-1  -8.384802192449570E-2   2.206504046916962E-1  -8.311693370342255E-2   2.194658964872360E-1  -8.126550316810608E-1   5.300235152244568E-1  
 4.060000000000000E7    -3.219069540500641E-1  -9.148744344711304E-1  -7.127983868122101E-2   2.155606299638748E-1  -7.079850882291794E-2   2.155579477548599E-1  -8.017555475234985E-1   5.485226511955261E-1  
 4.090000000000000E7    -3.847070932388306E-1  -8.913322687149048E-1  -5.868797749280930E-2   2.101739943027496E-1  -5.867838114500046E-2   2.097113579511643E-1  -7.917788624763489E-1   5.659437775611877E-1  
 4.120000000000000E7    -4.483447670936585E-1  -8.641254305839539E-1  -4.744457080960274E-2   2.041547894477844E-1  -4.740298911929131E-2   2.049784362316132E-1  -7.802127599716187E-1   5.842775106430054E-1  
 4.150000000000000E7    -5.103392601013184E-1  -8.306704163551331E-1  -3.624549135565758E-2   1.993311047554016E-1  -3.642996773123741E-2   1.989152282476425E-1  -7.698923945426941E-1   6.006962656974793E-1  
 4.180000000000000E7    -5.715640783309937E-1  -7.910736203193665E-1  -2.562042511999607E-2   1.924384236335754E-1  -2.612188272178173E-2   1.918626427650452E-1  -7.603369355201721E-1   6.157593131065369E-1  
 4.210000000000000E7    -6.315178275108337E-1  -7.462681531906128E-1  -1.588574424386025E-2   1.856551915407181E-1  -1.605978421866894E-2   1.856767386198044E-1  -7.489385008811951E-1   6.319419145584106E-1  
 4.240000000000000E7    -6.883511543273926E-1  -6.951612234115601E-1  -6.934575270861387E-3   1.781744509935379E-1  -6.673154421150684E-3   1.782030314207077E-1  -7.393544912338257E-1   6.465013027191162E-1  
 4.270000000000000E7    -7.443666458129883E-1  -6.363098025321960E-1   2.414477989077568E-3   1.706884205341339E-1   2.362683415412903E-3   1.702038049697876E-1  -7.275557518005371E-1   6.622291803359985E-1  
 4.300000000000000E7    -7.950571179389954E-1  -5.712792277336121E-1   1.057053264230490E-2   1.621513962745667E-1   1.033848151564598E-2   1.619205325841904E-1  -7.164192795753479E-1   6.767108440399170E-1  
 4.330000000000000E7    -8.451572656631470E-1  -5.028042197227478E-1   1.810176298022270E-2   1.533382385969162E-1   1.787567511200905E-2   1.536132395267487E-1  -7.047555446624756E-1   6.893092989921570E-1  
 4.360000000000000E7    -8.861312866210938E-1  -4.256801605224609E-1   2.424132823944092E-2   1.442823857069016E-1   2.429751493036747E-2   1.443314850330353E-1  -6.942129731178284E-1   7.026008367538452E-1  
 4.390000000000000E7    -9.225896000862122E-1  -3.400869965553284E-1   3.052480518817902E-2   1.346413940191269E-1   3.112845681607723E-2   1.343635767698288E-1  -6.819152832031250E-1   7.144641280174255E-1  
 4.420000000000000E7    -9.515217542648315E-1  -2.507802844047546E-1   3.609311580657959E-2   1.245584562420845E-1   3.615461289882660E-2   1.242678165435791E-1  -6.698036789894104E-1   7.269101142883301E-1  
 4.450000000000000E7    -9.725747704505920E-1  -1.545737534761429E-1   3.996191918849945E-2   1.144054606556892E-1   4.024070501327515E-2   1.142804622650147E-1  -6.593883037567139E-1   7.387154698371887E-1  
 4.480000000000000E7    -9.838957786560059E-1  -5.274060368537903E-2   4.345500469207764E-2   1.035799533128738E-1   4.345335811376572E-2   1.036264747381210E-1  -6.481580138206482E-1   7.498100996017456E-1  
 4.510000000000000E7    -9.845867156982422E-1   5.249279737472534E-2   4.590532928705216E-2   9.304180741310120E-2   4.583671689033508E-2   9.270092844963074E-2  -6.364631652832031E-1   7.615841627120972E-1  
 4.540000000000000E7    -9.731616377830505E-1   1.606376320123673E-1   4.731585457921028E-2   8.200339972972870E-2   4.709108918905258E-2   8.220408856868744E-2  -6.247373819351196E-1   7.727562189102173E-1  
 4.570000000000000E7    -9.490332603454590E-1   2.717177271842957E-1   4.739995300769806E-2   7.110268622636795E-2   4.743332043290138E-2   7.116679102182388E-2  -6.121754050254822E-1   7.829715609550476E-1  
 4.600000000000000E7    -9.121168851852417E-1   3.820236027240753E-1   4.605755209922791E-2   6.050094589591026E-2   4.612726718187332E-2   6.008934974670410E-2  -6.009310483932495E-1   7.926689386367798E-1  
 4.630000000000000E7    -8.568867444992065E-1   4.904410243034363E-1   4.364822059869766E-2   4.996323212981224E-2   4.368882626295090E-2   4.983537644147873E-2  -5.890530943870544E-1   8.020963668823242E-1  
 4.660000000000000E7    -7.872837185859680E-1   5.954100489616394E-1   4.024851322174072E-2   3.970300778746605E-2   4.022295773029327E-2   3.968898206949234E-2  -5.759795904159546E-1   8.128929734230042E-1  
 4.690000000000000E7    -7.049428224563599E-1   6.928241252899170E-1   3.536268696188927E-2   3.050561435520649E-2   3.546183183789253E-2   3.055187314748764E-2  -5.645564198493958E-1   8.217848539352417E-1  
 4.720000000000000E7    -6.067385077476502E-1   7.811080217361450E-1   2.940917573869228E-2   2.193040400743485E-2   2.925414592027664E-2   2.189449965953827E-2  -5.511484146118164E-1   8.302940130233765E-1  
 4.750000000000000E7    -4.939296841621399E-1   8.563585877418518E-1   2.230983227491379E-2   1.443935651332140E-2   2.236709743738174E-2   1.458463259041309E-2  -5.392223000526428E-1   8.391842842102051E-1  
 4.780000000000000E7    -3.712997436523438E-1   9.174535870552063E-1   1.444790232926607E-2   8.091359399259090E-3   1.442064810544252E-2   8.038213476538658E-3  -5.258711576461792E-1   8.464607000350952E-1  
 4.810000000000000E7    -2.379038929939270E-1   9.590258002281189E-1   5.930834915488958E-3   3.263408783823252E-3   5.906825419515371E-3   3.211402334272862E-3  -5.148101449012756E-1   8.542182445526123E-1  
 4.840000000000000E7    -9.919035434722900E-2   9.820917844772339E-1  -3.219641046598554E-3  -3.325255820527673E-4  -3.175832098349929E-3  -3.488205256871879E-4  -5.019945502281189E-1   8.618195652961731E-1  
 4.870000000000000E7     4.112742841243744E-2   9.876226186752319E-1  -1.239189598709345E-2  -2.298296429216862E-3  -1.232589315623045E-2  -2.362201223149896E-3  -4.896264374256134E-1   8.687062263488770E-1  
 4.900000000000000E7     1.807230710983276E-1   9.705558419227600E-1  -2.151250280439854E-2  -2.820832189172506E-3  -2.161952294409275E-2  -2.788676414638758E-3  -4.772369265556335E-1   8.748370409011841E-1  
 4.930000000000000E7     3.161231279373169E-1   9.348767399787903E-1  -3.047759644687176E-2  -1.850401633419097E-3  -3.041233867406845E-2  -1.785671338438988E-3  -4.642004668712616E-1   8.821120858192444E-1  
 4.960000000000000E7     4.460614919662476E-1   8.824606537818909E-1  -3.885214030742645E-2   4.612244665622711E-4  -3.871374577283859E-2   5.147139308974147E-4  -4.521064162254334E-1   8.879089355468750E-1  
 4.990000000000000E7     5.634575486183167E-1   8.113268017768860E-1  -4.645831510424614E-2   4.068351350724697E-3  -4.635072499513626E-2   4.041848704218864E-3  -4.396644234657288E-1   8.931181430816650E-1  
 5.020000000000000E7     6.688668727874756E-1   7.256137132644653E-1  -5.307164043188095E-2   8.562922477722168E-3  -5.286277458071709E-2   8.469163440167904E-3  -4.280702173709869E-1   8.993211388587952E-1  
 5.050000000000000E7     7.597707509994507E-1   6.299500465393066E-1  -5.883313342928886E-2   1.397606357932091E-2  -5.872928351163864E-2   1.385455392301083E-2  -4.157612323760986E-1   9.054621458053589E-1  
 5.080000000000000E7     8.357628583908081E-1   5.245821475982666E-1  -6.337973475456238E-2   1.976407878100872E-2  -6.313801556825638E-2   1.969039253890514E-2  -4.029462039470673E-1   9.081593155860901E-1  
 5.110000000000000E7     8.945460915565491E-1   4.152705967426300E-1  -6.692784279584885E-2   2.595708519220352E-2  -6.700374931097031E-2   2.595479786396027E-2  -3.919951915740967E-1   9.138352870941162E-1  
 5.140000000000000E7     9.405111074447632E-1   3.019652664661408E-1  -6.948820501565933E-2   3.259835392236710E-2  -6.955387443304062E-2   3.265772387385368E-2  -3.793212771415710E-1   9.206013679504395E-1  
 5.170000000000000E7     9.688072204589844E-1   1.867623925209045E-1  -7.084793597459793E-2   3.917262330651283E-2  -7.089807093143463E-2   3.920507431030273E-2  -3.670754432678223E-1   9.229031205177307E-1  
 5.200000000000000E7     9.839882254600525E-1   7.368598878383637E-2  -7.136920839548111E-2   4.565477743744850E-2  -7.121633738279343E-2   4.527195543050766E-2  -3.551628589630127E-1   9.263085126876831E-1  
 5.230000000000000E7     9.867793917655945E-1  -3.528710454702377E-2  -7.138183712959290E-2   5.173298344016075E-2  -7.123658806085587E-2   5.180224776268005E-2  -3.438632786273956E-1   9.313752651214600E-1  
 5.260000000000000E7     9.768837690353394E-1  -1.411946713924408E-1  -7.025675475597382E-2   5.796357989311218E-2  -7.015357911586762E-2   5.756836384534836E-2  -3.319490253925324E-1   9.357668161392212E-1  
 5.290000000000000E7     9.578582048416138E-1  -2.410757988691330E-1  -6.846363097429276E-2   6.321521103382111E-2  -6.844326853752136E-2   6.316690146923065E-2  -3.209554553031921E-1   9.384467601776123E-1  
 5.320000000000000E7     9.282552599906921E-1  -3.351814150810242E-1  -6.631030142307282E-2   6.834036111831665E-2  -6.643599271774292E-2   6.844654679298401E-2  -3.087857961654663E-1   9.433062076568604E-1  
 5.350000000000000E7     8.921067714691162E-1  -4.231705069541931E-1  -6.369529664516449E-2   7.314747571945190E-2  -6.376942247152329E-2   7.325912266969681E-2  -2.987544536590576E-1   9.464559555053711E-1  
 5.380000000000000E7     8.482520580291748E-1  -5.048793554306030E-1  -6.054689362645149E-2   7.745064795017242E-2  -6.017921492457390E-2   7.738980650901794E-2  -2.853276133537293E-1   9.494099020957947E-1  
 5.410000000000000E7     8.022075891494751E-1  -5.785816907882690E-1  -5.742939934134483E-2   8.138235658407211E-2  -5.722105875611305E-2   8.145808428525925E-2  -2.744379639625549E-1   9.531306624412537E-1  
 5.440000000000000E7     7.481321692466736E-1  -6.464370489120483E-1  -5.356170609593391E-2   8.476642519235611E-2  -5.359616503119469E-2   8.478149026632309E-2  -2.632897496223450E-1   9.558289647102356E-1  
 5.470000000000000E7     6.921220421791077E-1  -7.053664326667786E-1  -4.963239282369614E-2   8.749639242887497E-2  -4.976080730557442E-2   8.760608732700348E-2  -2.508753240108490E-1   9.588791728019714E-1  
 5.500000000000000E7     6.335489153862000E-1  -7.594165205955505E-1  -4.586378484964371E-2   9.041900187730789E-2  -4.567105695605278E-2   9.014303237199783E-2  -2.388043105602264E-1   9.628562927246094E-1  
 5.530000000000000E7     5.720474720001221E-1  -8.064342141151428E-1  -4.200109839439392E-2   9.229110181331635E-2  -4.170555621385574E-2   9.240046143531799E-2  -2.274167984724045E-1   9.647463560104370E-1  
 5.560000000000000E7     5.093705058097839E-1  -8.483248949050903E-1  -3.768200427293778E-2   9.435139596462250E-2  -3.770022839307785E-2   9.398976713418961E-2  -2.168813496828079E-1   9.677007198333740E-1  
 5.590000000000000E7     4.463045299053192E-1  -8.831214904785156E-1  -3.357945010066032E-2   9.541112184524536E-2  -3.362977504730225E-2   9.562983363866806E-2  -2.043201178312302E-1   9.703142046928406E-1  
 5.620000000000000E7     3.814668655395508E-1  -9.131032824516296E-1  -2.968900650739670E-2   9.681117534637451E-2  -2.935566008090973E-2   9.641952812671661E-2  -1.936416625976563E-1   9.730978608131409E-1  
 5.650000000000000E7     3.185875415802002E-1  -9.371506571769714E-1  -2.563593164086342E-2   9.711895138025284E-2  -2.547477185726166E-2   9.710681438446045E-2  -1.818496137857437E-1   9.750101566314697E-1  
 5.680000000000000E7     2.554193735122681E-1  -9.566568732261658E-1  -2.152876183390617E-2   9.783766418695450E-2  -2.159846574068070E-2   9.762758016586304E-2  -1.698198914527893E-1   9.763678908348084E-1  
 5.710000000000000E7     1.913328915834427E-1  -9.720486998558044E-1  -1.756533794105053E-2   9.803861379623413E-2  -1.774627529084683E-2   9.820704907178879E-2  -1.583902239799500E-1   9.790908098220825E-1  
 5.740000000000000E7     1.285989731550217E-1  -9.828480482101440E-1  -1.379028800874949E-2   9.813342988491058E-2  -1.373881846666336E-2   9.798971563577652E-2  -1.461998224258423E-1   9.808177947998047E-1  
 5.770000000000000E7     6.763067841529846E-2  -9.880515336990356E-1  -1.022886205464602E-2   9.773869067430496E-2  -1.019362732768059E-2   9.731800854206085E-2  -1.361745446920395E-1   9.816449880599976E-1  
 5.800000000000000E7     7.131793070584536E-3  -9.908853173255920E-1  -6.367872934788466E-3   9.751483052968979E-2  -6.287602707743645E-3   9.730344265699387E-2  -1.228178143501282E-1   9.849797487258911E-1  
 5.830000000000000E7    -5.078183859586716E-2  -9.897211194038391E-1  -3.024894045665860E-3   9.649319946765900E-2  -2.972668502479792E-3   9.665628522634506E-2  -1.122426241636276E-1   9.862797260284424E-1  
 5.860000000000000E7    -1.082559749484062E-1  -9.867455959320068E-1   2.658086887095124E-4   9.573949128389359E-2   3.539140161592513E-4   9.574925899505615E-2  -1.000971570611000E-1   9.870198369026184E-1  
 5.890000000000000E7    -1.648527979850769E-1  -9.777351617813110E-1   3.633189713582397E-3   9.487851709127426E-2   3.273471724241972E-3   9.451455622911453E-2  -8.943116664886475E-2   9.878497719764710E-1  
 5.920000000000000E7    -2.196217030286789E-1  -9.679451584815979E-1   6.772528868168593E-3   9.371270239353180E-2   6.994092371314764E-3   9.369213134050369E-2  -7.696259766817093E-2   9.900663495063782E-1  
 5.950000000000000E7    -2.715808153152466E-1  -9.537720084190369E-1   9.780058637261391E-3   9.223213046789169E-2   9.848440065979958E-3   9.210167825222015E-2  -6.511571258306503E-2   9.892033338546753E-1  
 5.980000000000000E7    -3.232210278511047E-1  -9.387236237525940E-1   1.294483337551355E-2   9.086950868368149E-2   1.269209943711758E-2   9.066710621118546E-2  -5.307001993060112E-2   9.906119704246521E-1  
 6.010000000000000E7    -3.707095980644226E-1  -9.190004467964172E-1   1.532092038542032E-2   8.940801024436951E-2   1.523893792182207E-2   8.905124664306641E-2  -4.208847507834435E-2   9.917775392532349E-1  
 6.040000000000000E7    -4.198238253593445E-1  -8.995199799537659E-1   1.810192316770554E-2   8.781126886606216E-2   1.817347481846809E-2   8.780360966920853E-2  -3.003464266657829E-2   9.929884672164917E-1  
 6.070000000000000E7    -4.635819196701050E-1  -8.782789111137390E-1   2.034822106361389E-2   8.624725788831711E-2   2.021320350468159E-2   8.595700562000275E-2  -1.914950832724571E-2   9.925723075866699E-1  
 6.100000000000000E7    -5.069508552551270E-1  -8.528159260749817E-1   2.290471084415913E-2   8.425765484571457E-2   2.288535237312317E-2   8.422541618347168E-2  -5.837075412273407E-3   9.933514595031738E-1  
 6.130000000000000E7    -5.493478178977966E-1  -8.278976082801819E-1   2.512529864907265E-2   8.252540230751038E-2   2.501872181892395E-2   8.237045258283615E-2   5.948740988969803E-3   9.939316511154175E-1  
 6.160000000000000E7    -5.886565446853638E-1  -7.996758222579956E-1   2.706906013190746E-2   8.049850165843964E-2   2.710983902215958E-2   8.032143861055374E-2   1.674781739711762E-2   9.922923445701599E-1  
 6.190000000000000E7    -6.267914772033691E-1  -7.698079943656921E-1   2.901558950543404E-2   7.854899019002914E-2   2.925595827400684E-2   7.815445959568024E-2   2.786517515778542E-2   9.918159842491150E-1  
 6.220000000000000E7    -6.621441841125488E-1  -7.397753000259399E-1   3.070843406021595E-2   7.628019154071808E-2   3.080793842673302E-2   7.649400085210800E-2   3.944226726889610E-2   9.931753277778626E-1  
 6.250000000000000E7    -6.969069242477417E-1  -7.079592347145081E-1   3.246874734759331E-2   7.435727119445801E-2   3.270935267210007E-2   7.425420731306076E-2   5.087473616003990E-2   9.925051331520081E-1  
 6.280000000000000E7    -7.282411456108093E-1  -6.747196912765503E-1   3.426264226436615E-2   7.230298221111298E-2   3.411355987191200E-2   7.223459333181381E-2   6.318578124046326E-2   9.921892881393433E-1  
 6.310000000000000E7    -7.599573135375977E-1  -6.395193934440613E-1   3.579128533601761E-2   7.018756121397018E-2   3.560853004455566E-2   7.007528841495514E-2   7.498767971992493E-2   9.917764067649841E-1  
 6.340000000000000E7    -7.875073552131653E-1  -6.047576069831848E-1   3.709849342703819E-2   6.806832551956177E-2   3.710918873548508E-2   6.786826997995377E-2   8.681571483612061E-2   9.909815192222595E-1  
 6.370000000000000E7    -8.138533234596252E-1  -5.691947937011719E-1   3.836184740066528E-2   6.576879322528839E-2   3.846053034067154E-2   6.563135981559753E-2   9.794853627681732E-2   9.889427423477173E-1  
 6.400000000000000E7    -8.385928273200989E-1  -5.315248966217041E-1   3.971792012453079E-2   6.344691663980484E-2   3.962600976228714E-2   6.329070031642914E-2   1.103503704071045E-1   9.888087511062622E-1  
 6.430000000000000E7    -8.620588779449463E-1  -4.936338365077972E-1   4.069430381059647E-2   6.143098324537277E-2   4.063310474157333E-2   6.109194830060005E-2   1.218427792191505E-1   9.869199991226196E-1  
 6.460000000000000E7    -8.829826116561890E-1  -4.563744366168976E-1   4.144853726029396E-2   5.912005901336670E-2   4.139999300241470E-2   5.899783596396446E-2   1.325355768203735E-1   9.852021932601929E-1  
 6.490000000000000E7    -9.013961553573608E-1  -4.188150763511658E-1   4.209737852215767E-2   5.681421607732773E-2   4.215281829237938E-2   5.683291703462601E-2   1.440717577934265E-1   9.844526648521423E-1  
 6.520000000000000E7    -9.189741611480713E-1  -3.794531226158142E-1   4.302472248673439E-2   5.487930029630661E-2   4.286469891667366E-2   5.451469868421555E-2   1.564756780862808E-1   9.831603169441223E-1  
 6.550000000000000E7    -9.334758520126343E-1  -3.405756950378418E-1   4.365865513682365E-2   5.240586027503014E-2   4.346084594726563E-2   5.233720690011978E-2   1.678048372268677E-1   9.795163273811340E-1  
 6.580000000000000E7    -9.476923346519470E-1  -2.995685935020447E-1   4.427638277411461E-2   5.014323815703392E-2   4.407528415322304E-2   5.008254945278168E-2   1.797868609428406E-1   9.791668653488159E-1  
 6.610000000000000E7    -9.586325883865356E-1  -2.588126063346863E-1   4.468417167663574E-2   4.800030589103699E-2   4.453520849347115E-2   4.751363769173622E-2   1.925885677337647E-1   9.755555987358093E-1  
 6.640000000000000E7    -9.698771834373474E-1  -2.204810380935669E-1   4.469553008675575E-2   4.587680846452713E-2   4.472966864705086E-2   4.579453915357590E-2   2.040325701236725E-1   9.737605452537537E-1  
 6.670000000000000E7    -9.778208136558533E-1  -1.792069971561432E-1   4.503262415528297E-2   4.351404681801796E-2   4.485358670353890E-2   4.355268180370331E-2   2.145931720733643E-1   9.718960523605347E-1  
 6.700000000000000E7    -9.842590689659119E-1  -1.387901157140732E-1   4.516936093568802E-2   4.147613793611527E-2   4.498366639018059E-2   4.124538600444794E-2   2.260087877511978E-1   9.682027101516724E-1  
 6.730000000000000E7    -9.893063902854919E-1  -9.843012690544128E-2   4.496756941080093E-2   3.938092663884163E-2   4.519148543477058E-2   3.906358405947685E-2   2.383946776390076E-1   9.667910933494568E-1  
 6.760000000000000E7    -9.924364089965820E-1  -5.863724648952484E-2   4.515288397669792E-2   3.716751560568810E-2   4.498637840151787E-2   3.705500438809395E-2   2.504318356513977E-1   9.634020924568176E-1  
 6.790000000000000E7    -9.940868020057678E-1  -1.848907023668289E-2   4.480976983904839E-2   3.521045297384262E-2   4.483039677143097E-2   3.501470759510994E-2   2.607518434524536E-1   9.599277973175049E-1  
 6.820000000000000E7    -9.938278794288635E-1   2.168682217597961E-2   4.450813308358192E-2   3.301318734884262E-2   4.456788673996925E-2   3.296911343932152E-2   2.723866105079651E-1   9.575056433677673E-1  
 6.850000000000000E7    -9.934227466583252E-1   6.150679290294647E-2   4.436757043004036E-2   3.127438947558403E-2   4.411578923463821E-2   3.104372881352902E-2   2.834725975990295E-1   9.544409513473511E-1  
 6.880000000000000E7    -9.894297122955322E-1   1.010707020759583E-1   4.385418072342873E-2   2.904749102890492E-2   4.376570880413055E-2   2.897704206407070E-2   2.956171929836273E-1   9.505307078361511E-1  
 6.910000000000000E7    -9.842779040336609E-1   1.401104032993317E-1   4.342572763562203E-2   2.718769758939743E-2   4.333037883043289E-2   2.712444961071014E-2   3.078312873840332E-1   9.472231864929199E-1  
 6.940000000000000E7    -9.792004823684692E-1   1.785516291856766E-1   4.277497529983521E-2   2.540574595332146E-2   4.265562817454338E-2   2.524751611053944E-2   3.181640803813934E-1   9.435600042343140E-1  
 6.970000000000000E7    -9.705528616905212E-1   2.176114767789841E-1   4.203078895807266E-2   2.351964637637138E-2   4.209186881780624E-2   2.336302958428860E-2   3.300602734088898E-1   9.393041133880615E-1  
 7.000000000000000E7    -9.623254537582398E-1   2.554645240306854E-1   4.140382260084152E-2   2.172081731259823E-2   4.134553298354149E-2   2.154596894979477E-2   3.412464559078217E-1   9.360983371734619E-1  
