#  HZ   S   RI   R     50.00 
! Rohde & Schwarz ZVT8 8Ports - Version 4.11 - 1300.0000k08 SN: 100242
! Date: 2026-07-31 14:27:14
! Measurements: S11 S21 S12 S22 
! 
 1.000000000000000E7    -4.048815071582794E-1   9.105294346809387E-1   5.334911867976189E-2   5.359371006488800E-2   5.311055108904839E-2   5.359676107764244E-2  -9.167983531951904E-1   3.910553157329559E-1  
 1.030000000000000E7    -3.727029860019684E-1   9.231459498405457E-1   5.663752928376198E-2   5.400045588612557E-2   5.645589902997017E-2   5.430535972118378E-2  -9.103779196739197E-1   4.042073190212250E-1  
 1.060000000000000E7    -3.367277085781097E-1   9.359611272811890E-1   6.020385026931763E-2   5.510427430272102E-2   6.011904776096344E-2   5.490496382117271E-2  -9.062409996986389E-1   4.164530038833618E-1  
 1.090000000000000E7    -3.046801686286926E-1   9.460989832878113E-1   6.385467201471329E-2   5.539172515273094E-2   6.380803883075714E-2   5.532894656062126E-2  -8.996719717979431E-1   4.288705885410309E-1  
 1.120000000000000E7    -2.692955136299133E-1   9.560800790786743E-1   6.800512224435806E-2   5.638791248202324E-2   6.754459440708160E-2   5.603648722171783E-2  -8.938484787940979E-1   4.415875971317291E-1  
 1.150000000000000E7    -2.340307682752609E-1   9.664233326911926E-1   7.185766845941544E-2   5.623340979218483E-2   7.148498296737671E-2   5.622114241123200E-2  -8.856911063194275E-1   4.516070187091827E-1  
 1.180000000000000E7    -1.993743777275085E-1   9.713502526283264E-1   7.570043206214905E-2   5.661378428339958E-2   7.554806023836136E-2   5.654200166463852E-2  -8.809632062911987E-1   4.637632668018341E-1  
 1.210000000000000E7    -1.647745221853256E-1   9.782720208168030E-1   8.017437160015106E-2   5.686507374048233E-2   7.992321252822876E-2   5.682367086410523E-2  -8.723264932632446E-1   4.766623377799988E-1  
 1.240000000000000E7    -1.292414665222168E-1   9.827376008033752E-1   8.433979004621506E-2   5.690554529428482E-2   8.430871367454529E-2   5.654329061508179E-2  -8.650118708610535E-1   4.875077903270721E-1  
 1.270000000000000E7    -9.363211691379547E-2   9.861140251159668E-1   8.945004642009735E-2   5.650804936885834E-2   8.880085498094559E-2   5.613661929965019E-2  -8.572526574134827E-1   5.025491118431091E-1  
 1.300000000000000E7    -5.836662650108337E-2   9.888365864753723E-1   9.370184689760208E-2   5.625904351472855E-2   9.366465359926224E-2   5.617023259401321E-2  -8.483705520629883E-1   5.141727924346924E-1  
 1.330000000000000E7    -2.184712514281273E-2   9.908519983291626E-1   9.896345436573029E-2   5.571843683719635E-2   9.881880879402161E-2   5.537336319684982E-2  -8.404533863067627E-1   5.271086096763611E-1  
 1.360000000000000E7     1.540056243538857E-2   9.905104637145996E-1   1.038447618484497E-1   5.545838177204132E-2   1.040645614266396E-1   5.463015288114548E-2  -8.320530056953430E-1   5.377537608146668E-1  
 1.390000000000000E7     5.048755556344986E-2   9.883033633232117E-1   1.094464585185051E-1   5.417781323194504E-2   1.088833287358284E-1   5.441154167056084E-2  -8.234947323799133E-1   5.507367849349976E-1  
 1.420000000000000E7     8.815128356218338E-2   9.858053326606751E-1   1.147012859582901E-1   5.341107025742531E-2   1.143395155668259E-1   5.332660675048828E-2  -8.154447078704834E-1   5.627347230911255E-1  
 1.450000000000000E7     1.238910779356957E-1   9.800149202346802E-1   1.204174011945725E-1   5.186482146382332E-2   1.202075481414795E-1   5.185278132557869E-2  -8.032535314559937E-1   5.765687227249146E-1  
 1.480000000000000E7     1.616173535585403E-1   9.745326638221741E-1   1.260478645563126E-1   5.013460293412209E-2   1.260887831449509E-1   5.082580074667931E-2  -7.945094704627991E-1   5.884473323822022E-1  
 1.510000000000000E7     1.972446143627167E-1   9.664183855056763E-1   1.321723312139511E-1   4.858309030532837E-2   1.318657249212265E-1   4.867716506123543E-2  -7.815288901329041E-1   6.015935540199280E-1  
 1.540000000000000E7     2.324234396219254E-1   9.577546119689941E-1   1.379832774400711E-1   4.763120412826538E-2   1.381620168685913E-1   4.699516296386719E-2  -7.741104364395142E-1   6.138313412666321E-1  
 1.570000000000000E7     2.691734433174133E-1   9.491425752639771E-1   1.446836441755295E-1   4.486454278230667E-2   1.447475701570511E-1   4.457554221153259E-2  -7.604987025260925E-1   6.284342408180237E-1  
 1.600000000000000E7     3.058941960334778E-1   9.356204867362976E-1   1.511542201042175E-1   4.211213439702988E-2   1.515565365552902E-1   4.191579669713974E-2  -7.491895556449890E-1   6.392607688903809E-1  
 1.630000000000000E7     3.405965864658356E-1   9.223404526710510E-1   1.586723923683167E-1   3.881020843982697E-2   1.581944227218628E-1   3.925162181258202E-2  -7.359579801559448E-1   6.536573767662048E-1  
 1.660000000000000E7     3.758841753005981E-1   9.063731431961060E-1   1.658389866352081E-1   3.543260693550110E-2   1.652576476335526E-1   3.508191555738449E-2  -7.213585376739502E-1   6.669802069664002E-1  
 1.690000000000000E7     4.101361334323883E-1   8.901222944259644E-1   1.732787042856216E-1   3.232430294156075E-2   1.730186790227890E-1   3.205488994717598E-2  -7.082765102386475E-1   6.792801618576050E-1  
 1.720000000000000E7     4.464248120784760E-1   8.728576302528381E-1   1.802337765693665E-1   2.740165963768959E-2   1.804168671369553E-1   2.794922702014446E-2  -6.935095191001892E-1   6.917881965637207E-1  
 1.750000000000000E7     4.753829538822174E-1   8.558031916618347E-1   1.891421824693680E-1   2.454463578760624E-2   1.892500072717667E-1   2.386761456727982E-2  -6.793153285980225E-1   7.066721916198731E-1  
 1.780000000000000E7     5.114336013793945E-1   8.309648036956787E-1   1.963381022214890E-1   1.845064386725426E-2   1.966484040021896E-1   1.880457252264023E-2  -6.623620986938477E-1   7.170563936233521E-1  
 1.810000000000000E7     5.426123142242432E-1   8.098433017730713E-1   2.062156349420548E-1   1.305432990193367E-2   2.048248052597046E-1   1.262558437883854E-2  -6.452303528785706E-1   7.332009673118591E-1  
 1.840000000000000E7     5.758385062217712E-1   7.853307723999023E-1   2.149861156940460E-1   5.534203723073006E-3   2.140951454639435E-1   6.055952981114388E-3  -6.261000633239746E-1   7.457153797149658E-1  
 1.870000000000000E7     6.047553420066834E-1   7.604623436927795E-1   2.238359153270721E-1  -3.675147891044617E-4   2.229588925838471E-1  -9.465776383876801E-4  -6.068845391273499E-1   7.581167221069336E-1  
 1.900000000000000E7     6.347087025642395E-1   7.331014275550842E-1   2.331867218017578E-1  -7.895236834883690E-3   2.327791601419449E-1  -8.327003568410873E-3  -5.863659381866455E-1   7.708877921104431E-1  
 1.930000000000000E7     6.636611223220825E-1   7.034421563148499E-1   2.423385083675385E-1  -1.778272539377213E-2   2.428115159273148E-1  -1.678388565778732E-2  -5.647391676902771E-1   7.852534055709839E-1  
 1.960000000000000E7     6.914706826210022E-1   6.721116900444031E-1   2.522185146808624E-1  -2.688908204436302E-2   2.523455619812012E-1  -2.637557499110699E-2  -5.435841679573059E-1   7.966676950454712E-1  
 1.990000000000000E7     7.159215211868286E-1   6.396748423576355E-1   2.622933685779572E-1  -3.756352514028549E-2   2.626295089721680E-1  -3.748785331845284E-2  -5.166181325912476E-1   8.108040690422058E-1  
 2.020000000000000E7     7.407166361808777E-1   6.055282354354858E-1   2.733135223388672E-1  -4.904981702566147E-2   2.724755704402924E-1  -4.892530664801598E-2  -4.919211566448212E-1   8.207503557205200E-1  
 2.050000000000000E7     7.655102014541626E-1   5.691250562667847E-1   2.837759256362915E-1  -6.164793297648430E-2   2.820067405700684E-1  -6.190625950694084E-2  -4.642996490001679E-1   8.325839638710022E-1  
 2.080000000000000E7     7.857350707054138E-1   5.305598974227905E-1   2.946038246154785E-1  -7.644389569759369E-2   2.947064340114594E-1  -7.632309198379517E-2  -4.340027272701263E-1   8.452811241149902E-1  
 2.110000000000000E7     8.056589961051941E-1   4.918740689754486E-1   3.057257831096649E-1  -9.358258545398712E-2   3.058286607265472E-1  -9.350427240133286E-2  -4.011658132076263E-1   8.551095128059387E-1  
 2.140000000000000E7     8.231527805328369E-1   4.515061378479004E-1   3.167999982833862E-1  -1.121989488601685E-1   3.157787024974823E-1  -1.107515543699265E-1  -3.673363029956818E-1   8.640677332878113E-1  
 2.170000000000000E7     8.370630741119385E-1   4.101494550704956E-1   3.276869356632233E-1  -1.314158886671066E-1   3.274764716625214E-1  -1.303144395351410E-1  -3.303382098674774E-1   8.718870878219605E-1  
 2.200000000000000E7     8.506822586059570E-1   3.644850552082062E-1   3.378886878490448E-1  -1.543167978525162E-1   3.380892276763916E-1  -1.539150923490524E-1  -2.892150580883026E-1   8.780983090400696E-1  
 2.230000000000000E7     8.587705492973328E-1   3.191494643688202E-1   3.479103446006775E-1  -1.792658567428589E-1   3.476809859275818E-1  -1.782481670379639E-1  -2.467003166675568E-1   8.820430040359497E-1  
 2.260000000000000E7     8.655508160591126E-1   2.719191908836365E-1   3.568138480186462E-1  -2.070585787296295E-1   3.588526248931885E-1  -2.073361575603485E-1  -2.009552419185638E-1   8.833853602409363E-1  
 2.290000000000000E7     8.680630922317505E-1   2.239585369825363E-1   3.653544485569000E-1  -2.381807118654251E-1   3.661961853504181E-1  -2.375110834836960E-1  -1.497885584831238E-1   8.810369968414307E-1  
 2.320000000000000E7     8.652064204216003E-1   1.756802797317505E-1   3.715733885765076E-1  -2.742314040660858E-1   3.709208667278290E-1  -2.742235064506531E-1  -9.632118791341782E-2   8.776511549949646E-1  
 2.350000000000000E7     8.584527969360352E-1   1.256159543991089E-1   3.750204443931580E-1  -3.140823841094971E-1   3.749663531780243E-1  -3.125941455364227E-1  -3.887377679347992E-2   8.666726350784302E-1  
 2.380000000000000E7     8.473976254463196E-1   7.669395208358765E-2   3.765954077243805E-1  -3.556344807147980E-1   3.763590455055237E-1  -3.556973040103912E-1   2.223804593086243E-2   8.500667214393616E-1  
 2.410000000000000E7     8.308522701263428E-1   2.751583233475685E-2   3.722382187843323E-1  -4.040272533893585E-1   3.713540136814117E-1  -4.031569063663483E-1   8.671084046363831E-2   8.246483206748962E-1  
 2.440000000000000E7     8.072066903114319E-1  -1.817751675844193E-2   3.623259961605072E-1  -4.567611217498779E-1   3.628132939338684E-1  -4.571908116340637E-1   1.527101099491119E-1   7.909632921218872E-1  
 2.470000000000000E7     7.783168554306030E-1  -6.131896376609802E-2   3.451906442642212E-1  -5.131397247314453E-1   3.466618061065674E-1  -5.109342932701111E-1   2.225521802902222E-1   7.447841763496399E-1  
 2.500000000000000E7     7.430897355079651E-1  -1.023248583078384E-1   3.201011121273041E-1  -5.715475082397461E-1   3.191089928150177E-1  -5.728115439414978E-1   2.910646498203278E-1   6.870589852333069E-1  
 2.530000000000000E7     7.000362277030945E-1  -1.354881823062897E-1   2.842116355895996E-1  -6.350825428962708E-1   2.841786146163940E-1  -6.336063742637634E-1   3.567257225513458E-1   6.130833029747009E-1  
 2.560000000000000E7     6.538974642753601E-1  -1.606827676296234E-1   2.355567067861557E-1  -6.953909397125244E-1   2.351758927106857E-1  -6.955534219741821E-1   4.149251878261566E-1   5.234768390655518E-1  
 2.590000000000000E7     6.050830483436585E-1  -1.729107201099396E-1   1.683453023433685E-1  -7.521714568138123E-1   1.682639271020889E-1  -7.535346150398254E-1   4.635411798954010E-1   4.188443124294281E-1  
 2.620000000000000E7     5.543909072875977E-1  -1.748848110437393E-1   8.723723888397217E-2  -8.030959963798523E-1   8.828303962945938E-2  -8.016399145126343E-1   4.938786327838898E-1   2.961769104003906E-1  
 2.650000000000000E7     5.063059926033020E-1  -1.652047038078308E-1  -4.711780697107315E-3  -8.402413129806519E-1  -5.831301212310791E-3  -8.407576680183411E-1   5.000957250595093E-1   1.633591651916504E-1  
 2.680000000000000E7     4.664291143417358E-1  -1.416555643081665E-1  -1.107420474290848E-1  -8.597912192344666E-1  -1.105317771434784E-1  -8.600411415100098E-1   4.782453179359436E-1   2.628532983362675E-2  
 2.710000000000000E7     4.393294155597687E-1  -1.117864847183228E-1  -2.212079167366028E-1  -8.572751879692078E-1  -2.229939252138138E-1  -8.564060926437378E-1   4.320323169231415E-1  -1.074505001306534E-1  
 2.740000000000000E7     4.234258234500885E-1  -7.167941331863403E-2  -3.336806893348694E-1  -8.328602910041809E-1  -3.333833813667297E-1  -8.332148790359497E-1   3.499963879585266E-1  -2.302658855915070E-1  
 2.770000000000000E7     4.262630641460419E-1  -3.536384552717209E-2  -4.362687766551971E-1  -7.846453189849854E-1  -4.369843006134033E-1  -7.867856621742249E-1   2.492330819368362E-1  -3.324629068374634E-1  
 2.800000000000000E7     4.408584833145142E-1  -1.219492405653000E-3  -5.278366208076477E-1  -7.192915081977844E-1  -5.249566435813904E-1  -7.213339805603027E-1   1.284834593534470E-1  -4.119002819061279E-1  
 2.830000000000000E7     4.672563970088959E-1   2.296737208962441E-2  -6.003901958465576E-1  -6.407074332237244E-1  -6.006045341491699E-1  -6.394294500350952E-1   5.299502983689308E-3  -4.602701067924500E-1  
 2.860000000000000E7     5.041926503181458E-1   3.610510006546974E-2  -6.546574234962463E-1  -5.535594224929810E-1  -6.544243097305298E-1  -5.533296465873718E-1  -1.212637126445770E-1  -4.835104644298554E-1  
 2.890000000000000E7     5.442931652069092E-1   3.610715270042419E-2  -6.910542249679565E-1  -4.649650454521179E-1  -6.898201704025269E-1  -4.633780717849731E-1  -2.409502416849136E-1  -4.822614490985870E-1  
 2.920000000000000E7     5.856317281723023E-1   2.695349231362343E-2  -7.118358612060547E-1  -3.771841824054718E-1  -7.112113833427429E-1  -3.757084906101227E-1  -3.509683609008789E-1  -4.639470577239990E-1  
 2.950000000000000E7     6.243785619735718E-1   3.430925309658051E-3  -7.179569602012634E-1  -2.960011363029480E-1  -7.164480686187744E-1  -2.955518662929535E-1  -4.462749958038330E-1  -4.296381771564484E-1  
 2.980000000000000E7     6.582044959068298E-1  -2.664799243211746E-2  -7.142353653907776E-1  -2.195570468902588E-1  -7.140668034553528E-1  -2.200857102870941E-1  -5.290322899818420E-1  -3.859795928001404E-1  
 3.010000000000000E7     6.861943602561951E-1  -6.690870225429535E-2  -7.034007906913757E-1  -1.510053277015686E-1  -7.014072537422180E-1  -1.519812643527985E-1  -5.989457964897156E-1  -3.368798792362213E-1  
 3.040000000000000E7     7.099104523658752E-1  -1.125378310680389E-1  -6.846132278442383E-1  -8.962701261043549E-2  -6.867646574974060E-1  -9.007873386144638E-2  -6.559133529663086E-1  -2.844212353229523E-1  
 3.070000000000000E7     7.236195802688599E-1  -1.621811985969544E-1  -6.641255617141724E-1  -3.355014324188232E-2  -6.632557511329651E-1  -3.476354852318764E-2  -7.031808495521545E-1  -2.325662523508072E-1  
 3.100000000000000E7     7.317823767662048E-1  -2.164942026138306E-1  -6.400310993194580E-1   1.404347363859415E-2  -6.392386555671692E-1   1.397732459008694E-2  -7.413488030433655E-1  -1.804452389478684E-1  
 3.130000000000000E7     7.329465150833130E-1  -2.715421319007874E-1  -6.153066754341126E-1   5.712500587105751E-2  -6.150692701339722E-1   5.660330131649971E-2  -7.709714770317078E-1  -1.281104832887650E-1  
 3.160000000000000E7     7.269333600997925E-1  -3.296336233615875E-1  -5.878853797912598E-1   9.425955265760422E-2  -5.889869928359985E-1   9.501319378614426E-2  -7.937004566192627E-1  -8.011895418167114E-2  
 3.190000000000000E7     7.135041952133179E-1  -3.866517245769501E-1  -5.616277456283569E-1   1.291713565587997E-1  -5.609624981880188E-1   1.286962777376175E-1  -8.119221329689026E-1  -3.310423716902733E-2  
 3.220000000000000E7     6.951921582221985E-1  -4.454798102378845E-1  -5.346856117248535E-1   1.600423455238342E-1  -5.344458222389221E-1   1.598014980554581E-1  -8.253837823867798E-1   1.079350709915161E-2  
 3.250000000000000E7     6.680163145065308E-1  -5.028076767921448E-1  -5.084763765335083E-1   1.867654174566269E-1  -5.086346268653870E-1   1.876596957445145E-1  -8.347889780998230E-1   5.286908149719238E-2  
 3.280000000000000E7     6.327471137046814E-1  -5.598350167274475E-1  -4.815465807914734E-1   2.110324651002884E-1  -4.812990128993988E-1   2.118504792451859E-1  -8.415665030479431E-1   9.313162416219711E-2  
 3.310000000000000E7     5.922191143035889E-1  -6.135389804840088E-1  -4.555697143077850E-1   2.358554303646088E-1  -4.560936689376831E-1   2.358236312866211E-1  -8.450368642807007E-1   1.299553811550140E-1  
 3.340000000000000E7     5.429612994194031E-1  -6.669334769248962E-1  -4.302952587604523E-1   2.578791081905365E-1  -4.292806088924408E-1   2.573519051074982E-1  -8.462648391723633E-1   1.654375195503235E-1  
 3.370000000000000E7     4.870593249797821E-1  -7.162474393844605E-1  -4.034280180931091E-1   2.768464386463165E-1  -4.045548439025879E-1   2.762431502342224E-1  -8.459384441375732E-1   1.980841308832169E-1  
 3.400000000000000E7     4.215821921825409E-1  -7.626761198043823E-1  -3.774853646755219E-1   2.958046495914459E-1  -3.777363300323486E-1   2.961748838424683E-1  -8.429992198944092E-1   2.284113913774490E-1  
 3.430000000000000E7     3.484315872192383E-1  -8.037236928939819E-1  -3.512870371341705E-1   3.145265579223633E-1  -3.506318628787994E-1   3.129385113716126E-1  -8.404016494750977E-1   2.566518485546112E-1  
 3.460000000000000E7     2.658193707466126E-1  -8.385906815528870E-1  -3.240209221839905E-1   3.310638666152954E-1  -3.240432441234589E-1   3.305889666080475E-1  -8.370754718780518E-1   2.825583815574646E-1  
 3.490000000000000E7     1.741402745246887E-1  -8.644524216651917E-1  -2.963036298751831E-1   3.478976786136627E-1  -2.948163449764252E-1   3.449186086654663E-1  -8.313283324241638E-1   3.074215054512024E-1  
 3.520000000000000E7     7.424336671829224E-2  -8.829101324081421E-1  -2.663462162017822E-1   3.616019785404205E-1  -2.669933140277863E-1   3.600701391696930E-1  -8.267554640769959E-1   3.311174213886261E-1  
 3.550000000000000E7    -3.705189004540443E-2  -8.873336315155029E-1  -2.361149489879608E-1   3.744097650051117E-1  -2.359122633934021E-1   3.744972348213196E-1  -8.215271234512329E-1   3.514914512634277E-1  
 3.580000000000000E7    -1.555408388376236E-1  -8.762589097023010E-1  -2.027045488357544E-1   3.871507346630096E-1  -2.030359506607056E-1   3.866055905818939E-1  -8.146613240242004E-1   3.725514411926270E-1  
 3.610000000000000E7    -2.816965878009796E-1  -8.452048301696777E-1  -1.684533357620239E-1   3.984460532665253E-1  -1.679756939411163E-1   3.974576890468597E-1  -8.101808428764343E-1   3.926178514957428E-1  
 3.640000000000000E7    -4.126096069812775E-1  -7.927280664443970E-1  -1.306230127811432E-1   4.053861200809479E-1  -1.304936408996582E-1   4.064378440380096E-1  -8.036117553710938E-1   4.083916246891022E-1  
 3.670000000000000E7    -5.435455441474915E-1  -7.123590707778931E-1  -9.027910232543945E-2   4.103751778602600E-1  -8.985067903995514E-2   4.091086685657501E-1  -7.989702224731445E-1   4.247885346412659E-1  
 3.700000000000000E7    -6.692411899566650E-1  -5.992206931114197E-1  -4.645607247948647E-2   4.100582003593445E-1  -4.650382697582245E-2   4.104257524013519E-1  -7.938070297241211E-1   4.410950839519501E-1  
 3.730000000000000E7    -7.786353230476379E-1  -4.534939825534821E-1  -2.431310713291168E-4   4.027540087699890E-1  -6.432346999645233E-4   4.030375778675079E-1  -7.891818881034851E-1   4.552370607852936E-1  
 3.760000000000000E7    -8.622455596923828E-1  -2.735708653926849E-1   4.573651403188705E-2   3.903646469116211E-1   4.538983106613159E-2   3.902083933353424E-1  -7.870712876319885E-1   4.712787568569183E-1  
 3.790000000000000E7    -9.078479409217835E-1  -6.552484631538391E-2   8.953844010829926E-2   3.684398233890533E-1   8.895688503980637E-2   3.678537607192993E-1  -7.842909693717957E-1   4.862096309661865E-1  
 3.820000000000000E7    -9.007602930068970E-1   1.613639146089554E-1   1.306146383285523E-1   3.378926217556000E-1   1.313361972570419E-1   3.364898860454559E-1  -7.823522090911865E-1   5.007008910179138E-1  
 3.850000000000000E7    -8.380928039550781E-1   3.882394433021545E-1   1.645037978887558E-1   2.990329265594482E-1   1.652435958385468E-1   2.983533143997192E-1  -7.815980315208435E-1   5.177994370460510E-1  
 3.880000000000000E7    -7.161036729812622E-1   5.955449342727661E-1   1.912134289741516E-1   2.543015778064728E-1   1.905044615268707E-1   2.546463608741760E-1  -7.793760299682617E-1   5.363096594810486E-1  
 3.910000000000000E7    -5.444199442863464E-1   7.657757997512817E-1   2.046199738979340E-1   2.063675075769424E-1   2.046893239021301E-1   2.070136070251465E-1  -7.772540450096130E-1   5.564464330673218E-1  
 3.940000000000000E7    -3.389363884925842E-1   8.855997920036316E-1   2.080345004796982E-1   1.603269279003143E-1   2.085874080657959E-1   1.604058742523193E-1  -7.722677588462830E-1   5.743929147720337E-1  
 3.970000000000000E7    -1.192596256732941E-1   9.483315944671631E-1   2.021494507789612E-1   1.175164505839348E-1   2.018362134695053E-1   1.171876788139343E-1  -7.655811309814453E-1   5.941163897514343E-1  
 4.000000000000000E7     9.532509744167328E-2   9.583730101585388E-1   1.893520206212997E-1   8.122514188289642E-2   1.893933862447739E-1   8.097688853740692E-2  -7.593610882759094E-1   6.142153143882752E-1  
 4.030000000000000E7     2.941012978553772E-1   9.251478910446167E-1   1.726844757795334E-1   5.171764642000198E-2   1.723841577768326E-1   5.179745331406593E-2  -7.505167126655579E-1   6.330280900001526E-1  
 4.060000000000000E7     4.690818786621094E-1   8.556621074676514E-1   1.525803804397583E-1   2.855715900659561E-2   1.523248851299286E-1   2.818632870912552E-2  -7.400609254837036E-1   6.509145498275757E-1  
 4.090000000000000E7     6.153161525726318E-1   7.642000317573547E-1   1.323826909065247E-1   1.133380178362131E-2   1.324517726898193E-1   1.137258205562830E-2  -7.295209169387817E-1   6.672893762588501E-1  
 4.120000000000000E7     7.318054437637329E-1   6.575442552566528E-1   1.126635596156120E-1  -2.567265182733536E-4   1.124473959207535E-1  -6.800722330808640E-4  -7.172301411628723E-1   6.839940547943115E-1  
 4.150000000000000E7     8.217907547950745E-1   5.430783629417419E-1   9.491065144538879E-2  -8.312696591019630E-3   9.436415880918503E-2  -8.107704110443592E-3  -7.048456072807312E-1   6.990237236022949E-1  
 4.180000000000000E7     8.906083106994629E-1   4.278981387615204E-1   7.851646840572357E-2  -1.294796634465456E-2   7.834950834512711E-2  -1.295146066695452E-2  -6.937424540519714E-1   7.123216986656189E-1  
 4.210000000000000E7     9.385994672775269E-1   3.151112198829651E-1   6.429014354944229E-2  -1.540688052773476E-2   6.421618163585663E-2  -1.538594998419285E-2  -6.810687780380249E-1   7.260401248931885E-1  
 4.240000000000000E7     9.694156050682068E-1   2.050697505474091E-1   5.178797245025635E-2  -1.598351076245308E-2   5.163894966244698E-2  -1.595851033926010E-2  -6.698395013809204E-1   7.387142181396484E-1  
 4.270000000000000E7     9.861669540405273E-1   1.013850942254067E-1   4.092904552817345E-2  -1.548601686954498E-2   4.082990437746048E-2  -1.546513848006725E-2  -6.564574241638184E-1   7.516929507255554E-1  
 4.300000000000000E7     9.939548969268799E-1   2.138510346412659E-3   3.174630180001259E-2  -1.410458609461784E-2   3.176043182611466E-2  -1.408384460955858E-2  -6.440052986145020E-1   7.629497051239014E-1  
 4.330000000000000E7     9.896543622016907E-1  -8.896800875663757E-2   2.379154041409493E-2  -1.208025310188532E-2   2.384335547685623E-2  -1.214379258453846E-2  -6.315108537673950E-1   7.722958326339722E-1  
 4.360000000000000E7     9.781801700592041E-1  -1.766525804996491E-1   1.732052862644196E-2  -9.891819208860397E-3   1.728779822587967E-2  -9.780786000192165E-3  -6.198347210884094E-1   7.824856042861939E-1  
 4.390000000000000E7     9.619297981262207E-1  -2.565945386886597E-1   1.189980376511812E-2  -7.400876376777887E-3   1.184756215661764E-2  -7.407988887280226E-3  -6.069609522819519E-1   7.913438081741333E-1  
 4.420000000000000E7     9.377030730247498E-1  -3.308678865432739E-1   7.120878901332617E-3  -5.015653558075428E-3   7.245505228638649E-3  -4.918321501463652E-3  -5.939456224441528E-1   8.005841374397278E-1  
 4.450000000000000E7     9.111116528511047E-1  -3.994760811328888E-1   3.406905103474855E-3  -2.419019816443324E-3   3.469207789748907E-3  -2.434113994240761E-3  -5.831009149551392E-1   8.094230890274048E-1  
 4.480000000000000E7     8.810713291168213E-1  -4.627342224121094E-1   2.891094190999866E-4  -5.582331141340546E-5   3.986512019764632E-4   8.554841770092025E-6  -5.714937448501587E-1   8.175597190856934E-1  
 4.510000000000000E7     8.489922285079956E-1  -5.208593010902405E-1  -2.178748138248920E-3   2.390497131273150E-3  -2.122993580996990E-3   2.327005146071315E-3  -5.597611069679260E-1   8.264892697334290E-1  
 4.540000000000000E7     8.127621412277222E-1  -5.751200318336487E-1  -4.046501126140356E-3   4.575228784233332E-3  -4.069664981216192E-3   4.485922399908304E-3  -5.474634766578674E-1   8.346474766731262E-1  
 4.570000000000000E7     7.748582959175110E-1  -6.253790259361267E-1  -5.635073874145746E-3   6.656477693468332E-3  -5.647670477628708E-3   6.605776026844978E-3  -5.352144837379456E-1   8.421428799629211E-1  
 4.600000000000000E7     7.369869351387024E-1  -6.692420244216919E-1  -6.906709633767605E-3   8.479273878037930E-3  -6.876453757286072E-3   8.452666923403740E-3  -5.242857336997986E-1   8.490421175956726E-1  
 4.630000000000000E7     6.958500146865845E-1  -7.133081555366516E-1  -7.712543010711670E-3   1.029617339372635E-2  -7.689670659601688E-3   1.022455282509327E-2  -5.127552151679993E-1   8.559359312057495E-1  
 4.660000000000000E7     6.547719240188599E-1  -7.521312832832336E-1  -8.328934200108051E-3   1.177531387656927E-2  -8.309945464134216E-3   1.182858925312758E-2  -4.998530447483063E-1   8.636349439620972E-1  
 4.690000000000000E7     6.119388341903687E-1  -7.864593863487244E-1  -8.695257827639580E-3   1.327603217214346E-2  -8.686289191246033E-3   1.319104339927435E-2  -4.887569546699524E-1   8.701516985893250E-1  
 4.720000000000000E7     5.681704878807068E-1  -8.181974887847900E-1  -8.836024440824986E-3   1.441135071218014E-2  -8.773042820394039E-3   1.445666886866093E-2  -4.764202237129211E-1   8.759071826934815E-1  
 4.750000000000000E7     5.259884595870972E-1  -8.467666506767273E-1  -8.933460339903832E-3   1.564022339880467E-2  -8.864333853125572E-3   1.554777007550001E-2  -4.652655422687531E-1   8.827741146087647E-1  
 4.780000000000000E7     4.822941422462463E-1  -8.720723390579224E-1  -8.546642027795315E-3   1.651922985911369E-2  -8.687103167176247E-3   1.651000604033470E-2  -4.527217447757721E-1   8.876370787620544E-1  
 4.810000000000000E7     4.377926588058472E-1  -8.952609896659851E-1  -8.484508842229843E-3   1.732231862843037E-2  -8.532073348760605E-3   1.726512797176838E-2  -4.422983825206757E-1   8.941761255264282E-1  
 4.840000000000000E7     3.938994705677033E-1  -9.157703518867493E-1  -8.239284157752991E-3   1.807151362299919E-2  -8.170332759618759E-3   1.802877895534039E-2  -4.307676553726196E-1   8.993581533432007E-1  
 4.870000000000000E7     3.491676747798920E-1  -9.339005947113037E-1  -7.761086802929640E-3   1.863913610577583E-2  -7.771825417876244E-3   1.852830499410629E-2  -4.190939366817474E-1   9.047312140464783E-1  
 4.900000000000000E7     3.047670125961304E-1  -9.500705599784851E-1  -7.280409801751375E-3   1.908338442444801E-2  -7.216093596071005E-3   1.903421245515347E-2  -4.080045521259308E-1   9.096361398696899E-1  
 4.930000000000000E7     2.605393826961517E-1  -9.633252024650574E-1  -6.802455522119999E-3   1.937187090516090E-2  -6.715467199683189E-3   1.942387782037258E-2  -3.959039747714996E-1   9.153628349304199E-1  
 4.960000000000000E7     2.154598236083984E-1  -9.725111722946167E-1  -6.217495538294315E-3   1.958375610411167E-2  -6.114149931818247E-3   1.958326436579227E-2  -3.848997056484222E-1   9.198977351188660E-1  
 4.990000000000000E7     1.724686026573181E-1  -9.815403223037720E-1  -5.615387577563524E-3   1.975063234567642E-2  -5.561390891671181E-3   1.957724243402481E-2  -3.729196786880493E-1   9.239663481712341E-1  
 5.020000000000000E7     1.298584640026093E-1  -9.889141917228699E-1  -5.005598068237305E-3   1.970502920448780E-2  -5.130192730575800E-3   1.964741013944149E-2  -3.621447980403900E-1   9.292662739753723E-1  
 5.050000000000000E7     8.559016883373261E-2  -9.936641454696655E-1  -4.476879723370075E-3   1.964204758405685E-2  -4.435406066477299E-3   1.961940526962280E-2  -3.504819273948669E-1   9.347249269485474E-1  
 5.080000000000000E7     4.321806877851486E-2  -9.967626333236694E-1  -3.935460932552815E-3   1.945752091705799E-2  -3.922244533896446E-3   1.939905993640423E-2  -3.383929729461670E-1   9.366083741188049E-1  
 5.110000000000000E7     7.668510079383850E-5  -9.974396228790283E-1  -3.289978252723813E-3   1.917750388383865E-2  -3.304102458059788E-3   1.919957622885704E-2  -3.279172778129578E-1   9.418845772743225E-1  
 5.140000000000000E7    -4.226854071021080E-2  -9.960362315177918E-1  -2.735095098614693E-3   1.885826885700226E-2  -2.712055342271924E-3   1.890296116471291E-2  -3.155889511108398E-1   9.476831555366516E-1  
 5.170000000000000E7    -8.283556997776032E-2  -9.934175014495850E-1  -2.118363510817289E-3   1.849945820868015E-2  -2.175846137106419E-3   1.847469620406628E-2  -3.040682971477509E-1   9.492434859275818E-1  
 5.200000000000000E7    -1.239408552646637E-1  -9.908163547515869E-1  -1.617404981516302E-3   1.804739795625210E-2  -1.665906747803092E-3   1.808780431747437E-2  -2.923607230186462E-1   9.519173502922058E-1  
 5.230000000000000E7    -1.645441800355911E-1  -9.837000370025635E-1  -1.139487954787910E-3   1.758151873946190E-2  -1.084730960428715E-3   1.756487786769867E-2  -2.811786830425263E-1   9.566978812217712E-1  
 5.260000000000000E7    -2.044850289821625E-1  -9.751653075218201E-1  -5.887852748855948E-4   1.702152192592621E-2  -6.372432690113783E-4   1.698203012347221E-2  -2.696403563022614E-1   9.598361253738403E-1  
 5.290000000000000E7    -2.441825270652771E-1  -9.672909379005432E-1  -1.864213263615966E-4   1.634146831929684E-2  -1.914191525429487E-4   1.635662093758583E-2  -2.584026455879211E-1   9.624811410903931E-1  
 5.320000000000000E7    -2.814427614212036E-1  -9.576357007026672E-1   2.312576398253441E-4   1.571979373693466E-2   2.350568538531661E-4   1.573242619633675E-2  -2.466930449008942E-1   9.659745693206787E-1  
 5.350000000000000E7    -3.185312747955322E-1  -9.448175430297852E-1   5.519244587048888E-4   1.502508949488401E-2   5.722388159483671E-4   1.497345324605703E-2  -2.366241812705994E-1   9.689970016479492E-1  
 5.380000000000000E7    -3.547610342502594E-1  -9.310383200645447E-1   8.710835827514529E-4   1.427654176950455E-2   9.124242933467031E-4   1.419082842767239E-2  -2.232344895601273E-1   9.712000489234924E-1  
 5.410000000000000E7    -3.928085565567017E-1  -9.180063605308533E-1   1.180131221190095E-3   1.349481754004955E-2   1.236303709447384E-3   1.344471052289009E-2  -2.123494446277618E-1   9.741443395614624E-1  
 5.440000000000000E7    -4.278770685195923E-1  -9.008870124816895E-1   1.458751270547509E-3   1.264884229749441E-2   1.444099238142371E-3   1.263980753719807E-2  -2.011649012565613E-1   9.761850237846375E-1  
 5.470000000000000E7    -4.604083895683289E-1  -8.847144842147827E-1   1.621508738026023E-3   1.174348685890436E-2   1.650007208809257E-3   1.179198361933231E-2  -1.884208470582962E-1   9.783561825752258E-1  
 5.500000000000000E7    -4.952076375484467E-1  -8.662915229797363E-1   1.802427228540182E-3   1.095307338982821E-2   1.785861561074853E-3   1.087107136845589E-2  -1.767214983701706E-1   9.816083312034607E-1  
 5.530000000000000E7    -5.276232957839966E-1  -8.468410372734070E-1   1.862634206190705E-3   1.004941482096911E-2   1.936512999236584E-3   1.002175454050303E-2  -1.652290970087051E-1   9.829074144363403E-1  
 5.560000000000000E7    -5.601832270622253E-1  -8.255835175514221E-1   1.972258323803544E-3   9.138451889157295E-3   1.955900574102998E-3   9.086594916880131E-3  -1.546496748924255E-1   9.851334691047669E-1  
 5.590000000000000E7    -5.905358195304871E-1  -8.050624728202820E-1   1.993921352550387E-3   8.161142468452454E-3   1.989305485039949E-3   8.161214180290699E-3  -1.419106870889664E-1   9.867962598800659E-1  
 5.620000000000000E7    -6.208540201187134E-1  -7.804348468780518E-1   1.917756511829794E-3   7.254947908222675E-3   1.921516843140125E-3   7.182449568063021E-3  -1.311220675706863E-1   9.888921380043030E-1  
 5.650000000000000E7    -6.484247446060181E-1  -7.580153942108154E-1   1.782434876076877E-3   6.217033602297306E-3   1.795917982235551E-3   6.207141559571028E-3  -1.193875521421433E-1   9.899212718009949E-1  
 5.680000000000000E7    -6.766542792320252E-1  -7.333525419235230E-1   1.632375991903245E-3   5.300716962665319E-3   1.650284742936492E-3   5.243022460490465E-3  -1.073447540402412E-1   9.906234145164490E-1  
 5.710000000000000E7    -7.037113308906555E-1  -7.069489359855652E-1   1.447587390430272E-3   4.280248656868935E-3   1.458428567275405E-3   4.275412298738957E-3  -9.590818732976914E-2   9.924489855766296E-1  
 5.740000000000000E7    -7.300476431846619E-1  -6.809152960777283E-1   1.174500095658004E-3   3.317018272355199E-3   1.151126110926271E-3   3.301223507151008E-3  -8.354538679122925E-2   9.934542775154114E-1  
 5.770000000000000E7    -7.527963519096375E-1  -6.541047096252441E-1   8.407505811192095E-4   2.310139127075672E-3   8.530260529369116E-4   2.304596826434135E-3  -7.324392348527908E-2   9.933184981346130E-1  
 5.800000000000000E7    -7.771646976470947E-1  -6.249033212661743E-1   5.217769066803157E-4   1.350582111626864E-3   5.080564878880978E-4   1.303309574723244E-3  -6.022373959422112E-2   9.961172938346863E-1  
 5.830000000000000E7    -7.992764115333557E-1  -5.963538289070129E-1   5.301407509250566E-5   3.516188007779419E-4   5.400676309363917E-5   3.210186259821057E-4  -4.955562204122543E-2   9.962775707244873E-1  
 5.860000000000000E7    -8.214687705039978E-1  -5.679574608802795E-1  -4.684366285800934E-4  -6.442948360927403E-4  -4.242322756908834E-4  -6.533461273647845E-4  -3.726428002119064E-2   9.962612986564636E-1  
 5.890000000000000E7    -8.406715393066406E-1  -5.370163321495056E-1  -9.750409517437220E-4  -1.622731564566493E-3  -9.555210126563907E-4  -1.581529970280826E-3  -2.660548686981201E-2   9.963470101356506E-1  
 5.920000000000000E7    -8.601250648498535E-1  -5.054188966751099E-1  -1.552990055643022E-3  -2.581648994237185E-3  -1.559271477162838E-3  -2.586413407698274E-3  -1.380632817745209E-2   9.976598620414734E-1  
 5.950000000000000E7    -8.771957755088806E-1  -4.742850065231323E-1  -2.199965063482523E-3  -3.518830752000213E-3  -2.220466267317534E-3  -3.525014268234372E-3  -2.257384359836578E-3   9.960076212882996E-1  
 5.980000000000000E7    -8.942081928253174E-1  -4.419500529766083E-1  -2.917652251198888E-3  -4.438857082277536E-3  -2.884347923099995E-3  -4.465086385607719E-3   1.005759835243225E-2   9.965668916702271E-1  
 6.010000000000000E7    -9.077755212783814E-1  -4.103597402572632E-1  -3.662089351564646E-3  -5.377305205911398E-3  -3.638055874034762E-3  -5.393475294113159E-3   2.083133161067963E-2   9.968100190162659E-1  
 6.040000000000000E7    -9.229087829589844E-1  -3.760277032852173E-1  -4.465656820684671E-3  -6.252646911889315E-3  -4.465750418603420E-3  -6.267102900892496E-3   3.291291743516922E-2   9.970764517784119E-1  
 6.070000000000000E7    -9.365149736404419E-1  -3.448946475982666E-1  -5.343518219888210E-3  -7.136144675314426E-3  -5.346383433789015E-3  -7.155069150030613E-3   4.400868713855743E-2   9.959755539894104E-1  
 6.100000000000000E7    -9.474336504936218E-1  -3.107688724994659E-1  -6.317722611129284E-3  -7.970421575009823E-3  -6.299939006567001E-3  -7.976593449711800E-3   5.713888257741928E-2   9.955767393112183E-1  
 6.130000000000000E7    -9.585656523704529E-1  -2.762869596481323E-1  -7.266920991241932E-3  -8.812434971332550E-3  -7.223083637654781E-3  -8.831387385725975E-3   6.923905014991760E-2   9.952266812324524E-1  
 6.160000000000000E7    -9.673599004745483E-1  -2.422940284013748E-1  -8.234737440943718E-3  -9.603895246982575E-3  -8.273128420114517E-3  -9.579541161656380E-3   7.954568415880203E-2   9.931531548500061E-1  
 6.190000000000000E7    -9.747828841209412E-1  -2.077870965003967E-1  -9.346376173198223E-3  -1.033533737063408E-2  -9.322528727352619E-3  -1.030360534787178E-2   9.122582525014877E-2   9.916311502456665E-1  
 6.220000000000000E7    -9.820085763931274E-1  -1.735613048076630E-1  -1.042876392602921E-2  -1.107134018093348E-2  -1.047024037688971E-2  -1.107583288103342E-2   1.022624075412750E-1   9.920601248741150E-1  
 6.250000000000000E7    -9.873964190483093E-1  -1.384342312812805E-1  -1.166537404060364E-2  -1.179157942533493E-2  -1.167646143585444E-2  -1.178897731006146E-2   1.141119599342346E-1   9.908835291862488E-1  
 6.280000000000000E7    -9.909791946411133E-1  -1.035302579402924E-1  -1.289310026913881E-2  -1.246472727507353E-2  -1.285081915557385E-2  -1.245286129415035E-2   1.264856159687042E-1   9.894901514053345E-1  
 6.310000000000000E7    -9.940966367721558E-1  -6.700441241264343E-2  -1.421997323632240E-2  -1.307105366140604E-2  -1.413852069526911E-2  -1.306637283414602E-2   1.380314826965332E-1   9.877975583076477E-1  
 6.340000000000000E7    -9.957239627838135E-1  -3.256690502166748E-2  -1.553200092166662E-2  -1.366731524467468E-2  -1.549979299306870E-2  -1.362334936857224E-2   1.500601470470429E-1   9.862851500511169E-1  
 6.370000000000000E7    -9.966849088668823E-1   2.481669187545776E-3  -1.688864640891552E-2  -1.414910890161991E-2  -1.689707301557064E-2  -1.414255797863007E-2   1.612321734428406E-1   9.837897419929504E-1  
 6.400000000000000E7    -9.948657155036926E-1   3.752455115318298E-2  -1.835874095559120E-2  -1.462646201252937E-2  -1.828033477067947E-2  -1.459821034222841E-2   1.735306382179260E-1   9.824419021606445E-1  
 6.430000000000000E7    -9.930037856101990E-1   7.337371259927750E-2  -1.981333829462528E-2  -1.512895245105028E-2  -1.980773359537125E-2  -1.504039764404297E-2   1.849476397037506E-1   9.797357320785523E-1  
 6.460000000000000E7    -9.906151294708252E-1   1.082869842648506E-1  -2.129794657230377E-2  -1.549521647393704E-2  -2.127869613468647E-2  -1.548247411847115E-2   1.955076456069946E-1   9.769939780235291E-1  
 6.490000000000000E7    -9.868100285530090E-1   1.421381235122681E-1  -2.282369881868362E-2  -1.582894846796989E-2  -2.286484651267529E-2  -1.585908420383930E-2   2.072408497333527E-1   9.755967259407044E-1  
 6.520000000000000E7    -9.804297089576721E-1   1.763135641813278E-1  -2.453656680881977E-2  -1.618796214461327E-2  -2.446474134922028E-2  -1.608513109385967E-2   2.192482650279999E-1   9.736233353614807E-1  
 6.550000000000000E7    -9.737129807472229E-1   2.102284431457520E-1  -2.619486488401890E-2  -1.633901521563530E-2  -2.610190026462078E-2  -1.633032970130444E-2   2.303632646799088E-1   9.685997962951660E-1  
 6.580000000000000E7    -9.654722809791565E-1   2.447736710309982E-1  -2.790660969913006E-2  -1.644461601972580E-2  -2.783076092600822E-2  -1.651494204998016E-2   2.424547076225281E-1   9.673866629600525E-1  
 6.610000000000000E7    -9.551242589950562E-1   2.784284353256226E-1  -2.960154041647911E-2  -1.657095365226269E-2  -2.946750447154045E-2  -1.643989421427250E-2   2.551302909851074E-1   9.628413319587708E-1  
 6.640000000000000E7    -9.465455412864685E-1   3.114806413650513E-1  -3.137035295367241E-2  -1.666443049907684E-2  -3.136949241161346E-2  -1.668340153992176E-2   2.665915191173554E-1   9.600900411605835E-1  
 6.670000000000000E7    -9.343481063842773E-1   3.445733785629273E-1  -3.317732363939285E-2  -1.657903566956520E-2  -3.309979289770126E-2  -1.664276421070099E-2   2.773294150829315E-1   9.575895071029663E-1  
 6.700000000000000E7    -9.211770892143250E-1   3.771650791168213E-1  -3.502376005053520E-2  -1.653130725026131E-2  -3.486278653144836E-2  -1.649255864322186E-2   2.885095179080963E-1   9.531642794609070E-1  
 6.730000000000000E7    -9.075635671615601E-1   4.089188873767853E-1  -3.684753552079201E-2  -1.642464101314545E-2  -3.685656934976578E-2  -1.625239849090576E-2   3.010624051094055E-1   9.507036209106445E-1  
 6.760000000000000E7    -8.930675983428955E-1   4.399157762527466E-1  -3.882882744073868E-2  -1.602033525705338E-2  -3.873125836253166E-2  -1.607519946992397E-2   3.127370476722717E-1   9.459537267684937E-1  
 6.790000000000000E7    -8.767184615135193E-1   4.713190793991089E-1  -4.077519848942757E-2  -1.581278443336487E-2  -4.068898782134056E-2  -1.574460230767727E-2   3.231547474861145E-1   9.415523409843445E-1  
 6.820000000000000E7    -8.593229651451111E-1   5.009597539901733E-1  -4.259607940912247E-2  -1.541459280997515E-2  -4.259594902396202E-2  -1.546084135770798E-2   3.344980478286743E-1   9.383069276809692E-1  
 6.850000000000000E7    -8.418934345245361E-1   5.315337777137756E-1  -4.475754499435425E-2  -1.500782929360867E-2  -4.461298510432243E-2  -1.493697799742222E-2   3.455633819103241E-1   9.343420863151550E-1  
 6.880000000000000E7    -8.222452402114868E-1   5.600724816322327E-1  -4.672162607312203E-2  -1.442132331430912E-2  -4.659484326839447E-2  -1.434431131929159E-2   3.575395643711090E-1   9.289295673370361E-1  
 6.910000000000000E7    -8.020768165588379E-1   5.883954167366028E-1  -4.885015636682510E-2  -1.381836365908384E-2  -4.868150129914284E-2  -1.382974535226822E-2   3.695533275604248E-1   9.248219132423401E-1  
 6.940000000000000E7    -7.816020846366882E-1   6.160196661949158E-1  -5.082289129495621E-2  -1.312490273267031E-2  -5.089417472481728E-2  -1.309871487319470E-2   3.797554075717926E-1   9.204083681106567E-1  
 6.970000000000000E7    -7.583905458450317E-1   6.431357264518738E-1  -5.294953286647797E-2  -1.228659600019455E-2  -5.297457426786423E-2  -1.218268182128668E-2   3.919095098972321E-1   9.150813817977905E-1  
 7.000000000000000E7    -7.357186079025269E-1   6.697894334793091E-1  -5.513543635606766E-2  -1.148232631385326E-2  -5.499650910496712E-2  -1.142085250467062E-2   4.024709761142731E-1   9.106652736663818E-1  
