#  HZ   S   RI   R     50.00 
! Rohde & Schwarz ZVT8 8Ports - Version 4.11 - 1300.0000k08 SN: 100242
! Date: 2026-07-31 14:29:13
! Measurements: S11 S21 S12 S22 
! 
 1.000000000000000E7    -4.090642333030701E-1   9.091362357139587E-1   5.183546617627144E-2   5.252009257674217E-2   5.160032957792282E-2   5.243838205933571E-2  -9.166457056999207E-1   3.903567194938660E-1  
 1.030000000000000E7    -3.772207498550415E-1   9.215354919433594E-1   5.501897633075714E-2   5.285918340086937E-2   5.484906211495400E-2   5.288502946496010E-2  -9.106987118721008E-1   4.036245048046112E-1  
 1.060000000000000E7    -3.418728411197662E-1   9.345749020576477E-1   5.863259360194206E-2   5.382080003619194E-2   5.848756805062294E-2   5.340698361396790E-2  -9.065974354743958E-1   4.158200323581696E-1  
 1.090000000000000E7    -3.101829290390015E-1   9.449531435966492E-1   6.189629808068276E-2   5.397564172744751E-2   6.186106055974960E-2   5.401365831494331E-2  -9.002264738082886E-1   4.279944598674774E-1  
 1.120000000000000E7    -2.757002115249634E-1   9.545891880989075E-1   6.569299846887589E-2   5.480382964015007E-2   6.526019424200058E-2   5.436212569475174E-2  -8.944373130798340E-1   4.403849840164185E-1  
 1.150000000000000E7    -2.412729561328888E-1   9.648684263229370E-1   6.924606859683991E-2   5.457834526896477E-2   6.885308027267456E-2   5.471538007259369E-2  -8.869298696517944E-1   4.506511092185974E-1  
 1.180000000000000E7    -2.072412520647049E-1   9.705034494400024E-1   7.286560535430908E-2   5.513274669647217E-2   7.275971770286560E-2   5.463115870952606E-2  -8.811523318290710E-1   4.622209370136261E-1  
 1.210000000000000E7    -1.730616092681885E-1   9.774259924888611E-1   7.682747393846512E-2   5.518282204866409E-2   7.682346552610397E-2   5.509805679321289E-2  -8.732241988182068E-1   4.755108952522278E-1  
 1.240000000000000E7    -1.379773318767548E-1   9.820480942726135E-1   8.081311732530594E-2   5.513892322778702E-2   8.080753684043884E-2   5.485229566693306E-2  -8.661514520645142E-1   4.862971901893616E-1  
 1.270000000000000E7    -1.033025607466698E-1   9.856640100479126E-1   8.546675741672516E-2   5.471114441752434E-2   8.512296527624130E-2   5.442574620246887E-2  -8.577943444252014E-1   5.013872385025024E-1  
 1.300000000000000E7    -6.896155327558518E-2   9.891820549964905E-1   8.933162689208984E-2   5.443703383207321E-2   8.931991457939148E-2   5.439887568354607E-2  -8.497035503387451E-1   5.126460194587708E-1  
 1.330000000000000E7    -3.355199098587036E-2   9.912348985671997E-1   9.421512484550476E-2   5.396594479680061E-2   9.387248754501343E-2   5.355384945869446E-2  -8.416631817817688E-1   5.254398584365845E-1  
 1.360000000000000E7     3.005240112543106E-3   9.910769462585449E-1   9.856911003589630E-2   5.356235802173615E-2   9.866037964820862E-2   5.275067687034607E-2  -8.336797952651978E-1   5.363971590995789E-1  
 1.390000000000000E7     3.677408024668694E-2   9.894029498100281E-1   1.034044250845909E-1   5.217179656028748E-2   1.030624434351921E-1   5.260198935866356E-2  -8.250393271446228E-1   5.491184592247009E-1  
 1.420000000000000E7     7.314180582761765E-2   9.877357482910156E-1   1.080852150917053E-1   5.167223513126373E-2   1.078849509358406E-1   5.172139033675194E-2  -8.177015781402588E-1   5.604593157768250E-1  
 1.450000000000000E7     1.080712080001831E-1   9.829328060150147E-1   1.131708547472954E-1   5.019465461373329E-2   1.130366772413254E-1   5.015281587839127E-2  -8.059438467025757E-1   5.743106007575989E-1  
 1.480000000000000E7     1.444051265716553E-1   9.780583381652832E-1   1.184526681900024E-1   4.868362098932266E-2   1.183705702424049E-1   4.897145926952362E-2  -7.973160147666931E-1   5.866021513938904E-1  
 1.510000000000000E7     1.791414767503738E-1   9.713523387908936E-1   1.234621331095696E-1   4.698875918984413E-2   1.234013885259628E-1   4.702727496623993E-2  -7.848298549652100E-1   5.997438430786133E-1  
 1.540000000000000E7     2.134174555540085E-1   9.637084007263184E-1   1.289005130529404E-1   4.612296819686890E-2   1.288169026374817E-1   4.550190642476082E-2  -7.776381969451904E-1   6.111050844192505E-1  
 1.570000000000000E7     2.488526403903961E-1   9.561664462089539E-1   1.345202177762985E-1   4.351401701569557E-2   1.345874369144440E-1   4.352188855409622E-2  -7.646699547767639E-1   6.255406141281128E-1  
 1.600000000000000E7     2.837408185005188E-1   9.444128870964050E-1   1.400191783905029E-1   4.122181981801987E-2   1.403438150882721E-1   4.107710346579552E-2  -7.538590431213379E-1   6.360083222389221E-1  
 1.630000000000000E7     3.175519406795502E-1   9.326569437980652E-1   1.465234756469727E-1   3.845173120498657E-2   1.461450904607773E-1   3.850974142551422E-2  -7.416144013404846E-1   6.510667204856873E-1  
 1.660000000000000E7     3.514714241027832E-1   9.184370636940002E-1   1.525803804397583E-1   3.536364808678627E-2   1.522365510463715E-1   3.492939472198486E-2  -7.271788716316223E-1   6.639660000801086E-1  
 1.690000000000000E7     3.843927383422852E-1   9.045242071151733E-1   1.589797437191010E-1   3.266059979796410E-2   1.585936397314072E-1   3.244898468255997E-2  -7.144296169281006E-1   6.757598519325256E-1  
 1.720000000000000E7     4.195255339145660E-1   8.892528414726257E-1   1.647764146327972E-1   2.841750904917717E-2   1.648633927106857E-1   2.889253944158554E-2  -7.006028890609741E-1   6.888169050216675E-1  
 1.750000000000000E7     4.472570717334747E-1   8.744148612022400E-1   1.720254570245743E-1   2.593324705958366E-2   1.721706688404083E-1   2.545327693223953E-2  -6.869019865989685E-1   7.034381031990051E-1  
 1.780000000000000E7     4.826404750347138E-1   8.522832393646240E-1   1.778288930654526E-1   2.073304355144501E-2   1.783350557088852E-1   2.128763869404793E-2  -6.709055304527283E-1   7.135058641433716E-1  
 1.810000000000000E7     5.123354792594910E-1   8.342465758323669E-1   1.863079667091370E-1   1.643857173621655E-2   1.851409524679184E-1   1.600724458694458E-2  -6.550445556640625E-1   7.299943566322327E-1  
 1.840000000000000E7     5.445731878280640E-1   8.135874867439270E-1   1.936105042695999E-1   1.022709161043167E-2   1.927717030048370E-1   1.065852306783199E-2  -6.372743248939514E-1   7.425664067268372E-1  
 1.870000000000000E7     5.724147558212280E-1   7.914251089096069E-1   2.007022649049759E-1   5.434304475784302E-3   1.999792158603668E-1   5.116349086165428E-3  -6.187389492988586E-1   7.547817230224609E-1  
 1.900000000000000E7     6.011963486671448E-1   7.678937911987305E-1   2.080422192811966E-1  -5.341432988643646E-4   2.079525887966156E-1  -1.022016629576683E-3  -5.997833013534546E-1   7.677040100097656E-1  
 1.930000000000000E7     6.297407150268555E-1   7.425317168235779E-1   2.156505584716797E-1  -8.337816223502159E-3   2.159734219312668E-1  -7.555220276117325E-3  -5.799038410186768E-1   7.825204730033875E-1  
 1.960000000000000E7     6.575155258178711E-1   7.155857086181641E-1   2.234504967927933E-1  -1.564837247133255E-2   2.236911952495575E-1  -1.510319765657187E-2  -5.603328347206116E-1   7.943182587623596E-1  
 1.990000000000000E7     6.814450025558472E-1   6.884055137634277E-1   2.316835075616837E-1  -2.383884415030479E-2   2.319986373186112E-1  -2.388909086585045E-2  -5.350368022918701E-1   8.088009357452393E-1  
 2.020000000000000E7     7.065377235412598E-1   6.596027016639710E-1   2.403848022222519E-1  -3.243693709373474E-2   2.398424148559570E-1  -3.240470588207245E-2  -5.129312872886658E-1   8.187263607978821E-1  
 2.050000000000000E7     7.317891120910645E-1   6.292691826820374E-1   2.487850636243820E-1  -4.194190353155136E-2   2.472788691520691E-1  -4.244864359498024E-2  -4.875430762767792E-1   8.313840627670288E-1  
 2.080000000000000E7     7.533212304115295E-1   5.964702963829041E-1   2.576072514057159E-1  -5.313011258840561E-2   2.575905323028565E-1  -5.294910073280335E-2  -4.604842364788055E-1   8.454366922378540E-1  
 2.110000000000000E7     7.750609517097473E-1   5.644859671592712E-1   2.665631175041199E-1  -6.586068123579025E-2   2.665805816650391E-1  -6.561368703842163E-2  -4.303522706031799E-1   8.569983243942261E-1  
 2.140000000000000E7     7.943162918090820E-1   5.312337279319763E-1   2.755272984504700E-1  -7.953716814517975E-2   2.743994593620300E-1  -7.832670211791992E-2  -3.993622958660126E-1   8.675428032875061E-1  
 2.170000000000000E7     8.105291128158569E-1   4.975778162479401E-1   2.843156158924103E-1  -9.325060248374939E-2   2.840887010097504E-1  -9.222742915153503E-2  -3.662889301776886E-1   8.776603937149048E-1  
 2.200000000000000E7     8.283423781394959E-1   4.600642919540405E-1   2.927965819835663E-1  -1.095615252852440E-1   2.929313480854034E-1  -1.092699766159058E-1  -3.291583657264710E-1   8.870000839233398E-1  
 2.230000000000000E7     8.412074446678162E-1   4.233074784278870E-1   3.016522824764252E-1  -1.271023005247116E-1   3.010009229183197E-1  -1.263308227062225E-1  -2.911054193973541E-1   8.946443200111389E-1  
 2.260000000000000E7     8.537808656692505E-1   3.851665556430817E-1   3.097385764122009E-1  -1.465850919485092E-1   3.113052546977997E-1  -1.465062499046326E-1  -2.497984319925308E-1   9.011610150337219E-1  
 2.290000000000000E7     8.637776970863342E-1   3.457965254783630E-1   3.178543746471405E-1  -1.680994927883148E-1   3.185892403125763E-1  -1.674641370773315E-1  -2.036196440458298E-1   9.054573774337769E-1  
 2.320000000000000E7     8.698303699493408E-1   3.064725399017334E-1   3.253288269042969E-1  -1.930476427078247E-1   3.244224190711975E-1  -1.932529211044312E-1  -1.548677086830139E-1   9.088752865791321E-1  
 2.350000000000000E7     8.744553327560425E-1   2.649467289447784E-1   3.311596810817719E-1  -2.207381427288055E-1   3.308821618556976E-1  -2.194302082061768E-1  -1.030788943171501E-1   9.076126217842102E-1  
 2.380000000000000E7     8.758736252784729E-1   2.245234847068787E-1   3.362689316272736E-1  -2.490500509738922E-1   3.363161385059357E-1  -2.489744871854782E-1  -4.621033370494843E-2   9.028159379959106E-1  
 2.410000000000000E7     8.752973675727844E-1   1.825419068336487E-1   3.388481140136719E-1  -2.826987206935883E-1   3.378404080867767E-1  -2.820574343204498E-1   1.523643732070923E-2   8.916920423507690E-1  
 2.440000000000000E7     8.694419264793396E-1   1.425856798887253E-1   3.390297293663025E-1  -3.198146224021912E-1   3.390790224075317E-1  -3.200694024562836E-1   7.972593605518341E-2   8.755825757980347E-1  
 2.470000000000000E7     8.602288365364075E-1   1.021193265914917E-1   3.349817097187042E-1  -3.601916134357452E-1   3.360874056816101E-1  -3.578200638294220E-1   1.498492509126663E-1   8.504496812820435E-1  
 2.500000000000000E7     8.490205407142639E-1   6.199411675333977E-2   3.281408548355103E-1  -4.028694331645966E-1   3.272286951541901E-1  -4.042499959468842E-1   2.243239879608154E-1   8.170285224914551E-1  
 2.530000000000000E7     8.309440612792969E-1   2.477151528000832E-2   3.159374594688416E-1  -4.517127871513367E-1   3.153828084468842E-1  -4.501416981220245E-1   3.001528978347778E-1   7.704418897628784E-1  
 2.560000000000000E7     8.098883628845215E-1  -9.416120126843453E-3   2.958664000034332E-1  -5.011636614799500E-1   2.955372631549835E-1  -5.013776421546936E-1   3.779928088188171E-1   7.106968760490418E-1  
 2.590000000000000E7     7.842391729354858E-1  -3.790626302361488E-2   2.630326747894287E-1  -5.541394352912903E-1   2.632280886173248E-1  -5.550867319107056E-1   4.557964801788330E-1   6.342284679412842E-1  
 2.620000000000000E7     7.552363872528076E-1  -6.277300417423248E-2   2.207345515489578E-1  -6.086779832839966E-1   2.213381975889206E-1  -6.070489287376404E-1   5.276552438735962E-1   5.363110303878784E-1  
 2.650000000000000E7     7.235240340232849E-1  -8.070446550846100E-2   1.688021719455719E-1  -6.591022610664368E-1   1.678283512592316E-1  -6.591160297393799E-1   5.870018005371094E-1   4.196451306343079E-1  
 2.680000000000000E7     6.907429695129395E-1  -8.901868760585785E-2   1.003618389368057E-1  -7.043826580047607E-1   1.004117578268051E-1  -7.043637037277222E-1   6.288197636604309E-1   2.827163040637970E-1  
 2.710000000000000E7     6.624761819839478E-1  -9.110295772552490E-2   1.891466975212097E-2  -7.374509572982788E-1   1.738807931542397E-2  -7.373799085617065E-1   6.485173702239990E-1   1.306923180818558E-1  
 2.740000000000000E7     6.358288526535034E-1  -8.220873773097992E-2  -7.432773709297180E-2  -7.586630582809448E-1  -7.386995106935501E-2  -7.586413025856018E-1   6.312231421470642E-1  -3.516654670238495E-2  
 2.770000000000000E7     6.204331517219544E-1  -6.803246587514877E-2  -1.731574684381485E-1  -7.558813691139221E-1  -1.727349460124970E-1  -7.578909397125244E-1   5.795394778251648E-1  -1.991274058818817E-1  
 2.800000000000000E7     6.131523847579956E-1  -4.931461066007614E-2  -2.724425792694092E-1  -7.344684600830078E-1  -2.696905136108398E-1  -7.351419329643250E-1   4.889656007289887E-1  -3.553515672683716E-1  
 2.830000000000000E7     6.166520118713379E-1  -3.184200823307037E-2  -3.644273877143860E-1  -6.907626986503601E-1  -3.653308451175690E-1  -6.890636086463928E-1   3.684549927711487E-1  -4.838667511940002E-1  
 2.860000000000000E7     6.327645778656006E-1  -1.755781471729279E-2  -4.442184269428253E-1  -6.274517774581909E-1  -4.435956776142120E-1  -6.266849637031555E-1   2.221701741218567E-1  -5.827336907386780E-1  
 2.890000000000000E7     6.568951010704041E-1  -1.078217476606369E-2  -5.058043003082275E-1  -5.523905754089356E-1  -5.053056478500366E-1  -5.508537292480469E-1   6.309275329113007E-2  -6.441750526428223E-1  
 2.920000000000000E7     6.851468682289124E-1  -1.131067425012589E-2  -5.498962402343750E-1  -4.705972075462341E-1  -5.491204857826233E-1  -4.692088663578033E-1  -9.617488086223602E-2  -6.717199087142944E-1  
 2.950000000000000E7     7.164951562881470E-1  -2.284208685159683E-2  -5.727855563163757E-1  -3.890787959098816E-1  -5.719744563102722E-1  -3.886587023735046E-1  -2.457032650709152E-1  -6.651208996772766E-1  
 2.980000000000000E7     7.457759976387024E-1  -4.223962500691414E-2  -5.822837352752686E-1  -3.103426396846771E-1  -5.818194746971130E-1  -3.108155727386475E-1  -3.815739750862122E-1  -6.345712542533875E-1  
 3.010000000000000E7     7.722798585891724E-1  -7.049015164375305E-2  -5.789617896080017E-1  -2.393591701984406E-1  -5.770568847656250E-1  -2.396553903818131E-1  -4.988397955894470E-1  -5.873079299926758E-1  
 3.040000000000000E7     7.965166568756104E-1  -1.043829768896103E-1  -5.649029016494751E-1  -1.750518083572388E-1  -5.666158199310303E-1  -1.760255694389343E-1  -5.979372262954712E-1  -5.275840759277344E-1  
 3.070000000000000E7     8.125799298286438E-1  -1.426537930965424E-1  -5.464478731155396E-1  -1.189541146159172E-1  -5.452603697776794E-1  -1.198177859187126E-1  -6.792013645172119E-1  -4.628128707408905E-1  
 3.100000000000000E7     8.256634473800659E-1  -1.847420483827591E-1  -5.225197672843933E-1  -7.199259102344513E-2  -5.217463970184326E-1  -7.211874425411224E-2  -7.455068230628967E-1  -3.954444825649262E-1  
 3.130000000000000E7     8.331734538078308E-1  -2.274622917175293E-1  -4.971035420894623E-1  -3.199237957596779E-2  -4.967091679573059E-1  -3.239051997661591E-2  -7.979259490966797E-1  -3.258998692035675E-1  
 3.160000000000000E7     8.361322283744812E-1  -2.726593911647797E-1  -4.688841998577118E-1   1.352187711745501E-3  -4.698774814605713E-1   1.647528726607561E-3  -8.377311825752258E-1  -2.599884569644928E-1  
 3.190000000000000E7     8.344636559486389E-1  -3.165450394153595E-1  -4.421970844268799E-1   3.002003952860832E-2  -4.414687156677246E-1   2.982162684202194E-2  -8.695716857910156E-1  -1.956306397914887E-1  
 3.220000000000000E7     8.305150270462036E-1  -3.619647622108460E-1  -4.154394268989563E-1   5.362998321652412E-2  -4.150767326354981E-1   5.368007719516754E-2  -8.937360644340515E-1  -1.350985169410706E-1  
 3.250000000000000E7     8.209701776504517E-1  -4.057930111885071E-1  -3.893049061298370E-1   7.222958654165268E-2  -3.895483911037445E-1   7.268399000167847E-2  -9.107707738876343E-1  -7.798220217227936E-2  
 3.280000000000000E7     8.070483207702637E-1  -4.495920538902283E-1  -3.636191189289093E-1   8.763061463832855E-2  -3.635331392288208E-1   8.826702833175659E-2  -9.231741428375244E-1  -2.309040166437626E-2  
 3.310000000000000E7     7.910861372947693E-1  -4.909961819648743E-1  -3.401745557785034E-1   1.018076539039612E-1  -3.404848873615265E-1   1.017328202724457E-1  -9.314133524894714E-1   2.735674753785133E-2  
 3.340000000000000E7     7.726131081581116E-1  -5.331171154975891E-1  -3.181375265121460E-1   1.125652194023132E-1  -3.171848952770233E-1   1.125867739319801E-1  -9.354963898658752E-1   7.619550824165344E-2  
 3.370000000000000E7     7.509490251541138E-1  -5.722905397415161E-1  -2.958090007305145E-1   1.205976158380508E-1  -2.961213290691376E-1   1.198623254895210E-1  -9.368116259574890E-1   1.197496950626373E-1  
 3.400000000000000E7     7.264938354492188E-1  -6.117274165153503E-1  -2.755789160728455E-1   1.275088489055634E-1  -2.759076952934265E-1   1.274257600307465E-1  -9.356094598770142E-1   1.612783372402191E-1  
 3.430000000000000E7     7.001104950904846E-1  -6.490351557731628E-1  -2.567538619041443E-1   1.331882029771805E-1  -2.560111284255981E-1   1.323547512292862E-1  -9.329574704170227E-1   2.000436931848526E-1  
 3.460000000000000E7     6.707069873809815E-1  -6.844784021377564E-1  -2.383529394865036E-1   1.369816511869431E-1  -2.384933084249497E-1   1.366190612316132E-1  -9.296478629112244E-1   2.358119785785675E-1  
 3.490000000000000E7     6.394109725952148E-1  -7.186005711555481E-1  -2.216247320175171E-1   1.401711404323578E-1  -2.200745940208435E-1   1.390204280614853E-1  -9.226936101913452E-1   2.697619199752808E-1  
 3.520000000000000E7     6.076856255531311E-1  -7.508073449134827E-1  -2.048954814672470E-1   1.414655596017838E-1  -2.046717256307602E-1   1.405674964189529E-1  -9.174550771713257E-1   3.022883236408234E-1  
 3.550000000000000E7     5.714245438575745E-1  -7.812585234642029E-1  -1.896163523197174E-1   1.415731906890869E-1  -1.894914805889130E-1   1.417600214481354E-1  -9.101154804229736E-1   3.318751156330109E-1  
 3.580000000000000E7     5.351889133453369E-1  -8.102501630783081E-1  -1.748766154050827E-1   1.422726064920425E-1  -1.747671514749527E-1   1.418167352676392E-1  -9.014114737510681E-1   3.608024120330811E-1  
 3.610000000000000E7     4.963275790214539E-1  -8.370594382286072E-1  -1.619138121604919E-1   1.420230418443680E-1  -1.611347794532776E-1   1.415515691041946E-1  -8.944590091705322E-1   3.891098499298096E-1  
 3.640000000000000E7     4.566093087196350E-1  -8.622419834136963E-1  -1.485919654369354E-1   1.404200345277786E-1  -1.487403661012650E-1   1.404776126146317E-1  -8.844131827354431E-1   4.133875370025635E-1  
 3.670000000000000E7     4.159365296363831E-1  -8.850599527359009E-1  -1.365559697151184E-1   1.389976441860199E-1  -1.359584331512451E-1   1.387788206338882E-1  -8.753289580345154E-1   4.372602701187134E-1  
 3.700000000000000E7     3.726379573345184E-1  -9.062544703483582E-1  -1.247689425945282E-1   1.370661854743958E-1  -1.248088702559471E-1   1.371250897645950E-1  -8.657778501510620E-1   4.616328179836273E-1  
 3.730000000000000E7     3.285145163536072E-1  -9.247666597366333E-1  -1.131739541888237E-1   1.346336007118225E-1  -1.136871427297592E-1   1.345611512660980E-1  -8.543285131454468E-1   4.819113910198212E-1  
 3.760000000000000E7     2.842442989349365E-1  -9.408012032508850E-1  -1.033583506941795E-1   1.321441084146500E-1  -1.035401225090027E-1   1.319522112607956E-1  -8.448578119277954E-1   5.044309496879578E-1  
 3.790000000000000E7     2.381843328475952E-1  -9.549011588096619E-1  -9.389011561870575E-2   1.286528259515762E-1  -9.344848990440369E-2   1.286802589893341E-1  -8.343302607536316E-1   5.239618420600891E-1  
 3.820000000000000E7     1.891534328460693E-1  -9.674726724624634E-1  -8.492753654718399E-2   1.255150437355042E-1  -8.454778045415878E-2   1.254790574312210E-1  -8.231744766235352E-1   5.416787862777710E-1  
 3.850000000000000E7     1.400828659534454E-1  -9.762321114540100E-1  -7.594519853591919E-2   1.213758438825607E-1  -7.549676299095154E-2   1.213285028934479E-1  -8.138993382453919E-1   5.600640773773193E-1  
 3.880000000000000E7     9.113578498363495E-2  -9.823525547981262E-1  -6.750050187110901E-2   1.179478317499161E-1  -6.762629002332687E-2   1.171913817524910E-1  -8.027307987213135E-1   5.785192847251892E-1  
 3.910000000000000E7     4.020124673843384E-2  -9.876483082771301E-1  -5.977419763803482E-2   1.133320331573486E-1  -5.972368270158768E-2   1.134135797619820E-1  -7.923562526702881E-1   5.961274504661560E-1  
 3.940000000000000E7    -9.875625371932983E-3  -9.883664250373840E-1  -5.288143083453178E-2   1.088282242417336E-1  -5.269599705934525E-2   1.084594652056694E-1  -7.802677154541016E-1   6.106811761856079E-1  
 3.970000000000000E7    -6.139669939875603E-2  -9.893772006034851E-1  -4.595661163330078E-2   1.040153279900551E-1  -4.574944823980331E-2   1.041043326258659E-1  -7.678968906402588E-1   6.257636547088623E-1  
 4.000000000000000E7    -1.136756688356400E-1  -9.835909008979797E-1  -3.954381495714188E-2   9.913175553083420E-2  -3.949209302663803E-2   9.901560842990875E-2  -7.581132054328919E-1   6.412590742111206E-1  
 4.030000000000000E7    -1.656562685966492E-1  -9.777444601058960E-1  -3.384118527173996E-2   9.426818042993546E-2  -3.355915844440460E-2   9.376558661460877E-2  -7.468509078025818E-1   6.552532315254211E-1  
 4.060000000000000E7    -2.179183214902878E-1  -9.683897495269775E-1  -2.847053669393063E-2   8.868420869112015E-2  -2.831877395510674E-2   8.857131004333496E-2  -7.347223162651062E-1   6.688007712364197E-1  
 4.090000000000000E7    -2.704370617866516E-1  -9.547147154808044E-1  -2.321798726916313E-2   8.293601870536804E-2  -2.317812107503414E-2   8.283685147762299E-2  -7.235687375068665E-1   6.814986467361450E-1  
 4.120000000000000E7    -3.235164880752564E-1  -9.398815035820007E-1  -1.886556483805180E-2   7.721995562314987E-2  -1.874030753970146E-2   7.742206007242203E-2  -7.111059427261353E-1   6.949133872985840E-1  
 4.150000000000000E7    -3.753428459167481E-1  -9.204086065292358E-1  -1.458377391099930E-2   7.184655964374542E-2  -1.470790337771177E-2   7.149325311183929E-2  -6.998327374458313E-1   7.071393132209778E-1  
 4.180000000000000E7    -4.275259673595429E-1  -8.977637290954590E-1  -1.080215815454722E-2   6.567907333374023E-2  -1.104869507253170E-2   6.531590968370438E-2  -6.891193389892578E-1   7.181386947631836E-1  
 4.210000000000000E7    -4.783051013946533E-1  -8.725288510322571E-1  -7.765111513435841E-3   5.939876288175583E-2  -7.724945433437824E-3   5.942207947373390E-2  -6.772983074188232E-1   7.305277585983276E-1  
 4.240000000000000E7    -5.276744365692139E-1  -8.429865241050720E-1  -5.039090756326914E-3   5.317004024982452E-2  -4.940362647175789E-3   5.311478301882744E-2  -6.666015386581421E-1   7.415727376937866E-1  
 4.270000000000000E7    -5.782175660133362E-1  -8.089662790298462E-1  -2.510158345103264E-3   4.697908461093903E-2  -2.508746925741434E-3   4.673238471150398E-2  -6.538926959037781E-1   7.535114288330078E-1  
 4.300000000000000E7    -6.254956126213074E-1  -7.716169953346252E-1  -7.375669665634632E-4   4.049699008464813E-2  -7.634700741618872E-4   4.033838957548142E-2  -6.421105861663818E-1   7.642026543617249E-1  
 4.330000000000000E7    -6.736388802528381E-1  -7.349426150321960E-1   6.242133677005768E-4   3.386514633893967E-2   4.800606984645128E-4   3.379955142736435E-2  -6.296937465667725E-1   7.734054923057556E-1  
 4.360000000000000E7    -7.168163657188416E-1  -6.906176805496216E-1   1.400350825861096E-3   2.716186642646790E-2   1.304007135331631E-3   2.717470377683640E-2  -6.190965175628662E-1   7.832883000373840E-1  
 4.390000000000000E7    -7.604881525039673E-1  -6.415949463844299E-1   1.851385110057890E-3   2.065914869308472E-2   1.887565827928484E-3   2.057988196611404E-2  -6.065107583999634E-1   7.913918495178223E-1  
 4.420000000000000E7    -8.001756668090820E-1  -5.917364954948425E-1   1.536823925562203E-3   1.393705792725086E-2   1.601027091965079E-3   1.388011407107115E-2  -5.938205122947693E-1   8.006531000137329E-1  
 4.450000000000000E7    -8.378058075904846E-1  -5.365033745765686E-1   9.196438477374613E-4   7.220154162496328E-3   8.511478081345558E-4   7.276866585016251E-3  -5.833679437637329E-1   8.094729185104370E-1  
 4.480000000000000E7    -8.722233772277832E-1  -4.775384068489075E-1  -3.073251573368907E-4   5.423324764706194E-4  -3.020592266693711E-4   5.267024389468133E-4  -5.714111328125000E-1   8.175711631774902E-1  
 4.510000000000000E7    -9.033495783805847E-1  -4.164325892925263E-1  -2.131443470716476E-3  -5.989228840917349E-3  -2.134785288944840E-3  -5.990428384393454E-3  -5.597003102302551E-1   8.268734812736511E-1  
 4.540000000000000E7    -9.297884702682495E-1  -3.516584336757660E-1  -4.459191113710403E-3  -1.247982401400805E-2  -4.532530438154936E-3  -1.248439960181713E-2  -5.472937822341919E-1   8.349018096923828E-1  
 4.570000000000000E7    -9.531285762786865E-1  -2.829082310199738E-1  -7.626186590641737E-3  -1.888744905591011E-2  -7.618735544383526E-3  -1.889366097748280E-2  -5.347915291786194E-1   8.418593406677246E-1  
 4.600000000000000E7    -9.719148278236389E-1  -2.132279574871063E-1  -1.108231395483017E-2  -2.527050673961639E-2  -1.120908372104168E-2  -2.514038607478142E-2  -5.238492488861084E-1   8.489325046539307E-1  
 4.630000000000000E7    -9.837413430213928E-1  -1.366341412067413E-1  -1.543802767992020E-2  -3.106987476348877E-2  -1.543754152953625E-2  -3.093699179589748E-2  -5.117014050483704E-1   8.558123111724854E-1  
 4.660000000000000E7    -9.908978343009949E-1  -5.842974781990051E-2  -2.051015198230743E-2  -3.667395189404488E-2  -2.038980461657047E-2  -3.673571348190308E-2  -4.983995854854584E-1   8.635671138763428E-1  
 4.690000000000000E7    -9.923701286315918E-1   1.927797496318817E-2  -2.582233399152756E-2  -4.217851534485817E-2  -2.591997757554054E-2  -4.219922423362732E-2  -4.868795871734619E-1   8.701254129409790E-1  
 4.720000000000000E7    -9.866682887077332E-1   1.001841276884079E-1  -3.199131041765213E-2  -4.703724384307861E-2  -3.206839412450790E-2  -4.688837379217148E-2  -4.738512337207794E-1   8.754708766937256E-1  
 4.750000000000000E7    -9.747729301452637E-1   1.830292493104935E-1  -3.904120624065399E-2  -5.156484991312027E-2  -3.863384202122688E-2  -5.167377367615700E-2  -4.625428915023804E-1   8.820354342460632E-1  
 4.780000000000000E7    -9.557577371597290E-1   2.659466266632080E-1  -4.644027724862099E-2  -5.543316155672073E-2  -4.610683768987656E-2  -5.530685558915138E-2  -4.492303729057312E-1   8.864394426345825E-1  
 4.810000000000000E7    -9.261897802352905E-1   3.490051627159119E-1  -5.410455912351608E-2  -5.887809395790100E-2  -5.424071103334427E-2  -5.871594324707985E-2  -4.385278224945068E-1   8.920270800590515E-1  
 4.840000000000000E7    -8.897930383682251E-1   4.311615824699402E-1  -6.284210085868835E-2  -6.147442013025284E-2  -6.266289949417114E-2  -6.118572130799294E-2  -4.263744354248047E-1   8.976670503616333E-1  
 4.870000000000000E7    -8.458558917045593E-1   5.108562707901001E-1  -7.199769467115402E-2  -6.329947710037231E-2  -7.177995890378952E-2  -6.310016661882401E-2  -4.137964248657227E-1   9.025819301605225E-1  
 4.900000000000000E7    -7.925148010253906E-1   5.881492495536804E-1  -8.138761669397354E-2  -6.428572535514832E-2  -8.105261623859406E-2  -6.413033604621887E-2  -4.022767543792725E-1   9.065027236938477E-1  
 4.930000000000000E7    -7.302260994911194E-1   6.605643033981323E-1  -9.110010415315628E-2  -6.411102414131165E-2  -9.129247069358826E-2  -6.397606432437897E-2  -3.895194828510284E-1   9.112880229949951E-1  
 4.960000000000000E7    -6.622313261032105E-1   7.283074259757996E-1  -1.012809574604034E-1  -6.334197521209717E-2  -1.008989810943604E-1  -6.325044482946396E-2  -3.779095411300659E-1   9.151650667190552E-1  
 4.990000000000000E7    -5.839014053344727E-1   7.905133962631226E-1  -1.117549687623978E-1  -6.115597486495972E-2  -1.114747151732445E-1  -6.117265671491623E-2  -3.658173382282257E-1   9.186739325523377E-1  
 5.020000000000000E7    -4.975159764289856E-1   8.463940620422363E-1  -1.220558360219002E-1  -5.796921998262405E-2  -1.219433322548866E-1  -5.771301686763763E-2  -3.543729782104492E-1   9.224357008934021E-1  
 5.050000000000000E7    -4.055933356285095E-1   8.927408456802368E-1  -1.324022710323334E-1  -5.369829013943672E-2  -1.320427358150482E-1  -5.371456593275070E-2  -3.426549434661865E-1   9.267247915267944E-1  
 5.080000000000000E7    -3.064760863780975E-1   9.299739599227905E-1  -1.423150897026062E-1  -4.811257123947144E-2  -1.422090530395508E-1  -4.783836752176285E-2  -3.305725455284119E-1   9.276171922683716E-1  
 5.110000000000000E7    -2.031446844339371E-1   9.550474286079407E-1  -1.517994701862335E-1  -4.136794805526733E-2  -1.518320590257645E-1  -4.163647070527077E-2  -3.198856711387634E-1   9.317749142646790E-1  
 5.140000000000000E7    -9.763068705797195E-2   9.720187783241272E-1  -1.611152887344360E-1  -3.387681394815445E-2  -1.612245440483093E-1  -3.349317237734795E-2  -3.075500428676605E-1   9.357428550720215E-1  
 5.170000000000000E7     1.323924213647842E-2   9.751474261283875E-1  -1.694867461919785E-1  -2.414317056536675E-2  -1.697103381156921E-1  -2.438295260071755E-2  -2.959980964660645E-1   9.360523223876953E-1  
 5.200000000000000E7     1.234887018799782E-1   9.657869338989258E-1  -1.769757866859436E-1  -1.411617361009121E-2  -1.765393018722534E-1  -1.405871659517288E-2  -2.844653725624085E-1   9.375167489051819E-1  
 5.230000000000000E7     2.309390008449554E-1   9.448782205581665E-1  -1.836381852626801E-1  -3.794720396399498E-3  -1.838126182556152E-1  -3.621485084295273E-3  -2.740188241004944E-1   9.406580924987793E-1  
 5.260000000000000E7     3.365979492664337E-1   9.109303355216980E-1  -1.893707066774368E-1   8.206242695450783E-3  -1.889865547418594E-1   8.158555254340172E-3  -2.627570033073425E-1   9.428325891494751E-1  
 5.290000000000000E7     4.377289414405823E-1   8.655315637588501E-1  -1.930988579988480E-1   2.031529136002064E-2  -1.934449225664139E-1   2.060466632246971E-2  -2.527841031551361E-1   9.441677927970886E-1  
 5.320000000000000E7     5.338768959045410E-1   8.078006505966187E-1  -1.963750272989273E-1   3.313197195529938E-2  -1.962782591581345E-1   3.328487277030945E-2  -2.414269149303436E-1   9.466407299041748E-1  
 5.350000000000000E7     6.220608353614807E-1   7.419535517692566E-1  -1.985439956188202E-1   4.611397534608841E-2  -1.986617743968964E-1   4.608328640460968E-2  -2.321094423532486E-1   9.481950998306274E-1  
 5.380000000000000E7     7.041023969650269E-1   6.655329465866089E-1  -1.991358995437622E-1   5.998941883444786E-2  -1.986177712678909E-1   6.033600866794586E-2  -2.202131897211075E-1   9.489886760711670E-1  
 5.410000000000000E7     7.722740769386292E-1   5.824651718139648E-1  -1.981105655431747E-1   7.277223467826843E-2  -1.979578286409378E-1   7.292872667312622E-2  -2.104473859071732E-1   9.512393474578857E-1  
 5.440000000000000E7     8.329752683639526E-1   4.912776947021484E-1  -1.959480196237564E-1   8.635477721691132E-2  -1.956494599580765E-1   8.621379733085632E-2  -2.004132717847824E-1   9.522876143455505E-1  
 5.470000000000000E7     8.814449310302734E-1   3.962794542312622E-1  -1.918174326419830E-1   9.900823235511780E-2  -1.919494718313217E-1   9.886389970779419E-2  -1.892528235912323E-1   9.538642168045044E-1  
 5.500000000000000E7     9.186909794807434E-1   2.983378171920776E-1  -1.879899352788925E-1   1.115161329507828E-1  -1.878254860639572E-1   1.116533949971199E-1  -1.789028644561768E-1   9.565982222557068E-1  
 5.530000000000000E7     9.454619288444519E-1   1.972884386777878E-1  -1.824683099985123E-1   1.229847818613052E-1  -1.820027381181717E-1   1.228569149971008E-1  -1.691387146711350E-1   9.573019146919251E-1  
 5.560000000000000E7     9.614617824554443E-1   9.728632867336273E-2  -1.758860349655151E-1   1.343513131141663E-1  -1.753689646720886E-1   1.337860822677612E-1  -1.599687784910202E-1   9.590353369712830E-1  
 5.590000000000000E7     9.657317399978638E-1  -3.145113587379456E-3  -1.679864823818207E-1   1.442928016185761E-1  -1.683128923177719E-1   1.440657675266266E-1  -1.485711932182312E-1   9.600340127944946E-1  
 5.620000000000000E7     9.610387682914734E-1  -1.008303612470627E-1  -1.605583131313324E-1   1.539299786090851E-1  -1.598508805036545E-1   1.540733575820923E-1  -1.396362483501434E-1   9.620841145515442E-1  
 5.650000000000000E7     9.470660686492920E-1  -1.958726942539215E-1  -1.513660103082657E-1   1.618428677320480E-1  -1.508966535329819E-1   1.621025204658508E-1  -1.293214559555054E-1   9.631622433662415E-1  
 5.680000000000000E7     9.235239624977112E-1  -2.861618101596832E-1  -1.423117518424988E-1   1.697359532117844E-1  -1.421664506196976E-1   1.694227606058121E-1  -1.186398789286614E-1   9.636970758438110E-1  
 5.710000000000000E7     8.927624225616455E-1  -3.725812435150147E-1  -1.325300335884094E-1   1.764895617961884E-1  -1.332704871892929E-1   1.762768924236298E-1  -1.086680963635445E-1   9.659060239791870E-1  
 5.740000000000000E7     8.550423979759216E-1  -4.543358087539673E-1  -1.229946166276932E-1   1.826719045639038E-1  -1.229962110519409E-1   1.823904961347580E-1  -9.788396209478378E-2   9.671590924263001E-1  
 5.770000000000000E7     8.107566237449646E-1  -5.298366546630859E-1  -1.134133934974670E-1   1.875240206718445E-1  -1.124894395470619E-1   1.869529336690903E-1  -8.921898901462555E-2   9.677800536155701E-1  
 5.800000000000000E7     7.613681554794312E-1  -5.995517373085022E-1  -1.031529828906059E-1   1.922608613967896E-1  -1.030153408646584E-1   1.921757161617279E-1  -7.714214920997620E-2   9.703390598297119E-1  
 5.830000000000000E7     7.081674337387085E-1  -6.623210310935974E-1  -9.320888668298721E-2   1.950633674860001E-1  -9.334471821784973E-2   1.953340172767639E-1  -6.807307898998261E-2   9.712033867835999E-1  
 5.860000000000000E7     6.517888307571411E-1  -7.197197675704956E-1  -8.331511914730072E-2   1.976228207349777E-1  -8.333443105220795E-2   1.978612244129181E-1  -5.690094828605652E-2   9.716745615005493E-1  
 5.890000000000000E7     5.898499488830566E-1  -7.715292572975159E-1  -7.321070134639740E-2   1.999416053295136E-1  -7.340673357248306E-2   1.990576535463333E-1  -4.707099869847298E-2   9.726371765136719E-1  
 5.920000000000000E7     5.278429985046387E-1  -8.168605566024780E-1  -6.364698708057404E-2   2.013142704963684E-1  -6.351651996374130E-2   2.016544789075851E-1  -3.592645004391670E-2   9.739553332328796E-1  
 5.950000000000000E7     4.630240797996521E-1  -8.551411628723145E-1  -5.394268035888672E-2   2.015879899263382E-1  -5.388984456658363E-2   2.016766518354416E-1  -2.536874078214169E-2   9.733434319496155E-1  
 5.980000000000000E7     3.972880542278290E-1  -8.888519406318665E-1  -4.437719658017159E-2   2.020990550518036E-1  -4.454854875802994E-2   2.017014473676682E-1  -1.438903994858265E-2   9.742808938026428E-1  
 6.010000000000000E7     3.300046622753143E-1  -9.145194888114929E-1  -3.613657876849175E-2   2.015670537948608E-1  -3.560809046030045E-2   2.007688283920288E-1  -4.310280084609985E-3   9.755955338478088E-1  
 6.040000000000000E7     2.634554803371429E-1  -9.380738139152527E-1  -2.723141759634018E-2   2.009085416793823E-1  -2.726154401898384E-2   2.009626477956772E-1   6.868117488920689E-3   9.765226840972900E-1  
 6.070000000000000E7     1.984110027551651E-1  -9.549080133438110E-1  -1.919268071651459E-2   1.994783878326416E-1  -1.902231387794018E-2   1.989580094814301E-1   1.716862991452217E-2   9.764698147773743E-1  
 6.100000000000000E7     1.316317021846771E-1  -9.654906392097473E-1  -1.018039509654045E-2   1.973409950733185E-1  -1.036725100129843E-2   1.974931806325913E-1   2.924928441643715E-2   9.769072532653809E-1  
 6.130000000000000E7     6.667408347129822E-2  -9.742444157600403E-1  -2.902086824178696E-3   1.958054900169373E-1  -2.948636887595058E-3   1.955346763134003E-1   4.061543941497803E-2   9.773857593536377E-1  
 6.160000000000000E7     1.946793403476477E-3  -9.766003489494324E-1   4.348283633589745E-3   1.929466873407364E-1   4.481375683099031E-3   1.929853856563568E-1   5.013897642493248E-2   9.759639501571655E-1  
 6.190000000000000E7    -6.117894127964973E-2  -9.748896360397339E-1   1.142776105552912E-2   1.903699785470963E-1   1.211085543036461E-2   1.902914047241211E-1   6.070164963603020E-2   9.757186770439148E-1  
 6.220000000000000E7    -1.221032440662384E-1  -9.690532088279724E-1   1.809618622064591E-2   1.869321316480637E-1   1.847906224429607E-2   1.876001805067062E-1   7.164265960454941E-2   9.764102697372437E-1  
 6.250000000000000E7    -1.829706579446793E-1  -9.609274268150330E-1   2.489250898361206E-2   1.842822730541229E-1   2.527885138988495E-2   1.843421161174774E-1   8.249233663082123E-2   9.763698577880859E-1  
 6.280000000000000E7    -2.402676194906235E-1  -9.480490684509277E-1   3.123090974986553E-2   1.811873316764832E-1   3.121788054704666E-2   1.809081435203552E-1   9.410161525011063E-2   9.760138392448425E-1  
 6.310000000000000E7    -2.981620132923126E-1  -9.329754710197449E-1   3.731835260987282E-2   1.779731363058090E-1   3.717200830578804E-2   1.772195845842362E-1   1.052491664886475E-1   9.752622842788696E-1  
 6.340000000000000E7    -3.515124320983887E-1  -9.135745763778687E-1   4.280896484851837E-2   1.741701066493988E-1   4.305495321750641E-2   1.736149638891220E-1   1.166133731603622E-1   9.747799634933472E-1  
 6.370000000000000E7    -4.037851095199585E-1  -8.925448656082153E-1   4.823055118322372E-2   1.699615567922592E-1   4.825357720255852E-2   1.698973327875137E-1   1.272104978561401E-1   9.725661873817444E-1  
 6.400000000000000E7    -4.541588723659515E-1  -8.683348298072815E-1   5.365004017949104E-2   1.661478728055954E-1   5.375512689352036E-2   1.658351868391037E-1   1.388822197914124E-1   9.726069569587708E-1  
 6.430000000000000E7    -5.026727914810181E-1  -8.419888019561768E-1   5.812607333064079E-2   1.624837964773178E-1   5.814475566148758E-2   1.617208570241928E-1   1.499556005001068E-1   9.706968665122986E-1  
 6.460000000000000E7    -5.475710630416870E-1  -8.143842220306397E-1   6.219231337308884E-2   1.579703241586685E-1   6.218428909778595E-2   1.575584709644318E-1   1.600406169891357E-1   9.688960313796997E-1  
 6.490000000000000E7    -5.901930332183838E-1  -7.842245697975159E-1   6.635843217372894E-2   1.534602344036102E-1   6.638102233409882E-2   1.535237878561020E-1   1.711821556091309E-1   9.682657122612000E-1  
 6.520000000000000E7    -6.313788890838623E-1  -7.523509263992310E-1   7.048112154006958E-2   1.500472873449326E-1   7.063005119562149E-2   1.492654830217362E-1   1.827155351638794E-1   9.672741293907166E-1  
 6.550000000000000E7    -6.694844961166382E-1  -7.182597517967224E-1   7.438421994447708E-2   1.452431082725525E-1   7.414596527814865E-2   1.449704617261887E-1   1.937717348337174E-1   9.636524915695190E-1  
 6.580000000000000E7    -7.068675756454468E-1  -6.828298568725586E-1   7.816276699304581E-2   1.407245546579361E-1   7.784435153007507E-2   1.406167447566986E-1   2.055608332157135E-1   9.633010029792786E-1  
 6.610000000000000E7    -7.405793666839600E-1  -6.446136236190796E-1   8.132442831993103E-2   1.363302171230316E-1   8.143240213394165E-2   1.357037425041199E-1   2.176306843757629E-1   9.594916701316834E-1  
 6.640000000000000E7    -7.722718715667725E-1  -6.091360449790955E-1   8.416650444269180E-2   1.321627050638199E-1   8.362059295177460E-2   1.318579912185669E-1   2.289299219846726E-1   9.574943780899048E-1  
 6.670000000000000E7    -8.020900487899780E-1  -5.693083405494690E-1   8.700703829526901E-2   1.274261474609375E-1   8.659158647060394E-2   1.274352073669434E-1   2.391906976699829E-1   9.562516212463379E-1  
 6.700000000000000E7    -8.289031386375427E-1  -5.292232036590576E-1   8.943238109350205E-2   1.232008486986160E-1   8.922895044088364E-2   1.226802915334702E-1   2.502291798591614E-1   9.524646997451782E-1  
 6.730000000000000E7    -8.544898033142090E-1  -4.885670542716980E-1   9.151527285575867E-2   1.187185347080231E-1   9.207038581371307E-2   1.183462366461754E-1   2.621573805809021E-1   9.508354663848877E-1  
 6.760000000000000E7    -8.765067458152771E-1  -4.481802880764008E-1   9.419902414083481E-2   1.140260174870491E-1   9.383672475814819E-2   1.139276176691055E-1   2.737918794155121E-1   9.473440647125244E-1  
 6.790000000000000E7    -8.974932432174683E-1  -4.056685566902161E-1   9.573506563901901E-2   1.098393276333809E-1   9.601792693138123E-2   1.095439717173576E-1   2.840507626533508E-1   9.440625309944153E-1  
 6.820000000000000E7    -9.160743355751038E-1  -3.632982969284058E-1   9.760930389165878E-2   1.051760539412499E-1   9.746146947145462E-2   1.051231622695923E-1   2.950628399848938E-1   9.417344927787781E-1  
 6.850000000000000E7    -9.328535795211792E-1  -3.204376697540283E-1   9.925223886966705E-2   1.013919264078140E-1   9.906990081071854E-2   1.010103225708008E-1   3.058738410472870E-1   9.384595751762390E-1  
 6.880000000000000E7    -9.466466903686523E-1  -2.772972285747528E-1   1.008024364709854E-1   9.681933373212814E-2   1.006431058049202E-1   9.636145830154419E-2   3.176465630531311E-1   9.344227313995361E-1  
 6.910000000000000E7    -9.576303362846375E-1  -2.341662198305130E-1   1.020340025424957E-1   9.248115867376328E-2   1.017361432313919E-1   9.228041023015976E-2   3.291449844837189E-1   9.313753247261047E-1  
 6.940000000000000E7    -9.682056903839111E-1  -1.913428455591202E-1   1.028540879487991E-1   8.840882778167725E-2   1.028880774974823E-1   8.819307386875153E-2   3.394873142242432E-1   9.277254939079285E-1  
 6.970000000000000E7    -9.758889079093933E-1  -1.466359198093414E-1   1.038822904229164E-1   8.408221602439880E-2   1.039878875017166E-1   8.395345509052277E-2   3.513489961624146E-1   9.233359098434448E-1  
 7.000000000000000E7    -9.822456240653992E-1  -1.038079783320427E-1   1.047478094696999E-1   8.000210672616959E-2   1.046236455440521E-1   7.961063832044601E-2   3.621671199798584E-1   9.200164079666138E-1  
