#  HZ   S   RI   R     50.00 
! Rohde & Schwarz ZVT8 8Ports - Version 4.11 - 1300.0000k08 SN: 100242
! Date: 2026-07-31 14:29:46
! Measurements: S11 S21 S12 S22 
! 
 1.000000000000000E7    -4.091089665889740E-1   9.088050127029419E-1   5.128901451826096E-2   5.188648775219917E-2   5.085097625851631E-2   5.207220092415810E-2  -9.179285168647766E-1   3.885315060615540E-1  
 1.030000000000000E7    -3.772327005863190E-1   9.213547110557556E-1   5.436146259307861E-2   5.233527347445488E-2   5.413126945495606E-2   5.238511785864830E-2  -9.117868542671204E-1   4.016377031803131E-1  
 1.060000000000000E7    -3.421120643615723E-1   9.342575073242188E-1   5.770013853907585E-2   5.328529700636864E-2   5.774489417672157E-2   5.310766026377678E-2  -9.076291918754578E-1   4.134494662284851E-1  
 1.090000000000000E7    -3.106836676597595E-1   9.450838565826416E-1   6.122886389493942E-2   5.339976027607918E-2   6.094163283705711E-2   5.347509682178497E-2  -9.015449881553650E-1   4.256229400634766E-1  
 1.120000000000000E7    -2.760072648525238E-1   9.544914364814758E-1   6.463494151830673E-2   5.406743288040161E-2   6.430841982364655E-2   5.387406796216965E-2  -8.953704833984375E-1   4.378773868083954E-1  
 1.150000000000000E7    -2.409661114215851E-1   9.648544788360596E-1   6.804280728101730E-2   5.387514084577560E-2   6.785307824611664E-2   5.398769676685333E-2  -8.885001540184021E-1   4.476617276668549E-1  
 1.180000000000000E7    -2.073122560977936E-1   9.705356955528259E-1   7.150891423225403E-2   5.418907105922699E-2   7.153711467981339E-2   5.423797294497490E-2  -8.831564188003540E-1   4.594463109970093E-1  
 1.210000000000000E7    -1.736705005168915E-1   9.773678779602051E-1   7.545618712902069E-2   5.461986362934113E-2   7.527927309274674E-2   5.432525277137756E-2  -8.754385709762573E-1   4.721028506755829E-1  
 1.240000000000000E7    -1.390082389116287E-1   9.821487665176392E-1   7.930685579776764E-2   5.448050424456596E-2   7.931827753782272E-2   5.403730645775795E-2  -8.684123754501343E-1   4.830076098442078E-1  
 1.270000000000000E7    -1.043033301830292E-1   9.859730601310730E-1   8.361091464757919E-2   5.400123819708824E-2   8.321782946586609E-2   5.370904132723808E-2  -8.608604073524475E-1   4.969950616359711E-1  
 1.300000000000000E7    -6.990607827901840E-2   9.891358613967896E-1   8.723345398902893E-2   5.376593396067619E-2   8.736866712570190E-2   5.364304780960083E-2  -8.528903722763062E-1   5.086373090744019E-1  
 1.330000000000000E7    -3.428356721997261E-2   9.911633729934692E-1   9.194730967283249E-2   5.321206897497177E-2   9.170621633529663E-2   5.267414450645447E-2  -8.453482985496521E-1   5.208809375762940E-1  
 1.360000000000000E7     2.011425793170929E-3   9.917328953742981E-1   9.623085707426071E-2   5.263702943921089E-2   9.629242122173309E-2   5.219591408967972E-2  -8.373098969459534E-1   5.309997797012329E-1  
 1.390000000000000E7     3.582068905234337E-2   9.899908900260925E-1   1.008449420332909E-1   5.148401483893395E-2   1.004700735211372E-1   5.166928097605705E-2  -8.289227485656738E-1   5.435544252395630E-1  
 1.420000000000000E7     7.209131121635437E-2   9.880222082138062E-1   1.049984619021416E-1   5.081785470247269E-2   1.050891280174255E-1   5.084913223981857E-2  -8.223198056221008E-1   5.551061034202576E-1  
 1.450000000000000E7     1.066926270723343E-1   9.831141233444214E-1   1.098917052149773E-1   4.932142794132233E-2   1.098073795437813E-1   4.936974495649338E-2  -8.106474876403809E-1   5.682642459869385E-1  
 1.480000000000000E7     1.433003842830658E-1   9.787648916244507E-1   1.148405820131302E-1   4.791275039315224E-2   1.145196035504341E-1   4.836305975914002E-2  -8.027076125144959E-1   5.792165994644165E-1  
 1.510000000000000E7     1.773222088813782E-1   9.720918536186218E-1   1.195757836103439E-1   4.648636281490326E-2   1.193514764308929E-1   4.647488147020340E-2  -7.909622192382813E-1   5.918006896972656E-1  
 1.540000000000000E7     2.118788808584213E-1   9.644545912742615E-1   1.244012340903282E-1   4.562898352742195E-2   1.243916973471642E-1   4.496413469314575E-2  -7.841861844062805E-1   6.029780507087708E-1  
 1.570000000000000E7     2.470224052667618E-1   9.570645093917847E-1   1.296843439340591E-1   4.313939064741135E-2   1.297852694988251E-1   4.299172013998032E-2  -7.725726962089539E-1   6.166168451309204E-1  
 1.600000000000000E7     2.824073731899262E-1   9.458247423171997E-1   1.348021626472473E-1   4.080627486109734E-2   1.352174133062363E-1   4.061306267976761E-2  -7.625540494918823E-1   6.271035671234131E-1  
 1.630000000000000E7     3.156144618988037E-1   9.347633123397827E-1   1.408537626266480E-1   3.811916336417198E-2   1.404593139886856E-1   3.834136202931404E-2  -7.509123086929321E-1   6.406366825103760E-1  
 1.660000000000000E7     3.497822284698486E-1   9.203248023986816E-1   1.463980525732040E-1   3.535187244415283E-2   1.459582597017288E-1   3.491066396236420E-2  -7.377632260322571E-1   6.530181169509888E-1  
 1.690000000000000E7     3.824932277202606E-1   9.067967534065247E-1   1.519019156694412E-1   3.288176283240318E-2   1.518304795026779E-1   3.248231112957001E-2  -7.268317341804504E-1   6.647765040397644E-1  
 1.720000000000000E7     4.175639748573303E-1   8.911734819412231E-1   1.572000831365585E-1   2.874694019556046E-2   1.574959307909012E-1   2.933769300580025E-2  -7.142821550369263E-1   6.764436960220337E-1  
 1.750000000000000E7     4.454333186149597E-1   8.771425485610962E-1   1.639965176582336E-1   2.665969729423523E-2   1.638980805873871E-1   2.618790604174137E-2  -7.021791338920593E-1   6.899500489234924E-1  
 1.780000000000000E7     4.804282784461975E-1   8.557284474372864E-1   1.692335754632950E-1   2.198985964059830E-2   1.693986356258392E-1   2.236766181886196E-2  -6.880169510841370E-1   6.999879479408264E-1  
 1.810000000000000E7     5.099560022354126E-1   8.381499648094177E-1   1.765522509813309E-1   1.824205368757248E-2   1.753524839878082E-1   1.737837120890617E-2  -6.733809709548950E-1   7.155786752700806E-1  
 1.840000000000000E7     5.425361394882202E-1   8.170099258422852E-1   1.827520579099655E-1   1.248874515295029E-2   1.820378154516220E-1   1.289468258619309E-2  -6.581874489784241E-1   7.268307805061340E-1  
 1.870000000000000E7     5.702270269393921E-1   7.955688238143921E-1   1.889573186635971E-1   8.130759000778198E-3   1.882991790771484E-1   7.988616824150085E-3  -6.420224905014038E-1   7.382173538208008E-1  
 1.900000000000000E7     5.989054441452026E-1   7.731893062591553E-1   1.954976916313171E-1   3.204941749572754E-3   1.952490955591202E-1   2.812026068568230E-3  -6.257682442665100E-1   7.502014636993408E-1  
 1.930000000000000E7     6.277444362640381E-1   7.484360337257385E-1   2.017925530672073E-1  -3.719612956047058E-3   2.022507339715958E-1  -2.986628562211990E-3  -6.086369752883911E-1   7.637635469436646E-1  
 1.960000000000000E7     6.551842093467712E-1   7.221176028251648E-1   2.084916532039642E-1  -9.915979579091072E-3   2.086938023567200E-1  -9.443872608244419E-3  -5.925900936126709E-1   7.745772004127502E-1  
 1.990000000000000E7     6.793864369392395E-1   6.955845952033997E-1   2.154649049043655E-1  -1.680341921746731E-2   2.156349271535873E-1  -1.683320850133896E-2  -5.711968541145325E-1   7.884474396705627E-1  
 2.020000000000000E7     7.048823237419128E-1   6.678373813629150E-1   2.228564471006393E-1  -2.399874106049538E-2   2.221813946962357E-1  -2.391344681382179E-2  -5.530285239219666E-1   7.977492213249207E-1  
 2.050000000000000E7     7.306547164916992E-1   6.384630799293518E-1   2.297811061143875E-1  -3.176500275731087E-2   2.284331917762756E-1  -3.233590722084045E-2  -5.326904058456421E-1   8.100962042808533E-1  
 2.080000000000000E7     7.525673508644104E-1   6.068346500396729E-1   2.371297329664230E-1  -4.078418388962746E-2   2.369532436132431E-1  -4.059600457549095E-2  -5.108016133308411E-1   8.227798342704773E-1  
 2.110000000000000E7     7.748250365257263E-1   5.760254263877869E-1   2.444931566715241E-1  -5.095773190259934E-2   2.444123178720474E-1  -5.089803412556648E-2  -4.869677424430847E-1   8.341538906097412E-1  
 2.140000000000000E7     7.951103448867798E-1   5.440020561218262E-1   2.518457770347595E-1  -6.174682825803757E-2   2.508746087551117E-1  -6.071037799119949E-2  -4.631837606430054E-1   8.445113301277161E-1  
 2.170000000000000E7     8.123359084129334E-1   5.116428136825562E-1   2.590976357460022E-1  -7.222919911146164E-2   2.588988542556763E-1  -7.140652090311050E-2  -4.378912150859833E-1   8.550016283988953E-1  
 2.200000000000000E7     8.312085270881653E-1   4.756372570991516E-1   2.659426331520081E-1  -8.473010361194611E-2   2.661264240741730E-1  -8.426443487405777E-2  -4.092986881732941E-1   8.647702336311340E-1  
 2.230000000000000E7     8.458378314971924E-1   4.404217898845673E-1   2.732522487640381E-1  -9.767938405275345E-2   2.727961838245392E-1  -9.713697433471680E-2  -3.811541497707367E-1   8.739973902702332E-1  
 2.260000000000000E7     8.603181242942810E-1   4.041850864887238E-1   2.798607051372528E-1  -1.118610575795174E-1   2.815008163452148E-1  -1.116532236337662E-1  -3.508830666542053E-1   8.821691870689392E-1  
 2.290000000000000E7     8.729690313339233E-1   3.668559193611145E-1   2.871132493019104E-1  -1.273471713066101E-1   2.875910997390747E-1  -1.265076994895935E-1  -3.172792196273804E-1   8.896754384040833E-1  
 2.320000000000000E7     8.821215033531189E-1   3.290638923645020E-1   2.939787507057190E-1  -1.449126303195953E-1   2.933233380317688E-1  -1.451418548822403E-1  -2.828409671783447E-1   8.986204862594605E-1  
 2.350000000000000E7     8.904795646667481E-1   2.891529500484467E-1   2.999740242958069E-1  -1.642291247844696E-1   2.995905280113220E-1  -1.631446182727814E-1  -2.463830411434174E-1   9.037833213806152E-1  
 2.380000000000000E7     8.964250087738037E-1   2.502860426902771E-1   3.055515289306641E-1  -1.830672025680542E-1   3.055374026298523E-1  -1.829017400741577E-1  -2.072120606899262E-1   9.077665209770203E-1  
 2.410000000000000E7     9.012069106101990E-1   2.096621692180634E-1   3.102522790431976E-1  -2.055010795593262E-1   3.093284368515015E-1  -2.051085978746414E-1  -1.650297343730927E-1   9.091190695762634E-1  
 2.440000000000000E7     9.018098115921021E-1   1.700862944126129E-1   3.144212961196899E-1  -2.299781441688538E-1   3.144661188125610E-1  -2.298568934202194E-1  -1.222033724188805E-1   9.089630246162415E-1  
 2.470000000000000E7     9.005374312400818E-1   1.292609572410584E-1   3.165687620639801E-1  -2.563512325286865E-1   3.170006871223450E-1  -2.542183101177216E-1  -7.398462295532227E-2   9.054808020591736E-1  
 2.500000000000000E7     8.975459933280945E-1   8.813592791557312E-2   3.178503513336182E-1  -2.833868265151978E-1   3.175198435783386E-1  -2.843314111232758E-1  -2.308853343129158E-2   8.995922207832336E-1  
 2.530000000000000E7     8.904080390930176E-1   4.779363423585892E-2   3.184444308280945E-1  -3.141468167304993E-1   3.180623054504395E-1  -3.134419918060303E-1   2.966421283781529E-2   8.885353207588196E-1  
 2.560000000000000E7     8.804143071174622E-1   8.691772818565369E-3   3.155606389045715E-1  -3.460313677787781E-1   3.162239193916321E-1  -3.463839292526245E-1   8.532959222793579E-2   8.738579154014587E-1  
 2.590000000000000E7     8.666524887084961E-1  -2.924852445721626E-2   3.080598115921021E-1  -3.827688097953796E-1   3.087609410285950E-1  -3.832878172397614E-1   1.459807753562927E-1   8.543933629989624E-1  
 2.620000000000000E7     8.499138355255127E-1  -6.737691164016724E-2   2.980166077613831E-1  -4.222009778022766E-1   2.981012761592865E-1  -4.206735789775848E-1   2.096282094717026E-1   8.245592117309570E-1  
 2.650000000000000E7     8.298785686492920E-1  -1.023286283016205E-1   2.852290570735931E-1  -4.610281586647034E-1   2.847621142864227E-1  -4.618021249771118E-1   2.725095450878143E-1   7.882034182548523E-1  
 2.680000000000000E7     8.057295083999634E-1  -1.345964670181274E-1   2.657927274703980E-1  -5.044884681701660E-1   2.653501629829407E-1  -5.047520399093628E-1   3.375806808471680E-1   7.417884469032288E-1  
 2.710000000000000E7     7.798407673835754E-1  -1.643425226211548E-1   2.374074459075928E-1  -5.477986335754395E-1   2.369869649410248E-1  -5.480171442031860E-1   4.031435847282410E-1   6.860558390617371E-1  
 2.740000000000000E7     7.492747306823731E-1  -1.899467259645462E-1   2.050539404153824E-1  -5.941726565361023E-1   2.044352293014526E-1  -5.936611890792847E-1   4.648102819919586E-1   6.132466793060303E-1  
 2.770000000000000E7     7.194062471389771E-1  -2.086753696203232E-1   1.610388010740280E-1  -6.369059681892395E-1   1.611367315053940E-1  -6.372531652450562E-1   5.227217078208923E-1   5.294638872146606E-1  
 2.800000000000000E7     6.870281100273132E-1  -2.231924533843994E-1   1.097954809665680E-1  -6.778901815414429E-1   1.114187091588974E-1  -6.775732040405273E-1   5.734386444091797E-1   4.292604625225067E-1  
 2.830000000000000E7     6.536954641342163E-1  -2.318346500396729E-1   4.866785556077957E-2  -7.127632498741150E-1   4.622546955943108E-2  -7.128077149391174E-1   6.101599335670471E-1   3.199458122253418E-1  
 2.860000000000000E7     6.237252354621887E-1  -2.321180403232575E-1  -2.477193623781204E-2  -7.407776713371277E-1  -2.599441260099411E-2  -7.392508983612061E-1   6.305217146873474E-1   1.922870874404907E-1  
 2.890000000000000E7     5.986837744712830E-1  -2.258988469839096E-1  -1.057483628392220E-1  -7.563073635101318E-1  -1.064286008477211E-1  -7.550901770591736E-1   6.296109557151794E-1   5.761700868606567E-2  
 2.920000000000000E7     5.764017105102539E-1  -2.147073596715927E-1  -1.914451718330383E-1  -7.601407766342163E-1  -1.925494074821472E-1  -7.575358748435974E-1   6.038246154785156E-1  -8.065158128738403E-2  
 2.950000000000000E7     5.660317540168762E-1  -1.989392191171646E-1  -2.810045480728149E-1  -7.445690035820007E-1  -2.800347805023193E-1  -7.432776093482971E-1   5.492095351219177E-1  -2.172623723745346E-1  
 2.980000000000000E7     5.605844259262085E-1  -1.827713251113892E-1  -3.671475648880005E-1  -7.145081162452698E-1  -3.674604892730713E-1  -7.136145830154419E-1   4.681327641010284E-1  -3.444489836692810E-1  
 3.010000000000000E7     5.659275650978088E-1  -1.693538725376129E-1  -4.466339349746704E-1  -6.675763726234436E-1  -4.456006884574890E-1  -6.662198305130005E-1   3.643160164356232E-1  -4.534704089164734E-1  
 3.040000000000000E7     5.793882012367249E-1  -1.576224267482758E-1  -5.158764719963074E-1  -6.055518984794617E-1  -5.160453915596008E-1  -6.069633960723877E-1   2.419285476207733E-1  -5.382899045944214E-1  
 3.070000000000000E7     5.969665646553040E-1  -1.542452871799469E-1  -5.711826086044312E-1  -5.352552533149719E-1  -5.692155957221985E-1  -5.344921350479126E-1   1.113762706518173E-1  -5.985655784606934E-1  
 3.100000000000000E7     6.209523081779480E-1  -1.585102230310440E-1  -6.105696558952332E-1  -4.582377672195435E-1  -6.090464591979981E-1  -4.578102827072144E-1  -2.413017302751541E-2  -6.331638693809509E-1  
 3.130000000000000E7     6.446188092231751E-1  -1.702344268560410E-1  -6.350649595260620E-1  -3.816038668155670E-1  -6.348338127136231E-1  -3.818548917770386E-1  -1.580656766891480E-1  -6.411827802658081E-1  
 3.160000000000000E7     6.691458821296692E-1  -1.897889226675034E-1  -6.448938846588135E-1  -3.043391704559326E-1  -6.461254954338074E-1  -3.051917254924774E-1  -2.810524106025696E-1  -6.278059482574463E-1  
 3.190000000000000E7     6.893657445907593E-1  -2.151747792959213E-1  -6.453865766525269E-1  -2.329531013965607E-1  -6.443657875061035E-1  -2.332427203655243E-1  -3.943738639354706E-1  -5.988852381706238E-1  
 3.220000000000000E7     7.080349922180176E-1  -2.462772727012634E-1  -6.364829540252686E-1  -1.675781607627869E-1  -6.358132362365723E-1  -1.676108241081238E-1  -4.944640398025513E-1  -5.570620894432068E-1  
 3.250000000000000E7     7.206695079803467E-1  -2.830147445201874E-1  -6.187335848808289E-1  -1.091819182038307E-1  -6.193431615829468E-1  -1.091453954577446E-1  -5.797345042228699E-1  -5.052731633186340E-1  
 3.280000000000000E7     7.286275625228882E-1  -3.224915266036987E-1  -5.955055952072144E-1  -5.771308764815331E-2  -5.962126851081848E-1  -5.774816498160362E-2  -6.541839838027954E-1  -4.485693275928497E-1  
 3.310000000000000E7     7.311656475067139E-1  -3.620103001594544E-1  -5.723285079002380E-1  -1.235333364456892E-2  -5.723030567169190E-1  -1.311232335865498E-2  -7.148122787475586E-1  -3.892765045166016E-1  
 3.340000000000000E7     7.295025587081909E-1  -4.054849743843079E-1  -5.456797480583191E-1   2.638930827379227E-2  -5.447333455085754E-1   2.672940120100975E-2  -7.659097313880920E-1  -3.275819718837738E-1  
 3.370000000000000E7     7.233465909957886E-1  -4.470584094524384E-1  -5.162442922592163E-1   5.930328369140625E-2  -5.163806676864624E-1   5.804478749632835E-2  -8.057541251182556E-1  -2.669161260128021E-1  
 3.400000000000000E7     7.121104598045349E-1  -4.903824627399445E-1  -4.879183173179627E-1   8.716560900211334E-2  -4.883470237255096E-1   8.698716759681702E-2  -8.377188444137573E-1  -2.081440091133118E-1  
 3.430000000000000E7     6.975975036621094E-1  -5.323922634124756E-1  -4.605649411678314E-1   1.110818833112717E-1  -4.590711891651154E-1   1.104903817176819E-1  -8.632888197898865E-1  -1.520307511091232E-1  
 3.460000000000000E7     6.789135932922363E-1  -5.732316374778748E-1  -4.325817525386810E-1   1.308999359607697E-1  -4.323688447475433E-1   1.303196996450424E-1  -8.825184702873230E-1  -9.875378757715225E-2  
 3.490000000000000E7     6.563917994499207E-1  -6.128687858581543E-1  -4.065811336040497E-1   1.472687423229218E-1  -4.035950601100922E-1   1.468452215194702E-1  -8.965999484062195E-1  -4.637826606631279E-2  
 3.520000000000000E7     6.328315138816834E-1  -6.514391303062439E-1  -3.794979751110077E-1   1.606831252574921E-1  -3.786996304988861E-1   1.594525873661041E-1  -9.075040817260742E-1   2.570599317550659E-3  
 3.550000000000000E7     6.039554476737976E-1  -6.881167292594910E-1  -3.540636599063873E-1   1.705619990825653E-1  -3.539689183235169E-1   1.708408743143082E-1  -9.137942194938660E-1   4.875565320253372E-2  
 3.580000000000000E7     5.735949873924255E-1  -7.226539254188538E-1  -3.300572931766510E-1   1.800120174884796E-1  -3.300911486148834E-1   1.797489970922470E-1  -9.179267287254334E-1   9.294794499874115E-2  
 3.610000000000000E7     5.401662588119507E-1  -7.561309933662415E-1  -3.088217973709106E-1   1.870728731155396E-1  -3.073849976062775E-1   1.868326961994171E-1  -9.207253456115723E-1   1.350530833005905E-1  
 3.640000000000000E7     5.049164295196533E-1  -7.873614430427551E-1  -2.863994538784027E-1   1.918447166681290E-1  -2.867368757724762E-1   1.919601708650589E-1  -9.189668893814087E-1   1.735607385635376E-1  
 3.670000000000000E7     4.690568447113037E-1  -8.158550858497620E-1  -2.662624716758728E-1   1.958244740962982E-1  -2.654192745685577E-1   1.957727968692780E-1  -9.169352054595947E-1   2.101328372955322E-1  
 3.700000000000000E7     4.287960231304169E-1  -8.430080413818359E-1  -2.465170174837112E-1   1.989921480417252E-1  -2.466198801994324E-1   1.990040987730026E-1  -9.134985804557800E-1   2.458930611610413E-1  
 3.730000000000000E7     3.879017531871796E-1  -8.669734001159668E-1  -2.269104272127152E-1   2.010069638490677E-1  -2.276991009712219E-1   2.006460875272751E-1  -9.068429470062256E-1   2.786386907100678E-1  
 3.760000000000000E7     3.459005057811737E-1  -8.880922198295593E-1  -2.104650437831879E-1   2.019284069538117E-1  -2.107179313898087E-1   2.018692195415497E-1  -9.024034738540649E-1   3.104041218757629E-1  
 3.790000000000000E7     3.020823299884796E-1  -9.080241918563843E-1  -1.940779387950897E-1   2.010665386915207E-1  -1.935117542743683E-1   2.015384435653687E-1  -8.952184319496155E-1   3.396858870983124E-1  
 3.820000000000000E7     2.547507882118225E-1  -9.260457158088684E-1  -1.787015050649643E-1   2.008479833602905E-1  -1.779893934726715E-1   2.010459601879120E-1  -8.866285085678101E-1   3.673915266990662E-1  
 3.850000000000000E7     2.075260579586029E-1  -9.400302767753601E-1  -1.633594334125519E-1   1.990335434675217E-1  -1.626029163599014E-1   1.991977989673615E-1  -8.800103664398193E-1   3.938411474227905E-1  
 3.880000000000000E7     1.598608493804932E-1  -9.512096643447876E-1  -1.487655192613602E-1   1.980628967285156E-1  -1.487473994493485E-1   1.967991292476654E-1  -8.713623285293579E-1   4.196304380893707E-1  
 3.910000000000000E7     1.097614392638207E-1  -9.619027972221375E-1  -1.348997354507446E-1   1.952347010374069E-1  -1.348735094070435E-1   1.952534615993500E-1  -8.626518249511719E-1   4.449137747287750E-1  
 3.940000000000000E7     6.067843735218048E-2  -9.675315618515015E-1  -1.228173375129700E-1   1.918204873800278E-1  -1.224467679858208E-1   1.915801614522934E-1  -8.521313667297363E-1   4.665398895740509E-1  
 3.970000000000000E7     9.388662874698639E-3  -9.736005663871765E-1  -1.104810014367104E-1   1.886093467473984E-1  -1.100266948342323E-1   1.887705177068710E-1  -8.411173820495606E-1   4.887437820434570E-1  
 4.000000000000000E7    -4.273799061775208E-2  -9.731308221817017E-1  -9.858798980712891E-2   1.849596798419952E-1  -9.848604351282120E-2   1.848329901695252E-1  -8.323577046394348E-1   5.097952485084534E-1  
 4.030000000000000E7    -9.454113990068436E-2  -9.717351794242859E-1  -8.830036222934723E-2   1.811245977878571E-1  -8.741071820259094E-2   1.803759634494782E-1  -8.220160007476807E-1   5.299903750419617E-1  
 4.060000000000000E7    -1.467540115118027E-1  -9.670348167419434E-1  -7.779611647129059E-2   1.762625277042389E-1  -7.751428335905075E-2   1.762617826461792E-1  -8.104545474052429E-1   5.491220951080322E-1  
 4.090000000000000E7    -2.000452578067780E-1  -9.584054350852966E-1  -6.744077801704407E-2   1.711183637380600E-1  -6.731307506561279E-2   1.708415448665619E-1  -7.999880909919739E-1   5.667382478713989E-1  
 4.120000000000000E7    -2.534577548503876E-1  -9.483447074890137E-1  -5.859043821692467E-2   1.656052917242050E-1  -5.852616578340530E-2   1.662042289972305E-1  -7.881183028221130E-1   5.853615999221802E-1  
 4.150000000000000E7    -3.059982955455780E-1  -9.336298704147339E-1  -4.976356029510498E-2   1.611372083425522E-1  -4.984467849135399E-2   1.607169061899185E-1  -7.768581509590149E-1   6.019163131713867E-1  
 4.180000000000000E7    -3.591338396072388E-1  -9.152917265892029E-1  -4.128701239824295E-2   1.551262438297272E-1  -4.166422039270401E-2   1.546149849891663E-1  -7.665625810623169E-1   6.175591945648193E-1  
 4.210000000000000E7    -4.117183387279511E-1  -8.950605392456055E-1  -3.375285118818283E-2   1.493943482637405E-1  -3.398875147104263E-2   1.493147164583206E-1  -7.550989985466003E-1   6.338531970977783E-1  
 4.240000000000000E7    -4.622563123703003E-1  -8.703597784042358E-1  -2.702755667269230E-2   1.430618017911911E-1  -2.676145359873772E-2   1.430492252111435E-1  -7.445065975189209E-1   6.487652063369751E-1  
 4.270000000000000E7    -5.147656798362732E-1  -8.409348130226135E-1  -1.990263350307941E-2   1.371015012264252E-1  -1.982263848185539E-2   1.365809291601181E-1  -7.321197390556335E-1   6.645742654800415E-1  
 4.300000000000000E7    -5.648252964019775E-1  -8.080094456672669E-1  -1.359324529767036E-2   1.302715390920639E-1  -1.380263082683086E-2   1.301262378692627E-1  -7.202929258346558E-1   6.793423891067505E-1  
 4.330000000000000E7    -6.146243214607239E-1  -7.761912941932678E-1  -8.131010457873344E-3   1.234650015830994E-1  -8.293963037431240E-3   1.235291883349419E-1  -7.083722949028015E-1   6.917318701744080E-1  
 4.360000000000000E7    -6.607647538185120E-1  -7.357521057128906E-1  -3.513514064252377E-3   1.164490804076195E-1  -3.400695975869894E-3   1.162650808691979E-1  -6.973611116409302E-1   7.046942710876465E-1  
 4.390000000000000E7    -7.079232335090637E-1  -6.914757490158081E-1   1.433604396879673E-3   1.093619540333748E-1   1.737865619361401E-3   1.092970520257950E-1  -6.843669414520264E-1   7.165437936782837E-1  
 4.420000000000000E7    -7.505881786346436E-1  -6.453827619552612E-1   5.679203197360039E-3   1.020202785730362E-1   5.722488276660442E-3   1.017689704895020E-1  -6.719313263893127E-1   7.289659976959229E-1  
 4.450000000000000E7    -7.920196056365967E-1  -5.943931937217712E-1   8.907975628972054E-3   9.461774677038193E-2   8.943828754127026E-3   9.456349164247513E-2  -6.615971922874451E-1   7.410145998001099E-1  
 4.480000000000000E7    -8.308509588241577E-1  -5.394605398178101E-1   1.188022084534168E-2   8.693793416023254E-2   1.201324909925461E-2   8.693218976259232E-2  -6.494276523590088E-1   7.517462372779846E-1  
 4.510000000000000E7    -8.666238784790039E-1  -4.819294810295105E-1   1.425081398338080E-2   7.944945991039276E-2   1.421500649303198E-2   7.929703593254089E-2  -6.377745866775513E-1   7.634460330009460E-1  
 4.540000000000000E7    -8.977448940277100E-1  -4.207668006420136E-1   1.620426215231419E-2   7.160113751888275E-2   1.600654423236847E-2   7.180758565664291E-2  -6.256030797958374E-1   7.744836211204529E-1  
 4.570000000000000E7    -9.266398549079895E-1  -3.552580177783966E-1   1.746579632163048E-2   6.388013809919357E-2   1.732653193175793E-2   6.397737562656403E-2  -6.129376888275147E-1   7.842381596565247E-1  
 4.600000000000000E7    -9.507427811622620E-1  -2.887367904186249E-1   1.757841929793358E-2   5.621025711297989E-2   1.789920777082443E-2   5.606395751237869E-2  -6.015241742134094E-1   7.939655184745789E-1  
 4.630000000000000E7    -9.687790870666504E-1  -2.142476737499237E-1   1.760133355855942E-2   4.833221435546875E-2   1.768888905644417E-2   4.827843606472015E-2  -5.894609093666077E-1   8.031637668609619E-1  
 4.660000000000000E7    -9.830470085144043E-1  -1.379468739032745E-1   1.707158982753754E-2   4.054038971662521E-2   1.718622818589211E-2   4.058445245027542E-2  -5.762489438056946E-1   8.136965632438660E-1  
 4.690000000000000E7    -9.912579059600830E-1  -6.220149993896484E-2   1.555271819233894E-2   3.297575190663338E-2   1.555543113499880E-2   3.313257917761803E-2  -5.645636320114136E-1   8.221665024757385E-1  
 4.720000000000000E7    -9.931426048278809E-1   1.829127967357636E-2   1.344105321913958E-2   2.556022815406323E-2   1.351333037018776E-2   2.550233900547028E-2  -5.511393547058106E-1   8.307000994682312E-1  
 4.750000000000000E7    -9.884822368621826E-1   1.007599979639053E-1   1.055983919650316E-2   1.835507526993752E-2   1.057934295386076E-2   1.833336427807808E-2  -5.394449234008789E-1   8.391335010528565E-1  
 4.780000000000000E7    -9.775013923645020E-1   1.841489374637604E-1   7.155189290642738E-3   1.128987688571215E-2   7.054711692035198E-3   1.122758165001869E-2  -5.257755517959595E-1   8.461999893188477E-1  
 4.810000000000000E7    -9.559583067893982E-1   2.691756486892700E-1   2.980472752824426E-3   4.652373958379030E-3   2.784408861771226E-3   4.722727928310633E-3  -5.148416161537170E-1   8.542660474777222E-1  
 4.840000000000000E7    -9.278418421745300E-1   3.537298738956451E-1  -2.203351119533181E-3  -1.625510747544467E-3  -2.108324086293578E-3  -1.628254074603319E-3  -5.021390914916992E-1   8.617351055145264E-1  
 4.870000000000000E7    -8.918581008911133E-1   4.363736510276794E-1  -7.724774070084095E-3  -7.386063691228628E-3  -7.727450225502253E-3  -7.313248701393604E-3  -4.894708395004273E-1   8.686339855194092E-1  
 4.900000000000000E7    -8.462954163551331E-1   5.181375741958618E-1  -1.415279041975737E-2  -1.255641132593155E-2  -1.408105716109276E-2  -1.256490033119917E-2  -4.772766828536987E-1   8.751338720321655E-1  
 4.930000000000000E7    -7.915638089179993E-1   5.960270166397095E-1  -2.099488116800785E-2  -1.710458286106587E-2  -2.102921158075333E-2  -1.706641167402268E-2  -4.640287756919861E-1   8.822979331016541E-1  
 4.960000000000000E7    -7.304457426071167E-1   6.699782609939575E-1  -2.860614657402039E-2  -2.097798883914948E-2  -2.840961888432503E-2  -2.075732685625553E-2  -4.517933726310730E-1   8.880914449691773E-1  
 4.990000000000000E7    -6.585543155670166E-1   7.393048405647278E-1  -3.671013563871384E-2  -2.395535632967949E-2  -3.662211820483208E-2  -2.387158386409283E-2  -4.392830133438110E-1   8.939102292060852E-1  
 5.020000000000000E7    -5.778337717056274E-1   8.037510514259338E-1  -4.522510990500450E-2  -2.591644227504730E-2  -4.511215537786484E-2  -2.585347741842270E-2  -4.270454645156860E-1   8.995975255966187E-1  
 5.050000000000000E7    -4.900821447372437E-1   8.588773608207703E-1  -5.413603037595749E-2  -2.705973200500011E-2  -5.390256643295288E-2  -2.699861675500870E-2  -4.146839976310730E-1   9.058749079704285E-1  
 5.080000000000000E7    -3.946521878242493E-1   9.060747027397156E-1  -6.315123289823532E-2  -2.701321989297867E-2  -6.307364255189896E-2  -2.687759697437286E-2  -4.016570746898651E-1   9.089205861091614E-1  
 5.110000000000000E7    -2.927569150924683E-1   9.417447447776794E-1  -7.227010279893875E-2  -2.584046870470047E-2  -7.225807756185532E-2  -2.595668099820614E-2  -3.899957835674286E-1   9.145562648773193E-1  
 5.140000000000000E7    -1.880493909120560E-1   9.687320590019226E-1  -8.161278814077377E-2  -2.383591607213020E-2  -8.146685361862183E-2  -2.367279119789600E-2  -3.769111633300781E-1   9.208161234855652E-1  
 5.170000000000000E7    -7.638780772686005E-2   9.823303222656250E-1  -9.058226644992828E-2  -1.998292654752731E-2  -9.069287031888962E-2  -2.022519707679749E-2  -3.641449511051178E-1   9.227847456932068E-1  
 5.200000000000000E7     3.626415878534317E-2   9.835416078567505E-1  -9.914595633745194E-2  -1.555107347667217E-2  -9.898804873228073E-2  -1.544333994388580E-2  -3.514546751976013E-1   9.260627627372742E-1  
 5.230000000000000E7     1.474463641643524E-1   9.724976420402527E-1  -1.073773205280304E-1  -1.035691145807505E-2  -1.075526177883148E-1  -1.025207713246346E-2  -3.401433527469635E-1   9.309708476066589E-1  
 5.260000000000000E7     2.585476636886597E-1   9.476901888847351E-1  -1.152547001838684E-1  -3.563505597412586E-3  -1.148396581411362E-1  -3.589925356209278E-3  -3.276860713958740E-1   9.344930648803711E-1  
 5.290000000000000E7     3.664078414440155E-1   9.101802706718445E-1  -1.215937882661820E-1   3.824263811111450E-3  -1.217402443289757E-1   4.074759781360626E-3  -3.160841166973114E-1   9.371585845947266E-1  
 5.320000000000000E7     4.699363708496094E-1   8.597918152809143E-1  -1.275684535503388E-1   1.239267643541098E-2  -1.275971233844757E-1   1.244870666414499E-2  -3.041630983352661E-1   9.410135149955750E-1  
 5.350000000000000E7     5.660248398780823E-1   7.996660470962524E-1  -1.328189671039581E-1   2.125949040055275E-2  -1.329917907714844E-1   2.118451520800591E-2  -2.938573658466339E-1   9.437468051910400E-1  
 5.380000000000000E7     6.571900248527527E-1   7.278121709823608E-1  -1.369080990552902E-1   3.137227892875671E-2  -1.366154551506043E-1   3.158540651202202E-2  -2.800664305686951E-1   9.455934762954712E-1  
 5.410000000000000E7     7.340045571327210E-1   6.477195620536804E-1  -1.394893378019333E-1   4.112949594855309E-2  -1.394724398851395E-1   4.109761863946915E-2  -2.692458629608154E-1   9.487409591674805E-1  
 5.440000000000000E7     8.037502765655518E-1   5.582681894302368E-1  -1.411508619785309E-1   5.156374722719193E-2  -1.410844177007675E-1   5.146953463554382E-2  -2.581916451454163E-1   9.506998062133789E-1  
 5.470000000000000E7     8.611628413200378E-1   4.631966948509216E-1  -1.412683278322220E-1   6.210555136203766E-2  -1.412665247917175E-1   6.203731521964073E-2  -2.456226944923401E-1   9.531919360160828E-1  
 5.500000000000000E7     9.066298007965088E-1   3.645576834678650E-1  -1.411305516958237E-1   7.260287553071976E-2  -1.409110873937607E-1   7.265006750822067E-2  -2.340303361415863E-1   9.563130140304565E-1  
 5.530000000000000E7     9.413679838180542E-1   2.615286707878113E-1  -1.394516229629517E-1   8.255138248205185E-2  -1.390565186738968E-1   8.240035176277161E-2  -2.232978492975235E-1   9.575300216674805E-1  
 5.560000000000000E7     9.640651345252991E-1   1.583345830440521E-1  -1.367354243993759E-1   9.284605085849762E-2  -1.363158077001572E-1   9.228265285491943E-2  -2.128730863332748E-1   9.596596360206604E-1  
 5.590000000000000E7     9.745602011680603E-1   5.453027784824371E-2  -1.327306926250458E-1   1.019908189773560E-1  -1.330252289772034E-1   1.018013507127762E-1  -2.007094472646713E-1   9.616945385932922E-1  
 5.620000000000000E7     9.752870202064514E-1  -4.704274982213974E-2  -1.287471652030945E-1   1.109903082251549E-1  -1.282299458980560E-1   1.112275645136833E-1  -1.904271245002747E-1   9.638827443122864E-1  
 5.650000000000000E7     9.655975103378296E-1  -1.469012349843979E-1  -1.230778023600578E-1   1.189554557204247E-1  -1.228401213884354E-1   1.191683784127235E-1  -1.793305128812790E-1   9.651438593864441E-1  
 5.680000000000000E7     9.462509751319885E-1  -2.415215671062470E-1  -1.175511032342911E-1   1.268705427646637E-1  -1.173731684684753E-1   1.266383528709412E-1  -1.680453568696976E-1   9.664134383201599E-1  
 5.710000000000000E7     9.179204106330872E-1  -3.329415917396545E-1  -1.107978671789169E-1   1.339541822671890E-1  -1.114137917757034E-1   1.336987912654877E-1  -1.572252810001373E-1   9.686625003814697E-1  
 5.740000000000000E7     8.827669620513916E-1  -4.190953373908997E-1  -1.043043062090874E-1   1.404436081647873E-1  -1.041510552167893E-1   1.401647329330444E-1  -1.456210613250732E-1   9.702493548393250E-1  
 5.770000000000000E7     8.396447300910950E-1  -4.993260502815247E-1  -9.728220850229263E-2   1.459237039089203E-1  -9.654057770967484E-2   1.455646008253098E-1  -1.361592411994934E-1   9.709579348564148E-1  
 5.800000000000000E7     7.913736104965210E-1  -5.738034248352051E-1  -8.982945233583450E-2   1.514614671468735E-1  -8.969690650701523E-2   1.513052880764008E-1  -1.234984397888184E-1   9.739922285079956E-1  
 5.830000000000000E7     7.382197976112366E-1  -6.402963399887085E-1  -8.216337114572525E-2   1.550380289554596E-1  -8.224086463451386E-2   1.553343683481216E-1  -1.137003004550934E-1   9.750480651855469E-1  
 5.860000000000000E7     6.821026206016541E-1  -7.018285989761353E-1  -7.457090169191361E-2   1.587039083242416E-1  -7.445294409990311E-2   1.589041054248810E-1  -1.020267903804779E-1   9.757241010665894E-1  
 5.890000000000000E7     6.198755502700806E-1  -7.573491334915161E-1  -6.661664694547653E-2   1.620103120803833E-1  -6.665572524070740E-2   1.612457782030106E-1  -9.197669476270676E-2   9.766412973403931E-1  
 5.920000000000000E7     5.571459531784058E-1  -8.058280348777771E-1  -5.877672880887985E-2   1.644706577062607E-1  -5.870753154158592E-2   1.647167056798935E-1  -8.037976175546646E-2   9.785823225975037E-1  
 5.950000000000000E7     4.905607700347900E-1  -8.470849394798279E-1  -5.084995180368424E-2   1.658333837985992E-1  -5.085409432649612E-2   1.658868789672852E-1  -6.914882361888886E-2   9.778643250465393E-1  
 5.980000000000000E7     4.240753054618835E-1  -8.833621144294739E-1  -4.299861192703247E-2   1.675106734037399E-1  -4.314269497990608E-2   1.672312915325165E-1  -5.741150304675102E-2   9.793985486030579E-1  
 6.010000000000000E7     3.558291196823120E-1  -9.116287827491760E-1  -3.610345348715782E-2   1.680853813886643E-1  -3.566019609570503E-2   1.675179302692413E-1  -4.731829464435577E-2   9.808383584022522E-1  
 6.040000000000000E7     2.877379059791565E-1  -9.368883371353149E-1  -2.867517620325089E-2   1.686486452817917E-1  -2.864586375653744E-2   1.685976386070252E-1  -3.584116324782372E-2   9.818861484527588E-1  
 6.070000000000000E7     2.212693393230438E-1  -9.554804563522339E-1  -2.175346948206425E-2   1.683827638626099E-1  -2.163745276629925E-2   1.678566485643387E-1  -2.524386160075665E-2   9.819983839988709E-1  
 6.100000000000000E7     1.527005881071091E-1  -9.677128195762634E-1  -1.395246107131243E-2   1.675116568803787E-1  -1.416542846709490E-2   1.676178276538849E-1  -1.266266219317913E-2   9.825398921966553E-1  
 6.130000000000000E7     8.659849315881729E-2  -9.777147173881531E-1  -7.652719970792532E-3   1.670922338962555E-1  -7.737291045486927E-3   1.668144166469574E-1  -8.933548815548420E-4   9.835354685783386E-1  
 6.160000000000000E7     2.025421708822250E-2  -9.812655448913574E-1  -1.236157375387847E-3   1.653496176004410E-1  -1.074793515726924E-3   1.654578745365143E-1   9.168867021799088E-3   9.822866916656494E-1  
 6.190000000000000E7    -4.432925581932068E-2  -9.804823994636536E-1   5.024508573114872E-3   1.640689671039581E-1   5.536127835512161E-3   1.637886166572571E-1   1.990933343768120E-2   9.819169640541077E-1  
 6.220000000000000E7    -1.065387651324272E-1  -9.755143523216248E-1   1.098818052560091E-2   1.617014557123184E-1   1.129193231463432E-2   1.623243093490601E-1   3.078671172261238E-2   9.832391142845154E-1  
 6.250000000000000E7    -1.688613444566727E-1  -9.676753878593445E-1   1.695737056434155E-2   1.600629538297653E-1   1.727888733148575E-2   1.601234078407288E-1   4.219333827495575E-2   9.833422899246216E-1  
 6.280000000000000E7    -2.274895608425140E-1  -9.555058479309082E-1   2.275460585951805E-2   1.580187380313873E-1   2.272092550992966E-2   1.577376127243042E-1   5.391756445169449E-2   9.831019043922424E-1  
 6.310000000000000E7    -2.863338589668274E-1  -9.406258463859558E-1   2.828220650553703E-2   1.557722538709641E-1   2.822395786643028E-2   1.550771892070770E-1   6.507295370101929E-2   9.827266335487366E-1  
 6.340000000000000E7    -3.412828445434570E-1  -9.216876029968262E-1   3.344492241740227E-2   1.529597938060761E-1   3.338899463415146E-2   1.527263373136520E-1   7.670021802186966E-2   9.823789000511169E-1  
 6.370000000000000E7    -3.942862153053284E-1  -9.007098078727722E-1   3.822349011898041E-2   1.499035805463791E-1   3.834413737058640E-2   1.498339772224426E-1   8.793071657419205E-2   9.808483719825745E-1  
 6.400000000000000E7    -4.457865357398987E-1  -8.765696883201599E-1   4.331669211387634E-2   1.469701230525971E-1   4.329543933272362E-2   1.467605829238892E-1   9.948287904262543E-2   9.809467196464539E-1  
 6.430000000000000E7    -4.954495429992676E-1  -8.503192067146301E-1   4.750363528728485E-2   1.442406177520752E-1   4.761723428964615E-2   1.435809433460236E-1   1.110057830810547E-1   9.792809486389160E-1  
 6.460000000000000E7    -5.413450002670288E-1  -8.225229382514954E-1   5.137245357036591E-2   1.407180279493332E-1   5.149459466338158E-2   1.403595954179764E-1   1.214448064565659E-1   9.773849248886108E-1  
 6.490000000000000E7    -5.844103097915649E-1  -7.922440767288208E-1   5.521396175026894E-2   1.370754688978195E-1   5.534898117184639E-2   1.372510939836502E-1   1.326197534799576E-1   9.772726297378540E-1  
 6.520000000000000E7    -6.268254518508911E-1  -7.601380348205566E-1   5.933622270822525E-2   1.343828588724136E-1   5.936690419912338E-2   1.337502449750900E-1   1.444851011037827E-1   9.766755700111389E-1  
 6.550000000000000E7    -6.654178500175476E-1  -7.262188196182251E-1   6.291976571083069E-2   1.305113434791565E-1   6.269218772649765E-2   1.301774233579636E-1   1.555994749069214E-1   9.733585715293884E-1  
 6.580000000000000E7    -7.032169699668884E-1  -6.906411647796631E-1   6.652428954839706E-2   1.268904507160187E-1   6.619820743799210E-2   1.267462074756622E-1   1.673022210597992E-1   9.732136726379395E-1  
 6.610000000000000E7    -7.380352020263672E-1  -6.521142125129700E-1   6.974816322326660E-2   1.232293024659157E-1   6.981191039085388E-2   1.226038187742233E-1   1.796249300241470E-1   9.699930548667908E-1  
 6.640000000000000E7    -7.697737812995911E-1  -6.162964701652527E-1   7.229824364185333E-2   1.197621673345566E-1   7.202164083719254E-2   1.195261254906654E-1   1.911739110946655E-1   9.685083627700806E-1  
 6.670000000000000E7    -8.006083965301514E-1  -5.761041641235352E-1   7.530839741230011E-2   1.158085763454437E-1   7.484404742717743E-2   1.156746447086334E-1   2.014736235141754E-1   9.670759439468384E-1  
 6.700000000000000E7    -8.280116319656372E-1  -5.355425477027893E-1   7.770517468452454E-2   1.122462451457977E-1   7.753956317901611E-2   1.116860583424568E-1   2.127472609281540E-1   9.634594917297363E-1  
 6.730000000000000E7    -8.533586859703064E-1  -4.945825040340424E-1   7.972889393568039E-2   1.083707511425018E-1   8.024057000875473E-2   1.079412624239922E-1   2.250315546989441E-1   9.624916315078735E-1  
 6.760000000000000E7    -8.759587407112122E-1  -4.538106322288513E-1   8.250005543231964E-2   1.044839471578598E-1   8.216901868581772E-2   1.043395474553108E-1   2.366804778575897E-1   9.595358967781067E-1  
 6.790000000000000E7    -8.969003558158875E-1  -4.113544821739197E-1   8.399581909179688E-2   1.008015945553780E-1   8.428898453712463E-2   1.004963070154190E-1   2.472372651100159E-1   9.562128186225891E-1  
 6.820000000000000E7    -9.158436059951782E-1  -3.683990538120270E-1   8.596806228160858E-2   9.685411304235458E-2   8.581145852804184E-2   9.677030146121979E-2   2.582668066024780E-1   9.543211460113525E-1  
 6.850000000000000E7    -9.331398010253906E-1  -3.253354728221893E-1   8.764924854040146E-2   9.353578835725784E-2   8.751283586025238E-2   9.321627765893936E-2   2.692109644412994E-1   9.517088532447815E-1  
 6.880000000000000E7    -9.467476606369019E-1  -2.821947932243347E-1   8.921734988689423E-2   8.953149616718292E-2   8.910860866308212E-2   8.909779042005539E-2   2.813415825366974E-1   9.478260278701782E-1  
 6.910000000000000E7    -9.579976797103882E-1  -2.382130622863770E-1   9.062914550304413E-2   8.569897711277008E-2   9.039554744958878E-2   8.557152003049851E-2   2.929937243461609E-1   9.447720050811768E-1  
 6.940000000000000E7    -9.691996574401856E-1  -1.954593956470490E-1   9.160250425338745E-2   8.218726515769959E-2   9.168910235166550E-2   8.192338049411774E-2   3.032137453556061E-1   9.419807195663452E-1  
 6.970000000000000E7    -9.768403172492981E-1  -1.504281163215637E-1   9.262050688266754E-2   7.836972177028656E-2   9.283816814422607E-2   7.816851884126663E-2   3.151802420616150E-1   9.377446174621582E-1  
 7.000000000000000E7    -9.830335974693298E-1  -1.071213185787201E-1   9.359089285135269E-2   7.475403696298599E-2   9.360200166702271E-2   7.441424578428268E-2   3.262463510036469E-1   9.347190856933594E-1  
