#  HZ   S   RI   R     50.00 
! Rohde & Schwarz ZVT8 8Ports - Version 4.11 - 1300.0000k08 SN: 100242
! Date: 2026-07-31 14:34:19
! Measurements: S11 S21 S12 S22 
! 
 1.000000000000000E7    -3.979505300521851E-1   9.131501317024231E-1   5.498521775007248E-2   5.506930872797966E-2   5.482663959264755E-2   5.514987930655479E-2  -9.166576266288757E-1   3.900642395019531E-1  
 1.030000000000000E7    -3.649331629276276E-1   9.256560206413269E-1   5.861997976899147E-2   5.565266311168671E-2   5.856198072433472E-2   5.572710931301117E-2  -9.105499386787415E-1   4.036702513694763E-1  
 1.060000000000000E7    -3.278623223304749E-1   9.387922286987305E-1   6.258477270603180E-2   5.661343038082123E-2   6.242232769727707E-2   5.648626759648323E-2  -9.058985710144043E-1   4.153927266597748E-1  
 1.090000000000000E7    -2.950371205806732E-1   9.492354393005371E-1   6.657583266496658E-2   5.710542201995850E-2   6.651581078767777E-2   5.711070075631142E-2  -9.002881050109863E-1   4.280784726142883E-1  
 1.120000000000000E7    -2.588520050048828E-1   9.583901166915894E-1   7.117588073015213E-2   5.797765031456947E-2   7.055076956748962E-2   5.793776735663414E-2  -8.936671614646912E-1   4.407026171684265E-1  
 1.150000000000000E7    -2.222965061664581E-1   9.679947495460510E-1   7.502499222755432E-2   5.816543102264404E-2   7.484131306409836E-2   5.828642472624779E-2  -8.860236406326294E-1   4.501926302909851E-1  
 1.180000000000000E7    -1.863991916179657E-1   9.736509919166565E-1   7.941135764122009E-2   5.857418477535248E-2   7.929341495037079E-2   5.858629941940308E-2  -8.809363245964050E-1   4.621702134609222E-1  
 1.210000000000000E7    -1.506486088037491E-1   9.798193573951721E-1   8.435019850730896E-2   5.906882137060165E-2   8.426774293184280E-2   5.898693576455116E-2  -8.727453351020813E-1   4.749698042869568E-1  
 1.240000000000000E7    -1.137479990720749E-1   9.839960932731628E-1   8.916435390710831E-2   5.920201167464256E-2   8.924821019172669E-2   5.874799191951752E-2  -8.652225732803345E-1   4.857916831970215E-1  
 1.270000000000000E7    -7.613893598318100E-2   9.868206381797791E-1   9.482619911432266E-2   5.883469805121422E-2   9.419792890548706E-2   5.844005197286606E-2  -8.575879931449890E-1   5.006709694862366E-1  
 1.300000000000000E7    -3.904333338141441E-2   9.892182350158691E-1   9.967121481895447E-2   5.854388326406479E-2   9.950459003448486E-2   5.862513184547424E-2  -8.489800095558167E-1   5.120452642440796E-1  
 1.330000000000000E7    -7.282271981239319E-4   9.903391599655151E-1   1.056494191288948E-1   5.819621682167053E-2   1.054654046893120E-1   5.766457319259644E-2  -8.406164646148682E-1   5.248941183090210E-1  
 1.360000000000000E7     3.863643109798431E-2   9.886859655380249E-1   1.113251373171806E-1   5.766681209206581E-2   1.114101484417915E-1   5.716981366276741E-2  -8.322019577026367E-1   5.355998873710632E-1  
 1.390000000000000E7     7.551448792219162E-2   9.855193495750427E-1   1.176647022366524E-1   5.662174522876740E-2   1.171354651451111E-1   5.686314031481743E-2  -8.235523104667664E-1   5.485727787017822E-1  
 1.420000000000000E7     1.153465732932091E-1   9.815179109573364E-1   1.237940490245819E-1   5.565913021564484E-2   1.236553639173508E-1   5.581164360046387E-2  -8.155490159988403E-1   5.603163242340088E-1  
 1.450000000000000E7     1.536887288093567E-1   9.744433164596558E-1   1.308041363954544E-1   5.409464985132217E-2   1.303521394729614E-1   5.422074720263481E-2  -8.032183051109314E-1   5.742390751838684E-1  
 1.480000000000000E7     1.939837038516998E-1   9.665340185165405E-1   1.374506950378418E-1   5.244315043091774E-2   1.374553292989731E-1   5.289714038372040E-2  -7.942511439323425E-1   5.858991146087647E-1  
 1.510000000000000E7     2.317230999469757E-1   9.566988348960877E-1   1.446221172809601E-1   5.062131583690643E-2   1.444940119981766E-1   5.066349729895592E-2  -7.813212871551514E-1   5.989059209823608E-1  
 1.540000000000000E7     2.700444161891937E-1   9.456983208656311E-1   1.521267294883728E-1   4.901808127760887E-2   1.520361155271530E-1   4.841778799891472E-2  -7.731587886810303E-1   6.102765202522278E-1  
 1.570000000000000E7     3.095807135105133E-1   9.338072538375855E-1   1.600942909717560E-1   4.594261199235916E-2   1.602250188589096E-1   4.591476917266846E-2  -7.602031826972961E-1   6.241177320480347E-1  
 1.600000000000000E7     3.490895628929138E-1   9.170761108398438E-1   1.682065427303314E-1   4.272567853331566E-2   1.686009615659714E-1   4.232863336801529E-2  -7.487637400627136E-1   6.348833441734314E-1  
 1.630000000000000E7     3.871936202049255E-1   9.000856280326843E-1   1.776751577854157E-1   3.896783292293549E-2   1.771011948585510E-1   3.915933519601822E-2  -7.356095910072327E-1   6.487208604812622E-1  
 1.660000000000000E7     4.249237775802612E-1   8.799915909767151E-1   1.867062449455261E-1   3.483910486102104E-2   1.861310899257660E-1   3.434951603412628E-2  -7.210094332695007E-1   6.608916521072388E-1  
 1.690000000000000E7     4.630380570888519E-1   8.590988516807556E-1   1.964621394872665E-1   3.080478310585022E-2   1.960624307394028E-1   3.024629876017571E-2  -7.076689600944519E-1   6.725724339485169E-1  
 1.720000000000000E7     5.025944709777832E-1   8.353753089904785E-1   2.055322527885437E-1   2.459312602877617E-2   2.057829797267914E-1   2.496606484055519E-2  -6.929643750190735E-1   6.855248212814331E-1  
 1.750000000000000E7     5.352578759193420E-1   8.123534321784973E-1   2.171906679868698E-1   2.002747729420662E-2   2.173992395401001E-1   1.936707086861134E-2  -6.779785752296448E-1   6.997261047363281E-1  
 1.780000000000000E7     5.741850137710571E-1   7.805771827697754E-1   2.269279509782791E-1   1.225560158491135E-2   2.273696064949036E-1   1.270871981978416E-2  -6.609257459640503E-1   7.093150615692139E-1  
 1.810000000000000E7     6.086446642875671E-1   7.513274550437927E-1   2.400338649749756E-1   4.845885559916496E-3   2.384714037179947E-1   4.257600754499435E-3  -6.432913541793823E-1   7.246903181076050E-1  
 1.840000000000000E7     6.450105905532837E-1   7.173269391059876E-1   2.519937157630920E-1  -5.650602281093597E-3   2.510488033294678E-1  -4.832286387681961E-3  -6.237675547599793E-1   7.361888885498047E-1  
 1.870000000000000E7     6.766610741615295E-1   6.820515394210815E-1   2.644915580749512E-1  -1.456390134990215E-2   2.634023129940033E-1  -1.506114192306995E-2  -6.037910580635071E-1   7.474526166915894E-1  
 1.900000000000000E7     7.087126970291138E-1   6.431832313537598E-1   2.775483429431915E-1  -2.573723532259464E-2   2.768877446651459E-1  -2.640288323163986E-2  -5.824052691459656E-1   7.585633397102356E-1  
 1.930000000000000E7     7.393143773078919E-1   6.000360846519470E-1   2.904396951198578E-1  -4.025456681847572E-2   2.909793853759766E-1  -3.936790674924851E-2  -5.595473051071167E-1   7.711398601531982E-1  
 1.960000000000000E7     7.681019306182861E-1   5.536531209945679E-1   3.045597076416016E-1  -5.490201711654663E-2   3.048780560493469E-1  -5.409330874681473E-2  -5.376535654067993E-1   7.808391451835632E-1  
 1.990000000000000E7     7.926049828529358E-1   5.053744316101074E-1   3.192341327667236E-1  -7.194051146507263E-2   3.195530772209168E-1  -7.216226309537888E-2  -5.091155767440796E-1   7.922085523605347E-1  
 2.020000000000000E7     8.156080842018127E-1   4.519485831260681E-1   3.346039950847626E-1  -9.114372730255127E-2   3.339318931102753E-1  -9.091539680957794E-2  -4.831583201885223E-1   7.994315028190613E-1  
 2.050000000000000E7     8.378096222877502E-1   3.943499326705933E-1   3.498838841915131E-1  -1.131138056516647E-1   3.476931452751160E-1  -1.129741817712784E-1  -4.540496468544006E-1   8.075225353240967E-1  
 2.080000000000000E7     8.522440791130066E-1   3.325681388378143E-1   3.649946153163910E-1  -1.392580121755600E-1   3.653573691844940E-1  -1.390881687402725E-1  -4.216736555099487E-1   8.151064515113831E-1  
 2.110000000000000E7     8.634486794471741E-1   2.677958011627197E-1   3.799256384372711E-1  -1.698291599750519E-1   3.799559772014618E-1  -1.696266680955887E-1  -3.874227106571198E-1   8.189827799797058E-1  
 2.140000000000000E7     8.686520457267761E-1   1.993581205606461E-1   3.940706253051758E-1  -2.044171243906021E-1   3.930214941501617E-1  -2.021856606006622E-1  -3.511036336421967E-1   8.208435773849487E-1  
 2.170000000000000E7     8.662086129188538E-1   1.267533302307129E-1   4.070600569248200E-1  -2.423392236232758E-1   4.071693122386932E-1  -2.410577535629273E-1  -3.119100630283356E-1   8.197129964828491E-1  
 2.200000000000000E7     8.552482724189758E-1   4.810867458581924E-2   4.164097905158997E-1  -2.869489490985870E-1   4.169123470783234E-1  -2.866999804973602E-1  -2.695691883563995E-1   8.145265579223633E-1  
 2.230000000000000E7     8.330568075180054E-1  -3.146389126777649E-2   4.232051372528076E-1  -3.376225829124451E-1   4.234560728073120E-1  -3.364823460578919E-1  -2.259809076786041E-1   8.042048215866089E-1  
 2.260000000000000E7     7.994210720062256E-1  -1.136989444494247E-1   4.243446588516235E-1  -3.945420086383820E-1   4.262776076793671E-1  -3.957818746566773E-1  -1.816067099571228E-1   7.873384952545166E-1  
 2.290000000000000E7     7.503624558448792E-1  -1.955079734325409E-1   4.188300967216492E-1  -4.591306149959564E-1   4.204359948635101E-1  -4.596603214740753E-1  -1.335098296403885E-1   7.634089589118958E-1  
 2.320000000000000E7     6.843103170394898E-1  -2.716284990310669E-1   4.029728472232819E-1  -5.314815640449524E-1   4.022752940654755E-1  -5.308883786201477E-1  -8.815203607082367E-2   7.343159317970276E-1  
 2.350000000000000E7     5.991893410682678E-1  -3.411462604999542E-1   3.723568916320801E-1  -6.087108254432678E-1   3.734011054039002E-1  -6.070345044136047E-1  -4.469778388738632E-2   6.922950744628906E-1  
 2.380000000000000E7     4.965418875217438E-1  -3.983772695064545E-1   3.280662000179291E-1  -6.867836713790894E-1   3.281860947608948E-1  -6.870653033256531E-1  -6.820985581725836E-3   6.396667361259460E-1  
 2.410000000000000E7     3.766130208969116E-1  -4.334136843681335E-1   2.618283033370972E-1  -7.641432881355286E-1   2.620120346546173E-1  -7.633823752403259E-1   2.156990580260754E-2   5.781866908073425E-1  
 2.440000000000000E7     2.449377179145813E-1  -4.388507306575775E-1   1.745111495256424E-1  -8.348835706710815E-1   1.742879599332809E-1  -8.347787261009216E-1   3.441565856337547E-2   5.084480643272400E-1  
 2.470000000000000E7     1.101481094956398E-1  -4.133617281913757E-1   6.720643490552902E-2  -8.910155296325684E-1   6.911145895719528E-2  -8.893980979919434E-1   3.442206606268883E-2   4.318188130855560E-1  
 2.500000000000000E7    -2.093817479908466E-2  -3.524715900421143E-1  -5.575044080615044E-2  -9.227862358093262E-1  -5.628079175949097E-2  -9.228617548942566E-1   1.303014811128378E-2   3.618262410163879E-1  
 2.530000000000000E7    -1.316201090812683E-1  -2.545554935932159E-1  -1.886271685361862E-1  -9.292572140693665E-1  -1.873818933963776E-1  -9.276142716407776E-1  -2.756919339299202E-2   2.959954738616943E-1  
 2.560000000000000E7    -2.108975797891617E-1  -1.349559128284454E-1  -3.198367059230804E-1  -9.034177660942078E-1  -3.200531601905823E-1  -9.024369120597839E-1  -8.445627987384796E-2   2.464323490858078E-1  
 2.590000000000000E7    -2.481412142515183E-1  -2.272209152579308E-3  -4.417918622493744E-1  -8.505984544754028E-1  -4.415705502033234E-1  -8.516583442687988E-1  -1.451257318258286E-1   2.160333395004273E-1  
 2.620000000000000E7    -2.522721588611603E-1   1.324204802513123E-1  -5.470684170722961E-1  -7.764683961868286E-1  -5.458287000656128E-1  -7.761115431785584E-1  -2.110867798328400E-1   2.038145065307617E-1  
 2.650000000000000E7    -2.250183522701263E-1   2.562245130538940E-1  -6.279861927032471E-1  -6.862104535102844E-1  -6.296628713607788E-1  -6.861511468887329E-1  -2.753474116325378E-1   2.122137695550919E-1  
 2.680000000000000E7    -1.706698685884476E-1   3.610183596611023E-1  -6.887958049774170E-1  -5.905757546424866E-1  -6.887242794036865E-1  -5.905765295028687E-1  -3.297100663185120E-1   2.363252341747284E-1  
 2.710000000000000E7    -1.027510389685631E-1   4.427597224712372E-1  -7.311260700225830E-1  -4.945238232612610E-1  -7.317692637443543E-1  -4.935628771781921E-1  -3.709555268287659E-1   2.683698832988739E-1  
 2.740000000000000E7    -2.214302122592926E-2   5.062314271926880E-1  -7.540022134780884E-1  -4.015497267246246E-1  -7.535170912742615E-1  -4.007586240768433E-1  -4.017359018325806E-1   3.125686645507813E-1  
 2.770000000000000E7     5.861687660217285E-2   5.461732149124146E-1  -7.655971050262451E-1  -3.133580982685089E-1  -7.664948105812073E-1  -3.141290545463562E-1  -4.198005795478821E-1   3.579817414283752E-1  
 2.800000000000000E7     1.397600769996643E-1   5.714048743247986E-1  -7.665785551071167E-1  -2.311693578958511E-1  -7.654678821563721E-1  -2.328208982944489E-1  -4.287573397159576E-1   4.060706198215485E-1  
 2.830000000000000E7     2.170844078063965E-1   5.806804895401001E-1  -7.609869837760925E-1  -1.572869867086411E-1  -7.620103359222412E-1  -1.578020751476288E-1  -4.247696399688721E-1   4.507722258567810E-1  
 2.860000000000000E7     2.893038690090179E-1   5.778681039810181E-1  -7.512074708938599E-1  -8.945408463478088E-2  -7.514431476593018E-1  -8.816222846508026E-2  -4.108138382434845E-1   4.982829988002777E-1  
 2.890000000000000E7     3.534793257713318E-1   5.651872754096985E-1  -7.389838695526123E-1  -2.545994147658348E-2  -7.374453544616699E-1  -2.558393776416779E-2  -3.884000182151794E-1   5.415983796119690E-1  
 2.920000000000000E7     4.148280322551727E-1   5.455906391143799E-1  -7.221706509590149E-1   3.264952078461647E-2  -7.212447524070740E-1   3.429083898663521E-2  -3.577420115470886E-1   5.817419290542603E-1  
 2.950000000000000E7     4.638602137565613E-1   5.194823145866394E-1  -7.057334184646606E-1   8.922529220581055E-2  -7.045906186103821E-1   8.954232931137085E-2  -3.165881931781769E-1   6.208266615867615E-1  
 2.980000000000000E7     5.091363787651062E-1   4.906376004219055E-1  -6.861848235130310E-1   1.427918076515198E-1  -6.867129802703857E-1   1.431603431701660E-1  -2.661674320697784E-1   6.535454392433167E-1  
 3.010000000000000E7     5.468080639839172E-1   4.577274322509766E-1  -6.662977337837219E-1   1.981027573347092E-1  -6.658764481544495E-1   1.965429037809372E-1  -2.072101384401321E-1   6.815532445907593E-1  
 3.040000000000000E7     5.780473351478577E-1   4.218252301216126E-1  -6.458063125610352E-1   2.506582736968994E-1  -6.454965472221375E-1   2.511149942874908E-1  -1.348240673542023E-1   6.996866464614868E-1  
 3.070000000000000E7     6.027588844299316E-1   3.857291936874390E-1  -6.197489500045776E-1   3.088824450969696E-1  -6.193305850028992E-1   3.078159987926483E-1  -5.463565140962601E-2   7.094798088073731E-1  
 3.100000000000000E7     6.191682219505310E-1   3.507749736309052E-1  -5.917788147926331E-1   3.682568967342377E-1  -5.900669097900391E-1   3.677426576614380E-1   3.991306573152542E-2   7.066297531127930E-1  
 3.130000000000000E7     6.295291185379028E-1   3.182027637958527E-1  -5.546953678131104E-1   4.296703636646271E-1  -5.554475188255310E-1   4.284528493881226E-1   1.473608464002609E-1   6.834772825241089E-1  
 3.160000000000000E7     6.329280734062195E-1   2.876673340797424E-1  -5.097540020942688E-1   4.966374635696411E-1  -5.107933282852173E-1   4.960174560546875E-1   2.659723162651062E-1   6.353983283042908E-1  
 3.190000000000000E7     6.316733956336975E-1   2.651800215244293E-1  -4.496670961380005E-1   5.643547177314758E-1  -4.488053321838379E-1   5.630826950073242E-1   3.919981420040131E-1   5.515453815460205E-1  
 3.220000000000000E7     6.276559233665466E-1   2.495963573455811E-1  -3.715122938156128E-1   6.298842430114746E-1  -3.700024485588074E-1   6.292253136634827E-1   5.137491226196289E-1   4.209325313568115E-1  
 3.250000000000000E7     6.229675412178040E-1   2.470262646675110E-1  -2.662946879863739E-1   6.862528324127197E-1  -2.659136652946472E-1   6.861436367034912E-1   6.142091155052185E-1   2.334859669208527E-1  
 3.280000000000000E7     6.241250038146973E-1   2.551547884941101E-1  -1.355587542057037E-1   7.175775170326233E-1  -1.366506814956665E-1   7.154771685600281E-1   6.603990793228149E-1  -7.562577724456787E-3  
 3.310000000000000E7     6.413424015045166E-1   2.699972391128540E-1   6.277471780776978E-3   7.100520730018616E-1   5.959339439868927E-3   7.082436084747315E-1   6.189287900924683E-1  -2.826853394508362E-1  
 3.340000000000000E7     6.773407459259033E-1   2.862218618392944E-1   1.459365785121918E-1   6.540576219558716E-1   1.451886743307114E-1   6.538253426551819E-1   4.731299877166748E-1  -5.426983237266541E-1  
 3.370000000000000E7     7.277666330337524E-1   2.890916764736176E-1   2.550775408744812E-1   5.559080243110657E-1   2.534683048725128E-1   5.551542043685913E-1   2.373095154762268E-1  -7.315157055854797E-1  
 3.400000000000000E7     7.867913842201233E-1   2.743846178054810E-1   3.189173936843872E-1   4.380227923393250E-1   3.184566497802734E-1   4.383912384510040E-1  -3.757014870643616E-2  -8.207601904869080E-1  
 3.430000000000000E7     8.434352874755859E-1   2.401556372642517E-1   3.398632705211639E-1   3.236917257308960E-1   3.398235142230988E-1   3.223264813423157E-1  -2.981823980808258E-1  -8.150006532669067E-1  
 3.460000000000000E7     8.908300995826721E-1   1.919893473386765E-1   3.305698037147522E-1   2.256453484296799E-1   3.294779360294342E-1   2.257525920867920E-1  -5.143566131591797E-1  -7.426371574401856E-1  
 3.490000000000000E7     9.262492060661316E-1   1.360671222209930E-1   3.023878335952759E-1   1.505362093448639E-1   3.021132349967957E-1   1.483104079961777E-1  -6.799058318138123E-1  -6.343784928321838E-1  
 3.520000000000000E7     9.520393013954163E-1   7.889392226934433E-2   2.676331400871277E-1   9.415973722934723E-2   2.670112848281860E-1   9.383503347635269E-2  -7.969403862953186E-1  -5.157226920127869E-1  
 3.550000000000000E7     9.662669897079468E-1   1.973806135356426E-2   2.313709855079651E-1   5.499142780900002E-2   2.312975227832794E-1   5.498065799474716E-2  -8.765286803245544E-1  -3.976943194866180E-1  
 3.580000000000000E7     9.753845930099487E-1  -3.715467453002930E-2   1.980635970830917E-1   2.788460440933704E-2   1.980125308036804E-1   2.790955081582069E-2  -9.288627505302429E-1  -2.872219979763031E-1  
 3.610000000000000E7     9.784280657768250E-1  -9.186638146638870E-2   1.684416234493256E-1   1.024674810469151E-2   1.679719239473343E-1   9.807444177567959E-3  -9.624016284942627E-1  -1.869428455829620E-1  
 3.640000000000000E7     9.763608574867249E-1  -1.447326093912125E-1   1.419021934270859E-1  -1.947969547472894E-3   1.419188827276230E-1  -1.812549773603678E-3  -9.794539213180542E-1  -9.795796871185303E-2  
 3.670000000000000E7     9.713031649589539E-1  -1.938125491142273E-1   1.196652650833130E-1  -9.534906595945358E-3   1.193605288863182E-1  -9.650744497776032E-3  -9.875156283378601E-1  -1.806467771530151E-2  
 3.700000000000000E7     9.620590209960938E-1  -2.417653203010559E-1   1.002737581729889E-1  -1.427141111344099E-2   1.003202125430107E-1  -1.419416908174753E-2  -9.895405173301697E-1   5.360305309295654E-2  
 3.730000000000000E7     9.507611989974976E-1  -2.881459295749664E-1   8.384396135807037E-2  -1.698627136647701E-2   8.395045250654221E-2  -1.679730415344238E-2  -9.842422008514404E-1   1.174643114209175E-1  
 3.760000000000000E7     9.378954172134399E-1  -3.303302228450775E-1   7.019963860511780E-2  -1.784508302807808E-2   7.023039460182190E-2  -1.774825155735016E-2  -9.785158634185791E-1   1.746142059564591E-1  
 3.790000000000000E7     9.227964878082275E-1  -3.728563487529755E-1   5.840091034770012E-2  -1.779370754957199E-2   5.837045982480049E-2  -1.797603815793991E-2  -9.689359664916992E-1   2.250557094812393E-1  
 3.820000000000000E7     9.067957401275635E-1  -4.137052297592163E-1   4.865398630499840E-2  -1.714971661567688E-2   4.847127571702004E-2  -1.717134378850460E-2  -9.567295908927918E-1   2.711175680160523E-1  
 3.850000000000000E7     8.878539800643921E-1  -4.527666568756104E-1   3.988743573427200E-2  -1.614471711218357E-2   3.986782208085060E-2  -1.626799069344997E-2  -9.459024071693420E-1   3.122875988483429E-1  
 3.880000000000000E7     8.682515621185303E-1  -4.890342652797699E-1   3.282312303781509E-2  -1.494419761002064E-2   3.265770152211189E-2  -1.484858803451061E-2  -9.333395361900330E-1   3.510479927062988E-1  
 3.910000000000000E7     8.480806350708008E-1  -5.258468985557556E-1   2.666182070970535E-2  -1.352661103010178E-2   2.682467922568321E-2  -1.354432106018066E-2  -9.203677177429199E-1   3.872641623020172E-1  
 3.940000000000000E7     8.252089023590088E-1  -5.581659674644470E-1   2.155080996453762E-2  -1.185955479741097E-2   2.147105336189270E-2  -1.173727400600910E-2  -9.052147865295410E-1   4.182633459568024E-1  
 3.970000000000000E7     8.038552999496460E-1  -5.914576649665833E-1   1.722738519310951E-2  -1.026402041316032E-2   1.724816672503948E-2  -1.019422803074122E-2  -8.897987008094788E-1   4.480367302894592E-1  
 4.000000000000000E7     7.790976166725159E-1  -6.228762269020081E-1   1.352597773075104E-2  -8.732212707400322E-3   1.349444966763258E-2  -8.765507489442825E-3  -8.771423101425171E-1   4.759253561496735E-1  
 4.030000000000000E7     7.546508908271790E-1  -6.527950167655945E-1   1.043926272541285E-2  -7.174520287662745E-3   1.029236335307360E-2  -7.271154318004847E-3  -8.625673055648804E-1   5.015233755111694E-1  
 4.060000000000000E7     7.291108369827271E-1  -6.810031533241272E-1   7.885547354817390E-3  -5.789077375084162E-3   7.801835425198078E-3  -5.752122029662132E-3  -8.477922677993774E-1   5.255122184753418E-1  
 4.090000000000000E7     7.019854784011841E-1  -7.092754840850830E-1   5.626432131975889E-3  -4.353695549070835E-3   5.677824839949608E-3  -4.509785678237677E-3  -8.336371183395386E-1   5.473693609237671E-1  
 4.120000000000000E7     6.750962734222412E-1  -7.355908155441284E-1   3.915384411811829E-3  -3.199402242898941E-3   3.921102266758680E-3  -3.207416273653507E-3  -8.184043765068054E-1   5.696806311607361E-1  
 4.150000000000000E7     6.478004455566406E-1  -7.591295242309570E-1   2.403588034212589E-3  -2.111128997057676E-3   2.401429228484631E-3  -2.154161920771003E-3  -8.042762875556946E-1   5.895315408706665E-1  
 4.180000000000000E7     6.181410551071167E-1  -7.839866876602173E-1   1.212369883432984E-3  -1.079093199223280E-3   1.148265437223017E-3  -1.117665087804198E-3  -7.910880446434021E-1   6.071022748947144E-1  
 4.210000000000000E7     5.888734459877014E-1  -8.059040307998657E-1   2.780092472676188E-4  -1.196411831188016E-4   3.067817597184330E-4  -1.498728379374370E-4  -7.768232226371765E-1   6.256434321403503E-1  
 4.240000000000000E7     5.588659644126892E-1  -8.264048695564270E-1  -5.400947993621230E-4   6.593444850295782E-4  -5.017765797674656E-4   7.190537871792913E-4  -7.640384435653687E-1   6.424739360809326E-1  
 4.270000000000000E7     5.277274250984192E-1  -8.461067676544190E-1  -1.122830784879625E-3   1.449748058803380E-3  -1.007761340588331E-3   1.402678550221026E-3  -7.496528625488281E-1   6.593378186225891E-1  
 4.300000000000000E7     4.957344532012940E-1  -8.656913042068481E-1  -1.598961651325226E-3   2.091541653499007E-3  -1.483613392338157E-3   1.997091807425022E-3  -7.354925274848938E-1   6.754466295242310E-1  
 4.330000000000000E7     4.667628407478333E-1  -8.833012580871582E-1  -1.848148880526424E-3   2.479623071849346E-3  -1.861694268882275E-3   2.542485715821385E-3  -7.214109897613525E-1   6.893076896667481E-1  
 4.360000000000000E7     4.329440295696259E-1  -8.986490964889526E-1  -2.152443397790194E-3   2.876472659409046E-3  -2.029585884884000E-3   2.950124442577362E-3  -7.089558243751526E-1   7.027831077575684E-1  
 4.390000000000000E7     4.001169800758362E-1  -9.150041341781616E-1  -2.199551090598106E-3   3.282195422798395E-3  -2.054599113762379E-3   3.335960675030947E-3  -6.944853663444519E-1   7.156192064285278E-1  
 4.420000000000000E7     3.671971261501312E-1  -9.275985956192017E-1  -2.268381882458925E-3   3.532378468662500E-3  -2.197647932916880E-3   3.505006432533264E-3  -6.807084083557129E-1   7.282047867774963E-1  
 4.450000000000000E7     3.334730863571167E-1  -9.401148557662964E-1  -2.191104460507631E-3   3.738885512575507E-3  -2.151728142052889E-3   3.714715363457799E-3  -6.689017415046692E-1   7.402263879776001E-1  
 4.480000000000000E7     3.002763986587524E-1  -9.512410163879395E-1  -2.043074229732156E-3   3.838647389784455E-3  -2.093015471473336E-3   3.853343660011888E-3  -6.556695699691773E-1   7.514557838439941E-1  
 4.510000000000000E7     2.675388455390930E-1  -9.617439508438110E-1  -1.989079173654318E-3   3.721029032021761E-3  -2.109206514433026E-3   3.875117748975754E-3  -6.426519155502319E-1   7.634954452514648E-1  
 4.540000000000000E7     2.331333309412003E-1  -9.702215790748596E-1  -1.872256281785667E-3   3.712747478857637E-3  -1.789187546819449E-3   3.736051497980952E-3  -6.292917132377625E-1   7.745572924613953E-1  
 4.570000000000000E7     1.985651105642319E-1  -9.781615734100342E-1  -1.660871901549399E-3   3.600141033530235E-3  -1.620779861696065E-3   3.511809743940830E-3  -6.159678101539612E-1   7.848739624023438E-1  
 4.600000000000000E7     1.667951494455338E-1  -9.837812781333923E-1  -1.454050885513425E-3   3.356443485245109E-3  -1.539124990813434E-3   3.410273464396596E-3  -6.037451624870300E-1   7.945472002029419E-1  
 4.630000000000000E7     1.298892199993134E-1  -9.896101355552673E-1  -1.258208998478949E-3   3.147757379338145E-3  -1.214144169352949E-3   3.095598192885518E-3  -5.912579894065857E-1   8.034553527832031E-1  
 4.660000000000000E7     9.484106302261353E-2  -9.944065213203430E-1  -1.157217426225543E-3   2.835676772519946E-3  -1.063919393345714E-3   2.712621819227934E-3  -5.773163437843323E-1   8.138479590415955E-1  
 4.690000000000000E7     6.101022660732269E-2  -9.958885312080383E-1  -9.115907596424222E-4   2.425850601866841E-3  -8.966146851889789E-4   2.461157506331801E-3  -5.654383897781372E-1   8.223189711570740E-1  
 4.720000000000000E7     2.602078951895237E-2  -9.970293045043945E-1  -6.486286874860525E-4   2.002105349674821E-3  -5.981286522001028E-4   1.967361429706216E-3  -5.519394874572754E-1   8.309427499771118E-1  
 4.750000000000000E7    -7.607955485582352E-3  -9.984553456306458E-1  -4.653060459531844E-4   1.476943376474083E-3  -4.762383468914777E-4   1.464521745219827E-3  -5.393598675727844E-1   8.391233086585999E-1  
 4.780000000000000E7    -4.138047620654106E-2  -9.974569678306580E-1  -3.450760268606246E-4   9.962641634047031E-4  -3.582242934498936E-4   9.128543315455318E-4  -5.256909132003784E-1   8.462114930152893E-1  
 4.810000000000000E7    -7.617694884538651E-2  -9.951546192169190E-1  -1.216337041114457E-4   4.764010955113918E-4  -1.627744932193309E-4   4.151661414653063E-4  -5.148979425430298E-1   8.540912866592407E-1  
 4.840000000000000E7    -1.102775633335114E-1  -9.925620555877686E-1   3.747115988517180E-5  -1.070876824087463E-4   9.064104233402759E-6  -2.243654453195632E-4  -5.022319555282593E-1   8.617233633995056E-1  
 4.870000000000000E7    -1.446910500526428E-1  -9.881256818771362E-1   8.229104423662648E-5  -8.979120175354183E-4   8.468144369544461E-5  -9.202084620483220E-4  -4.896002113819122E-1   8.688259720802307E-1  
 4.900000000000000E7    -1.789644658565521E-1  -9.832347035408020E-1   1.807684602681547E-4  -1.550646033138037E-3   1.931269216584042E-4  -1.545237260870636E-3  -4.774265289306641E-1   8.753771781921387E-1  
 4.930000000000000E7    -2.127078771591187E-1  -9.759742617607117E-1   2.856612263713032E-4  -2.241473644971848E-3   2.742161450441927E-4  -2.259180182591081E-3  -4.645831882953644E-1   8.825785517692566E-1  
 4.960000000000000E7    -2.447100281715393E-1  -9.663310050964356E-1   2.255378203699365E-4  -2.953765215352178E-3   3.911175590474159E-4  -2.947017783299089E-3  -4.525828957557678E-1   8.887783288955689E-1  
 4.990000000000000E7    -2.773475944995880E-1  -9.576939344406128E-1   2.271415723953396E-4  -3.787225810810924E-3   3.384562442079186E-4  -3.770624520257115E-3  -4.400064647197723E-1   8.947974443435669E-1  
 5.020000000000000E7    -3.092294335365295E-1  -9.494776129722595E-1   2.546127652749419E-4  -4.558137618005276E-3   2.479107934050262E-4  -4.576747771352530E-3  -4.278306663036346E-1   9.008638262748718E-1  
 5.050000000000000E7    -3.420715332031250E-1  -9.377917051315308E-1   1.588639861438423E-4  -5.413352046161890E-3   1.492217998020351E-4  -5.409498233348131E-3  -4.159629642963409E-1   9.075568914413452E-1  
 5.080000000000000E7    -3.731692135334015E-1  -9.260883927345276E-1   5.484034772962332E-5  -6.250363308936358E-3   7.158186053857207E-5  -6.273790262639523E-3  -4.028537869453430E-1   9.113386869430542E-1  
 5.110000000000000E7    -4.051954150199890E-1  -9.123109579086304E-1  -1.263373997062445E-4  -7.123025134205818E-3  -9.696016786620021E-5  -7.104345597326756E-3  -3.919537663459778E-1   9.171556234359741E-1  
 5.140000000000000E7    -4.353121519088745E-1  -8.976931571960449E-1  -3.116141888312995E-4  -7.993574254214764E-3  -3.335039364174008E-4  -8.020078763365746E-3  -3.786875605583191E-1   9.244037866592407E-1  
 5.170000000000000E7    -4.649968743324280E-1  -8.825698494911194E-1  -5.554406088776887E-4  -8.861935697495937E-3  -5.423265392892063E-4  -8.900114335119724E-3  -3.661293387413025E-1   9.269700646400452E-1  
 5.200000000000000E7    -4.952179193496704E-1  -8.678671717643738E-1  -8.165041217580438E-4  -9.765944443643093E-3  -8.330453420057893E-4  -9.845077991485596E-3  -3.537784218788147E-1   9.309778809547424E-1  
 5.230000000000000E7    -5.239576101303101E-1  -8.492931723594666E-1  -1.129697891883552E-3  -1.074087992310524E-2  -1.147739705629647E-3  -1.069591380655766E-2  -3.421150743961334E-1   9.362488389015198E-1  
 5.260000000000000E7    -5.517867803573608E-1  -8.301044702529907E-1  -1.537291333079338E-3  -1.162793301045895E-2  -1.500735175795853E-3  -1.162311993539333E-2  -3.297386765480042E-1   9.410911798477173E-1  
 5.290000000000000E7    -5.803092718124390E-1  -8.114741444587708E-1  -1.955820713192225E-3  -1.251957658678293E-2  -1.928988611325622E-3  -1.252706628292799E-2  -3.178498744964600E-1   9.445282220840454E-1  
 5.320000000000000E7    -6.071549654006958E-1  -7.926148772239685E-1  -2.391460351645947E-3  -1.348066702485085E-2  -2.389962784945965E-3  -1.349362637847662E-2  -3.055365681648254E-1   9.490582346916199E-1  
 5.350000000000000E7    -6.321722269058228E-1  -7.715634703636169E-1  -2.881589345633984E-3  -1.443368196487427E-2  -2.900227438658476E-3  -1.439559645950794E-2  -2.948944568634033E-1   9.529806971549988E-1  
 5.380000000000000E7    -6.566966772079468E-1  -7.499299645423889E-1  -3.403567476198077E-3  -1.539401151239872E-2  -3.409165423363447E-3  -1.532827317714691E-2  -2.805549800395966E-1   9.557989835739136E-1  
 5.410000000000000E7    -6.841188669204712E-1  -7.275176048278809E-1  -4.054879769682884E-3  -1.625355146825314E-2  -4.066203255206347E-3  -1.624302193522453E-2  -2.688710987567902E-1   9.599767327308655E-1  
 5.440000000000000E7    -7.073269486427307E-1  -7.032737135887146E-1  -4.706011153757572E-3  -1.722617819905281E-2  -4.717191681265831E-3  -1.720187254250050E-2  -2.577095031738281E-1   9.624934196472168E-1  
 5.470000000000000E7    -7.294208407402039E-1  -6.799766421318054E-1  -5.427272059023380E-3  -1.808247528970242E-2  -5.428554955869913E-3  -1.813597418367863E-2  -2.441623210906982E-1   9.658121466636658E-1  
 5.500000000000000E7    -7.528601288795471E-1  -6.549706459045410E-1  -6.186732556670904E-3  -1.906195282936096E-2  -6.152764894068241E-3  -1.899633929133415E-2  -2.318579405546188E-1   9.700782895088196E-1  
 5.530000000000000E7    -7.737597823143005E-1  -6.294291019439697E-1  -6.945574190467596E-3  -1.997272297739983E-2  -7.014279253780842E-3  -1.993216201663017E-2  -2.199053466320038E-1   9.719062447547913E-1  
 5.560000000000000E7    -7.953068614006043E-1  -6.024506092071533E-1  -7.844394072890282E-3  -2.082079835236073E-2  -7.813036441802979E-3  -2.081445790827274E-2  -2.084541618824005E-1   9.746225476264954E-1  
 5.590000000000000E7    -8.151128888130188E-1  -5.763907432556152E-1  -8.723876439034939E-3  -2.170475013554096E-2  -8.757318370044231E-3  -2.167146652936935E-2  -1.952589601278305E-1   9.771783351898193E-1  
 5.620000000000000E7    -8.334310650825501E-1  -5.468618273735046E-1  -9.657266549766064E-3  -2.256063930690289E-2  -9.603569284081459E-3  -2.246785350143910E-2  -1.842173933982849E-1   9.798543453216553E-1  
 5.650000000000000E7    -8.508468866348267E-1  -5.203036665916443E-1  -1.061613112688065E-2  -2.336536720395088E-2  -1.063265372067690E-2  -2.337579056620598E-2  -1.717290729284287E-1   9.818053245544434E-1  
 5.680000000000000E7    -8.678948283195496E-1  -4.914477467536926E-1  -1.171341259032488E-2  -2.419869974255562E-2  -1.171065401285887E-2  -2.415910176932812E-2  -1.592206954956055E-1   9.830968976020813E-1  
 5.710000000000000E7    -8.838961720466614E-1  -4.606760740280151E-1  -1.284005865454674E-2  -2.494090050458908E-2  -1.284295786172152E-2  -2.495992928743362E-2  -1.475477963685989E-1   9.856508374214172E-1  
 5.740000000000000E7    -8.998913764953613E-1  -4.311975836753845E-1  -1.401559077203274E-2  -2.573539689183235E-2  -1.398326084017754E-2  -2.573801390826702E-2  -1.344386637210846E-1   9.870207309722900E-1  
 5.770000000000000E7    -9.122031927108765E-1  -4.019818902015686E-1  -1.510167401283979E-2  -2.652640827000141E-2  -1.505024544894695E-2  -2.646837942302227E-2  -1.240363046526909E-1   9.879916310310364E-1  
 5.800000000000000E7    -9.253556132316589E-1  -3.699444532394409E-1  -1.644091121852398E-2  -2.726034075021744E-2  -1.641962490975857E-2  -2.712010033428669E-2  -1.102230548858643E-1   9.912956357002258E-1  
 5.830000000000000E7    -9.371201395988464E-1  -3.389688134193420E-1  -1.767650060355663E-2  -2.788036689162254E-2  -1.771264523267746E-2  -2.788540348410606E-2  -9.922084957361221E-2   9.917002916336060E-1  
 5.860000000000000E7    -9.492766857147217E-1  -3.078640699386597E-1  -1.901922933757305E-2  -2.855154313147068E-2  -1.906955614686012E-2  -2.855680324137211E-2  -8.665520697832108E-2   9.925241470336914E-1  
 5.890000000000000E7    -9.579403400421143E-1  -2.755317687988281E-1  -2.043399587273598E-2  -2.918667159974575E-2  -2.038388885557652E-2  -2.922322787344456E-2  -7.521490007638931E-2   9.932331442832947E-1  
 5.920000000000000E7    -9.666574001312256E-1  -2.422285079956055E-1  -2.191005647182465E-2  -2.972600981593132E-2  -2.193423919379711E-2  -2.963203191757202E-2  -6.223408132791519E-2   9.948820471763611E-1  
 5.950000000000000E7    -9.740592837333679E-1  -2.099557518959045E-1  -2.334004826843739E-2  -3.022050112485886E-2  -2.329622581601143E-2  -3.022469207644463E-2  -5.009958148002625E-2   9.938818216323853E-1  
 5.980000000000000E7    -9.807536602020264E-1  -1.771086305379868E-1  -2.498309127986431E-2  -3.073951229453087E-2  -2.485554851591587E-2  -3.072553314268589E-2  -3.738054633140564E-2   9.951322674751282E-1  
 6.010000000000000E7    -9.845449924468994E-1  -1.453507095575333E-1  -2.642066031694412E-2  -3.134533017873764E-2  -2.633384242653847E-2  -3.125834092497826E-2  -2.627682685852051E-2   9.959011077880859E-1  
 6.040000000000000E7    -9.894812703132629E-1  -1.106757521629334E-1  -2.817298099398613E-2  -3.169459477066994E-2  -2.810798957943916E-2  -3.168660029768944E-2  -1.347419619560242E-2   9.964479804039002E-1  
 6.070000000000000E7    -9.936274886131287E-1  -7.864014804363251E-2  -2.970451675355434E-2  -3.214976936578751E-2  -2.968801558017731E-2  -3.217941150069237E-2  -2.082824707031250E-3   9.958459734916687E-1  
 6.100000000000000E7    -9.948170185089111E-1  -4.507422447204590E-2  -3.158424049615860E-2  -3.226453438401222E-2  -3.145391866564751E-2  -3.236420825123787E-2   1.144868135452271E-2   9.961372613906860E-1  
 6.130000000000000E7    -9.962974786758423E-1  -1.082843542098999E-2  -3.328643366694450E-2  -3.261443972587585E-2  -3.326676413416863E-2  -3.269067406654358E-2   2.400588989257813E-2   9.960749149322510E-1  
 6.160000000000000E7    -9.953059554100037E-1   2.200137078762054E-2  -3.504411876201630E-2  -3.281140327453613E-2  -3.501208499073982E-2  -3.284195065498352E-2   3.466372191905975E-2   9.946072697639465E-1  
 6.190000000000000E7    -9.942096471786499E-1   5.520434677600861E-2  -3.679400309920311E-2  -3.310197964310646E-2  -3.673549368977547E-2  -3.291802480816841E-2   4.657004773616791E-2   9.933160543441773E-1  
 6.220000000000000E7    -9.918625354766846E-1   8.893012255430222E-2  -3.857886046171188E-2  -3.309888765215874E-2  -3.873847797513008E-2  -3.322327136993408E-2   5.823078751564026E-2   9.942295551300049E-1  
 6.250000000000000E7    -9.883539676666260E-1   1.220679581165314E-1  -4.063862934708595E-2  -3.323955833911896E-2  -4.068852216005325E-2  -3.330044075846672E-2   7.038660347461700E-2   9.934499263763428E-1  
 6.280000000000000E7    -9.825107455253601E-1   1.550109982490540E-1  -4.263036698102951E-2  -3.326671570539475E-2  -4.243345558643341E-2  -3.338858485221863E-2   8.294408023357391E-2   9.925359487533569E-1  
 6.310000000000000E7    -9.765143990516663E-1   1.892472207546234E-1  -4.465740174055100E-2  -3.316786140203476E-2  -4.447305947542191E-2  -3.321248292922974E-2   9.473347663879395E-2   9.913771748542786E-1  
 6.340000000000000E7    -9.697063565254211E-1   2.217192351818085E-1  -4.665957763791084E-2  -3.313107416033745E-2  -4.658589884638786E-2  -3.304480016231537E-2   1.075411289930344E-1   9.901369214057922E-1  
 6.370000000000000E7    -9.617939591407776E-1   2.539818882942200E-1  -4.878548532724381E-2  -3.296571597456932E-2  -4.871492460370064E-2  -3.277008607983589E-2   1.187935397028923E-1   9.879270792007446E-1  
 6.400000000000000E7    -9.516902565956116E-1   2.859947979450226E-1  -5.081852152943611E-2  -3.251888230443001E-2  -5.068935826420784E-2  -3.254979103803635E-2   1.312005817890167E-1   9.871929287910461E-1  
 6.430000000000000E7    -9.413447976112366E-1   3.192258775234222E-1  -5.303564295172691E-2  -3.241890296339989E-2  -5.290357768535614E-2  -3.215671330690384E-2   1.434676200151444E-1   9.850199222564697E-1  
 6.460000000000000E7    -9.306077957153320E-1   3.509095907211304E-1  -5.511835217475891E-2  -3.199009597301483E-2  -5.501285940408707E-2  -3.197818249464035E-2   1.545323729515076E-1   9.824164509773254E-1  
 6.490000000000000E7    -9.190326333045960E-1   3.819799721240997E-1  -5.723439157009125E-2  -3.153723478317261E-2  -5.742236226797104E-2  -3.150689229369164E-2   1.663636416196823E-1   9.814139604568481E-1  
 6.520000000000000E7    -9.042779207229614E-1   4.121805429458618E-1  -5.964424461126328E-2  -3.116209618747234E-2  -5.945923179388046E-2  -3.090858832001686E-2   1.786732375621796E-1   9.795225858688355E-1  
 6.550000000000000E7    -8.905611634254456E-1   4.423432946205139E-1  -6.188868358731270E-2  -3.044823929667473E-2  -6.177317351102829E-2  -3.037636168301106E-2   1.903809458017349E-1   9.754249453544617E-1  
 6.580000000000000E7    -8.741338253021240E-1   4.726091623306274E-1  -6.420706212520599E-2  -2.949247509241104E-2  -6.401828676462174E-2  -2.963326871395111E-2   2.026336491107941E-1   9.744418859481812E-1  
 6.610000000000000E7    -8.565743565559387E-1   5.017065405845642E-1  -6.646746397018433E-2  -2.881146222352982E-2  -6.619098782539368E-2  -2.860926464200020E-2   2.155857682228088E-1   9.700847864151001E-1  
 6.640000000000000E7    -8.405985832214356E-1   5.310317277908325E-1  -6.885560601949692E-2  -2.804717049002647E-2  -6.879039108753204E-2  -2.800755575299263E-2   2.275960892438889E-1   9.675657749176025E-1  
 6.670000000000000E7    -8.212007284164429E-1   5.589042305946350E-1  -7.120016217231751E-2  -2.700522914528847E-2  -7.105230540037155E-2  -2.710653468966484E-2   2.382135391235352E-1   9.658063650131226E-1  
 6.700000000000000E7    -8.014100790023804E-1   5.865324735641480E-1  -7.351151108741760E-2  -2.606072649359703E-2  -7.319431751966476E-2  -2.595768496394157E-2   2.499188333749771E-1   9.612917900085449E-1  
 6.730000000000000E7    -7.805382609367371E-1   6.131857037544251E-1  -7.570002228021622E-2  -2.502126619219780E-2  -7.569681853055954E-2  -2.467167004942894E-2   2.628321945667267E-1   9.590851664543152E-1  
 6.760000000000000E7    -7.596195340156555E-1   6.395158767700195E-1  -7.842368632555008E-2  -2.347192913293839E-2  -7.812494784593582E-2  -2.356324531137943E-2   2.746998369693756E-1   9.550362825393677E-1  
 6.790000000000000E7    -7.365414500236511E-1   6.653403043746948E-1  -8.056949079036713E-2  -2.231669612228870E-2  -8.054304867982864E-2  -2.222623117268086E-2   2.854879200458527E-1   9.508253335952759E-1  
 6.820000000000000E7    -7.134153842926025E-1   6.893236637115479E-1  -8.294514566659927E-2  -2.094982936978340E-2  -8.279934525489807E-2  -2.097119390964508E-2   2.973280847072601E-1   9.477589726448059E-1  
 6.850000000000000E7    -6.894230842590332E-1   7.143731117248535E-1  -8.557736128568649E-2  -1.958504877984524E-2  -8.538004755973816E-2  -1.937307976186276E-2   3.086160421371460E-1   9.442284703254700E-1  
 6.880000000000000E7    -6.640087366104126E-1   7.365208864212036E-1  -8.793618530035019E-2  -1.776817627251148E-2  -8.751829713582993E-2  -1.773544400930405E-2   3.207393288612366E-1   9.391043782234192E-1  
 6.910000000000000E7    -6.383463740348816E-1   7.593871951103210E-1  -9.048062562942505E-2  -1.600620336830616E-2  -9.016402810811997E-2  -1.607052795588970E-2   3.329154849052429E-1   9.353374242782593E-1  
 6.940000000000000E7    -6.122725009918213E-1   7.807063460350037E-1  -9.280899912118912E-2  -1.446261070668697E-2  -9.286086261272430E-2  -1.426148321479559E-2   3.436273336410523E-1   9.309712052345276E-1  
 6.970000000000000E7    -5.834670066833496E-1   8.011744618415833E-1  -9.517642110586166E-2  -1.236501708626747E-2  -9.516439586877823E-2  -1.208564732223749E-2   3.559314012527466E-1   9.260737895965576E-1  
 7.000000000000000E7    -5.556455254554749E-1   8.214263319969177E-1  -9.770838171243668E-2  -1.044462993741036E-2  -9.749539196491242E-2  -1.037520635873079E-2   3.669904172420502E-1   9.222339987754822E-1  
