#  HZ   S   RI   R     50.00 
! Rohde & Schwarz ZVT8 8Ports - Version 4.11 - 1300.0000k08 SN: 100242
! Date: 2026-07-31 14:23:47
! Measurements: S11 S21 S12 S22 
! 
 1.000000000000000E7    -3.956482410430908E-1   9.140723347663879E-1   5.641501769423485E-2   5.620867013931274E-2   5.620323121547699E-2   5.618293955922127E-2  -9.157936573028565E-1   3.920156359672546E-1  
 1.030000000000000E7    -3.624491989612579E-1   9.268929362297058E-1   6.019100546836853E-2   5.670147016644478E-2   6.019743904471397E-2   5.668046325445175E-2  -9.088582992553711E-1   4.057762622833252E-1  
 1.060000000000000E7    -3.250277042388916E-1   9.394853711128235E-1   6.429232656955719E-2   5.810347571969032E-2   6.441422551870346E-2   5.772560834884644E-2  -9.053433537483215E-1   4.183169901371002E-1  
 1.090000000000000E7    -2.917498946189880E-1   9.498881101608276E-1   6.866404414176941E-2   5.843778699636459E-2   6.848235428333283E-2   5.859742686152458E-2  -8.984088897705078E-1   4.308720529079437E-1  
 1.120000000000000E7    -2.549785673618317E-1   9.589954614639282E-1   7.341929525136948E-2   5.947850644588471E-2   7.289630919694901E-2   5.920502170920372E-2  -8.914610147476196E-1   4.433700144290924E-1  
 1.150000000000000E7    -2.184032201766968E-1   9.693827629089356E-1   7.763356715440750E-2   5.961852893233299E-2   7.744904607534409E-2   5.964072048664093E-2  -8.840168118476868E-1   4.538420140743256E-1  
 1.180000000000000E7    -1.815116405487061E-1   9.740207791328430E-1   8.230143785476685E-2   6.028059124946594E-2   8.226353675127029E-2   6.013949215412140E-2  -8.782016634941101E-1   4.655367136001587E-1  
 1.210000000000000E7    -1.452720463275909E-1   9.804949760437012E-1   8.768820017576218E-2   6.072012707591057E-2   8.748847991228104E-2   6.056712567806244E-2  -8.696842193603516E-1   4.794071316719055E-1  
 1.240000000000000E7    -1.077248454093933E-1   9.841354489326477E-1   9.298866242170334E-2   6.099312752485275E-2   9.290963411331177E-2   6.052434071898460E-2  -8.622446060180664E-1   4.902538657188416E-1  
 1.270000000000000E7    -6.973613798618317E-2   9.871734976768494E-1   9.896095842123032E-2   6.054476648569107E-2   9.847854822874069E-2   6.028274446725845E-2  -8.540914058685303E-1   5.055480599403381E-1  
 1.300000000000000E7    -3.194461017847061E-2   9.896281361579895E-1   1.044055074453354E-1   6.054340302944183E-2   1.044047772884369E-1   6.034604460000992E-2  -8.456429243087769E-1   5.174866318702698E-1  
 1.330000000000000E7     7.331337779760361E-3   9.897390604019165E-1   1.110194548964500E-1   6.004571542143822E-2   1.108423322439194E-1   5.964231491088867E-2  -8.361943960189819E-1   5.310825705528259E-1  
 1.360000000000000E7     4.759601876139641E-2   9.876632690429688E-1   1.173501387238503E-1   5.951815098524094E-2   1.176043674349785E-1   5.891351401805878E-2  -8.275923728942871E-1   5.419118404388428E-1  
 1.390000000000000E7     8.538191020488739E-2   9.837468266487122E-1   1.243854686617851E-1   5.825056508183479E-2   1.240316703915596E-1   5.855302512645721E-2  -8.178834915161133E-1   5.557481646537781E-1  
 1.420000000000000E7     1.259643435478210E-1   9.794377684593201E-1   1.313568055629730E-1   5.746359378099442E-2   1.313285529613495E-1   5.739197507500649E-2  -8.091768026351929E-1   5.676992535591126E-1  
 1.450000000000000E7     1.649553030729294E-1   9.707996249198914E-1   1.390568763017654E-1   5.592045187950134E-2   1.388432532548904E-1   5.582131817936897E-2  -7.962045073509216E-1   5.820212960243225E-1  
 1.480000000000000E7     2.065129727125168E-1   9.627451300621033E-1   1.471294909715653E-1   5.382741615176201E-2   1.470449119806290E-1   5.436681583523750E-2  -7.860212326049805E-1   5.943678617477417E-1  
 1.510000000000000E7     2.457702010869980E-1   9.518875479698181E-1   1.554342806339264E-1   5.167252942919731E-2   1.550062447786331E-1   5.174162238836289E-2  -7.718021869659424E-1   6.076287031173706E-1  
 1.540000000000000E7     2.849985063076019E-1   9.392697811126709E-1   1.639494746923447E-1   5.027340352535248E-2   1.638860553503037E-1   4.959632083773613E-2  -7.626124024391174E-1   6.198810338973999E-1  
 1.570000000000000E7     3.263540565967560E-1   9.259284734725952E-1   1.734847724437714E-1   4.646164551377296E-2   1.735644638538361E-1   4.665879532694817E-2  -7.487917542457581E-1   6.345337629318237E-1  
 1.600000000000000E7     3.670294284820557E-1   9.077368378639221E-1   1.830763220787048E-1   4.298397153615952E-2   1.834403574466705E-1   4.246268793940544E-2  -7.358282208442688E-1   6.459546685218811E-1  
 1.630000000000000E7     4.066185355186462E-1   8.879375457763672E-1   1.942541301250458E-1   3.804918751120567E-2   1.937500536441803E-1   3.882086649537087E-2  -7.210522294044495E-1   6.610795855522156E-1  
 1.660000000000000E7     4.463087916374207E-1   8.650330305099487E-1   2.053963690996170E-1   3.307631611824036E-2   2.049616277217865E-1   3.265471756458283E-2  -7.043518424034119E-1   6.747197508811951E-1  
 1.690000000000000E7     4.854229986667633E-1   8.414586782455444E-1   2.171464711427689E-1   2.785377204418182E-2   2.168233096599579E-1   2.760586887598038E-2  -6.882035136222839E-1   6.870923638343811E-1  
 1.720000000000000E7     5.262128710746765E-1   8.148403167724609E-1   2.286654561758041E-1   2.037512883543968E-2   2.289577722549439E-1   2.077951282262802E-2  -6.707020998001099E-1   7.000241279602051E-1  
 1.750000000000000E7     5.604868531227112E-1   7.875439524650574E-1   2.429164946079254E-1   1.431766897439957E-2   2.432585060596466E-1   1.364312134683132E-2  -6.530534029006958E-1   7.151405811309815E-1  
 1.780000000000000E7     6.004177927970886E-1   7.509561181068420E-1   2.554017603397369E-1   4.486009478569031E-3   2.561127245426178E-1   4.681274294853210E-3  -6.324559450149536E-1   7.254057526588440E-1  
 1.810000000000000E7     6.361827850341797E-1   7.162939906120300E-1   2.718954086303711E-1  -5.849152803421021E-3   2.702350020408630E-1  -6.525279954075813E-3  -6.110004186630249E-1   7.412536740303040E-1  
 1.840000000000000E7     6.735540032386780E-1   6.758381128311157E-1   2.872662246227264E-1  -1.978972740471363E-2   2.861997485160828E-1  -1.908698119223118E-2  -5.868830680847168E-1   7.531224489212036E-1  
 1.870000000000000E7     7.057330608367920E-1   6.333997249603272E-1   3.035250902175903E-1  -3.274724632501602E-2   3.025470674037933E-1  -3.316207230091095E-2  -5.620912909507752E-1   7.642691731452942E-1  
 1.900000000000000E7     7.377271652221680E-1   5.857953429222107E-1   3.205654323101044E-1  -4.884604364633560E-2   3.200600147247315E-1  -4.973797500133514E-2  -5.347623825073242E-1   7.752220034599304E-1  
 1.930000000000000E7     7.672101855278015E-1   5.327212214469910E-1   3.376351594924927E-1  -6.987357139587402E-2   3.387286961078644E-1  -6.883540004491806E-2  -5.057184696197510E-1   7.869191169738770E-1  
 1.960000000000000E7     7.940337657928467E-1   4.749988615512848E-1   3.561210930347443E-1  -9.228083491325378E-2   3.566451966762543E-1  -9.163349121809006E-2  -4.755748808383942E-1   7.956137657165527E-1  
 1.990000000000000E7     8.146085143089294E-1   4.137731492519379E-1   3.751135766506195E-1  -1.191996261477470E-1   3.755472004413605E-1  -1.193846613168716E-1  -4.383813738822937E-1   8.038309216499329E-1  
 2.020000000000000E7     8.313239216804504E-1   3.450627326965332E-1   3.946274220943451E-1  -1.504862457513809E-1   3.938707113265991E-1  -1.496481001377106E-1  -4.029006063938141E-1   8.072582483291626E-1  
 2.050000000000000E7     8.437522649765015E-1   2.701770663261414E-1   4.132601022720337E-1  -1.866875290870667E-1   4.107972085475922E-1  -1.860260963439941E-1  -3.620131313800812E-1   8.102434873580933E-1  
 2.080000000000000E7     8.446575403213501E-1   1.898324638605118E-1   4.301662147045136E-1  -2.309724092483521E-1   4.305520355701447E-1  -2.307110875844955E-1  -3.173044621944428E-1   8.089638948440552E-1  
 2.110000000000000E7     8.364283442497253E-1   1.053260043263435E-1   4.442143142223358E-1  -2.833365499973297E-1   4.439644217491150E-1  -2.833203971385956E-1  -2.696153223514557E-1   8.013319373130798E-1  
 2.140000000000000E7     8.148648738861084E-1   1.672048121690750E-2   4.534499347209930E-1  -3.439005017280579E-1   4.532617628574371E-1  -3.413032293319702E-1  -2.196313440799713E-1   7.878639101982117E-1  
 2.170000000000000E7     7.767998576164246E-1  -7.567860931158066E-2   4.565001726150513E-1  -4.120984077453613E-1   4.574311375617981E-1  -4.109178781509399E-1  -1.668682992458344E-1   7.649032473564148E-1  
 2.200000000000000E7     7.186226248741150E-1  -1.684164702892304E-1   4.474044442176819E-1  -4.907260537147522E-1   4.482374191284180E-1  -4.901838898658752E-1  -1.138728559017181E-1   7.315446734428406E-1  
 2.230000000000000E7     6.373886466026306E-1  -2.539041638374329E-1   4.242767095565796E-1  -5.775083899497986E-1   4.251514375209808E-1  -5.767011046409607E-1  -6.351011246442795E-2   6.860039234161377E-1  
 2.260000000000000E7     5.317474007606506E-1  -3.278509378433228E-1   3.806714117527008E-1  -6.696165204048157E-1   3.815297484397888E-1  -6.709452867507935E-1  -2.178364247083664E-2   6.261563897132874E-1  
 2.290000000000000E7     4.018351137638092E-1  -3.769935965538025E-1   3.127711415290833E-1  -7.621616721153259E-1   3.128940165042877E-1  -7.631571292877197E-1   1.205698773264885E-2   5.520803332328796E-1  
 2.320000000000000E7     2.564327716827393E-1  -3.901757299900055E-1   2.162738740444183E-1  -8.464298248291016E-1   2.158458381891251E-1  -8.455432653427124E-1   2.651855722069740E-2   4.728792607784271E-1  
 2.350000000000000E7     1.051604300737381E-1  -3.623350560665131E-1   9.292718768119812E-2  -9.102821350097656E-1   9.439408779144287E-2  -9.096465706825256E-1   1.761487498879433E-2   3.852108418941498E-1  
 2.380000000000000E7    -3.838739916682243E-2  -2.916724383831024E-1  -4.739355295896530E-2  -9.437915682792664E-1  -4.743144661188126E-2  -9.439603090286255E-1  -1.692789420485497E-2   3.020676672458649E-1  
 2.410000000000000E7    -1.513554602861404E-1  -1.806739717721939E-1  -1.961745023727417E-1  -9.408574104309082E-1  -1.957857012748718E-1  -9.404042363166809E-1  -7.244511693716049E-2   2.354916632175446E-1  
 2.440000000000000E7    -2.220503836870194E-1  -4.347419738769531E-2  -3.385691642761231E-1  -9.011209607124329E-1  -3.384332954883575E-1  -9.013537168502808E-1  -1.458714157342911E-1   1.928731054067612E-1  
 2.470000000000000E7    -2.506442964076996E-1   1.007646843791008E-1  -4.646854698657990E-1  -8.322548270225525E-1  -4.633096456527710E-1  -8.306525945663452E-1  -2.235376089811325E-1   1.701093316078186E-1  
 2.500000000000000E7    -2.400292158126831E-1   2.396104037761688E-1  -5.629458427429199E-1  -7.414768934249878E-1  -5.642201900482178E-1  -7.414948344230652E-1  -2.953936457633972E-1   1.771403849124908E-1  
 2.530000000000000E7    -1.939183324575424E-1   3.613565862178803E-1  -6.364271044731140E-1  -6.417398452758789E-1  -6.346120238304138E-1  -6.413841247558594E-1  -3.604260087013245E-1   2.010746300220490E-1  
 2.560000000000000E7    -1.292209327220917E-1   4.560295641422272E-1  -6.848056316375732E-1  -5.402349829673767E-1  -6.834968924522400E-1  -5.398428440093994E-1  -4.113995134830475E-1   2.405044734477997E-1  
 2.590000000000000E7    -5.019201338291168E-2   5.238654017448425E-1  -7.160354256629944E-1  -4.437760114669800E-1  -7.163959741592407E-1  -4.444733858108521E-1  -4.452649652957916E-1   2.849147319793701E-1  
 2.620000000000000E7     3.364896401762962E-2   5.725844502449036E-1  -7.329646944999695E-1  -3.525894880294800E-1  -7.314012050628662E-1  -3.523901700973511E-1  -4.656980335712433E-1   3.359953761100769E-1  
 2.650000000000000E7     1.158050447702408E-1   6.008155941963196E-1  -7.350638508796692E-1  -2.699601352214813E-1  -7.362319231033325E-1  -2.693500518798828E-1  -4.734626710414887E-1   3.892314434051514E-1  
 2.680000000000000E7     1.945628821849823E-1   6.119263768196106E-1  -7.329782843589783E-1  -1.947712302207947E-1  -7.333498597145081E-1  -1.947766542434692E-1  -4.679529070854187E-1   4.417912065982819E-1  
 2.710000000000000E7     2.662319839000702E-1   6.118292808532715E-1  -7.284370660781860E-1  -1.243508532643318E-1  -7.282493710517883E-1  -1.232815608382225E-1  -4.527872502803803E-1   4.907426536083221E-1  
 2.740000000000000E7     3.335051834583283E-1   6.003065109252930E-1  -7.174572944641113E-1  -6.188953667879105E-2  -7.176744937896729E-1  -6.128797680139542E-2  -4.239454269409180E-1   5.390604138374329E-1  
 2.770000000000000E7     3.913364410400391E-1   5.813180208206177E-1  -7.069861888885498E-1  -1.530051231384277E-4  -7.083396315574646E-1  -1.503452658653259E-4  -3.867109715938568E-1   5.833760499954224E-1  
 2.800000000000000E7     4.431901276111603E-1   5.562847852706909E-1  -6.936244964599609E-1   5.907194316387177E-2  -6.937646865844727E-1   5.718961358070374E-2  -3.384659290313721E-1   6.242245435714722E-1  
 2.830000000000000E7     4.873297512531281E-1   5.253239870071411E-1  -6.805137991905212E-1   1.173559427261353E-1  -6.817929744720459E-1   1.178829520940781E-1  -2.803901731967926E-1   6.563215851783752E-1  
 2.860000000000000E7     5.229471921920776E-1   4.917420446872711E-1  -6.666688919067383E-1   1.771757006645203E-1  -6.669473052024841E-1   1.789737045764923E-1  -2.055410295724869E-1   6.847450137138367E-1  
 2.890000000000000E7     5.492115020751953E-1   4.569922089576721E-1  -6.507005691528320E-1   2.420390248298645E-1  -6.495672464370728E-1   2.416511029005051E-1  -1.182090714573860E-1   7.007778882980347E-1  
 2.920000000000000E7     5.698562860488892E-1   4.190368652343750E-1  -6.295551657676697E-1   3.087577223777771E-1  -6.278542280197144E-1   3.104792535305023E-1  -1.536873821169138E-2   7.016679048538208E-1  
 2.950000000000000E7     5.767548680305481E-1   3.857182562351227E-1  -6.003444790840149E-1   3.861125111579895E-1  -5.991058349609375E-1   3.856743872165680E-1   1.087822467088699E-1   6.802841424942017E-1  
 2.980000000000000E7     5.778908729553223E-1   3.551552295684815E-1  -5.576314926147461E-1   4.686822593212128E-1  -5.576612353324890E-1   4.692655205726624E-1   2.482572942972183E-1   6.227407455444336E-1  
 3.010000000000000E7     5.691801905632019E-1   3.346871733665466E-1  -4.924293160438538E-1   5.585863590240479E-1  -4.924064278602600E-1   5.577623248100281E-1   3.962483108043671E-1   5.153424143791199E-1  
 3.040000000000000E7     5.530631542205811E-1   3.270563483238220E-1  -3.971014916896820E-1   6.474094986915588E-1  -3.971000015735626E-1   6.464601755142212E-1   5.316193103790283E-1   3.351763486862183E-1  
 3.070000000000000E7     5.414655804634094E-1   3.381892442703247E-1  -2.599415183067322E-1   7.162735462188721E-1  -2.603339254856110E-1   7.143965959548950E-1   6.158000230789185E-1   8.248884975910187E-2  
 3.100000000000000E7     5.438163876533508E-1   3.713749349117279E-1  -9.029196202754974E-2   7.387048602104187E-1  -9.021418541669846E-2   7.375082373619080E-1   5.975275039672852E-1  -2.284109443426132E-1  
 3.130000000000000E7     5.739256739616394E-1   4.097580313682556E-1   8.251333981752396E-2   6.936014294624329E-1   8.180042356252670E-2   6.939721703529358E-1   4.384561181068420E-1  -5.299184918403626E-1  
 3.160000000000000E7     6.335906982421875E-1   4.379329085350037E-1   2.213948220014572E-1   5.863372683525085E-1   2.209266126155853E-1   5.883004665374756E-1   1.650639623403549E-1  -7.345244884490967E-1  
 3.190000000000000E7     7.074285149574280E-1   4.399294853210449E-1   2.987533807754517E-1   4.524275362491608E-1   2.981271743774414E-1   4.518891572952271E-1  -1.440447568893433E-1  -8.064504265785217E-1  
 3.220000000000000E7     7.807716131210327E-1   4.154960513114929E-1   3.207875788211823E-1   3.243698477745056E-1   3.205601572990418E-1   3.241720795631409E-1  -4.193894863128662E-1  -7.671918869018555E-1  
 3.250000000000000E7     8.430629372596741E-1   3.721318840980530E-1   3.056252300739288E-1   2.208685576915741E-1   3.060727119445801E-1   2.211327552795410E-1  -6.276831626892090E-1  -6.625655293464661E-1  
 3.280000000000000E7     8.907293677330017E-1   3.179183006286621E-1   2.734671235084534E-1   1.444307267665863E-1   2.742200195789337E-1   1.443904340267181E-1  -7.733588218688965E-1  -5.345937609672546E-1  
 3.310000000000000E7     9.258205294609070E-1   2.618571221828461E-1   2.384130358695984E-1   9.146298468112946E-2   2.383957803249359E-1   9.191194921731949E-2  -8.689549565315247E-1  -4.066449999809265E-1  
 3.340000000000000E7     9.528282880783081E-1   2.049843817949295E-1   2.034185975790024E-1   5.540736019611359E-2   2.031348347663879E-1   5.506814271211624E-2  -9.286503791809082E-1  -2.854738831520081E-1  
 3.370000000000000E7     9.690284132957459E-1   1.486968845129013E-1   1.710749417543411E-1   3.066346421837807E-2   1.707528680562973E-1   3.102893754839897E-2  -9.620984196662903E-1  -1.796843409538269E-1  
 3.400000000000000E7     9.815899729728699E-1   9.438090771436691E-2   1.435488313436508E-1   1.466378476470709E-2   1.434489339590073E-1   1.477898936718702E-2  -9.800169467926025E-1  -8.580553531646729E-2  
 3.430000000000000E7     9.891497492790222E-1   4.210168123245239E-2   1.202374920248985E-1   3.816107986494899E-3   1.197595074772835E-1   3.832843154668808E-3  -9.876539111137390E-1  -4.298139363527298E-3  
 3.460000000000000E7     9.921184778213501E-1  -8.411533199250698E-3   1.001134440302849E-1  -3.059339011088014E-3   9.997487813234329E-2  -2.783707808703184E-3  -9.889506101608276E-1   6.693699955940247E-2  
 3.490000000000000E7     9.923751354217529E-1  -5.739548429846764E-2   8.340983092784882E-2  -7.221736945211887E-3   8.289020508527756E-2  -7.257622666656971E-3  -9.826860427856445E-1   1.303870230913162E-1  
 3.520000000000000E7     9.900302290916443E-1  -1.037364006042481E-1   6.892123073339462E-2  -9.682417847216129E-3   6.874678283929825E-2  -9.452477097511292E-3  -9.760680198669434E-1   1.862350106239319E-1  
 3.550000000000000E7     9.835241436958313E-1  -1.497433185577393E-1   5.694887042045593E-2  -1.065955404192209E-2   5.689952149987221E-2  -1.058924384415150E-2  -9.663715958595276E-1   2.356950640678406E-1  
 3.580000000000000E7     9.774615764617920E-1  -1.934248059988022E-1   4.692950472235680E-2  -1.109759602695704E-2   4.684752598404884E-2  -1.107094716280699E-2  -9.548205733299255E-1   2.812099754810333E-1  
 3.610000000000000E7     9.688795804977417E-1  -2.358603030443192E-1   3.858919069170952E-2  -1.087001804262400E-2   3.844806924462318E-2  -1.083164755254984E-2  -9.437457919120789E-1   3.225170671939850E-1  
 3.640000000000000E7     9.580428004264832E-1  -2.772464454174042E-1   3.136843815445900E-2  -1.013839058578014E-2   3.135731443762779E-2  -1.017807610332966E-2  -9.297062158584595E-1   3.579499423503876E-1  
 3.670000000000000E7     9.466987848281860E-1  -3.161390423774719E-1   2.542505227029324E-2  -9.239783510565758E-3   2.527511306107044E-2  -9.266752749681473E-3  -9.167926311492920E-1   3.911502957344055E-1  
 3.700000000000000E7     9.329953789710999E-1  -3.545778393745422E-1   2.038010582327843E-2  -8.283413946628571E-3   2.032507956027985E-2  -8.215751498937607E-3  -9.036281704902649E-1   4.231692254543304E-1  
 3.730000000000000E7     9.172629117965698E-1  -3.923182785511017E-1   1.600481569766998E-2  -7.271245121955872E-3   1.611551269888878E-2  -7.264705840498209E-3  -8.883469700813294E-1   4.505057334899902E-1  
 3.760000000000000E7     9.015114307403565E-1  -4.268163740634918E-1   1.250756159424782E-2  -6.133544724434614E-3   1.254434604197741E-2  -6.236352492123842E-3  -8.759752511978149E-1   4.782494604587555E-1  
 3.790000000000000E7     8.838038444519043E-1  -4.626556932926178E-1   9.525494650006294E-3  -5.173187237232924E-3   9.570158086717129E-3  -5.044475663453341E-3  -8.619217872619629E-1   5.021627545356751E-1  
 3.820000000000000E7     8.654227852821350E-1  -4.978163838386536E-1   7.082122378051281E-3  -4.050355870276690E-3   7.095527835190296E-3  -4.102504812180996E-3  -8.480184674263001E-1   5.240446925163269E-1  
 3.850000000000000E7     8.450405001640320E-1  -5.312173962593079E-1   5.031326785683632E-3  -3.088164143264294E-3   4.940764512866736E-3  -3.066076431423426E-3  -8.358851671218872E-1   5.455660223960877E-1  
 3.880000000000000E7     8.243584036827087E-1  -5.621061325073242E-1   3.237619297578931E-3  -2.223497489467263E-3   3.353273030370474E-3  -2.113684080541134E-3  -8.222089409828186E-1   5.664253234863281E-1  
 3.910000000000000E7     8.028119206428528E-1  -5.938321352005005E-1   1.952009624801576E-3  -1.253634458407760E-3   1.952555379830301E-3  -1.285337959416211E-3  -8.093971610069275E-1   5.864779353141785E-1  
 3.940000000000000E7     7.791642546653748E-1  -6.218230724334717E-1   6.780972471460700E-4  -5.209742812439799E-4   8.420574013143778E-4  -5.818780628032982E-4  -7.954594492912293E-1   6.029433012008667E-1  
 3.970000000000000E7     7.569875121116638E-1  -6.510347723960877E-1  -1.077999550034292E-4   1.122398389270529E-4   1.577426337462384E-5   2.417360374238342E-4  -7.812002301216126E-1   6.198766827583313E-1  
 4.000000000000000E7     7.314997911453247E-1  -6.785130500793457E-1  -8.657468715682626E-4   7.538803620263934E-4  -7.237927056849003E-4   6.937097641639411E-4  -7.696104049682617E-1   6.363754272460938E-1  
 4.030000000000000E7     7.066513299942017E-1  -7.048279047012329E-1  -1.298770657740533E-3   1.256294432096183E-3  -1.242338214069605E-3   1.146728172898293E-3  -7.565571069717407E-1   6.518260240554810E-1  
 4.060000000000000E7     6.807130575180054E-1  -7.300109863281250E-1  -1.740814885124564E-3   1.674231723882258E-3  -1.660403679125011E-3   1.598713919520378E-3  -7.432037591934204E-1   6.657121777534485E-1  
 4.090000000000000E7     6.532199382781982E-1  -7.544680237770081E-1  -1.895249471999705E-3   1.949176192283630E-3  -1.936899498105049E-3   1.990847988054156E-3  -7.308034896850586E-1   6.788691878318787E-1  
 4.120000000000000E7     6.259853839874268E-1  -7.780511379241943E-1  -2.061472274363041E-3   2.218022476881743E-3  -2.019727136939764E-3   2.156802918761969E-3  -7.172316908836365E-1   6.933332085609436E-1  
 4.150000000000000E7     5.987927317619324E-1  -7.988454699516296E-1  -2.049005590379238E-3   2.502966672182083E-3  -2.141493838280439E-3   2.418900374323130E-3  -7.043102979660034E-1   7.058327794075012E-1  
 4.180000000000000E7     5.689967274665833E-1  -8.203958272933960E-1  -2.035815501585603E-3   2.575571415945888E-3  -2.097390359267592E-3   2.484801691025496E-3  -6.931254267692566E-1   7.175793647766113E-1  
 4.210000000000000E7     5.399242639541626E-1  -8.399098515510559E-1  -1.979219494387507E-3   2.664746716618538E-3  -1.983706373721361E-3   2.541116205975413E-3  -6.804490685462952E-1   7.300511002540588E-1  
 4.240000000000000E7     5.100089311599731E-1  -8.574979305267334E-1  -1.929367310367525E-3   2.448356477543712E-3  -1.877186587080360E-3   2.504015574231744E-3  -6.692340373992920E-1   7.413014769554138E-1  
 4.270000000000000E7     4.785254001617432E-1  -8.750019669532776E-1  -1.770826638676226E-3   2.342595253139734E-3  -1.675714040175080E-3   2.450567437335849E-3  -6.557213664054871E-1   7.530696988105774E-1  
 4.300000000000000E7     4.469747543334961E-1  -8.919326663017273E-1  -1.525065395981073E-3   2.210749546065927E-3  -1.477185171097517E-3   2.256219275295734E-3  -6.436067819595337E-1   7.639302611351013E-1  
 4.330000000000000E7     4.178440868854523E-1  -9.075320959091187E-1  -1.341581111773849E-3   2.055809367448092E-3  -1.247998559847474E-3   1.951336627826095E-3  -6.311460733413696E-1   7.731227874755859E-1  
 4.360000000000000E7     3.847562074661255E-1  -9.205864071846008E-1  -1.049562357366085E-3   1.705748378299177E-3  -1.113406266085804E-3   1.645281561650336E-3  -6.196759343147278E-1   7.829902172088623E-1  
 4.390000000000000E7     3.516899645328522E-1  -9.350336194038391E-1  -7.946074474602938E-4   1.268693013116717E-3  -7.690587081015110E-4   1.358458655886352E-3  -6.067319512367249E-1   7.917157411575317E-1  
 4.420000000000000E7     3.191994428634644E-1  -9.451527595520020E-1  -5.255642463453114E-4   9.305775165557861E-4  -6.559566827490926E-4   9.399526752531529E-4  -5.940797328948975E-1   8.007590174674988E-1  
 4.450000000000000E7     2.860347926616669E-1  -9.557665586471558E-1  -3.453762328717858E-4   5.033123889006674E-4  -2.673589915502816E-4   4.836245789192617E-4  -5.831314325332642E-1   8.095213770866394E-1  
 4.480000000000000E7     2.529114484786987E-1  -9.654185175895691E-1  -3.108489545411430E-5  -5.040474206907675E-6  -7.791414827806875E-5   9.170451085083187E-5  -5.712732076644898E-1   8.177639842033386E-1  
 4.510000000000000E7     2.206577062606812E-1  -9.739562273025513E-1   2.035654324572533E-4  -5.988938501104713E-4   1.410291733918712E-4  -5.471386248245835E-4  -5.598183274269104E-1   8.264945149421692E-1  
 4.540000000000000E7     1.866962015628815E-1  -9.802494645118713E-1   4.717929405160248E-4  -1.150537747889757E-3   4.579612286761403E-4  -9.860695572569966E-4  -5.473220944404602E-1   8.346824049949646E-1  
 4.570000000000000E7     1.525380611419678E-1  -9.863432049751282E-1   6.161581841297448E-4  -1.743548433296382E-3   5.576233379542828E-4  -1.752194715663791E-3  -5.351672172546387E-1   8.421052098274231E-1  
 4.600000000000000E7     1.210583671927452E-1  -9.906629323959351E-1   7.963656680658460E-4  -2.516809152439237E-3   8.386801346205175E-4  -2.391499467194080E-3  -5.241766571998596E-1   8.493232727050781E-1  
 4.630000000000000E7     8.444579690694809E-2  -9.947934150695801E-1   9.533902630209923E-4  -3.055962966755033E-3   9.934566915035248E-4  -3.193065058439970E-3  -5.127152204513550E-1   8.561280965805054E-1  
 4.660000000000000E7     5.002813786268234E-2  -9.976332783699036E-1   1.131826313212514E-3  -3.892750944942236E-3   1.051212078891695E-3  -3.856418654322624E-3  -4.992622137069702E-1   8.636453151702881E-1  
 4.690000000000000E7     1.707670278847218E-2  -9.980058670043945E-1   1.243493752554059E-3  -4.629995673894882E-3   1.234622439369559E-3  -4.624544642865658E-3  -4.882513284683228E-1   8.705167174339294E-1  
 4.720000000000000E7    -1.715326681733131E-2  -9.974830150604248E-1   1.273935311473906E-3  -5.453403573483229E-3   1.294992514885962E-3  -5.439171567559242E-3  -4.757135212421417E-1   8.765333890914917E-1  
 4.750000000000000E7    -5.031465739011765E-2  -9.971960783004761E-1   1.346432720310986E-3  -6.278463639318943E-3   1.265913597308099E-3  -6.186482030898333E-3  -4.645676612854004E-1   8.832692503929138E-1  
 4.780000000000000E7    -8.369184285402298E-2  -9.947924017906189E-1   1.364223076961935E-3  -7.138339336961508E-3   1.339315902441740E-3  -7.093095686286688E-3  -4.519814848899841E-1   8.883003592491150E-1  
 4.810000000000000E7    -1.178729683160782E-1  -9.911203384399414E-1   1.325087505392730E-3  -8.017040789127350E-3   1.340307411737740E-3  -7.949889637529850E-3  -4.418016076087952E-1   8.945154547691345E-1  
 4.840000000000000E7    -1.513645201921463E-1  -9.872816205024719E-1   1.237110467627645E-3  -8.916159160435200E-3   1.162869855761528E-3  -8.827071636915207E-3  -4.293895065784454E-1   9.004666209220886E-1  
 4.870000000000000E7    -1.851804405450821E-1  -9.811959266662598E-1   1.097653876058757E-3  -9.742607362568378E-3   1.102485461160541E-3  -9.739708155393601E-3  -4.178541600704193E-1   9.058498740196228E-1  
 4.900000000000000E7    -2.186261117458344E-1  -9.750415682792664E-1   1.003060489892960E-3  -1.068607438355684E-2   1.005391124635935E-3  -1.071488764137030E-2  -4.063795804977417E-1   9.102900624275208E-1  
 4.930000000000000E7    -2.517565190792084E-1  -9.666780233383179E-1   7.952580344863236E-4  -1.171931438148022E-2   7.774811820127070E-4  -1.168383099138737E-2  -3.940902352333069E-1   9.163109660148621E-1  
 4.960000000000000E7    -2.827592492103577E-1  -9.558374881744385E-1   5.900135729461908E-4  -1.258159708231688E-2   4.462851793505251E-4  -1.262409798800945E-2  -3.824953138828278E-1   9.208362698554993E-1  
 4.990000000000000E7    -3.143910765647888E-1  -9.463946223258972E-1   3.476509009487927E-4  -1.366355735808611E-2   2.706681261770427E-4  -1.366259995847940E-2  -3.709013462066650E-1   9.252366423606873E-1  
 5.020000000000000E7    -3.460319340229034E-1  -9.365090131759644E-1   6.594916339963675E-5  -1.452634762972593E-2   6.606045644730330E-5  -1.456890162080526E-2  -3.597093224525452E-1   9.300768375396729E-1  
 5.050000000000000E7    -3.778575658798218E-1  -9.239659905433655E-1  -3.092377446591854E-4  -1.556408032774925E-2  -3.141162451356649E-4  -1.550140418112278E-2  -3.479917645454407E-1   9.357744455337524E-1  
 5.080000000000000E7    -4.080566465854645E-1  -9.113087058067322E-1  -6.749125896021724E-4  -1.650009118020535E-2  -6.711236201226711E-4  -1.649706624448299E-2  -3.357928991317749E-1   9.376010894775391E-1  
 5.110000000000000E7    -4.390252828598023E-1  -8.962416052818298E-1  -1.168089220300317E-3  -1.750963740050793E-2  -1.107261166907847E-3  -1.751660183072090E-2  -3.253090381622315E-1   9.429617524147034E-1  
 5.140000000000000E7    -4.685745835304260E-1  -8.805869817733765E-1  -1.617103815078735E-3  -1.846334151923657E-2  -1.650716643780470E-3  -1.852016709744930E-2  -3.126594126224518E-1   9.485550522804260E-1  
 5.170000000000000E7    -4.970735907554627E-1  -8.648460507392883E-1  -2.197836292907596E-3  -1.946828514337540E-2  -2.131010172888637E-3  -1.949220150709152E-2  -3.005452156066895E-1   9.504746198654175E-1  
 5.200000000000000E7    -5.266852974891663E-1  -8.489835858345032E-1  -2.779442584142089E-3  -2.045373432338238E-2  -2.727251034229994E-3  -2.055758796632290E-2  -2.890391647815704E-1   9.529469013214111E-1  
 5.230000000000000E7    -5.547217130661011E-1  -8.298413157463074E-1  -3.338983515277505E-3  -2.149614319205284E-2  -3.386032069101930E-3  -2.146249450743198E-2  -2.778427898883820E-1   9.575189352035523E-1  
 5.260000000000000E7    -5.812462568283081E-1  -8.092958927154541E-1  -4.072451032698154E-3  -2.247423306107521E-2  -4.048535134643316E-3  -2.242304198443890E-2  -2.658976316452026E-1   9.611182212829590E-1  
 5.290000000000000E7    -6.090021729469299E-1  -7.899491190910339E-1  -4.795663990080357E-3  -2.337184362113476E-2  -4.750011488795281E-3  -2.341075427830219E-2  -2.545750439167023E-1   9.632605314254761E-1  
 5.320000000000000E7    -6.348512768745422E-1  -7.704704403877258E-1  -5.543980747461319E-3  -2.441750466823578E-2  -5.604895297437906E-3  -2.443462423980236E-2  -2.425135672092438E-1   9.671369194984436E-1  
 5.350000000000000E7    -6.590819954872131E-1  -7.483109235763550E-1  -6.340796127915382E-3  -2.536228485405445E-2  -6.354515906423330E-3  -2.533658780157566E-2  -2.321908771991730E-1   9.699215888977051E-1  
 5.380000000000000E7    -6.826081871986389E-1  -7.261986136436462E-1  -7.203062064945698E-3  -2.635020203888416E-2  -7.197071332484484E-3  -2.626672759652138E-2  -2.189609259366989E-1   9.719001054763794E-1  
 5.410000000000000E7    -7.090023159980774E-1  -7.029688358306885E-1  -8.162344805896282E-3  -2.726939693093300E-2  -8.256729692220688E-3  -2.721252664923668E-2  -2.076590061187744E-1   9.748542308807373E-1  
 5.440000000000000E7    -7.313451170921326E-1  -6.780232191085815E-1  -9.170019999146462E-3  -2.819695696234703E-2  -9.162344038486481E-3  -2.815819159150124E-2  -1.962458491325378E-1   9.767085313796997E-1  
 5.470000000000000E7    -7.523177266120911E-1  -6.545754671096802E-1  -1.018074061721563E-2  -2.899554744362831E-2  -1.025464385747910E-2  -2.899401076138020E-2  -1.836078017950058E-1   9.787797331809998E-1  
 5.500000000000000E7    -7.744783163070679E-1  -6.287678480148315E-1  -1.127588935196400E-2  -2.995054982602596E-2  -1.124316733330488E-2  -2.993672154843807E-2  -1.716110110282898E-1   9.825411438941956E-1  
 5.530000000000000E7    -7.949357032775879E-1  -6.025089621543884E-1  -1.234292145818472E-2  -3.086419031023979E-2  -1.246314216405153E-2  -3.075765073299408E-2  -1.600569188594818E-1   9.833452701568604E-1  
 5.560000000000000E7    -8.149731755256653E-1  -5.745639204978943E-1  -1.360749267041683E-2  -3.163094818592072E-2  -1.352431252598763E-2  -3.162289038300514E-2  -1.489638984203339E-1   9.852524399757385E-1  
 5.590000000000000E7    -8.339025974273682E-1  -5.485346317291260E-1  -1.480528339743614E-2  -3.243825584650040E-2  -1.482175663113594E-2  -3.240552917122841E-2  -1.366028040647507E-1   9.867513775825501E-1  
 5.620000000000000E7    -8.511948585510254E-1  -5.186331272125244E-1  -1.608207635581493E-2  -3.326363861560822E-2  -1.601004973053932E-2  -3.314652666449547E-2  -1.255034357309341E-1   9.889091849327087E-1  
 5.650000000000000E7    -8.675580024719238E-1  -4.914756715297699E-1  -1.732744835317135E-2  -3.392557427287102E-2  -1.735272444784641E-2  -3.397881239652634E-2  -1.132461205124855E-1   9.899199604988098E-1  
 5.680000000000000E7    -8.833194971084595E-1  -4.619776606559753E-1  -1.876861788332462E-2  -3.465535491704941E-2  -1.876925304532051E-2  -3.463207557797432E-2  -1.012668907642365E-1   9.906186461448669E-1  
 5.710000000000000E7    -8.986961245536804E-1  -4.310873150825501E-1  -2.021563239395618E-2  -3.531839698553085E-2  -2.025645039975643E-2  -3.534933179616928E-2  -8.977404236793518E-2   9.919559359550476E-1  
 5.740000000000000E7    -9.132376909255981E-1  -4.008176922798157E-1  -2.172398194670677E-2  -3.601211681962013E-2  -2.164407633244991E-2  -3.599399700760841E-2  -7.719613611698151E-2   9.928317070007324E-1  
 5.770000000000000E7    -9.245142340660095E-1  -3.714504837989807E-1  -2.309763245284557E-2  -3.668773174285889E-2  -2.302926219999790E-2  -3.669093549251556E-2  -6.708993762731552E-2   9.932618141174316E-1  
 5.800000000000000E7    -9.366154670715332E-1  -3.393457531929016E-1  -2.483104169368744E-2  -3.725361078977585E-2  -2.478006295859814E-2  -3.708617016673088E-2  -5.354489386081696E-2   9.949378371238709E-1  
 5.830000000000000E7    -9.472203850746155E-1  -3.078363835811615E-1  -2.631262317299843E-2  -3.764080628752708E-2  -2.640687860548496E-2  -3.776526823639870E-2  -4.298342764377594E-2   9.954812526702881E-1  
 5.860000000000000E7    -9.580423831939697E-1  -2.763062715530396E-1  -2.803764492273331E-2  -3.817821666598320E-2  -2.805279567837715E-2  -3.826825320720673E-2  -3.058203309774399E-2   9.951760172843933E-1  
 5.890000000000000E7    -9.657647013664246E-1  -2.442347109317780E-1  -2.972067147493362E-2  -3.878501802682877E-2  -2.968226000666618E-2  -3.883599117398262E-2  -1.965424418449402E-2   9.949920773506165E-1  
 5.920000000000000E7    -9.735664725303650E-1  -2.106457054615021E-1  -3.151167556643486E-2  -3.913550823926926E-2  -3.154321387410164E-2  -3.898884728550911E-2  -7.064811885356903E-3   9.961746335029602E-1  
 5.950000000000000E7    -9.795256257057190E-1  -1.784338206052780E-1  -3.330545499920845E-2  -3.931864723563194E-2  -3.318149223923683E-2  -3.944877162575722E-2   4.533216357231140E-3   9.943616390228272E-1  
 5.980000000000000E7    -9.854166507720947E-1  -1.451060175895691E-1  -3.527441248297691E-2  -3.959333151578903E-2  -3.507592901587486E-2  -3.971860185265541E-2   1.717492938041687E-2   9.944422841072083E-1  
 6.010000000000000E7    -9.882932901382446E-1  -1.133403331041336E-1  -3.693141043186188E-2  -4.018911346793175E-2  -3.683482483029366E-2  -4.013052955269814E-2   2.808030694723129E-2   9.950833916664124E-1  
 6.040000000000000E7    -9.918657541275024E-1  -7.880890369415283E-2  -3.897571191191673E-2  -4.028766229748726E-2  -3.890070691704750E-2  -4.021066799759865E-2   4.025070369243622E-2   9.951586127281189E-1  
 6.070000000000000E7    -9.948945641517639E-1  -4.656712710857391E-2  -4.087494313716888E-2  -4.043500125408173E-2  -4.084942862391472E-2  -4.046196490526199E-2   5.155348777770996E-2   9.939301013946533E-1  
 6.100000000000000E7    -9.953379034996033E-1  -1.345217227935791E-2  -4.300384223461151E-2  -4.038755595684052E-2  -4.291249066591263E-2  -4.037212952971458E-2   6.492477655410767E-2   9.930374622344971E-1  
 6.130000000000000E7    -9.951106309890747E-1   2.106834948062897E-2  -4.499476030468941E-2  -4.053327068686485E-2  -4.501241818070412E-2  -4.052709415555000E-2   7.712326943874359E-2   9.927049279212952E-1  
 6.160000000000000E7    -9.936985969543457E-1   5.381906032562256E-2  -4.693911969661713E-2  -4.053407907485962E-2  -4.703106731176376E-2  -4.048379138112068E-2   8.749507367610931E-2   9.904185533523560E-1  
 6.190000000000000E7    -9.908841848373413E-1   8.676959574222565E-2  -4.904987290501595E-2  -4.056497290730476E-2  -4.895435646176338E-2  -4.032909870147705E-2   9.885014593601227E-2   9.889615774154663E-1  
 6.220000000000000E7    -9.878690838813782E-1   1.198147609829903E-1  -5.112398043274880E-2  -4.032373800873756E-2  -5.131857097148895E-2  -4.032202437520027E-2   1.103684231638908E-1   9.888578057289124E-1  
 6.250000000000000E7    -9.831749200820923E-1   1.532128304243088E-1  -5.343041196465492E-2  -4.025904089212418E-2  -5.345521867275238E-2  -4.003490135073662E-2   1.223310530185700E-1   9.873796105384827E-1  
 6.280000000000000E7    -9.764163494110107E-1   1.859498172998428E-1  -5.573207139968872E-2  -3.993066027760506E-2  -5.564121901988983E-2  -4.002920165657997E-2   1.347245872020721E-1   9.860698580741882E-1  
 6.310000000000000E7    -9.692632555961609E-1   2.196888327598572E-1  -5.804732441902161E-2  -3.946797549724579E-2  -5.791322886943817E-2  -3.953385725617409E-2   1.461949646472931E-1   9.841606616973877E-1  
 6.340000000000000E7    -9.612726569175720E-1   2.521364092826843E-1  -6.030920147895813E-2  -3.918340057134628E-2  -6.018976867198944E-2  -3.904300183057785E-2   1.584465801715851E-1   9.824525117874146E-1  
 6.370000000000000E7    -9.521982073783875E-1   2.839295268058777E-1  -6.255675107240677E-2  -3.855341672897339E-2  -6.253071874380112E-2  -3.857659175992012E-2   1.695447415113449E-1   9.794306755065918E-1  
 6.400000000000000E7    -9.411009550094605E-1   3.155879676342011E-1  -6.496939808130264E-2  -3.783272206783295E-2  -6.486465036869049E-2  -3.782634437084198E-2   1.820542514324188E-1   9.782193899154663E-1  
 6.430000000000000E7    -9.297254681587219E-1   3.484002649784088E-1  -6.740166246891022E-2  -3.745387867093086E-2  -6.725600361824036E-2  -3.720531240105629E-2   1.936687082052231E-1   9.751957654953003E-1  
 6.460000000000000E7    -9.179629683494568E-1   3.798465132713318E-1  -6.968019902706146E-2  -3.668654710054398E-2  -6.962840259075165E-2  -3.662854805588722E-2   2.043126523494721E-1   9.722734093666077E-1  
 6.490000000000000E7    -9.055420160293579E-1   4.100065827369690E-1  -7.203829288482666E-2  -3.590476140379906E-2  -7.219708710908890E-2  -3.601559996604919E-2   2.160549610853195E-1   9.702719449996948E-1  
 6.520000000000000E7    -8.898544907569885E-1   4.399908185005188E-1  -7.478526234626770E-2  -3.514035046100617E-2  -7.450037449598312E-2  -3.492589294910431E-2   2.282589375972748E-1   9.681822061538696E-1  
 6.550000000000000E7    -8.749812245368958E-1   4.696781635284424E-1  -7.725180685520172E-2  -3.401942551136017E-2  -7.708270102739334E-2  -3.397245705127716E-2   2.395513802766800E-1   9.631862044334412E-1  
 6.580000000000000E7    -8.578138947486877E-1   4.994994997978210E-1  -7.978875935077667E-2  -3.275949507951737E-2  -7.959727942943573E-2  -3.292526304721832E-2   2.517711520195007E-1   9.620325565338135E-1  
 6.610000000000000E7    -8.394337296485901E-1   5.279636383056641E-1  -8.231142163276672E-2  -3.168028593063355E-2  -8.179910480976105E-2  -3.133708611130714E-2   2.640888988971710E-1   9.567942619323731E-1  
 6.640000000000000E7    -8.223279118537903E-1   5.565354228019714E-1  -8.477292954921722E-2  -3.054517321288586E-2  -8.475176244974136E-2  -3.060042113065720E-2   2.757843136787415E-1   9.536055922508240E-1  
 6.670000000000000E7    -8.020506501197815E-1   5.839388966560364E-1  -8.726631850004196E-2  -2.902064472436905E-2  -8.711244165897369E-2  -2.920900657773018E-2   2.863203883171082E-1   9.509226679801941E-1  
 6.700000000000000E7    -7.811909317970276E-1   6.108155250549316E-1  -8.980141580104828E-2  -2.772115916013718E-2  -8.944988995790482E-2  -2.767059020698071E-2   2.978479862213135E-1   9.462281465530396E-1  
 6.730000000000000E7    -7.598063945770264E-1   6.368252038955689E-1  -9.210459887981415E-2  -2.630363032221794E-2  -9.218584001064301E-2  -2.602026239037514E-2   3.103744685649872E-1   9.435204267501831E-1  
 6.760000000000000E7    -7.380026578903198E-1   6.623889803886414E-1  -9.496576339006424E-2  -2.433734945952892E-2  -9.472206234931946E-2  -2.445772476494312E-2   3.219035863876343E-1   9.390140175819397E-1  
 6.790000000000000E7    -7.141907215118408E-1   6.873876452445984E-1  -9.734516590833664E-2  -2.287308871746063E-2  -9.735701978206635E-2  -2.270031347870827E-2   3.325014114379883E-1   9.340941309928894E-1  
 6.820000000000000E7    -6.900776624679565E-1   7.105019092559815E-1  -9.986411780118942E-2  -2.084870263934135E-2  -9.972443431615830E-2  -2.096817269921303E-2   3.438609838485718E-1   9.303047657012940E-1  
 6.850000000000000E7    -6.653453707695007E-1   7.347179055213928E-1  -1.026595830917358E-1  -1.915163174271584E-2  -1.025232896208763E-1  -1.896147243678570E-2   3.547641038894653E-1   9.260461330413818E-1  
 6.880000000000000E7    -6.393747329711914E-1   7.563177943229675E-1  -1.051859408617020E-1  -1.686753332614899E-2  -1.046898066997528E-1  -1.682346127927303E-2   3.667832016944885E-1   9.202698469161987E-1  
 6.910000000000000E7    -6.125214099884033E-1   7.780169248580933E-1  -1.077964976429939E-1  -1.475617475807667E-2  -1.074828356504440E-1  -1.469230465590954E-2   3.788284063339233E-1   9.159908294677734E-1  
 6.940000000000000E7    -5.859513878822327E-1   7.983874678611755E-1  -1.102182269096375E-1  -1.260106079280376E-2  -1.103030592203140E-1  -1.233823597431183E-2   3.893238306045532E-1   9.111171960830689E-1  
 6.970000000000000E7    -5.565517544746399E-1   8.179311752319336E-1  -1.127113699913025E-1  -1.008682884275913E-2  -1.127047985792160E-1  -9.710175916552544E-3   4.010252356529236E-1   9.053618311882019E-1  
 7.000000000000000E7    -5.279413461685181E-1   8.370215296745300E-1  -1.154024004936218E-1  -7.558531593531370E-3  -1.152074933052063E-1  -7.419000379741192E-3   4.121929407119751E-1   9.008678197860718E-1  
