#  HZ   S   RI   R     50.00 
! Rohde & Schwarz ZVT8 8Ports - Version 4.11 - 1300.0000k08 SN: 100242
! Date: 2026-07-31 14:34:52
! Measurements: S11 S21 S12 S22 
! 
 1.000000000000000E7    -3.958828449249268E-1   9.140347838401794E-1   5.577035993337631E-2   5.557741969823837E-2   5.553747713565826E-2   5.559950321912766E-2  -9.163581132888794E-1   3.906456530094147E-1  
 1.030000000000000E7    -3.626631498336792E-1   9.264369606971741E-1   5.937317386269569E-2   5.598054453730583E-2   5.928897857666016E-2   5.626326799392700E-2  -9.102113842964172E-1   4.037351906299591E-1  
 1.060000000000000E7    -3.256264626979828E-1   9.394821524620056E-1   6.353037059307098E-2   5.735243111848831E-2   6.344322860240936E-2   5.716038867831230E-2  -9.063047766685486E-1   4.161149859428406E-1  
 1.090000000000000E7    -2.922677993774414E-1   9.497243762016296E-1   6.760755181312561E-2   5.766534060239792E-2   6.755412369966507E-2   5.795241892337799E-2  -8.995501399040222E-1   4.282599985599518E-1  
 1.120000000000000E7    -2.555472850799561E-1   9.590505957603455E-1   7.212980836629868E-2   5.889013037085533E-2   7.164461165666580E-2   5.853476375341415E-2  -8.934612274169922E-1   4.406755864620209E-1  
 1.150000000000000E7    -2.184842526912689E-1   9.689512848854065E-1   7.638905197381973E-2   5.890377238392830E-2   7.624141871929169E-2   5.897280573844910E-2  -8.855785727500916E-1   4.507888555526733E-1  
 1.180000000000000E7    -1.820534914731979E-1   9.739401936531067E-1   8.098277449607849E-2   5.948384851217270E-2   8.072535693645477E-2   5.942304804921150E-2  -8.803254365921021E-1   4.622073769569397E-1  
 1.210000000000000E7    -1.459320038557053E-1   9.803451299667358E-1   8.603921532630920E-2   5.991236865520477E-2   8.590006083250046E-2   5.976920574903488E-2  -8.719350099563599E-1   4.759839773178101E-1  
 1.240000000000000E7    -1.085138767957687E-1   9.841654896736145E-1   9.091795980930328E-2   6.004061177372932E-2   9.113202244043350E-2   5.956275761127472E-2  -8.647881150245667E-1   4.863218963146210E-1  
 1.270000000000000E7    -7.070259749889374E-2   9.869002699851990E-1   9.688920527696610E-2   5.967136844992638E-2   9.630886465311050E-2   5.943200737237930E-2  -8.566197752952576E-1   5.012717247009277E-1  
 1.300000000000000E7    -3.313539922237396E-2   9.893746972084045E-1   1.021087244153023E-1   5.960088223218918E-2   1.020777076482773E-1   5.957019329071045E-2  -8.482152223587036E-1   5.127646923065186E-1  
 1.330000000000000E7     5.711600184440613E-3   9.896016716957092E-1   1.083396896719933E-1   5.909608677029610E-2   1.081654652953148E-1   5.865881592035294E-2  -8.394444584846497E-1   5.256574749946594E-1  
 1.360000000000000E7     4.646126180887222E-2   9.878657460212708E-1   1.145225092768669E-1   5.872890353202820E-2   1.145959347486496E-1   5.796671286225319E-2  -8.311216235160828E-1   5.367221236228943E-1  
 1.390000000000000E7     8.366306126117706E-2   9.841058254241943E-1   1.210626959800720E-1   5.747445672750473E-2   1.208691447973251E-1   5.793398246169090E-2  -8.224810361862183E-1   5.499277114868164E-1  
 1.420000000000000E7     1.245554313063622E-1   9.799085259437561E-1   1.277131587266922E-1   5.672260373830795E-2   1.276886165142059E-1   5.685824528336525E-2  -8.139840364456177E-1   5.615597963333130E-1  
 1.450000000000000E7     1.639248728752136E-1   9.718585014343262E-1   1.349766254425049E-1   5.497854575514793E-2   1.349534392356873E-1   5.495429784059525E-2  -8.017951250076294E-1   5.753664970397949E-1  
 1.480000000000000E7     2.047132104635239E-1   9.638128280639648E-1   1.425600796937943E-1   5.311195924878120E-2   1.424961984157562E-1   5.354918539524078E-2  -7.923122644424439E-1   5.875471830368042E-1  
 1.510000000000000E7     2.437753081321716E-1   9.530632495880127E-1   1.501551121473312E-1   5.112872645258904E-2   1.501516997814179E-1   5.119540169835091E-2  -7.792106866836548E-1   6.001062393188477E-1  
 1.540000000000000E7     2.831548452377319E-1   9.409223794937134E-1   1.584150046110153E-1   4.979176819324493E-2   1.584484577178955E-1   4.897300899028778E-2  -7.707291841506958E-1   6.118070483207703E-1  
 1.570000000000000E7     3.239066004753113E-1   9.273977279663086E-1   1.672542989253998E-1   4.622929915785790E-2   1.672892421483994E-1   4.622478783130646E-2  -7.572551965713501E-1   6.253003478050232E-1  
 1.600000000000000E7     3.641817867755890E-1   9.097471237182617E-1   1.759716272354126E-1   4.276711493730545E-2   1.764379143714905E-1   4.254491999745369E-2  -7.455839514732361E-1   6.361177563667297E-1  
 1.630000000000000E7     4.034189879894257E-1   8.907421827316284E-1   1.862108409404755E-1   3.848046064376831E-2   1.858538687229157E-1   3.894832357764244E-2  -7.321351170539856E-1   6.503924131393433E-1  
 1.660000000000000E7     4.432179629802704E-1   8.687527179718018E-1   1.965239048004150E-1   3.388103842735291E-2   1.960809379816055E-1   3.340474143624306E-2  -7.171238064765930E-1   6.633291244506836E-1  
 1.690000000000000E7     4.821691811084747E-1   8.456184267997742E-1   2.073569148778915E-1   2.935543470084667E-2   2.069784253835678E-1   2.887802571058273E-2  -7.030388116836548E-1   6.751347780227661E-1  
 1.720000000000000E7     5.228981375694275E-1   8.196606040000916E-1   2.177813500165939E-1   2.251895703375340E-2   2.181038558483124E-1   2.295335754752159E-2  -6.872944831848145E-1   6.876318454742432E-1  
 1.750000000000000E7     5.575082302093506E-1   7.934201359748840E-1   2.308444529771805E-1   1.708003692328930E-2   2.309839129447937E-1   1.636849902570248E-2  -6.717470884323120E-1   7.013849616050720E-1  
 1.780000000000000E7     5.973773002624512E-1   7.576819062232971E-1   2.421452105045319E-1   8.287655189633369E-3   2.427033782005310E-1   8.566284552216530E-3  -6.535069346427918E-1   7.116557359695435E-1  
 1.810000000000000E7     6.328747868537903E-1   7.243120074272156E-1   2.570816874504089E-1  -6.929971277713776E-4   2.555742561817169E-1  -1.429179683327675E-3  -6.348009705543518E-1   7.266761064529419E-1  
 1.840000000000000E7     6.705374121665955E-1   6.854912638664246E-1   2.708448767662048E-1  -1.300582289695740E-2   2.698778510093689E-1  -1.220161002129316E-2  -6.136823892593384E-1   7.377177476882935E-1  
 1.870000000000000E7     7.030888199806213E-1   6.448173522949219E-1   2.853854596614838E-1  -2.412601187825203E-2   2.842409908771515E-1  -2.435525879263878E-2  -5.923547744750977E-1   7.484257221221924E-1  
 1.900000000000000E7     7.362329363822937E-1   5.991372466087341E-1   3.008781075477600E-1  -3.786800429224968E-2   3.001850247383118E-1  -3.857987001538277E-2  -5.691597461700440E-1   7.589302659034729E-1  
 1.930000000000000E7     7.666521668434143E-1   5.486466288566589E-1   3.161739408969879E-1  -5.592645704746246E-2   3.168369829654694E-1  -5.488718673586845E-2  -5.443280935287476E-1   7.711497545242310E-1  
 1.960000000000000E7     7.946001291275024E-1   4.932090342044830E-1   3.325402140617371E-1  -7.470958679914475E-2   3.330715894699097E-1  -7.395163923501968E-2  -5.195271968841553E-1   7.797435522079468E-1  
 1.990000000000000E7     8.175464868545532E-1   4.351139962673187E-1   3.499862849712372E-1  -9.694971144199371E-2   3.503259420394898E-1  -9.706404060125351E-2  -4.882869124412537E-1   7.894503474235535E-1  
 2.020000000000000E7     8.376280069351196E-1   3.695168793201447E-1   3.678736090660095E-1  -1.226370185613632E-1   3.670964241027832E-1  -1.221144199371338E-1  -4.590656757354736E-1   7.944586277008057E-1  
 2.050000000000000E7     8.542802929878235E-1   2.986208498477936E-1   3.854241073131561E-1  -1.522665321826935E-1   3.831848204135895E-1  -1.517676860094070E-1  -4.264827966690064E-1   8.000604510307312E-1  
 2.080000000000000E7     8.610128164291382E-1   2.218733727931976E-1   4.021601080894470E-1  -1.881317347288132E-1   4.024134576320648E-1  -1.881748288869858E-1  -3.897166252136231E-1   8.030418753623962E-1  
 2.110000000000000E7     8.610294461250305E-1   1.401624083518982E-1   4.175914227962494E-1  -2.309741228818893E-1   4.175010919570923E-1  -2.309052497148514E-1  -3.511408567428589E-1   8.017557859420776E-1  
 2.140000000000000E7     8.498754501342773E-1   5.352579802274704E-2   4.301395714282990E-1  -2.801109850406647E-1   4.295707046985626E-1  -2.776164114475250E-1  -3.100401163101196E-1   7.965629696846008E-1  
 2.170000000000000E7     8.253566026687622E-1  -3.842559456825256E-2   4.392518103122711E-1  -3.354791104793549E-1   4.398851692676544E-1  -3.339999616146088E-1  -2.665970027446747E-1   7.849433422088623E-1  
 2.200000000000000E7     7.834488153457642E-1  -1.346738040447235E-1   4.404576122760773E-1  -3.999487459659576E-1   4.411357045173645E-1  -3.995290994644165E-1  -2.210598737001419E-1   7.665910124778748E-1  
 2.230000000000000E7     7.217048406600952E-1  -2.290453314781189E-1   4.330348968505859E-1  -4.733121395111084E-1   4.335776865482330E-1  -4.722803831100464E-1  -1.760359108448029E-1   7.397421002388001E-1  
 2.260000000000000E7     6.366777420043945E-1  -3.199360370635986E-1   4.114874303340912E-1  -5.540778040885925E-1   4.129071831703186E-1  -5.554567575454712E-1  -1.343551427125931E-1   7.019470334053040E-1  
 2.290000000000000E7     5.248327851295471E-1  -3.968734741210938E-1   3.727568686008453E-1  -6.411379575729370E-1   3.734168410301209E-1  -6.422062516212463E-1  -9.440024197101593E-2   6.527159214019775E-1  
 2.320000000000000E7     3.884458541870117E-1  -4.490591287612915E-1   3.102048337459564E-1  -7.299544215202332E-1   3.095237910747528E-1  -7.289847135543823E-1  -6.581886112689972E-2   5.971984863281250E-1  
 2.350000000000000E7     2.315923869609833E-1  -4.681772291660309E-1   2.212971150875092E-1  -8.108798265457153E-1   2.224005609750748E-1  -8.092802166938782E-1  -5.193545296788216E-2   5.283060669898987E-1  
 2.380000000000000E7     6.371772289276123E-2  -4.459128975868225E-1   1.087698042392731E-1  -8.739227652549744E-1   1.091101169586182E-1  -8.743306398391724E-1  -5.704977735877037E-2   4.549759626388550E-1  
 2.410000000000000E7    -9.487391263246536E-2  -3.729751110076904E-1  -2.471431344747543E-2  -9.102066755294800E-1  -2.411135286092758E-2  -9.098239541053772E-1  -8.275584876537323E-2   3.867996931076050E-1  
 2.440000000000000E7    -2.256499975919724E-1  -2.534015476703644E-1  -1.673491299152374E-1  -9.118674993515015E-1  -1.673813611268997E-1  -9.115936160087585E-1  -1.311830878257752E-1   3.310577273368835E-1  
 2.470000000000000E7    -3.168419599533081E-1  -1.039184555411339E-1  -3.076590299606323E-1  -8.789609074592590E-1  -3.063026666641235E-1  -8.773489594459534E-1  -1.913549453020096E-1   2.890735864639282E-1  
 2.500000000000000E7    -3.609585464000702E-1   6.167012453079224E-2  -4.290360212326050E-1  -8.120091557502747E-1  -4.298136830329895E-1  -8.125086426734924E-1  -2.568142116069794E-1   2.756972610950470E-1  
 2.530000000000000E7    -3.551616072654724E-1   2.251420915126801E-1  -5.279329419136047E-1  -7.257596254348755E-1  -5.262691974639893E-1  -7.244765162467957E-1  -3.226529359817505E-1   2.807236015796661E-1  
 2.560000000000000E7    -3.119704127311707E-1   3.664632737636566E-1  -5.983473658561707E-1  -6.267974376678467E-1  -5.975347757339478E-1  -6.259307265281677E-1  -3.802165985107422E-1   3.054371178150177E-1  
 2.590000000000000E7    -2.389700710773468E-1   4.806424081325531E-1  -6.462886333465576E-1  -5.270077586174011E-1  -6.462872624397278E-1  -5.280690789222717E-1  -4.218614101409912E-1   3.405294716358185E-1  
 2.620000000000000E7    -1.517114639282227E-1   5.708220005035400E-1  -6.738739013671875E-1  -4.310007393360138E-1  -6.723296642303467E-1  -4.305819869041443E-1  -4.521742761135101E-1   3.845678567886353E-1  
 2.650000000000000E7    -5.786780267953873E-2   6.337327361106873E-1  -6.810663342475891E-1  -3.419162929058075E-1  -6.823424696922302E-1  -3.411296010017395E-1  -4.699164628982544E-1   4.337226748466492E-1  
 2.680000000000000E7     3.740596398711205E-2   6.734766960144043E-1  -6.799353361129761E-1  -2.620934247970581E-1  -6.799691915512085E-1  -2.623823285102844E-1  -4.750306606292725E-1   4.838832616806030E-1  
 2.710000000000000E7     1.272449344396591E-1   6.962003111839294E-1  -6.729986667633057E-1  -1.899994164705277E-1  -6.729030013084412E-1  -1.889770627021790E-1  -4.699648618698120E-1   5.316334962844849E-1  
 2.740000000000000E7     2.140369117259979E-1   7.036890387535095E-1  -6.576746106147766E-1  -1.282398998737335E-1  -6.573996543884277E-1  -1.274580061435700E-1  -4.538613855838776E-1   5.795473456382752E-1  
 2.770000000000000E7     2.918631732463837E-1   6.989687681198120E-1  -6.409859657287598E-1  -7.045146077871323E-2  -6.421431899070740E-1  -7.086209207773209E-2  -4.308782517910004E-1   6.244447827339172E-1  
 2.800000000000000E7     3.641369342803955E-1   6.861587762832642E-1  -6.211216449737549E-1  -1.909884437918663E-2  -6.209040284156799E-1  -2.094969898462296E-2  -4.010038077831268E-1   6.664466857910156E-1  
 2.830000000000000E7     4.295878708362579E-1   6.655728220939636E-1  -6.014964580535889E-1   2.688809297978878E-2  -6.028165221214294E-1   2.712568640708923E-2  -3.639348745346069E-1   7.029710412025452E-1  
 2.860000000000000E7     4.880874752998352E-1   6.403139233589172E-1  -5.819266438484192E-1   6.949587911367416E-2  -5.823052525520325E-1   7.108475267887116E-2  -3.167067170143127E-1   7.396250963211060E-1  
 2.890000000000000E7     5.387443304061890E-1   6.112262606620789E-1  -5.624273419380188E-1   1.110711544752121E-1  -5.615451335906982E-1   1.106499359011650E-1  -2.641966938972473E-1   7.696755528450012E-1  
 2.920000000000000E7     5.861546397209168E-1   5.782635807991028E-1  -5.415108799934387E-1   1.482189744710922E-1  -5.404241085052490E-1   1.495418995618820E-1  -2.041899114847183E-1   7.950412034988403E-1  
 2.950000000000000E7     6.237372159957886E-1   5.448822379112244E-1  -5.209668874740601E-1   1.869162470102310E-1  -5.195652246475220E-1   1.870311349630356E-1  -1.321329623460770E-1   8.166447281837463E-1  
 2.980000000000000E7     6.588277220726013E-1   5.095432996749878E-1  -4.981030225753784E-1   2.240154594182968E-1  -4.985175430774689E-1   2.245714515447617E-1  -5.141520127654076E-2   8.292462229728699E-1  
 3.010000000000000E7     6.887301206588745E-1   4.738246798515320E-1  -4.738664627075195E-1   2.638123631477356E-1  -4.736917614936829E-1   2.628057599067688E-1   3.991135582327843E-2   8.321518301963806E-1  
 3.040000000000000E7     7.132676839828491E-1   4.369353055953980E-1  -4.484408497810364E-1   3.033330440521240E-1  -4.481693804264069E-1   3.033444881439209E-1   1.446582078933716E-1   8.190262317657471E-1  
 3.070000000000000E7     7.342133522033691E-1   4.001588225364685E-1  -4.153764247894287E-1   3.460227549076080E-1  -4.154127836227417E-1   3.456535339355469E-1   2.597617805004120E-1   7.893512845039368E-1  
 3.100000000000000E7     7.501942515373230E-1   3.674825131893158E-1  -3.777527213096619E-1   3.899780809879303E-1  -3.765680193901062E-1   3.894280195236206E-1   3.875358104705811E-1   7.328176498413086E-1  
 3.130000000000000E7     7.630813717842102E-1   3.367001712322235E-1  -3.293839693069458E-1   4.322615861892700E-1  -3.304760456085205E-1   4.315773844718933E-1   5.203118920326233E-1   6.399570703506470E-1  
 3.160000000000000E7     7.734231948852539E-1   3.089873492717743E-1  -2.695258259773254E-1   4.743879139423370E-1  -2.707247734069824E-1   4.742133319377899E-1   6.517336964607239E-1   5.021843910217285E-1  
 3.190000000000000E7     7.834658026695252E-1   2.864410877227783E-1  -1.952945291996002E-1   5.073403716087341E-1  -1.950939446687698E-1   5.061433911323547E-1   7.613976001739502E-1   3.091609477996826E-1  
 3.220000000000000E7     7.964543700218201E-1   2.670271396636963E-1  -1.076119989156723E-1   5.254582762718201E-1  -1.070194244384766E-1   5.243008732795715E-1   8.231340646743774E-1   6.250301003456116E-2  
 3.250000000000000E7     8.132956027984619E-1   2.512706220149994E-1  -8.259601891040802E-3   5.180736780166626E-1  -8.414283394813538E-3   5.181028842926025E-1   8.047278523445129E-1  -2.243551611900330E-1  
 3.280000000000000E7     8.358716368675232E-1   2.334927618503571E-1   8.845485746860504E-2   4.795342981815338E-1   8.683560788631439E-2   4.790484607219696E-1   6.835091710090637E-1  -5.081814527511597E-1  
 3.310000000000000E7     8.642093539237976E-1   2.107960283756256E-1   1.648378372192383E-1   4.157439768314362E-1   1.639610528945923E-1   4.148837924003601E-1   4.666711390018463E-1  -7.399398088455200E-1  
 3.340000000000000E7     8.959518074989319E-1   1.807943582534790E-1   2.148906886577606E-1   3.343092203140259E-1   2.145820409059525E-1   3.343681395053864E-1   1.907930076122284E-1  -8.807421326637268E-1  
 3.370000000000000E7     9.232093095779419E-1   1.424682438373566E-1   2.346399724483490E-1   2.515991330146790E-1   2.336736619472504E-1   2.514655888080597E-1  -9.334028512239456E-2  -9.176506400108337E-1  
 3.400000000000000E7     9.469574093818665E-1   9.760825335979462E-2   2.312612980604172E-1   1.792505234479904E-1   2.312151044607163E-1   1.795925348997116E-1  -3.450977802276611E-1  -8.769041895866394E-1  
 3.430000000000000E7     9.647176861763001E-1   4.997067898511887E-2   2.141195088624954E-1   1.221606731414795E-1   2.136428505182266E-1   1.214191019535065E-1  -5.467103123664856E-1  -7.862618565559387E-1  
 3.460000000000000E7     9.749919176101685E-1   2.242452464997768E-4   1.901338696479797E-1   7.869523018598557E-2   1.895429939031601E-1   7.895576208829880E-2  -6.976044178009033E-1  -6.726422309875488E-1  
 3.490000000000000E7     9.807986021041870E-1  -4.902680963277817E-2   1.640111058950424E-1   4.846732318401337E-2   1.635284125804901E-1   4.720505326986313E-2  -8.064889311790466E-1  -5.496363639831543E-1  
 3.520000000000000E7     9.827083349227905E-1  -9.643744677305222E-2   1.391377300024033E-1   2.651179954409599E-2   1.385977417230606E-1   2.651938050985336E-2  -8.813866376876831E-1  -4.330881237983704E-1  
 3.550000000000000E7     9.789213538169861E-1  -1.435768008232117E-1   1.161603406071663E-1   1.231702510267496E-2   1.161118894815445E-1   1.220963336527348E-2  -9.313516020774841E-1  -3.231069743633270E-1  
 3.580000000000000E7     9.744779467582703E-1  -1.885099261999130E-1   9.655926376581192E-2   2.618260681629181E-3   9.644345194101334E-2   2.722202567383647E-3  -9.635971188545227E-1  -2.233734428882599E-1  
 3.610000000000000E7     9.668914675712585E-1  -2.319354712963104E-1   7.974012196063995E-2  -3.001811448484659E-3   7.942069321870804E-2  -3.131166333332658E-3  -9.832472801208496E-1  -1.337790638208389E-1  
 3.640000000000000E7     9.571115374565125E-1  -2.742096781730652E-1   6.495716422796249E-2  -6.587761454284191E-3   6.494303792715073E-2  -6.567890755832195E-3  -9.912700653076172E-1  -5.377764999866486E-2  
 3.670000000000000E7     9.459655880928040E-1  -3.138246834278107E-1   5.276669934391975E-2  -8.355368860065937E-3   5.252313613891602E-2  -8.479591459035873E-3  -9.936076402664185E-1   1.779277808964253E-2  
 3.700000000000000E7     9.322962164878845E-1  -3.527691960334778E-1   4.231931269168854E-2  -9.058769792318344E-3   4.230823367834091E-2  -8.987637236714363E-3  -9.922298192977905E-1   8.291844278573990E-2  
 3.730000000000000E7     9.170026183128357E-1  -3.910018801689148E-1   3.350161015987396E-2  -9.066394530236721E-3   3.350881859660149E-2  -8.884560316801071E-3  -9.843263030052185E-1   1.414976269006729E-1  
 3.760000000000000E7     9.012392163276672E-1  -4.260167479515076E-1   2.626370824873447E-2  -8.363933302462101E-3   2.632240019738674E-2  -8.294670842587948E-3  -9.771600961685181E-1   1.939999014139175E-1  
 3.790000000000000E7     8.838529586791992E-1  -4.617820680141449E-1   2.016745135188103E-2  -7.199410349130631E-3   2.001170814037323E-2  -7.320775184780359E-3  -9.668247103691101E-1   2.411282211542130E-1  
 3.820000000000000E7     8.655733466148377E-1  -4.968270063400269E-1   1.498532295227051E-2  -6.106386426836252E-3   1.494448911398649E-2  -6.081959698349237E-3  -9.544295072555542E-1   2.837789654731751E-1  
 3.850000000000000E7     8.450231552124023E-1  -5.306963920593262E-1   1.074287202209234E-2  -4.809823352843523E-3   1.074805483222008E-2  -4.834916908293963E-3  -9.433243274688721E-1   3.231560587882996E-1  
 3.880000000000000E7     8.240392804145813E-1  -5.614780783653259E-1   7.146704010665417E-3  -3.651475301012397E-3   7.140538655221462E-3  -3.511020215228200E-3  -9.305257797241211E-1   3.597426712512970E-1  
 3.910000000000000E7     8.028122782707214E-1  -5.935788154602051E-1   4.217352718114853E-3  -2.286682603880763E-3   4.253296647220850E-3  -2.302833134308457E-3  -9.178059101104736E-1   3.945421576499939E-1  
 3.940000000000000E7     7.795456051826477E-1  -6.214907765388489E-1   1.839152770116925E-3  -8.902775589376688E-4   1.835709554143250E-3  -1.023800577968359E-3  -9.029496312141419E-1   4.241501092910767E-1  
 3.970000000000000E7     7.570377588272095E-1  -6.508786082267761E-1  -3.968030796386302E-5   1.358507579425350E-4  -1.070589205482975E-4   2.370494621573016E-4  -8.875764012336731E-1   4.535200893878937E-1  
 4.000000000000000E7     7.315531969070435E-1  -6.780383586883545E-1  -1.693163067102432E-3   1.324211480095983E-3  -1.652649370953441E-3   1.297923736274242E-3  -8.749423027038574E-1   4.799717068672180E-1  
 4.030000000000000E7     7.072120904922485E-1  -7.044577002525330E-1  -2.983268117532134E-3   2.493460895493627E-3  -2.925269305706024E-3   2.312654163688421E-3  -8.608992099761963E-1   5.052020549774170E-1  
 4.060000000000000E7     6.808822154998779E-1  -7.295364737510681E-1  -3.928997553884983E-3   3.348591970279813E-3  -3.906426485627890E-3   3.257245058193803E-3  -8.458578586578369E-1   5.284359455108643E-1  
 4.090000000000000E7     6.535829305648804E-1  -7.541294097900391E-1  -4.642820917069912E-3   4.138878080993891E-3  -4.640720784664154E-3   4.236641339957714E-3  -8.321430683135986E-1   5.496781468391419E-1  
 4.120000000000000E7     6.267256736755371E-1  -7.777057290077210E-1  -5.212296731770039E-3   4.829580429941416E-3  -5.112922284752131E-3   4.837912973016501E-3  -8.170830607414246E-1   5.714211463928223E-1  
 4.150000000000000E7     5.987922549247742E-1  -7.984463572502136E-1  -5.546103231608868E-3   5.528184585273266E-3  -5.475839134305716E-3   5.520693957805634E-3  -8.031991720199585E-1   5.911000967025757E-1  
 4.180000000000000E7     5.692696571350098E-1  -8.200894594192505E-1  -5.732961464673281E-3   6.021787412464619E-3  -5.765036679804325E-3   5.940545815974474E-3  -7.899228334426880E-1   6.084061264991760E-1  
 4.210000000000000E7     5.401465296745300E-1  -8.399756550788879E-1  -5.830982699990273E-3   6.566343829035759E-3  -5.830209702253342E-3   6.418254692107439E-3  -7.760180830955505E-1   6.269497275352478E-1  
 4.240000000000000E7     5.102319121360779E-1  -8.568482398986816E-1  -5.804036278277636E-3   7.009389810264111E-3  -5.805657245218754E-3   6.903220433741808E-3  -7.633112668991089E-1   6.434097886085510E-1  
 4.270000000000000E7     4.790060818195343E-1  -8.746615648269653E-1  -5.773080047219992E-3   7.265334483236074E-3  -5.775325931608677E-3   7.155083119869232E-3  -7.485018968582153E-1   6.602159738540649E-1  
 4.300000000000000E7     4.471961259841919E-1  -8.916994333267212E-1  -5.525793880224228E-3   7.347873877733946E-3  -5.578503478318453E-3   7.259861566126347E-3  -7.351065874099731E-1   6.761400103569031E-1  
 4.330000000000000E7     4.178802371025085E-1  -9.073377251625061E-1  -5.227918736636639E-3   7.472883909940720E-3  -5.296785384416580E-3   7.368681952357292E-3  -7.212467193603516E-1   6.893896460533142E-1  
 4.360000000000000E7     3.852274417877197E-1  -9.201980829238892E-1  -5.090040620416403E-3   7.534101605415344E-3  -5.096045788377523E-3   7.392932660877705E-3  -7.085070610046387E-1   7.031139135360718E-1  
 4.390000000000000E7     3.520185351371765E-1  -9.347083568572998E-1  -4.721144214272499E-3   7.459594868123531E-3  -4.719099029898644E-3   7.311724126338959E-3  -6.944504380226135E-1   7.157842516899109E-1  
 4.420000000000000E7     3.198535442352295E-1  -9.450872540473938E-1  -4.385158885270357E-3   7.304715923964977E-3  -4.382279235869646E-3   7.260151673108339E-3  -6.803244948387146E-1   7.285792231559753E-1  
 4.450000000000000E7     2.867975533008575E-1  -9.555038809776306E-1  -4.057047888636589E-3   7.062089629471302E-3  -3.996462561190128E-3   7.104874588549137E-3  -6.685799956321716E-1   7.403768897056580E-1  
 4.480000000000000E7     2.535252869129181E-1  -9.650065898895264E-1  -3.598966170102358E-3   6.761363707482815E-3  -3.543257014825940E-3   6.827851757407188E-3  -6.553457379341126E-1   7.517827153205872E-1  
 4.510000000000000E7     2.213746905326843E-1  -9.737818241119385E-1  -3.199683036655188E-3   6.535986438393593E-3  -3.322600387036800E-3   6.415933370590210E-3  -6.426271200180054E-1   7.639300227165222E-1  
 4.540000000000000E7     1.873034834861755E-1  -9.798334240913391E-1  -2.894750330597162E-3   6.144821178168058E-3  -2.845967654138804E-3   6.083603017032147E-3  -6.291534900665283E-1   7.743803858757019E-1  
 4.570000000000000E7     1.532274037599564E-1  -9.860681891441345E-1  -2.553684404119849E-3   5.673596169799566E-3  -2.491958905011416E-3   5.720210727304220E-3  -6.160275340080261E-1   7.845025658607483E-1  
 4.600000000000000E7     1.220670342445374E-1  -9.904300570487976E-1  -2.097944729030132E-3   5.201516672968864E-3  -2.152421046048403E-3   5.161265376955271E-3  -6.036973595619202E-1   7.940773963928223E-1  
 4.630000000000000E7     8.539707958698273E-2  -9.942626357078552E-1  -1.879666931927204E-3   4.679882433265448E-3  -1.704114489257336E-3   4.633427131921053E-3  -5.911859273910523E-1   8.031507134437561E-1  
 4.660000000000000E7     5.078956857323647E-2  -9.976226687431335E-1  -1.429002033546567E-3   4.096419550478458E-3  -1.427724957466126E-3   4.077530466020107E-3  -5.773720741271973E-1   8.136845827102661E-1  
 4.690000000000000E7     1.797969639301300E-2  -9.976851344108582E-1  -1.204818370752037E-3   3.533777548000217E-3  -1.148478593677282E-3   3.437913954257965E-3  -5.655572414398193E-1   8.226607441902161E-1  
 4.720000000000000E7    -1.638191938400269E-2  -9.974039196968079E-1  -8.295670268125832E-4   2.808438614010811E-3  -8.436201023869216E-4   2.774877939373255E-3  -5.520164966583252E-1   8.305479884147644E-1  
 4.750000000000000E7    -4.965587705373764E-2  -9.972591996192932E-1  -5.478459643200040E-4   2.082549035549164E-3  -6.074665579944849E-4   2.039089566096664E-3  -5.394759178161621E-1   8.393050432205200E-1  
 4.780000000000000E7    -8.269828557968140E-2  -9.949645400047302E-1  -3.543529601301998E-4   1.314109656959772E-3  -4.536728956736624E-4   1.305420300923288E-3  -5.258366465568543E-1   8.462315797805786E-1  
 4.810000000000000E7    -1.170836836099625E-1  -9.911796450614929E-1  -1.059365022229031E-4   5.544069572351873E-4  -1.587456936249510E-4   4.997526993975043E-4  -5.149927735328674E-1   8.543136119842529E-1  
 4.840000000000000E7    -1.501332521438599E-1  -9.875605702400208E-1  -7.747062772978097E-5  -3.410705830901861E-4  -1.866707498265896E-5  -4.119168152101338E-4  -5.019789934158325E-1   8.616424202919006E-1  
 4.870000000000000E7    -1.840589940547943E-1  -9.813717007637024E-1   1.340201852144674E-4  -1.115647261030972E-3   1.856112357927486E-4  -1.146989641711116E-3  -4.897370934486389E-1   8.691210150718689E-1  
 4.900000000000000E7    -2.174032330513001E-1  -9.752750396728516E-1   2.698304888326675E-4  -2.021147636696696E-3   2.548168122302741E-4  -1.949411816895008E-3  -4.775115549564362E-1   8.753188848495483E-1  
 4.930000000000000E7    -2.505716085433960E-1  -9.668840169906616E-1   3.250935114920139E-4  -2.855011494830251E-3   2.480404218658805E-4  -2.913423813879490E-3  -4.644232094287872E-1   8.825432062149048E-1  
 4.960000000000000E7    -2.819091677665710E-1  -9.563219547271729E-1   3.189938724972308E-4  -3.797263372689486E-3   3.385912277735770E-4  -3.649300197139382E-3  -4.521875977516174E-1   8.886345028877258E-1  
 4.990000000000000E7    -3.135132193565369E-1  -9.467186331748962E-1   2.287425741087645E-4  -4.700765013694763E-3   2.317245671292767E-4  -4.742173943668604E-3  -4.402360916137695E-1   8.944823741912842E-1  
 5.020000000000000E7    -3.449233770370483E-1  -9.371753931045532E-1   1.562573015689850E-4  -5.662995856255293E-3   1.896224857773632E-4  -5.695703905075789E-3  -4.279458522796631E-1   9.007668495178223E-1  
 5.050000000000000E7    -3.770861029624939E-1  -9.244532585144043E-1   5.702243652194738E-5  -6.611363496631384E-3   4.920066567137837E-5  -6.621953099966049E-3  -4.157255291938782E-1   9.074671268463135E-1  
 5.080000000000000E7    -4.069795906543732E-1  -9.119740724563599E-1  -6.176973693072796E-5  -7.591702975332737E-3  -6.692780880257487E-5  -7.592407520860434E-3  -4.030128717422485E-1   9.108189344406128E-1  
 5.110000000000000E7    -4.382432401180267E-1  -8.969346880912781E-1  -2.999805728904903E-4  -8.587111718952656E-3  -2.405202249065042E-4  -8.590173907577992E-3  -3.917955756187439E-1   9.172301888465881E-1  
 5.140000000000000E7    -4.675299525260925E-1  -8.813914060592651E-1  -5.519083933904767E-4  -9.563316591084003E-3  -5.743887741118670E-4  -9.578350000083447E-3  -3.787703216075897E-1   9.244229793548584E-1  
 5.170000000000000E7    -4.965911805629730E-1  -8.654087781906128E-1  -8.347323164343834E-4  -1.054461114108563E-2  -8.253375999629498E-4  -1.053424086421728E-2  -3.658335208892822E-1   9.270423650741577E-1  
 5.200000000000000E7    -5.258538126945496E-1  -8.496493697166443E-1  -1.190253300592303E-3  -1.153687853366137E-2  -1.141557237133384E-3  -1.158784702420235E-2  -3.533499240875244E-1   9.306274056434631E-1  
 5.230000000000000E7    -5.537496805191040E-1  -8.303905129432678E-1  -1.532432623207569E-3  -1.259565912187100E-2  -1.580209005624056E-3  -1.255016308277845E-2  -3.419942557811737E-1   9.363474845886231E-1  
 5.260000000000000E7    -5.801951289176941E-1  -8.106514215469360E-1  -2.007625531405211E-3  -1.361589320003986E-2  -1.993655227124691E-3  -1.357682980597019E-2  -3.297079503536224E-1   9.412218928337097E-1  
 5.290000000000000E7    -6.082649827003479E-1  -7.905370593070984E-1  -2.529853489249945E-3  -1.459550578147173E-2  -2.490279031917453E-3  -1.458724029362202E-2  -3.177227675914764E-1   9.447160363197327E-1  
 5.320000000000000E7    -6.339275240898132E-1  -7.711913585662842E-1  -3.061092924326658E-3  -1.557078864425421E-2  -3.053759224712849E-3  -1.565163582563400E-2  -3.051826357841492E-1   9.489779472351074E-1  
 5.350000000000000E7    -6.577518582344055E-1  -7.494575977325440E-1  -3.575377864763141E-3  -1.658935286104679E-2  -3.617310896515846E-3  -1.660086773335934E-2  -2.946108579635620E-1   9.530881047248840E-1  
 5.380000000000000E7    -6.818698644638062E-1  -7.273303866386414E-1  -4.210311919450760E-3  -1.763466559350491E-2  -4.257142543792725E-3  -1.761227287352085E-2  -2.804341316223145E-1   9.561495780944824E-1  
 5.410000000000000E7    -7.079801559448242E-1  -7.040876746177673E-1  -4.983842838555574E-3  -1.862077601253986E-2  -4.972856491804123E-3  -1.860790327191353E-2  -2.692731618881226E-1   9.601022005081177E-1  
 5.440000000000000E7    -7.302665710449219E-1  -6.792548894882202E-1  -5.723248701542616E-3  -1.960303634405136E-2  -5.695831030607224E-3  -1.958057098090649E-2  -2.570016384124756E-1   9.628165960311890E-1  
 5.470000000000000E7    -7.513774037361145E-1  -6.557610034942627E-1  -6.497656460851431E-3  -2.048910222947598E-2  -6.561692804098129E-3  -2.050290629267693E-2  -2.436021566390991E-1   9.658684134483337E-1  
 5.500000000000000E7    -7.736757993698120E-1  -6.298746466636658E-1  -7.342989090830088E-3  -2.152168191969395E-2  -7.355661131441593E-3  -2.148631587624550E-2  -2.317264378070831E-1   9.700671434402466E-1  
 5.530000000000000E7    -7.940096259117127E-1  -6.037800908088684E-1  -8.180502802133560E-3  -2.246163785457611E-2  -8.295792154967785E-3  -2.238882705569267E-2  -2.194819897413254E-1   9.717686176300049E-1  
 5.560000000000000E7    -8.140228986740112E-1  -5.759557485580444E-1  -9.266421198844910E-3  -2.333226427435875E-2  -9.188377298414707E-3  -2.332141064107418E-2  -2.084730863571167E-1   9.750345349311829E-1  
 5.590000000000000E7    -8.328773975372315E-1  -5.499233007431030E-1  -1.020766980946064E-2  -2.423775009810925E-2  -1.027101650834084E-2  -2.422510460019112E-2  -1.952006965875626E-1   9.771131873130798E-1  
 5.620000000000000E7    -8.506386876106262E-1  -5.200367569923401E-1  -1.127826515585184E-2  -2.518200688064098E-2  -1.120400428771973E-2  -2.506761252880096E-2  -1.838414967060089E-1   9.799185395240784E-1  
 5.650000000000000E7    -8.667920231819153E-1  -4.929920136928558E-1  -1.229035109281540E-2  -2.595751173794270E-2  -1.231430377811194E-2  -2.595396526157856E-2  -1.714057773351669E-1   9.816632866859436E-1  
 5.680000000000000E7    -8.830080628395081E-1  -4.636895954608917E-1  -1.350641530007124E-2  -2.681870944797993E-2  -1.351265143603087E-2  -2.678530104458332E-2  -1.589289456605911E-1   9.829589724540710E-1  
 5.710000000000000E7    -8.980885148048401E-1  -4.324029088020325E-1  -1.472770515829325E-2  -2.758398652076721E-2  -1.478017400950193E-2  -2.760343253612518E-2  -1.471202373504639E-1   9.853789210319519E-1  
 5.740000000000000E7    -9.124339222908020E-1  -4.029046893119812E-1  -1.599656790494919E-2  -2.837686054408550E-2  -1.597050577402115E-2  -2.837789617478848E-2  -1.341923028230667E-1   9.871685504913330E-1  
 5.770000000000000E7    -9.240472316741943E-1  -3.733056485652924E-1  -1.720832660794258E-2  -2.917942218482494E-2  -1.717604883015156E-2  -2.912877500057221E-2  -1.234892159700394E-1   9.879387617111206E-1  
 5.800000000000000E7    -9.363919496536255E-1  -3.410699069499970E-1  -1.867643930017948E-2  -2.988572046160698E-2  -1.867002621293068E-2  -2.973823435604572E-2  -1.097974628210068E-1   9.911221861839294E-1  
 5.830000000000000E7    -9.469050168991089E-1  -3.094868659973145E-1  -2.001086808741093E-2  -3.051399067044258E-2  -2.001729421317577E-2  -3.050366975367069E-2  -9.856162220239639E-2   9.919741749763489E-1  
 5.860000000000000E7    -9.581382274627686E-1  -2.782282829284668E-1  -2.147598937153816E-2  -3.117257542908192E-2  -2.150093391537666E-2  -3.116220422089100E-2  -8.616767078638077E-2   9.924254417419434E-1  
 5.890000000000000E7    -9.659062027931213E-1  -2.459379434585571E-1  -2.300402149558067E-2  -3.178591653704643E-2  -2.293025143444538E-2  -3.184069693088532E-2  -7.479740679264069E-2   9.930824041366577E-1  
 5.920000000000000E7    -9.732229709625244E-1  -2.126932442188263E-1  -2.456113509833813E-2  -3.228108584880829E-2  -2.455533668398857E-2  -3.218917548656464E-2  -6.157024204730988E-2   9.947631955146790E-1  
 5.950000000000000E7    -9.797695875167847E-1  -1.802423149347305E-1  -2.612861804664135E-2  -3.278549760580063E-2  -2.608826383948326E-2  -3.273987770080566E-2  -4.963350296020508E-2   9.939103722572327E-1  
 5.980000000000000E7    -9.852389693260193E-1  -1.470743864774704E-1  -2.787177823483944E-2  -3.320888429880142E-2  -2.770551294088364E-2  -3.319914638996124E-2  -3.690820932388306E-2   9.947315454483032E-1  
 6.010000000000000E7    -9.886323809623718E-1  -1.150314956903458E-1  -2.941165678203106E-2  -3.381182998418808E-2  -2.934909984469414E-2  -3.374876081943512E-2  -2.561520040035248E-2   9.957963824272156E-1  
 6.040000000000000E7    -9.920219779014587E-1  -8.081795275211334E-2  -3.116970136761665E-2  -3.415141999721527E-2  -3.119250014424324E-2  -3.409669920802116E-2  -1.307792961597443E-2   9.963300824165344E-1  
 6.070000000000000E7    -9.955418109893799E-1  -4.852968454360962E-2  -3.302410244941711E-2  -3.454534709453583E-2  -3.287342190742493E-2  -3.455588221549988E-2  -1.540988683700562E-3   9.954864382743835E-1  
 6.100000000000000E7    -9.958709478378296E-1  -1.522453129291534E-2  -3.487589210271835E-2  -3.456348180770874E-2  -3.478574752807617E-2  -3.469048812985420E-2   1.204344630241394E-2   9.957311153411865E-1  
 6.130000000000000E7    -9.960054159164429E-1   1.916709542274475E-2  -3.675588965415955E-2  -3.488473966717720E-2  -3.670445829629898E-2  -3.499037399888039E-2   2.431578934192658E-2   9.959305524826050E-1  
 6.160000000000000E7    -9.943060278892517E-1   5.183628201484680E-2  -3.837322443723679E-2  -3.508363664150238E-2  -3.857004269957542E-2  -3.509111702442169E-2   3.524003922939301E-2   9.943755865097046E-1  
 6.190000000000000E7    -9.916470050811768E-1   8.473382145166397E-2  -4.052515327930450E-2  -3.529701754450798E-2  -4.027674347162247E-2  -3.497577086091042E-2   4.722627997398377E-2   9.930344223976135E-1  
 6.220000000000000E7    -9.884912967681885E-1   1.180050820112228E-1  -4.230389744043350E-2  -3.523831441998482E-2  -4.245368391275406E-2  -3.531736508011818E-2   5.884610116481781E-2   9.937365651130676E-1  
 6.250000000000000E7    -9.839597940444946E-1   1.511860638856888E-1  -4.438257217407227E-2  -3.540520370006561E-2  -4.445582628250122E-2  -3.519932180643082E-2   7.093825936317444E-2   9.930720925331116E-1  
 6.280000000000000E7    -9.772985577583313E-1   1.840725988149643E-1  -4.662666097283363E-2  -3.527139499783516E-2  -4.637920111417770E-2  -3.535339236259460E-2   8.336557447910309E-2   9.919675588607788E-1  
 6.310000000000000E7    -9.700479507446289E-1   2.178448140621185E-1  -4.876601323485375E-2  -3.510698676109314E-2  -4.860302805900574E-2  -3.517648577690125E-2   9.539635479450226E-2   9.909654855728149E-1  
 6.340000000000000E7    -9.623014926910400E-1   2.499245554208756E-1  -5.084456503391266E-2  -3.498471155762672E-2  -5.075909197330475E-2  -3.485898301005364E-2   1.081253662705421E-1   9.899888634681702E-1  
 6.370000000000000E7    -9.533888101577759E-1   2.823727130889893E-1  -5.303288996219635E-2  -3.461022675037384E-2  -5.292910337448120E-2  -3.457174077630043E-2   1.193482503294945E-1   9.874822497367859E-1  
 6.400000000000000E7    -9.425582885742188E-1   3.136129677295685E-1  -5.524402484297752E-2  -3.423235192894936E-2  -5.509339272975922E-2  -3.407346829771996E-2   1.322035491466522E-1   9.867019653320313E-1  
 6.430000000000000E7    -9.312388300895691E-1   3.463645577430725E-1  -5.753926187753677E-2  -3.394666686654091E-2  -5.740804970264435E-2  -3.370231762528420E-2   1.440343409776688E-1   9.842931628227234E-1  
 6.460000000000000E7    -9.194929003715515E-1   3.779311776161194E-1  -5.962768197059631E-2  -3.346026688814163E-2  -5.960074812173843E-2  -3.339611366391182E-2   1.552146822214127E-1   9.821434020996094E-1  
 6.490000000000000E7    -9.068871736526489E-1   4.086463451385498E-1  -6.197554618120194E-2  -3.279589861631393E-2  -6.208834797143936E-2  -3.298902511596680E-2   1.667399406433106E-1   9.807444810867310E-1  
 6.520000000000000E7    -8.914175629615784E-1   4.383228719234467E-1  -6.433844566345215E-2  -3.235433250665665E-2  -6.427451223134995E-2  -3.217008709907532E-2   1.792535483837128E-1   9.791757464408875E-1  
 6.550000000000000E7    -8.766880631446838E-1   4.681449532508850E-1  -6.676326692104340E-2  -3.146928921341896E-2  -6.658972799777985E-2  -3.147480264306068E-2   1.909318566322327E-1   9.747363328933716E-1  
 6.580000000000000E7    -8.596333265304565E-1   4.979211688041687E-1  -6.909532099962235E-2  -3.050601109862328E-2  -6.887273490428925E-2  -3.075312450528145E-2   2.032357156276703E-1   9.740378856658936E-1  
 6.610000000000000E7    -8.413367867469788E-1   5.260600447654724E-1  -7.147270441055298E-2  -2.968259528279305E-2  -7.113929837942123E-2  -2.942372858524323E-2   2.162718474864960E-1   9.692919850349426E-1  
 6.640000000000000E7    -8.245038986206055E-1   5.550750494003296E-1  -7.395011931657791E-2  -2.882312238216400E-2  -7.400347292423248E-2  -2.889123186469078E-2   2.281914949417114E-1   9.672672152519226E-1  
 6.670000000000000E7    -8.041883111000061E-1   5.823585987091065E-1  -7.628083229064941E-2  -2.762773819267750E-2  -7.618664950132370E-2  -2.776156365871429E-2   2.385394573211670E-1   9.650886654853821E-1  
 6.700000000000000E7    -7.836406826972961E-1   6.093940138816834E-1  -7.876812666654587E-2  -2.655276283621788E-2  -7.843127846717835E-2  -2.653123065829277E-2   2.507331669330597E-1   9.607996940612793E-1  
 6.730000000000000E7    -7.621346712112427E-1   6.358209848403931E-1  -8.102719485759735E-2  -2.539726160466671E-2  -8.108551800251007E-2  -2.503236383199692E-2   2.634771168231964E-1   9.584815502166748E-1  
 6.760000000000000E7    -7.402675151824951E-1   6.613321900367737E-1  -8.372039347887039E-2  -2.369793690741062E-2  -8.346350491046906E-2  -2.385539188981056E-2   2.751917243003845E-1   9.542711377143860E-1  
 6.790000000000000E7    -7.162293195724487E-1   6.863104104995728E-1  -8.606439083814621E-2  -2.253495529294014E-2  -8.600930869579315E-2  -2.230595238506794E-2   2.862393856048584E-1   9.501489996910095E-1  
 6.820000000000000E7    -6.924433112144470E-1   7.094657421112061E-1  -8.847873657941818E-2  -2.085419371724129E-2  -8.843581378459930E-2  -2.097347006201744E-2   2.979849576950073E-1   9.470561146736145E-1  
 6.850000000000000E7    -6.678425669670105E-1   7.336481809616089E-1  -9.112099558115006E-2  -1.951349526643753E-2  -9.091972559690476E-2  -1.930854097008705E-2   3.092909455299377E-1   9.433262944221497E-1  
 6.880000000000000E7    -6.419997215270996E-1   7.553988695144653E-1  -9.355368465185165E-2  -1.751498878002167E-2  -9.323681890964508E-2  -1.748938113451004E-2   3.216468989849091E-1   9.385777115821838E-1  
 6.910000000000000E7    -6.153450012207031E-1   7.775557637214661E-1  -9.625621885061264E-2  -1.560602989047766E-2  -9.598711878061295E-2  -1.568605750799179E-2   3.337052166461945E-1   9.346804618835449E-1  
 6.940000000000000E7    -5.885838866233826E-1   7.978945970535278E-1  -9.865033626556397E-2  -1.386425551027060E-2  -9.864387661218643E-2  -1.378669962286949E-2   3.443993628025055E-1   9.304640889167786E-1  
 6.970000000000000E7    -5.593982338905335E-1   8.172832727432251E-1  -1.010116860270500E-1  -1.165048032999039E-2  -1.010071113705635E-1  -1.140190288424492E-2   3.564730882644653E-1   9.252980351448059E-1  
 7.000000000000000E7    -5.307247638702393E-1   8.368461132049561E-1  -1.036345809698105E-1  -9.471198543906212E-3  -1.033685654401779E-1  -9.346311911940575E-3   3.680886626243591E-1   9.210030436515808E-1  
