#  HZ   S   RI   R     50.00 
! Rohde & Schwarz ZVT8 8Ports - Version 4.11 - 1300.0000k08 SN: 100242
! Date: 2026-07-31 14:25:11
! Measurements: S11 S21 S12 S22 
! 
 1.000000000000000E7    -3.996386229991913E-1   9.125453233718872E-1   5.506301671266556E-2   5.504897236824036E-2   5.477158725261688E-2   5.502393096685410E-2  -9.155727624893189E-1   3.919378519058228E-1  
 1.030000000000000E7    -3.664115369319916E-1   9.253212809562683E-1   5.893624201416969E-2   5.570220202207565E-2   5.854539945721626E-2   5.567818135023117E-2  -9.095553159713745E-1   4.051114320755005E-1  
 1.060000000000000E7    -3.300455808639526E-1   9.381037950515747E-1   6.264632195234299E-2   5.671818181872368E-2   6.253191083669663E-2   5.643271654844284E-2  -9.054558873176575E-1   4.176608622074127E-1  
 1.090000000000000E7    -2.972347140312195E-1   9.482071399688721E-1   6.655716896057129E-2   5.711802840232849E-2   6.644910573959351E-2   5.718638747930527E-2  -8.990021944046021E-1   4.299886226654053E-1  
 1.120000000000000E7    -2.612393200397492E-1   9.580435156822205E-1   7.106132060289383E-2   5.808117985725403E-2   7.042097300291061E-2   5.788252875208855E-2  -8.925397396087647E-1   4.424320757389069E-1  
 1.150000000000000E7    -2.250384986400604E-1   9.679347872734070E-1   7.506518810987473E-2   5.822204425930977E-2   7.489811629056931E-2   5.811047181487083E-2  -8.849497437477112E-1   4.528127014636993E-1  
 1.180000000000000E7    -1.893364489078522E-1   9.733890891075134E-1   7.938013225793839E-2   5.860260874032974E-2   7.938083261251450E-2   5.854689702391625E-2  -8.793728351593018E-1   4.647504091262817E-1  
 1.210000000000000E7    -1.539315134286881E-1   9.797320961952210E-1   8.450985699892044E-2   5.898904055356979E-2   8.428431302309036E-2   5.894035100936890E-2  -8.709427118301392E-1   4.779889881610870E-1  
 1.240000000000000E7    -1.167425140738487E-1   9.835411906242371E-1   8.912621438503265E-2   5.923457071185112E-2   8.913925290107727E-2   5.866597592830658E-2  -8.631686568260193E-1   4.890964627265930E-1  
 1.270000000000000E7    -8.009710162878037E-2   9.868351221084595E-1   9.475456178188324E-2   5.884949862957001E-2   9.422957897186279E-2   5.849114805459976E-2  -8.553083539009094E-1   5.043849945068359E-1  
 1.300000000000000E7    -4.358675330877304E-2   9.892684817314148E-1   9.970457106828690E-2   5.865745991468430E-2   9.971693158149719E-2   5.856342986226082E-2  -8.468956947326660E-1   5.157550573348999E-1  
 1.330000000000000E7    -5.693523213267326E-3   9.903752207756043E-1   1.054295748472214E-1   5.806901678442955E-2   1.055694073438644E-1   5.774437636137009E-2  -8.379878401756287E-1   5.291853547096252E-1  
 1.360000000000000E7     3.297292068600655E-2   9.891719818115234E-1   1.111134290695190E-1   5.779669433832169E-2   1.115742921829224E-1   5.710651353001595E-2  -8.295380473136902E-1   5.401917099952698E-1  
 1.390000000000000E7     6.979835778474808E-2   9.860603809356690E-1   1.176215559244156E-1   5.647658556699753E-2   1.172730922698975E-1   5.684464797377586E-2  -8.202945590019226E-1   5.537474155426025E-1  
 1.420000000000000E7     1.087901592254639E-1   9.825887084007263E-1   1.237403750419617E-1   5.574667826294899E-2   1.236761659383774E-1   5.568453669548035E-2  -8.122285604476929E-1   5.660039782524109E-1  
 1.450000000000000E7     1.464088559150696E-1   9.752293229103088E-1   1.304190158843994E-1   5.415800586342812E-2   1.302762031555176E-1   5.406377464532852E-2  -7.994177937507629E-1   5.797560811042786E-1  
 1.480000000000000E7     1.858326047658920E-1   9.682229757308960E-1   1.373032033443451E-1   5.234169587492943E-2   1.374122053384781E-1   5.282967537641525E-2  -7.902182340621948E-1   5.920935273170471E-1  
 1.510000000000000E7     2.238067686557770E-1   9.591349363327026E-1   1.444626748561859E-1   5.040860548615456E-2   1.442812234163284E-1   5.057944729924202E-2  -7.764999270439148E-1   6.051766872406006E-1  
 1.540000000000000E7     2.608007788658142E-1   9.485611915588379E-1   1.520367860794067E-1   4.923062399029732E-2   1.518289297819138E-1   4.859248921275139E-2  -7.677738070487976E-1   6.172539591789246E-1  
 1.570000000000000E7     2.999049425125122E-1   9.371588826179504E-1   1.599685847759247E-1   4.601131379604340E-2   1.600200235843658E-1   4.575628414750099E-2  -7.540220022201538E-1   6.317745447158814E-1  
 1.600000000000000E7     3.383477628231049E-1   9.214463233947754E-1   1.680382639169693E-1   4.295548051595688E-2   1.685172766447067E-1   4.244333878159523E-2  -7.424142956733704E-1   6.432014703750610E-1  
 1.630000000000000E7     3.754254281520844E-1   9.054438471794128E-1   1.774621307849884E-1   3.895657137036324E-2   1.766235679388046E-1   3.933105245232582E-2  -7.282004356384277E-1   6.574959158897400E-1  
 1.660000000000000E7     4.126075208187103E-1   8.861237764358521E-1   1.863619238138199E-1   3.483294695615768E-2   1.859013289213181E-1   3.444242849946022E-2  -7.127296328544617E-1   6.705955266952515E-1  
 1.690000000000000E7     4.492102861404419E-1   8.663684129714966E-1   1.958149075508118E-1   3.096149489283562E-2   1.957888752222061E-1   3.046783804893494E-2  -6.987565159797669E-1   6.834937930107117E-1  
 1.720000000000000E7     4.882532358169556E-1   8.446316719055176E-1   2.050791233778000E-1   2.465381473302841E-2   2.051727324724197E-1   2.525282837450504E-2  -6.822685003280640E-1   6.961576342582703E-1  
 1.750000000000000E7     5.199995636940002E-1   8.227717876434326E-1   2.165484577417374E-1   2.021665684878826E-2   2.165934294462204E-1   1.957331597805023E-2  -6.660234332084656E-1   7.108739614486694E-1  
 1.780000000000000E7     5.577500462532044E-1   7.927142381668091E-1   2.260978966951370E-1   1.258963719010353E-2   2.267328202724457E-1   1.297167316079140E-2  -6.474053263664246E-1   7.219910621643066E-1  
 1.810000000000000E7     5.910692214965820E-1   7.654561996459961E-1   2.390050143003464E-1   5.047885701060295E-3   2.374740689992905E-1   4.379356279969215E-3  -6.277098655700684E-1   7.381306886672974E-1  
 1.840000000000000E7     6.264470815658569E-1   7.341629266738892E-1   2.508632242679596E-1  -5.105379968881607E-3   2.499869316816330E-1  -4.428509622812271E-3  -6.070961356163025E-1   7.501707673072815E-1  
 1.870000000000000E7     6.569293141365051E-1   7.018766999244690E-1   2.633734643459320E-1  -1.400605402886868E-2   2.621960341930389E-1  -1.440089382231236E-2  -5.852628350257874E-1   7.621976733207703E-1  
 1.900000000000000E7     6.880927085876465E-1   6.659839749336243E-1   2.760299146175385E-1  -2.472141385078430E-2   2.755071818828583E-1  -2.548299916088581E-2  -5.619023442268372E-1   7.741863131523132E-1  
 1.930000000000000E7     7.182419300079346E-1   6.266726851463318E-1   2.890096604824066E-1  -3.912297636270523E-2   2.895567119121552E-1  -3.810251504182816E-2  -5.369685888290405E-1   7.879189848899841E-1  
 1.960000000000000E7     7.462876439094544E-1   5.842509269714356E-1   3.027095794677734E-1  -5.338004976511002E-2   3.030424714088440E-1  -5.269262194633484E-2  -5.121476054191589E-1   7.986036539077759E-1  
 1.990000000000000E7     7.701501846313477E-1   5.407834053039551E-1   3.170586824417114E-1  -6.997700035572052E-2   3.176044523715973E-1  -7.020296156406403E-2  -4.805215597152710E-1   8.108063936233521E-1  
 2.020000000000000E7     7.935368418693543E-1   4.929489493370056E-1   3.322210609912872E-1  -8.887121081352234E-2   3.314607441425324E-1  -8.837375044822693E-2  -4.512932300567627E-1   8.187527656555176E-1  
 2.050000000000000E7     8.156692385673523E-1   4.419846236705780E-1   3.472289443016052E-1  -1.097940281033516E-1   3.448906242847443E-1  -1.099353283643723E-1  -4.179797470569611E-1   8.278287053108215E-1  
 2.080000000000000E7     8.314858078956604E-1   3.875963687896729E-1   3.622926175594330E-1  -1.351587772369385E-1   3.624919354915619E-1  -1.348437666893005E-1  -3.818497657775879E-1   8.364705443382263E-1  
 2.110000000000000E7     8.446304798126221E-1   3.309264779090881E-1   3.769180774688721E-1  -1.644338816404343E-1   3.768945336341858E-1  -1.643435806035996E-1  -3.422468900680542E-1   8.410679697990418E-1  
 2.140000000000000E7     8.524701595306397E-1   2.714253962039948E-1   3.907498121261597E-1  -1.975466012954712E-1   3.899395763874054E-1  -1.956724822521210E-1  -3.006380200386047E-1   8.437311649322510E-1  
 2.170000000000000E7     8.546833992004395E-1   2.089925706386566E-1   4.039617478847504E-1  -2.336589843034744E-1   4.041922390460968E-1  -2.323721796274185E-1  -2.552489936351776E-1   8.429448604583740E-1  
 2.200000000000000E7     8.505321741104126E-1   1.414281129837036E-1   4.138952493667603E-1  -2.760463356971741E-1   4.143533110618591E-1  -2.758516967296600E-1  -2.055862098932266E-1   8.374474644660950E-1  
 2.230000000000000E7     8.377949595451355E-1   7.354528456926346E-2   4.217791557312012E-1  -3.241382241249085E-1   4.219855070114136E-1  -3.227405250072479E-1  -1.546154916286469E-1   8.271409869194031E-1  
 2.260000000000000E7     8.169703483581543E-1   4.064004868268967E-3   4.249601662158966E-1  -3.778907656669617E-1   4.268199205398560E-1  -3.791368901729584E-1  -1.003727093338966E-1   8.094892501831055E-1  
 2.290000000000000E7     7.842808961868286E-1  -6.533444672822952E-2   4.224739372730255E-1  -4.388547837734222E-1   4.238266050815582E-1  -4.389749467372894E-1  -4.193715006113052E-2   7.837219834327698E-1  
 2.320000000000000E7     7.390041351318359E-1  -1.305706053972244E-1   4.105920195579529E-1  -5.071476101875305E-1   4.097712934017181E-1  -5.069550275802612E-1   1.560442335903645E-2   7.514845728874207E-1  
 2.350000000000000E7     6.812975406646729E-1  -1.919551342725754E-1   3.870449066162109E-1  -5.812138915061951E-1   3.875095844268799E-1  -5.795547962188721E-1   7.252019643783569E-2   7.050120830535889E-1  
 2.380000000000000E7     6.100737452507019E-1  -2.455817162990570E-1   3.514651358127594E-1  -6.568034291267395E-1   3.513252437114716E-1  -6.570702195167542E-1   1.262499392032623E-1   6.456778645515442E-1  
 2.410000000000000E7     5.266934037208557E-1  -2.850527465343475E-1   2.968808710575104E-1  -7.349286675453186E-1   2.963675558567047E-1  -7.333859205245972E-1   1.714928299188614E-1   5.737487077713013E-1  
 2.440000000000000E7     4.335547685623169E-1  -3.041070401668549E-1   2.226823717355728E-1  -8.090723156929016E-1   2.224648892879486E-1  -8.093942403793335E-1   2.030290067195892E-1   4.892570674419403E-1  
 2.470000000000000E7     3.364033699035645E-1  -3.029324114322662E-1   1.292612999677658E-1  -8.739287853240967E-1   1.313633322715759E-1  -8.728435039520264E-1   2.218220531940460E-1   3.925400078296661E-1  
 2.500000000000000E7     2.378400713205338E-1  -2.786403298377991E-1   1.872927322983742E-2  -9.214905500411987E-1   1.740357652306557E-2  -9.218573570251465E-1   2.174203842878342E-1   2.946227192878723E-1  
 2.530000000000000E7     1.493290662765503E-1  -2.252139449119568E-1  -1.072459593415260E-1  -9.490724205970764E-1  -1.059617996215820E-1  -9.473171234130859E-1   1.893446594476700E-1   1.944875121116638E-1  
 2.560000000000000E7     8.075938373804092E-2  -1.550234705209732E-1  -2.378897666931152E-1  -9.480652809143066E-1  -2.377432435750961E-1  -9.472643136978149E-1   1.376271098852158E-1   1.044715419411659E-1  
 2.590000000000000E7     4.174911603331566E-2  -6.995265930891037E-2  -3.675716817378998E-1  -9.175253510475159E-1  -3.676202297210693E-1  -9.187843799591065E-1   7.284351438283920E-2   3.154724091291428E-2  
 2.620000000000000E7     2.569750323891640E-2   2.066680602729321E-2  -4.885813295841217E-1  -8.639574646949768E-1  -4.867868125438690E-1  -8.636705279350281E-1  -7.864476181566715E-3  -2.329942211508751E-2  
 2.650000000000000E7     3.340499103069305E-2   1.070047616958618E-1  -5.901300907135010E-1  -7.895532846450806E-1  -5.919903516769409E-1  -7.896163463592529E-1  -9.576343744993210E-2  -5.366601422429085E-2  
 2.680000000000000E7     6.549162417650223E-2   1.816068589687347E-1  -6.742083430290222E-1  -7.025143504142761E-1  -6.744899153709412E-1  -7.025544643402100E-1  -1.803278625011444E-1  -6.161804124712944E-2  
 2.710000000000000E7     1.106259897351265E-1   2.379745543003082E-1  -7.397752404212952E-1  -6.093199849128723E-1  -7.407967448234558E-1  -6.074848771095276E-1  -2.550534605979919E-1  -5.565882474184036E-2  
 2.740000000000000E7     1.680501848459244E-1   2.818141281604767E-1  -7.855035066604614E-1  -5.123795270919800E-1  -7.864203453063965E-1  -5.126118063926697E-1  -3.230835199356079E-1  -2.953619882464409E-2  
 2.770000000000000E7     2.273688614368439E-1   3.041020929813385E-1  -8.171027302742004E-1  -4.185701906681061E-1  -8.193789124488831E-1  -4.194568991661072E-1  -3.772382736206055E-1   2.277240622788668E-3  
 2.800000000000000E7     2.874359488487244E-1   3.132851719856262E-1  -8.368161916732788E-1  -3.268384337425232E-1  -8.362866044044495E-1  -3.295260071754456E-1  -4.224191009998322E-1   4.233930632472038E-2  
 2.830000000000000E7     3.441986143589020E-1   3.069776594638825E-1  -8.475642800331116E-1  -2.417810112237930E-1  -8.479232192039490E-1  -2.420185357332230E-1  -4.511618614196777E-1   8.215352147817612E-2  
 2.860000000000000E7     3.961435258388519E-1   2.878253161907196E-1  -8.509849309921265E-1  -1.607173383235931E-1  -8.515353798866272E-1  -1.602560728788376E-1  -4.708784520626068E-1   1.270617693662643E-1  
 2.890000000000000E7     4.390385150909424E-1   2.582259476184845E-1  -8.512226939201355E-1  -8.356091380119324E-2  -8.490495085716248E-1  -8.331446349620819E-2  -4.793691039085388E-1   1.700422465801239E-1  
 2.920000000000000E7     4.776793420314789E-1   2.210441231727600E-1  -8.452469706535339E-1  -9.112259373068810E-3  -8.445070981979370E-1  -7.655272260308266E-3  -4.794396758079529E-1   2.114685922861099E-1  
 2.950000000000000E7     5.015641450881958E-1   1.754788607358933E-1  -8.390634059906006E-1   6.371542066335678E-2  -8.379168510437012E-1   6.403160095214844E-2  -4.684829711914063E-1   2.513166666030884E-1  
 2.980000000000000E7     5.178805589675903E-1   1.260615289211273E-1  -8.288904428482056E-1   1.374879181385040E-1  -8.298010826110840E-1   1.371076256036758E-1  -4.477075934410095E-1   2.861449122428894E-1  
 3.010000000000000E7     5.197350382804871E-1   7.161654531955719E-2  -8.177909255027771E-1   2.143709808588028E-1  -8.170473575592041E-1   2.124308645725250E-1  -4.189059138298035E-1   3.163547217845917E-1  
 3.040000000000000E7     5.091246366500855E-1   1.238163560628891E-2  -8.025847673416138E-1   2.932434976100922E-1  -8.032614588737488E-1   2.945335507392883E-1  -3.775836825370789E-1   3.369381725788117E-1  
 3.070000000000000E7     4.807142019271851E-1  -4.357507079839706E-2  -7.805081009864807E-1   3.830366134643555E-1  -7.802331447601318E-1   3.814472556114197E-1  -3.316120803356171E-1   3.485797941684723E-1  
 3.100000000000000E7     4.304272234439850E-1  -9.629472345113754E-2  -7.503275275230408E-1   4.793113470077515E-1  -7.489973902702332E-1   4.783096909523010E-1  -2.739428877830505E-1   3.466290533542633E-1  
 3.130000000000000E7     3.595915138721466E-1  -1.363558024168015E-1  -7.026416659355164E-1   5.866516232490540E-1  -7.027878165245056E-1   5.847996473312378E-1  -2.054447233676910E-1   3.232935369014740E-1  
 3.160000000000000E7     2.610737383365631E-1  -1.559153944253922E-1  -6.297770142555237E-1   7.020847201347351E-1  -6.301539540290833E-1   7.020033001899719E-1  -1.366849392652512E-1   2.720416188240051E-1  
 3.190000000000000E7     1.446884125471115E-1  -1.354822367429733E-1  -5.175479650497437E-1   8.191335797309876E-1  -5.175797939300537E-1   8.180193305015564E-1  -7.440424710512161E-2   1.864137053489685E-1  
 3.220000000000000E7     2.283138222992420E-2  -6.062218919396401E-2  -3.568577766418457E-1   9.197264313697815E-1  -3.562271893024445E-1   9.187859296798706E-1  -4.028321430087090E-2   5.790472403168678E-2  
 3.250000000000000E7    -7.035893201828003E-2   8.647812902927399E-2  -1.461245417594910E-1   9.694042801856995E-1  -1.456053107976914E-1   9.693264961242676E-1  -6.232940405607224E-2  -9.949749708175659E-2  
 3.280000000000000E7    -8.909206092357636E-2   2.834172248840332E-1   8.544135093688965E-2   9.358679652214050E-1   8.541797101497650E-2   9.362302422523499E-1  -1.574959158897400E-1  -2.517596781253815E-1  
 3.310000000000000E7    -9.943088516592979E-3   4.738035202026367E-1   2.845735847949982E-1   8.166253566741943E-1   2.833640277385712E-1   8.153598904609680E-1  -3.224790692329407E-1  -3.532055020332336E-1  
 3.340000000000000E7     1.466741114854813E-1   6.101328730583191E-1   4.088698923587799E-1   6.440840959548950E-1   4.086461365222931E-1   6.433524489402771E-1  -5.073709487915039E-1  -3.741602301597595E-1  
 3.370000000000000E7     3.295180201530457E-1   6.658986806869507E-1   4.540117084980011E-1   4.662413299083710E-1   4.527998566627502E-1   4.661829471588135E-1  -6.701622605323792E-1  -3.281950652599335E-1  
 3.400000000000000E7     4.991293549537659E-1   6.560094952583313E-1   4.436369538307190E-1   3.196163773536682E-1   4.432887732982636E-1   3.196189701557159E-1  -7.904455065727234E-1  -2.436583787202835E-1  
 3.430000000000000E7     6.390160918235779E-1   6.040140390396118E-1   4.061745405197144E-1   2.090940475463867E-1   4.053420424461365E-1   2.081900984048843E-1  -8.692141175270081E-1  -1.485070884227753E-1  
 3.460000000000000E7     7.465842366218567E-1   5.310030579566956E-1   3.575569987297058E-1   1.301634311676025E-1   3.567948937416077E-1   1.310189515352249E-1  -9.168504476547241E-1  -5.502808839082718E-2  
 3.490000000000000E7     8.272987008094788E-1   4.486350417137146E-1   3.092787265777588E-1   7.647868245840073E-2   3.078206181526184E-1   7.540766894817352E-2  -9.408344030380249E-1   3.074343502521515E-2  
 3.520000000000000E7     8.852806091308594E-1   3.670229911804199E-1   2.634136676788330E-1   3.962260112166405E-2   2.626811563968658E-1   3.982133790850639E-2  -9.527692794799805E-1   1.063198074698448E-1  
 3.550000000000000E7     9.252570867538452E-1   2.844837009906769E-1   2.230635732412338E-1   1.568415015935898E-2   2.229796648025513E-1   1.571896858513355E-2  -9.543375372886658E-1   1.718665510416031E-1  
 3.580000000000000E7     9.545025229454041E-1   2.080974876880646E-1   1.890854835510254E-1  -7.041480857878923E-4   1.890386044979096E-1  -6.362448912113905E-4  -9.501676559448242E-1   2.307518422603607E-1  
 3.610000000000000E7     9.740047454833984E-1   1.352275460958481E-1   1.607079803943634E-1  -1.061572413891554E-2   1.602547019720078E-1  -1.093870867043734E-2  -9.432868957519531E-1   2.824894487857819E-1  
 3.640000000000000E7     9.849588274955750E-1   6.521134078502655E-2   1.356181651353836E-1  -1.716803386807442E-2   1.356421113014221E-1  -1.708427257835865E-2  -9.318267703056335E-1   3.264252543449402E-1  
 3.670000000000000E7     9.900043010711670E-1   9.238217025995255E-4   1.148049309849739E-1  -2.077988535165787E-2   1.146582141518593E-1  -2.094438299536705E-2  -9.198717474937439E-1   3.658317029476166E-1  
 3.700000000000000E7     9.897076487541199E-1  -6.088440120220184E-2   9.716404974460602E-2  -2.282216213643551E-2   9.717402607202530E-2  -2.282909303903580E-2  -9.072625637054443E-1   4.029842019081116E-1  
 3.730000000000000E7     9.856608510017395E-1  -1.200160831212997E-1   8.179529011249542E-2  -2.362800389528275E-2   8.210384845733643E-2  -2.343652769923210E-2  -8.919888138771057E-1   4.345914423465729E-1  
 3.760000000000000E7     9.783927202224731E-1  -1.732778698205948E-1   6.942905485630035E-2  -2.329001761972904E-2   6.950969994068146E-2  -2.319891564548016E-2  -8.795381188392639E-1   4.652316272258759E-1  
 3.790000000000000E7     9.687867760658264E-1  -2.272281050682068E-1   5.869978666305542E-2  -2.232211828231812E-2   5.866245925426483E-2  -2.253050729632378E-2  -8.654106855392456E-1   4.917189180850983E-1  
 3.820000000000000E7     9.568015336990356E-1  -2.774242758750916E-1   4.965343698859215E-2  -2.118311636149883E-2   4.946129024028778E-2  -2.113882452249527E-2  -8.509443998336792E-1   5.157505273818970E-1  
 3.850000000000000E7     9.415569901466370E-1  -3.263418972492218E-1   4.169201105833054E-2  -1.979612559080124E-2   4.167430102825165E-2  -1.984602585434914E-2  -8.386829495429993E-1   5.389312505722046E-1  
 3.880000000000000E7     9.246156811714172E-1  -3.711855411529541E-1   3.500492870807648E-2  -1.835311949253082E-2   3.486356884241104E-2  -1.815029233694077E-2  -8.248419165611267E-1   5.610509514808655E-1  
 3.910000000000000E7     9.070782065391541E-1  -4.153212010860443E-1   2.918733656406403E-2  -1.661273278295994E-2   2.927935682237148E-2  -1.671875268220902E-2  -8.117271661758423E-1   5.822364687919617E-1  
 3.940000000000000E7     8.857585191726685E-1  -4.553088247776032E-1   2.447785437107086E-2  -1.500210911035538E-2   2.436863817274571E-2  -1.492771506309509E-2  -7.974166870117188E-1   5.996005535125732E-1  
 3.970000000000000E7     8.659844398498535E-1  -4.951288998126984E-1   2.031623572111130E-2  -1.322687696665525E-2   2.029136195778847E-2  -1.329697761684656E-2  -7.826123237609863E-1   6.168583035469055E-1  
 4.000000000000000E7     8.425931930541992E-1  -5.330924987792969E-1   1.673167943954468E-2  -1.178011856973171E-2   1.674639619886875E-2  -1.187235675752163E-2  -7.709418535232544E-1   6.339512467384338E-1  
 4.030000000000000E7     8.193749189376831E-1  -5.689413547515869E-1   1.382096484303474E-2  -1.032202783972025E-2   1.368440687656403E-2  -1.040451042354107E-2  -7.575882077217102E-1   6.497719883918762E-1  
 4.060000000000000E7     7.943769693374634E-1  -6.034236550331116E-1   1.121506094932556E-2  -8.999017998576164E-3   1.118379365652800E-2  -9.034848771989346E-3  -7.440760731697083E-1   6.645021438598633E-1  
 4.090000000000000E7     7.678775787353516E-1  -6.370461583137512E-1   8.973379619419575E-3  -7.689024787396193E-3   8.943890221416950E-3  -7.720430381596088E-3  -7.319864630699158E-1   6.781474351882935E-1  
 4.120000000000000E7     7.417567372322083E-1  -6.683761477470398E-1   7.168860174715519E-3  -6.516345310956240E-3   7.187630049884319E-3  -6.547669880092144E-3  -7.178165316581726E-1   6.926001906394959E-1  
 4.150000000000000E7     7.140604853630066E-1  -6.965555548667908E-1   5.685424897819758E-3  -5.416444502770901E-3   5.644476041197777E-3  -5.371639505028725E-3  -7.050381302833557E-1   7.056721448898315E-1  
 4.180000000000000E7     6.850442290306091E-1  -7.258747816085815E-1   4.294444341212511E-3  -4.491820931434631E-3   4.418472759425640E-3  -4.427973646670580E-3  -6.934949159622192E-1   7.168895006179810E-1  
 4.210000000000000E7     6.559274792671204E-1  -7.522612810134888E-1   3.298911033198237E-3  -3.704844275489450E-3   3.261447185650468E-3  -3.595368005335331E-3  -6.805966496467590E-1   7.295143604278565E-1  
 4.240000000000000E7     6.255065798759460E-1  -7.764742374420166E-1   2.498675370588899E-3  -2.882110886275768E-3   2.466990845277906E-3  -2.902113832533360E-3  -6.692634820938110E-1   7.412968277931213E-1  
 4.270000000000000E7     5.942152738571167E-1  -8.006295561790466E-1   1.875886577181518E-3  -2.134241396561265E-3   1.884032739326358E-3  -2.259442815557122E-3  -6.560688018798828E-1   7.526968717575073E-1  
 4.300000000000000E7     5.623836517333984E-1  -8.239718079566956E-1   1.194902230054140E-3  -1.548386644572020E-3   1.216310309246182E-3  -1.515069045126438E-3  -6.436626911163330E-1   7.639741301536560E-1  
 4.330000000000000E7     5.329552888870239E-1  -8.446750640869141E-1   7.778450381010771E-4  -1.094671082682908E-3   8.719397592358291E-4  -1.123802852816880E-3  -6.311166882514954E-1   7.729805707931519E-1  
 4.360000000000000E7     4.988375306129456E-1  -8.638038039207459E-1   4.829067911487073E-4  -7.386510842479765E-4   4.745199112221599E-4  -6.394145893864334E-4  -6.194369196891785E-1   7.829426527023315E-1  
 4.390000000000000E7     4.655048847198486E-1  -8.836303353309631E-1   3.394936502445489E-4  -4.072213778272271E-4   2.585133770480752E-4  -4.437707830220461E-4  -6.067046523094177E-1   7.917477488517761E-1  
 4.420000000000000E7     4.319326579570770E-1  -8.989098072052002E-1   1.232121139764786E-4  -2.291725249961019E-4   1.639359397813678E-4  -1.595452195033431E-4  -5.940555930137634E-1   8.006524443626404E-1  
 4.450000000000000E7     3.980572223663330E-1  -9.146857857704163E-1   7.019961049081758E-5  -2.319747909496073E-5   6.795234367018566E-5  -6.512811523862183E-5  -5.832669138908386E-1   8.091649413108826E-1  
 4.480000000000000E7     3.638303577899933E-1  -9.287862181663513E-1   1.453685217711609E-5  -6.027418567100540E-5  -1.070273174264003E-5  -1.197689289256232E-5  -5.715816020965576E-1   8.175452947616577E-1  
 4.510000000000000E7     3.306566774845123E-1  -9.421124458312988E-1   3.451882002991624E-5   2.335604222025722E-5  -6.845481402706355E-5   1.638209687371273E-5  -5.596418976783752E-1   8.266777992248535E-1  
 4.540000000000000E7     2.953061163425446E-1  -9.529138207435608E-1   3.385294621693902E-5  -1.346873468719423E-4   2.428847619739827E-5  -7.815731078153476E-5  -5.476881861686707E-1   8.347283005714417E-1  
 4.570000000000000E7     2.602434754371643E-1  -9.637381434440613E-1   3.104273127974011E-5  -2.339296188438311E-4   7.145269773900509E-5  -2.674878342077136E-4  -5.353460311889648E-1   8.421490788459778E-1  
 4.600000000000000E7     2.274039834737778E-1  -9.715581536293030E-1   1.686614268692210E-4  -4.178900853730738E-4   1.240331039298326E-4  -4.555041377898306E-4  -5.243556499481201E-1   8.494179248809815E-1  
 4.630000000000000E7     1.895970255136490E-1  -9.799395203590393E-1   2.481100091245025E-4  -7.199245155788958E-4   2.488542813807726E-4  -7.716808468103409E-4  -5.126474499702454E-1   8.561350107192993E-1  
 4.660000000000000E7     1.539352834224701E-1  -9.869749546051025E-1   4.154026682954282E-4  -1.052772277034819E-3   3.959258028771728E-4  -1.022077980451286E-3  -4.994179010391235E-1   8.638995885848999E-1  
 4.690000000000000E7     1.196253001689911E-1  -9.908344745635986E-1   3.516924334689975E-4  -1.364559866487980E-3   3.798424731940031E-4  -1.349564176052809E-3  -4.885806441307068E-1   8.707480430603027E-1  
 4.720000000000000E7     8.347955346107483E-2  -9.940752983093262E-1   5.952350911684334E-4  -1.827280735597014E-3   5.366044351831079E-4  -1.807984779588878E-3  -4.756785631179810E-1   8.765806555747986E-1  
 4.750000000000000E7     4.880921542644501E-2  -9.973668456077576E-1   5.267912638373673E-4  -2.327316673472524E-3   6.475080735981464E-4  -2.329950453713536E-3  -4.645962417125702E-1   8.834959268569946E-1  
 4.780000000000000E7     1.386704668402672E-2  -9.981239438056946E-1   7.680847775191069E-4  -2.776646753773093E-3   6.646379479207099E-4  -2.787778154015541E-3  -4.521216750144959E-1   8.881302475929260E-1  
 4.810000000000000E7    -2.181370556354523E-2  -9.979082942008972E-1   6.945981876924634E-4  -3.386426949873567E-3   6.386552704498172E-4  -3.377794520929456E-3  -4.413036108016968E-1   8.943693637847900E-1  
 4.840000000000000E7    -5.690486356616020E-2  -9.971517324447632E-1   6.749097956344485E-4  -3.990494646131992E-3   7.258811383508146E-4  -4.042633809149265E-3  -4.295754134654999E-1   9.001051187515259E-1  
 4.870000000000000E7    -9.207707643508911E-2  -9.943121075630188E-1   7.428198587149382E-4  -4.513934720307589E-3   7.693542866036296E-4  -4.679790232330561E-3  -4.183719754219055E-1   9.057530760765076E-1  
 4.900000000000000E7    -1.275080740451813E-1  -9.908316731452942E-1   7.548019057139754E-4  -5.286928266286850E-3   6.542951450683177E-4  -5.300646182149649E-3  -4.066177308559418E-1   9.103140830993652E-1  
 4.930000000000000E7    -1.621608734130859E-1  -9.853839874267578E-1   6.764156278222799E-4  -6.023529451340437E-3   6.285691633820534E-4  -5.935885477811098E-3  -3.944666087627411E-1   9.161915779113770E-1  
 4.960000000000000E7    -1.958051025867462E-1  -9.774067401885986E-1   6.373131764121354E-4  -6.719525437802076E-3   6.675966433249414E-4  -6.724281236529350E-3  -3.827839195728302E-1   9.208036661148071E-1  
 4.990000000000000E7    -2.294857203960419E-1  -9.705111980438232E-1   5.123998271301389E-4  -7.477496750652790E-3   4.939435166306794E-4  -7.399062626063824E-3  -3.711220324039459E-1   9.252784252166748E-1  
 5.020000000000000E7    -2.625053226947784E-1  -9.633396267890930E-1   3.558936004992575E-4  -8.236254565417767E-3   3.824432205874473E-4  -8.219673298299313E-3  -3.601967394351959E-1   9.301024675369263E-1  
 5.050000000000000E7    -2.958926558494568E-1  -9.531626105308533E-1   1.958709908649325E-4  -9.012315422296524E-3   1.784666674211621E-4  -9.004525840282440E-3  -3.483447432518005E-1   9.357320666313171E-1  
 5.080000000000000E7    -3.283097445964813E-1  -9.430932402610779E-1   1.677899854257703E-5  -9.819371625781059E-3   5.957495886832476E-6  -9.840920567512512E-3  -3.362030684947968E-1   9.379889965057373E-1  
 5.110000000000000E7    -3.614273071289063E-1  -9.301725625991821E-1  -2.496369415894151E-4  -1.064024213701487E-2  -2.549623604863882E-4  -1.065563689917326E-2  -3.258442878723145E-1   9.428452849388123E-1  
 5.140000000000000E7    -3.931504189968109E-1  -9.170411825180054E-1  -5.124909803271294E-4  -1.150662917643786E-2  -5.497717065736651E-4  -1.151792425662279E-2  -3.131794333457947E-1   9.483410120010376E-1  
 5.170000000000000E7    -4.237717092037201E-1  -9.028893113136292E-1  -9.133939165621996E-4  -1.236502546817064E-2  -8.614142425358295E-4  -1.234403904527426E-2  -3.012474775314331E-1   9.501120448112488E-1  
 5.200000000000000E7    -4.552390575408936E-1  -8.893370032310486E-1  -1.249848632141948E-3  -1.321866735816002E-2  -1.180615625344217E-3  -1.328324619680643E-2  -2.895799875259399E-1   9.529626965522766E-1  
 5.230000000000000E7    -4.851518273353577E-1  -8.719669580459595E-1  -1.630162703804672E-3  -1.406925637274981E-2  -1.642323099076748E-3  -1.409164164215326E-2  -2.785880267620087E-1   9.572263360023499E-1  
 5.260000000000000E7    -5.138745307922363E-1  -8.536272644996643E-1  -2.062432002276182E-3  -1.501605287194252E-2  -2.090362366288900E-3  -1.500487141311169E-2  -2.665708959102631E-1   9.611337780952454E-1  
 5.290000000000000E7    -5.440376400947571E-1  -8.362386226654053E-1  -2.598650055006146E-3  -1.585974730551243E-2  -2.599159255623817E-3  -1.588017120957375E-2  -2.553816437721252E-1   9.635611772537231E-1  
 5.320000000000000E7    -5.717805027961731E-1  -8.185002207756043E-1  -3.135961480438709E-3  -1.676264591515064E-2  -3.182838903740048E-3  -1.677906885743141E-2  -2.433549761772156E-1   9.669107794761658E-1  
 5.350000000000000E7    -5.985814332962036E-1  -7.978973984718323E-1  -3.712345613166690E-3  -1.763785630464554E-2  -3.731946926563978E-3  -1.765567623078823E-2  -2.333304882049561E-1   9.700343012809753E-1  
 5.380000000000000E7    -6.241701841354370E-1  -7.771727442741394E-1  -4.341872874647379E-3  -1.856512203812599E-2  -4.365403205156326E-3  -1.851518824696541E-2  -2.196017801761627E-1   9.719846844673157E-1  
 5.410000000000000E7    -6.530326604843140E-1  -7.556956410408020E-1  -5.038692150264978E-3  -1.946340501308441E-2  -5.038856063038111E-3  -1.943583600223064E-2  -2.085923701524735E-1   9.748145937919617E-1  
 5.440000000000000E7    -6.775801181793213E-1  -7.321125864982605E-1  -5.807138048112392E-3  -2.033285982906818E-2  -5.763576366007328E-3  -2.032114565372467E-2  -1.971941143274307E-1   9.769673347473145E-1  
 5.470000000000000E7    -7.006492614746094E-1  -7.096093893051148E-1  -6.527179852128029E-3  -2.114033140242100E-2  -6.611721590161324E-3  -2.117062173783779E-2  -1.846429109573364E-1   9.789025783538818E-1  
 5.500000000000000E7    -7.251943349838257E-1  -6.853077411651611E-1  -7.422082126140595E-3  -2.208874933421612E-2  -7.349521853029728E-3  -2.205677516758442E-2  -1.725526154041290E-1   9.822452664375305E-1  
 5.530000000000000E7    -7.476815581321716E-1  -6.602735519409180E-1  -8.204121142625809E-3  -2.294856496155262E-2  -8.268729783594608E-3  -2.290316298604012E-2  -1.612481176853180E-1   9.833512306213379E-1  
 5.560000000000000E7    -7.703685164451599E-1  -6.338770985603333E-1  -9.246576577425003E-3  -2.379645779728890E-2  -9.133243933320046E-3  -2.374752238392830E-2  -1.503656357526779E-1   9.855539202690125E-1  
 5.590000000000000E7    -7.911508679389954E-1  -6.085945963859558E-1  -1.013619732111692E-2  -2.458283863961697E-2  -1.019030809402466E-2  -2.457407489418984E-2  -1.375005990266800E-1   9.871128797531128E-1  
 5.620000000000000E7    -8.110691905021668E-1  -5.798121094703674E-1  -1.112565398216248E-2  -2.540048956871033E-2  -1.110905967652798E-2  -2.529448457062244E-2  -1.266520321369171E-1   9.889564514160156E-1  
 5.650000000000000E7    -8.295075297355652E-1  -5.535272955894470E-1  -1.215414982289076E-2  -2.617019228637219E-2  -1.217450015246868E-2  -2.613560482859612E-2  -1.145191788673401E-1   9.901152253150940E-1  
 5.680000000000000E7    -8.482206463813782E-1  -5.250171422958374E-1  -1.332514733076096E-2  -2.692988142371178E-2  -1.338603720068932E-2  -2.689644508063793E-2  -1.025886610150337E-1   9.908930659294128E-1  
 5.710000000000000E7    -8.657261133193970E-1  -4.948550164699554E-1  -1.451982744038105E-2  -2.765071578323841E-2  -1.453989185392857E-2  -2.768795937299728E-2  -9.131096303462982E-2   9.924199581146240E-1  
 5.740000000000000E7    -8.824764490127564E-1  -4.653258919715881E-1  -1.575072854757309E-2  -2.837910503149033E-2  -1.569898054003716E-2  -2.837922982871532E-2  -7.868929952383041E-2   9.932583570480347E-1  
 5.770000000000000E7    -8.963124752044678E-1  -4.366254806518555E-1  -1.690665073692799E-2  -2.914405055344105E-2  -1.687274314463139E-2  -2.906250208616257E-2  -6.842611730098724E-2   9.932404756546021E-1  
 5.800000000000000E7    -9.107194542884827E-1  -4.047326445579529E-1  -1.831242442131043E-2  -2.977444231510162E-2  -1.831533014774323E-2  -2.960153669118881E-2  -5.469270050525665E-2   9.957196712493897E-1  
 5.830000000000000E7    -9.236401915550232E-1  -3.738251924514771E-1  -1.959599182009697E-2  -3.032517246901989E-2  -1.963597536087036E-2  -3.032786771655083E-2  -4.438120871782303E-2   9.958887100219727E-1  
 5.860000000000000E7    -9.369049072265625E-1  -3.430839478969574E-1  -2.100757509469986E-2  -3.095760382711887E-2  -2.104125358164311E-2  -3.096910379827023E-2  -3.216530382633209E-2   9.959401488304138E-1  
 5.890000000000000E7    -9.468497037887573E-1  -3.111928701400757E-1  -2.245991490781307E-2  -3.156133368611336E-2  -2.237940207123756E-2  -3.159594535827637E-2  -2.110195159912109E-2   9.954908490180969E-1  
 5.920000000000000E7    -9.569103121757507E-1  -2.778302431106567E-1  -2.401944994926453E-2  -3.203173354268074E-2  -2.403338812291622E-2  -3.193183243274689E-2  -8.476853370666504E-3   9.966938495635986E-1  
 5.950000000000000E7    -9.654582142829895E-1  -2.455789744853973E-1  -2.549338340759277E-2  -3.248687461018562E-2  -2.549116313457489E-2  -3.245799988508225E-2   3.117054700851440E-3   9.953029751777649E-1  
 5.980000000000000E7    -9.731657505035400E-1  -2.124514728784561E-1  -2.714511007070541E-2  -3.285945951938629E-2  -2.704041823744774E-2  -3.284712508320808E-2   1.591093838214874E-2   9.951520562171936E-1  
 6.010000000000000E7    -9.786402583122253E-1  -1.808798760175705E-1  -2.867844328284264E-2  -3.342475369572640E-2  -2.859441563487053E-2  -3.336068242788315E-2   2.661941945552826E-2   9.956970810890198E-1  
 6.040000000000000E7    -9.849405884742737E-1  -1.461741179227829E-1  -3.043083287775517E-2  -3.367872163653374E-2  -3.040481172502041E-2  -3.374955803155899E-2   3.880923241376877E-2   9.958280324935913E-1  
 6.070000000000000E7    -9.903126358985901E-1  -1.143624037504196E-1  -3.221008926630020E-2  -3.410330414772034E-2  -3.203675895929337E-2  -3.410718217492104E-2   4.982142150402069E-2   9.943763613700867E-1  
 6.100000000000000E7    -9.930480122566223E-1  -8.076176047325134E-2  -3.404614329338074E-2  -3.421744704246521E-2  -3.386736661195755E-2  -3.427458181977272E-2   6.300292164087296E-2   9.936553835868835E-1  
 6.130000000000000E7    -9.953008890151978E-1  -4.634317755699158E-2  -3.572563827037811E-2  -3.450977429747582E-2  -3.569625318050385E-2  -3.456016257405281E-2   7.529233396053314E-2   9.935894608497620E-1  
 6.160000000000000E7    -9.956290125846863E-1  -1.348014175891876E-2  -3.746690601110458E-2  -3.467978537082672E-2  -3.751655295491219E-2  -3.464293479919434E-2   8.596812933683395E-2   9.910391569137573E-1  
 6.190000000000000E7    -9.949091672897339E-1   2.017390727996826E-2  -3.931706398725510E-2  -3.478585928678513E-2  -3.927960246801376E-2  -3.463486582040787E-2   9.727749228477478E-2   9.894731044769287E-1  
 6.220000000000000E7    -9.942287802696228E-1   5.369320511817932E-2  -4.111701995134354E-2  -3.484677150845528E-2  -4.128263145685196E-2  -3.486379608511925E-2   1.086482033133507E-1   9.895346164703369E-1  
 6.250000000000000E7    -9.918925166130066E-1   8.739494532346726E-2  -4.315007850527763E-2  -3.487571328878403E-2  -4.333226755261421E-2  -3.479802981019020E-2   1.204239577054977E-1   9.883766174316406E-1  
 6.280000000000000E7    -9.875165224075317E-1   1.206442862749100E-1  -4.535418003797531E-2  -3.488030657172203E-2  -4.520640149712563E-2  -3.487320616841316E-2   1.328732818365097E-1   9.868662953376770E-1  
 6.310000000000000E7    -9.824627637863159E-1   1.550618410110474E-1  -4.741885885596275E-2  -3.474175184965134E-2  -4.725052416324616E-2  -3.473643213510513E-2   1.444776952266693E-1   9.853080511093140E-1  
 6.340000000000000E7    -9.768513441085815E-1   1.877800226211548E-1  -4.945118725299835E-2  -3.459886088967323E-2  -4.934342205524445E-2  -3.435683250427246E-2   1.567404270172119E-1   9.835405945777893E-1  
 6.370000000000000E7    -9.695187211036682E-1   2.208616584539414E-1  -5.142010003328323E-2  -3.415902704000473E-2  -5.147969722747803E-2  -3.417757153511047E-2   1.676700413227081E-1   9.805049300193787E-1  
 6.400000000000000E7    -9.607911109924316E-1   2.529738247394562E-1  -5.368312448263168E-2  -3.381841629743576E-2  -5.352884531021118E-2  -3.368923440575600E-2   1.801673620939255E-1   9.792073369026184E-1  
 6.430000000000000E7    -9.511773586273193E-1   2.867093384265900E-1  -5.594172701239586E-2  -3.358280658721924E-2  -5.580392107367516E-2  -3.331487625837326E-2   1.916588842868805E-1   9.765807390213013E-1  
 6.460000000000000E7    -9.416177272796631E-1   3.188098073005676E-1  -5.789783596992493E-2  -3.300226107239723E-2  -5.785085260868073E-2  -3.305316343903542E-2   2.023746967315674E-1   9.736299514770508E-1  
 6.490000000000000E7    -9.314798116683960E-1   3.502891659736633E-1  -6.014678999781609E-2  -3.250096365809441E-2  -6.026609241962433E-2  -3.259488940238953E-2   2.142182290554047E-1   9.717897772789002E-1  
 6.520000000000000E7    -9.179930090904236E-1   3.812175393104553E-1  -6.256329268217087E-2  -3.206543996930122E-2  -6.242481246590614E-2  -3.190121054649353E-2   2.262118756771088E-1   9.696543216705322E-1  
 6.550000000000000E7    -9.049094319343567E-1   4.116545915603638E-1  -6.488136202096939E-2  -3.121665492653847E-2  -6.471720337867737E-2  -3.124082833528519E-2   2.376102209091187E-1   9.649454951286316E-1  
 6.580000000000000E7    -8.893343210220337E-1   4.424939751625061E-1  -6.722279638051987E-2  -3.024040535092354E-2  -6.702178716659546E-2  -3.041567467153072E-2   2.497927844524384E-1   9.632081985473633E-1  
 6.610000000000000E7    -8.731089830398560E-1   4.722477197647095E-1  -6.950443983078003E-2  -2.957844361662865E-2  -6.911665946245194E-2  -2.922454476356506E-2   2.621120214462280E-1   9.581976532936096E-1  
 6.640000000000000E7    -8.579149842262268E-1   5.022614598274231E-1  -7.195118069648743E-2  -2.864750288426876E-2  -7.183470577001572E-2  -2.879507094621658E-2   2.735897004604340E-1   9.555631875991821E-1  
 6.670000000000000E7    -8.395102620124817E-1   5.307422280311585E-1  -7.419339567422867E-2  -2.757939323782921E-2  -7.407081127166748E-2  -2.771217375993729E-2   2.841734886169434E-1   9.528981447219849E-1  
 6.700000000000000E7    -8.205612301826477E-1   5.589217543601990E-1  -7.656499743461609E-2  -2.648147009313107E-2  -7.619218528270721E-2  -2.639370784163475E-2   2.957660555839539E-1   9.479213356971741E-1  
 6.730000000000000E7    -8.006523251533508E-1   5.865926146507263E-1  -7.877933979034424E-2  -2.540336363017559E-2  -7.879607379436493E-2  -2.512753754854202E-2   3.081155419349670E-1   9.453361630439758E-1  
 6.760000000000000E7    -7.804360389709473E-1   6.135328412055969E-1  -8.139371871948242E-2  -2.378169819712639E-2  -8.126566559076309E-2  -2.392514050006867E-2   3.201056420803070E-1   9.407443404197693E-1  
 6.790000000000000E7    -7.583476901054382E-1   6.400884985923767E-1  -8.361703902482987E-2  -2.267820015549660E-2  -8.368121832609177E-2  -2.247440628707409E-2   3.304021060466766E-1   9.359583258628845E-1  
 6.820000000000000E7    -7.357848882675171E-1   6.649532914161682E-1  -8.609762042760849E-2  -2.096499875187874E-2  -8.604578673839569E-2  -2.113766595721245E-2   3.418732285499573E-1   9.323716163635254E-1  
 6.850000000000000E7    -7.129069566726685E-1   6.904124021530151E-1  -8.881129324436188E-2  -1.966607756912708E-2  -8.854214847087860E-2  -1.959447190165520E-2   3.528735935688019E-1   9.284058213233948E-1  
 6.880000000000000E7    -6.883123517036438E-1   7.138744592666626E-1  -9.108915925025940E-2  -1.782205142080784E-2  -9.078940749168396E-2  -1.780448108911514E-2   3.648148179054260E-1   9.229875206947327E-1  
 6.910000000000000E7    -6.633723974227905E-1   7.371717095375061E-1  -9.365340322256088E-2  -1.601086929440498E-2  -9.335981309413910E-2  -1.603237167000771E-2   3.768552541732788E-1   9.185255765914917E-1  
 6.940000000000000E7    -6.377536058425903E-1   7.598559856414795E-1  -9.594368189573288E-2  -1.421360392123461E-2  -9.594102203845978E-2  -1.414405927062035E-2   3.871429264545441E-1   9.138432145118713E-1  
 6.970000000000000E7    -6.099193096160889E-1   7.808071374893189E-1  -9.834750741720200E-2  -1.219821162521839E-2  -9.833266586065292E-2  -1.190133206546307E-2   3.991504013538361E-1   9.080870151519775E-1  
 7.000000000000000E7    -5.827546715736389E-1   8.023597598075867E-1  -1.009195446968079E-1  -1.003035157918930E-2  -1.006122902035713E-1  -1.000880822539330E-2   4.098950624465942E-1   9.033427834510803E-1  
