#  HZ   S   RI   R     50.00 
! Rohde & Schwarz ZVT8 8Ports - Version 4.11 - 1300.0000k08 SN: 100242
! Date: 2026-07-31 14:27:56
! Measurements: S11 S21 S12 S22 
! 
 1.000000000000000E7    -4.065053761005402E-1   9.095443487167358E-1   5.285644158720970E-2   5.317864939570427E-2   5.236180126667023E-2   5.314523354172707E-2  -9.165346026420593E-1   3.905768394470215E-1  
 1.030000000000000E7    -3.741145431995392E-1   9.223722815513611E-1   5.603376403450966E-2   5.349511653184891E-2   5.588474869728088E-2   5.357851088047028E-2  -9.103478193283081E-1   4.043920636177063E-1  
 1.060000000000000E7    -3.387221097946167E-1   9.355281591415405E-1   5.974725633859634E-2   5.462519451975822E-2   5.954923480749130E-2   5.422138795256615E-2  -9.063506722450256E-1   4.163835644721985E-1  
 1.090000000000000E7    -3.071194887161255E-1   9.457348585128784E-1   6.308444589376450E-2   5.492723733186722E-2   6.305059790611267E-2   5.481998249888420E-2  -8.996883630752564E-1   4.284535646438599E-1  
 1.120000000000000E7    -2.718198895454407E-1   9.556124210357666E-1   6.706002354621887E-2   5.561464279890060E-2   6.654039770364761E-2   5.542073026299477E-2  -8.935860991477966E-1   4.408645331859589E-1  
 1.150000000000000E7    -2.369179874658585E-1   9.658616185188294E-1   7.079097628593445E-2   5.553044378757477E-2   7.062458992004395E-2   5.573593452572823E-2  -8.862097263336182E-1   4.510574340820313E-1  
 1.180000000000000E7    -2.022178322076798E-1   9.709171652793884E-1   7.466011494398117E-2   5.596302449703217E-2   7.453027367591858E-2   5.573319643735886E-2  -8.810397386550903E-1   4.631702899932861E-1  
 1.210000000000000E7    -1.679655015468597E-1   9.777754545211792E-1   7.885529100894928E-2   5.610474944114685E-2   7.860673964023590E-2   5.604079365730286E-2  -8.725972175598145E-1   4.763607978820801E-1  
 1.240000000000000E7    -1.326997727155685E-1   9.820948839187622E-1   8.279574662446976E-2   5.627819523215294E-2   8.302660286426544E-2   5.580261722207069E-2  -8.653370141983032E-1   4.870313405990601E-1  
 1.270000000000000E7    -9.719635546207428E-2   9.859524965286255E-1   8.793927729129791E-2   5.584450438618660E-2   8.732920140028000E-2   5.554036423563957E-2  -8.577011227607727E-1   5.017055869102478E-1  
 1.300000000000000E7    -6.262958794832230E-2   9.889461994171143E-1   9.177129715681076E-2   5.551528185606003E-2   9.183379262685776E-2   5.559841915965080E-2  -8.490788340568543E-1   5.133149027824402E-1  
 1.330000000000000E7    -2.658327668905258E-2   9.910193681716919E-1   9.678808599710465E-2   5.495742708444595E-2   9.671182930469513E-2   5.467132106423378E-2  -8.408048748970032E-1   5.263320207595825E-1  
 1.360000000000000E7     1.017910987138748E-2   9.909216761589050E-1   1.015981510281563E-1   5.451922491192818E-2   1.018451601266861E-1   5.402861163020134E-2  -8.326049447059631E-1   5.373392105102539E-1  
 1.390000000000000E7     4.462106153368950E-2   9.889949560165405E-1   1.068274676799774E-1   5.352875962853432E-2   1.065611019730568E-1   5.363618209958077E-2  -8.239802122116089E-1   5.502744913101196E-1  
 1.420000000000000E7     8.154951035976410E-2   9.866469502449036E-1   1.118719577789307E-1   5.260181799530983E-2   1.116400733590126E-1   5.269888788461685E-2  -8.166220188140869E-1   5.618137121200562E-1  
 1.450000000000000E7     1.172294542193413E-1   9.810361862182617E-1   1.173295602202416E-1   5.134773999452591E-2   1.173254027962685E-1   5.119279026985169E-2  -8.041425347328186E-1   5.754836797714233E-1  
 1.480000000000000E7     1.545302122831345E-1   9.759263992309570E-1   1.227354928851128E-1   4.968691617250443E-2   1.226861700415611E-1   5.011684820055962E-2  -7.956379055976868E-1   5.876818299293518E-1  
 1.510000000000000E7     1.894483715295792E-1   9.684428572654724E-1   1.282675266265869E-1   4.781197011470795E-2   1.283262372016907E-1   4.791461676359177E-2  -7.829920649528503E-1   6.009187698364258E-1  
 1.540000000000000E7     2.242816835641861E-1   9.604181051254273E-1   1.341680437326431E-1   4.697874560952187E-2   1.341245174407959E-1   4.633418843150139E-2  -7.748699188232422E-1   6.128744482994080E-1  
 1.570000000000000E7     2.606343626976013E-1   9.521180987358093E-1   1.402348726987839E-1   4.438180848956108E-2   1.404838562011719E-1   4.431443288922310E-2  -7.629197239875794E-1   6.265938878059387E-1  
 1.600000000000000E7     2.964312732219696E-1   9.394000768661499E-1   1.464796364307404E-1   4.187572374939919E-2   1.467863321304321E-1   4.150901362299919E-2  -7.509446740150452E-1   6.379932165145874E-1  
 1.630000000000000E7     3.306852579116821E-1   9.273310303688049E-1   1.535820662975311E-1   3.883631899952889E-2   1.529613584280014E-1   3.902728110551834E-2  -7.384592294692993E-1   6.522513628005981E-1  
 1.660000000000000E7     3.653937578201294E-1   9.117037057876587E-1   1.601918637752533E-1   3.564193099737167E-2   1.596450060606003E-1   3.505789861083031E-2  -7.236103415489197E-1   6.654585003852844E-1  
 1.690000000000000E7     3.993077874183655E-1   8.966122865676880E-1   1.670988798141480E-1   3.255183622241020E-2   1.669498682022095E-1   3.224976360797882E-2  -7.113023996353149E-1   6.778967380523682E-1  
 1.720000000000000E7     4.347708821296692E-1   8.796682357788086E-1   1.735436320304871E-1   2.800429239869118E-2   1.737202554941177E-1   2.849894389510155E-2  -6.968914270401001E-1   6.899526715278626E-1  
 1.750000000000000E7     4.638421237468720E-1   8.638107180595398E-1   1.819494366645813E-1   2.512117102742195E-2   1.820059716701508E-1   2.474856376647949E-2  -6.823210716247559E-1   7.051070928573608E-1  
 1.780000000000000E7     4.993937015533447E-1   8.404778242111206E-1   1.884123980998993E-1   1.962103322148323E-2   1.888060569763184E-1   2.000739425420761E-2  -6.663540005683899E-1   7.156364917755127E-1  
 1.810000000000000E7     5.296874046325684E-1   8.207132816314697E-1   1.975232660770416E-1   1.470887660980225E-2   1.963696479797363E-1   1.414148882031441E-2  -6.494264602661133E-1   7.321831583976746E-1  
 1.840000000000000E7     5.626981258392334E-1   7.978354096412659E-1   2.056804746389389E-1   7.763285189867020E-3   2.047656327486038E-1   8.270101621747017E-3  -6.306284666061401E-1   7.444130182266235E-1  
 1.870000000000000E7     5.910084247589111E-1   7.738583087921143E-1   2.138562947511673E-1   2.213880419731140E-3   2.129257768392563E-1   1.829322427511215E-3  -6.121775507926941E-1   7.569412589073181E-1  
 1.900000000000000E7     6.201981306076050E-1   7.488361001014710E-1   2.223129570484161E-1  -4.396764561533928E-3   2.217609286308289E-1  -5.137376487255096E-3  -5.923486948013306E-1   7.697272896766663E-1  
 1.930000000000000E7     6.490569114685059E-1   7.211561203002930E-1   2.308495044708252E-1  -1.328659523278475E-2   2.311405688524246E-1  -1.253738440573216E-2  -5.713024139404297E-1   7.843811511993408E-1  
 1.960000000000000E7     6.769593358039856E-1   6.918740272521973E-1   2.395142614841461E-1  -2.161401696503162E-2   2.397262901067734E-1  -2.107300236821175E-2  -5.507397651672363E-1   7.958360910415649E-1  
 1.990000000000000E7     7.011077404022217E-1   6.616438627243042E-1   2.487650513648987E-1  -3.114195354282856E-2   2.492001801729202E-1  -3.119160421192646E-2  -5.247608423233032E-1   8.104381561279297E-1  
 2.020000000000000E7     7.257410287857056E-1   6.298239231109619E-1   2.587558925151825E-1  -4.131430014967918E-2   2.579173147678375E-1  -4.126789793372154E-2  -5.008206367492676E-1   8.199720382690430E-1  
 2.050000000000000E7     7.512080669403076E-1   5.965128540992737E-1   2.684528231620789E-1  -5.237704515457153E-2   2.665415406227112E-1  -5.283311754465103E-2  -4.746664166450501E-1   8.322767019271851E-1  
 2.080000000000000E7     7.719364166259766E-1   5.605044960975647E-1   2.782602608203888E-1  -6.559439003467560E-2   2.783800065517426E-1  -6.532564759254456E-2  -4.458733201026917E-1   8.457974791526794E-1  
 2.110000000000000E7     7.928258180618286E-1   5.250847339630127E-1   2.884844243526459E-1  -8.050781488418579E-2   2.883548438549042E-1  -8.032710850238800E-2  -4.143901467323303E-1   8.559327125549316E-1  
 2.140000000000000E7     8.111693263053894E-1   4.883716106414795E-1   2.986166179180145E-1  -9.664532542228699E-2   2.973969876766205E-1  -9.537355601787567E-2  -3.819381594657898E-1   8.660244345664978E-1  
 2.170000000000000E7     8.260132074356079E-1   4.505515992641449E-1   3.085135519504547E-1  -1.131754815578461E-1   3.085117340087891E-1  -1.122178882360458E-1  -3.468027710914612E-1   8.753305673599243E-1  
 2.200000000000000E7     8.419797420501709E-1   4.087880551815033E-1   3.179926276206970E-1  -1.329938620328903E-1   3.180296123027802E-1  -1.325509250164032E-1  -3.073609471321106E-1   8.828331232070923E-1  
 2.230000000000000E7     8.526665568351746E-1   3.677017092704773E-1   3.276089131832123E-1  -1.543091982603073E-1   3.270946741104126E-1  -1.533344089984894E-1  -2.673184275627136E-1   8.885519504547119E-1  
 2.260000000000000E7     8.624910116195679E-1   3.250616490840912E-1   3.363496661186218E-1  -1.778902560472488E-1   3.380372226238251E-1  -1.779867112636566E-1  -2.233974337577820E-1   8.926480412483215E-1  
 2.290000000000000E7     8.688206672668457E-1   2.807991504669190E-1   3.447272181510925E-1  -2.044878602027893E-1   3.454386293888092E-1  -2.037447839975357E-1  -1.743743717670441E-1   8.935238718986511E-1  
 2.320000000000000E7     8.704500198364258E-1   2.369776964187622E-1   3.519280552864075E-1  -2.350040525197983E-1   3.511154055595398E-1  -2.350932210683823E-1  -1.230706200003624E-1   8.937678337097168E-1  
 2.350000000000000E7     8.698083162307739E-1   1.909396052360535E-1   3.569130599498749E-1  -2.689317464828491E-1   3.566980063915253E-1  -2.674708962440491E-1  -6.805235147476196E-2   8.877271413803101E-1  
 2.380000000000000E7     8.652536273002625E-1   1.460208892822266E-1   3.606033325195313E-1  -3.040418028831482E-1   3.605341911315918E-1  -3.039524257183075E-1  -8.557997643947601E-3   8.770084381103516E-1  
 2.410000000000000E7     8.572213649749756E-1   9.972091019153595E-2   3.602891564369202E-1  -3.452627658843994E-1   3.594394028186798E-1  -3.443987369537354E-1   5.483750998973846E-2   8.589770793914795E-1  
 2.440000000000000E7     8.424166440963745E-1   5.660459771752358E-2   3.560288548469544E-1  -3.902373313903809E-1   3.563462197780609E-1  -3.908996582031250E-1   1.210166811943054E-1   8.341118693351746E-1  
 2.470000000000000E7     8.242459297180176E-1   1.418068632483482E-2   3.464337885379791E-1  -4.392951130867004E-1   3.475506901741028E-1  -4.371063113212585E-1   1.919672489166260E-1   7.983104586601257E-1  
 2.500000000000000E7     8.010234832763672E-1  -2.764936350286007E-2   3.311694860458374E-1  -4.904677569866180E-1   3.302059173583984E-1  -4.918626546859741E-1   2.645578086376190E-1   7.524738311767578E-1  
 2.530000000000000E7     7.710314989089966E-1  -6.426645815372467E-2   3.083435595035553E-1  -5.479601025581360E-1   3.080996572971344E-1  -5.464237332344055E-1   3.367531895637512E-1   6.918022036552429E-1  
 2.560000000000000E7     7.371519207954407E-1  -9.570246189832687E-2   2.747031748294830E-1  -6.046868562698364E-1   2.744760215282440E-1  -6.047146916389465E-1   4.066124558448792E-1   6.158480048179627E-1  
 2.590000000000000E7     6.993005275726318E-1  -1.175832226872444E-1   2.252997010946274E-1  -6.615868806838989E-1   2.253117859363556E-1  -6.631790995597839E-1   4.719361960887909E-1   5.235019326210022E-1  
 2.620000000000000E7     6.582461595535278E-1  -1.329315304756165E-1   1.634414047002792E-1  -7.174202799797058E-1   1.640940606594086E-1  -7.158107161521912E-1   5.247383117675781E-1   4.100479483604431E-1  
 2.650000000000000E7     6.162296533584595E-1  -1.383715569972992E-1   9.054142236709595E-2  -7.640454173088074E-1   8.947023749351502E-2  -7.644749879837036E-1   5.584561228752136E-1   2.811511456966400E-1  
 2.680000000000000E7     5.774213075637817E-1  -1.316267848014832E-1   9.243935346603394E-4  -7.998902797698975E-1   7.727481424808502E-4  -7.999154329299927E-1   5.678089261054993E-1   1.387658417224884E-1  
 2.710000000000000E7     5.469929575920105E-1  -1.176995784044266E-1  -9.864765405654907E-2  -8.170916438102722E-1  -1.002412438392639E-1  -8.166151046752930E-1   5.516076683998108E-1  -9.423580020666122E-3  
 2.740000000000000E7     5.229802727699280E-1  -9.202705323696137E-2  -2.062561064958572E-1  -8.165047168731690E-1  -2.055769562721252E-1  -8.165383934974670E-1   4.965721070766449E-1  -1.582883000373840E-1  
 2.770000000000000E7     5.152150988578796E-1  -6.434079259634018E-2  -3.108298778533936E-1  -7.901278734207153E-1  -3.111336529254913E-1  -7.920356988906860E-1   4.133553802967072E-1  -2.934809327125549E-1  
 2.800000000000000E7     5.176663398742676E-1  -3.571983054280281E-2  -4.100257754325867E-1  -7.441617846488953E-1  -4.071497023105621E-1  -7.458748221397400E-1   3.003054261207581E-1  -4.107826054096222E-1  
 2.830000000000000E7     5.326896905899048E-1  -1.250461488962174E-2  -4.944290816783905E-1  -6.795151829719544E-1  -4.948202967643738E-1  -6.783069372177124E-1   1.720736473798752E-1  -4.953844845294952E-1  
 2.860000000000000E7     5.603029131889343E-1   3.343492746353149E-3  -5.622026920318604E-1  -6.013283133506775E-1  -5.615214705467224E-1  -6.005279421806335E-1   3.128542751073837E-2  -5.508965849876404E-1  
 2.890000000000000E7     5.936264991760254E-1   7.797081023454666E-3  -6.104060411453247E-1  -5.164407491683960E-1  -6.099918484687805E-1  -5.146453380584717E-1  -1.100999638438225E-1  -5.752492547035217E-1  
 2.920000000000000E7     6.297959089279175E-1   3.615390509366989E-3  -6.417209506034851E-1  -4.293201267719269E-1  -6.410710215568543E-1  -4.279599785804749E-1  -2.443736642599106E-1  -5.741614103317261E-1  
 2.950000000000000E7     6.661441922187805E-1  -1.352124288678169E-2  -6.551244258880615E-1  -3.470883965492249E-1  -6.538426876068115E-1  -3.466811478137970E-1  -3.647735714912415E-1  -5.500230193138123E-1  
 2.980000000000000E7     6.984930038452148E-1  -3.805999457836151E-2  -6.564005613327026E-1  -2.686675190925598E-1  -6.563283801078796E-1  -2.692914009094238E-1  -4.716327488422394E-1  -5.103076100349426E-1  
 3.010000000000000E7     7.270424962043762E-1  -7.285269349813461E-2  -6.484223008155823E-1  -1.984439194202423E-1  -6.464658379554749E-1  -1.994496881961823E-1  -5.626854300498962E-1  -4.604672789573669E-1  
 3.040000000000000E7     7.518730163574219E-1  -1.123017370700836E-1  -6.307244896888733E-1  -1.359293311834335E-1  -6.326071023941040E-1  -1.365641802549362E-1  -6.381932497024536E-1  -4.036619961261749E-1  
 3.070000000000000E7     7.675207853317261E-1  -1.562173068523407E-1  -6.103693842887878E-1  -7.999904453754425E-2  -6.093713641166687E-1  -8.109696209430695E-2  -7.010242342948914E-1  -3.456736505031586E-1  
 3.100000000000000E7     7.792552113533020E-1  -2.044044882059097E-1  -5.855581760406494E-1  -3.316660597920418E-2  -5.846561789512634E-1  -3.315733000636101E-2  -7.518997788429260E-1  -2.861193418502808E-1  
 3.130000000000000E7     7.848827242851257E-1  -2.533172070980072E-1  -5.598282814025879E-1   7.879437878727913E-3  -5.594145059585571E-1   7.427885197103024E-3  -7.921919226646423E-1  -2.259150892496109E-1  
 3.160000000000000E7     7.846404314041138E-1  -3.050138950347900E-1  -5.312069058418274E-1   4.258631914854050E-2  -5.323506593704224E-1   4.281184822320938E-2  -8.231192827224731E-1  -1.697630584239960E-1  
 3.190000000000000E7     7.783868312835693E-1  -3.553664982318878E-1  -5.040989518165588E-1   7.342275232076645E-2  -5.035067200660706E-1   7.305932044982910E-2  -8.481522798538208E-1  -1.142958477139473E-1  
 3.220000000000000E7     7.694070935249329E-1  -4.074118137359619E-1  -4.769147038459778E-1   9.974035620689392E-2  -4.764837026596069E-1   9.972363710403442E-2  -8.669182658195496E-1  -6.224815547466278E-2  
 3.250000000000000E7     7.530456185340881E-1  -4.583266079425812E-1  -4.501705765724182E-1   1.212664991617203E-1  -4.504187703132629E-1   1.218508034944534E-1  -8.803780674934387E-1  -1.320794504135847E-2  
 3.280000000000000E7     7.314414381980896E-1  -5.080067515373230E-1  -4.234869182109833E-1   1.393668949604034E-1  -4.234715104103088E-1   1.401639282703400E-1  -8.906363844871521E-1   3.430195897817612E-2  
 3.310000000000000E7     7.068439126014710E-1  -5.558949112892151E-1  -3.988671004772186E-1   1.573069691658020E-1  -3.992261290550232E-1   1.570355445146561E-1  -8.969997763633728E-1   7.773238420486450E-2  
 3.340000000000000E7     6.771001815795898E-1  -6.036102771759033E-1  -3.752424120903015E-1   1.714358627796173E-1  -3.742620050907135E-1   1.713815182447434E-1  -9.000172615051270E-1   1.204151511192322E-1  
 3.370000000000000E7     6.436800360679627E-1  -6.488827466964722E-1  -3.510550856590271E-1   1.830061972141266E-1  -3.517255485057831E-1   1.823006272315979E-1  -9.013299942016602E-1   1.586883068084717E-1  
 3.400000000000000E7     6.048223972320557E-1  -6.934805512428284E-1  -3.286428451538086E-1   1.935268491506577E-1  -3.290470540523529E-1   1.934664398431778E-1  -8.996649384498596E-1   1.951928883790970E-1  
 3.430000000000000E7     5.631003379821777E-1  -7.354271411895752E-1  -3.075411021709442E-1   2.031082510948181E-1  -3.065968751907349E-1   2.018379718065262E-1  -8.975532054901123E-1   2.291536629199982E-1  
 3.460000000000000E7     5.159649848937988E-1  -7.743213176727295E-1  -2.862198054790497E-1   2.103277742862701E-1  -2.863917946815491E-1   2.099108099937439E-1  -8.950426578521729E-1   2.610983848571777E-1  
 3.490000000000000E7     4.654339551925659E-1  -8.106129765510559E-1  -2.666436135768890E-1   2.172412276268005E-1  -2.647532522678375E-1   2.154487073421478E-1  -8.892874121665955E-1   2.912026941776276E-1  
 3.520000000000000E7     4.117426276206970E-1  -8.447077274322510E-1  -2.461432069540024E-1   2.217990607023239E-1  -2.462621331214905E-1   2.204993516206741E-1  -8.849812150001526E-1   3.205767273902893E-1  
 3.550000000000000E7     3.519785702228546E-1  -8.743898868560791E-1  -2.274648845195770E-1   2.250975072383881E-1  -2.271285951137543E-1   2.251205593347549E-1  -8.784578442573547E-1   3.469652831554413E-1  
 3.580000000000000E7     2.895996570587158E-1  -9.003813862800598E-1  -2.083586007356644E-1   2.288511246442795E-1  -2.084469497203827E-1   2.283025830984116E-1  -8.711503744125366E-1   3.733370304107666E-1  
 3.610000000000000E7     2.229835987091065E-1  -9.217733144760132E-1  -1.912482529878616E-1   2.316653728485107E-1  -1.905031055212021E-1   2.310408502817154E-1  -8.651793599128723E-1   3.990564346313477E-1  
 3.640000000000000E7     1.524342149496079E-1  -9.393234848976135E-1  -1.731254905462265E-1   2.327226847410202E-1  -1.734522432088852E-1   2.331110090017319E-1  -8.565950989723206E-1   4.210522174835205E-1  
 3.670000000000000E7     7.892421633005142E-2  -9.514204859733582E-1  -1.561429798603058E-1   2.341476380825043E-1  -1.553705334663391E-1   2.335738539695740E-1  -8.487710356712341E-1   4.427664577960968E-1  
 3.700000000000000E7    -3.884732723236084E-4  -9.568803310394287E-1  -1.386550664901733E-1   2.344819605350494E-1  -1.388519257307053E-1   2.344958782196045E-1  -8.402054309844971E-1   4.652749598026276E-1  
 3.730000000000000E7    -8.096186816692352E-2  -9.556499719619751E-1  -1.210299581289291E-1   2.336115241050720E-1  -1.215007752180100E-1   2.337218374013901E-1  -8.300599455833435E-1   4.840045571327210E-1  
 3.760000000000000E7    -1.648906022310257E-1  -9.467963576316834E-1  -1.050971373915672E-1   2.331895232200623E-1  -1.051344051957130E-1   2.330329120159149E-1  -8.224287033081055E-1   5.046239495277405E-1  
 3.790000000000000E7    -2.521378695964813E-1  -9.295973777770996E-1  -8.937810361385346E-2   2.307899296283722E-1  -8.874660730361939E-2   2.303870022296906E-1  -8.130484819412231E-1   5.229845643043518E-1  
 3.820000000000000E7    -3.434214293956757E-1  -9.012531638145447E-1  -7.318662852048874E-2   2.282858788967133E-1  -7.250408083200455E-2   2.281058430671692E-1  -8.035090565681458E-1   5.396350622177124E-1  
 3.850000000000000E7    -4.337615370750427E-1  -8.629350066184998E-1  -5.725463479757309E-2   2.239281684160233E-1  -5.669862031936646E-2   2.237213701009750E-1  -7.956754565238953E-1   5.571619868278503E-1  
 3.880000000000000E7    -5.234822034835815E-1  -8.125659227371216E-1  -4.071474820375443E-2   2.197239547967911E-1  -4.152427613735199E-2   2.188288271427155E-1  -7.858409881591797E-1   5.743181705474854E-1  
 3.910000000000000E7    -6.138569712638855E-1  -7.485015988349915E-1  -2.510273829102516E-2   2.130556702613831E-1  -2.532867528498173E-2   2.131150811910629E-1  -7.773721814155579E-1   5.913147926330566E-1  
 3.940000000000000E7    -6.993139982223511E-1  -6.712412834167481E-1  -1.051275338977575E-2   2.061531096696854E-1  -1.067060884088278E-2   2.060460597276688E-1  -7.665920853614807E-1   6.053295135498047E-1  
 3.970000000000000E7    -7.811481952667236E-1  -5.788724422454834E-1   4.350570496171713E-3   1.975578665733337E-1   4.807564429938793E-3   1.974173784255981E-1  -7.560676336288452E-1   6.199604868888855E-1  
 4.000000000000000E7    -8.505893349647522E-1  -4.692153632640839E-1   1.844044588506222E-2   1.875196546316147E-1   1.862485148012638E-2   1.874260902404785E-1  -7.472012042999268E-1   6.348939538002014E-1  
 4.030000000000000E7    -9.103900194168091E-1  -3.457320034503937E-1   3.152361512184143E-2   1.767765432596207E-1   3.104524873197079E-2   1.757247298955917E-1  -7.377042770385742E-1   6.487642526626587E-1  
 4.060000000000000E7    -9.532799720764160E-1  -2.067569494247437E-1   4.322320222854614E-2   1.635470986366272E-1   4.360632970929146E-2   1.632149368524551E-1  -7.269741296768189E-1   6.622047424316406E-1  
 4.090000000000000E7    -9.744442701339722E-1  -5.554050207138062E-2   5.354966595768929E-2   1.487909406423569E-1   5.315127596259117E-2   1.487049013376236E-1  -7.174977660179138E-1   6.748698353767395E-1  
 4.120000000000000E7    -9.719578623771668E-1   1.060953065752983E-1   6.163227185606957E-2   1.330606937408447E-1   6.244939565658569E-2   1.331979632377625E-1  -7.065226435661316E-1   6.884052753448486E-1  
 4.150000000000000E7    -9.392310380935669E-1   2.723628282546997E-1   6.858399510383606E-2   1.167341172695160E-1   6.856329739093781E-2   1.164133101701737E-1  -6.961376070976257E-1   7.014570236206055E-1  
 4.180000000000000E7    -8.767893910408020E-1   4.355505108833313E-1   7.208410650491715E-2   9.932658076286316E-2   7.178477942943573E-2   9.952953457832336E-2  -6.863711476325989E-1   7.128968834877014E-1  
 4.210000000000000E7    -7.838649749755859E-1   5.903552174568176E-1   7.307326793670654E-2   8.219477534294128E-2   7.308624684810638E-2   8.220465481281281E-2  -6.754591464996338E-1   7.259765267372131E-1  
 4.240000000000000E7    -6.601166725158691E-1   7.277594804763794E-1   7.113269716501236E-2   6.555847823619843E-2   7.104015350341797E-2   6.541395187377930E-2  -6.656392216682434E-1   7.379717826843262E-1  
 4.270000000000000E7    -5.101170539855957E-1   8.395632505416870E-1   6.662041693925858E-2   4.969567060470581E-2   6.661893427371979E-2   4.974520951509476E-2  -6.534463763237000E-1   7.505633831024170E-1  
 4.300000000000000E7    -3.425677418708801E-1   9.229012131690979E-1   5.987773090600967E-2   3.595393523573875E-2   5.971493571996689E-2   3.573212400078774E-2  -6.420989036560059E-1   7.617927789688110E-1  
 4.330000000000000E7    -1.619222760200501E-1   9.714832901954651E-1   5.112697929143906E-2   2.393347024917603E-2   5.119179934263229E-2   2.399241365492344E-2  -6.299432516098023E-1   7.717988491058350E-1  
 4.360000000000000E7     2.028951048851013E-2   9.867595434188843E-1   4.124940559267998E-2   1.480264682322741E-2   4.119919985532761E-2   1.468653418123722E-2  -6.193702816963196E-1   7.817591428756714E-1  
 4.390000000000000E7     1.961053907871246E-1   9.670993685722351E-1   3.071043081581593E-2   7.950307801365852E-3   3.051632642745972E-2   7.900172844529152E-3  -6.065692305564880E-1   7.911838293075562E-1  
 4.420000000000000E7     3.622351884841919E-1   9.176028370857239E-1   2.022061310708523E-2   3.305166726931930E-3   2.006149664521217E-2   3.387123113498092E-3  -5.938429832458496E-1   8.004959821701050E-1  
 4.450000000000000E7     5.103178620338440E-1   8.458936214447022E-1   9.966717101633549E-3   1.085872063413262E-3   1.003118604421616E-2   1.093231025151908E-3  -5.834705233573914E-1   8.096950054168701E-1  
 4.480000000000000E7     6.376144886016846E-1   7.553769946098328E-1   6.708824075758457E-4   5.246062646619976E-4   6.842869915999472E-4   6.000705761834979E-4  -5.712762475013733E-1   8.175309300422669E-1  
 4.510000000000000E7     7.437025904655457E-1   6.512178182601929E-1  -7.594009861350060E-3   1.481784740462899E-3  -7.733642589300871E-3   1.537210773676634E-3  -5.596433877944946E-1   8.267464041709900E-1  
 4.540000000000000E7     8.298210501670837E-1   5.392137169837952E-1  -1.487312000244856E-2   3.636541310697794E-3  -1.492023374885321E-2   3.686672076582909E-3  -5.474252700805664E-1   8.345295190811157E-1  
 4.570000000000000E7     8.955535888671875E-1   4.212777018547058E-1  -2.096557803452015E-2   6.661732215434313E-3  -2.085449546575546E-2   6.526398472487927E-3  -5.352929234504700E-1   8.419138789176941E-1  
 4.600000000000000E7     9.417135715484619E-1   3.051747083663940E-1  -2.588053606450558E-2   9.843118488788605E-3  -2.593077905476093E-2   9.849294088780880E-3  -5.243161320686340E-1   8.488932847976685E-1  
 4.630000000000000E7     9.724513888359070E-1   1.899208426475525E-1  -2.984564751386643E-2   1.352380495518446E-2  -2.976289577782154E-2   1.351246424019337E-2  -5.130164623260498E-1   8.552396297454834E-1  
 4.660000000000000E7     9.881646037101746E-1   7.880899310112000E-2  -3.273505344986916E-2   1.750614866614342E-2  -3.273429349064827E-2   1.743297465145588E-2  -4.999990165233612E-1   8.627063035964966E-1  
 4.690000000000000E7     9.912781715393066E-1  -2.885558456182480E-2  -3.480544313788414E-2   2.135300450026989E-2  -3.459060192108154E-2   2.138771116733551E-2  -4.891624450683594E-1   8.694298863410950E-1  
 4.720000000000000E7     9.828950166702271E-1  -1.301672309637070E-1  -3.608201071619988E-2   2.494976110756397E-2  -3.612750768661499E-2   2.502258121967316E-2  -4.768449664115906E-1   8.751143813133240E-1  
 4.750000000000000E7     9.664857983589172E-1  -2.232433557510376E-1  -3.687060624361038E-2   2.856467477977276E-2  -3.679174929857254E-2   2.864257618784905E-2  -4.655506908893585E-1   8.814250230789185E-1  
 4.780000000000000E7     9.420098066329956E-1  -3.106669187545776E-1  -3.689358755946159E-2   3.197829425334930E-2  -3.698499873280525E-2   3.180974349379540E-2  -4.528801739215851E-1   8.861131668090820E-1  
 4.810000000000000E7     9.118034839630127E-1  -3.919486999511719E-1  -3.680412843823433E-2   3.490077331662178E-2  -3.668819367885590E-2   3.480127081274986E-2  -4.429767131805420E-1   8.921971321105957E-1  
 4.840000000000000E7     8.758345842361450E-1  -4.658393561840057E-1  -3.612885996699333E-2   3.773051872849464E-2  -3.610967844724655E-2   3.767195716500282E-2  -4.315935373306274E-1   8.978185057640076E-1  
 4.870000000000000E7     8.367302417755127E-1  -5.349295735359192E-1  -3.522300720214844E-2   4.041140526533127E-2  -3.511790186166763E-2   4.017734900116921E-2  -4.200488924980164E-1   9.032130241394043E-1  
 4.900000000000000E7     7.940054535865784E-1  -5.975649356842041E-1  -3.389729186892510E-2   4.264840856194496E-2  -3.392446786165237E-2   4.247394204139710E-2  -4.089623391628265E-1   9.079445004463196E-1  
 4.930000000000000E7     7.484940886497498E-1  -6.544562578201294E-1  -3.257995471358299E-2   4.454668611288071E-2  -3.247839957475662E-2   4.452946409583092E-2  -3.969784379005432E-1   9.137031435966492E-1  
 4.960000000000000E7     6.986142396926880E-1  -7.059871554374695E-1  -3.084679134190083E-2   4.635118693113327E-2  -3.087640367448330E-2   4.629430174827576E-2  -3.859220445156097E-1   9.178587198257446E-1  
 4.990000000000000E7     6.499463319778442E-1  -7.517059445381165E-1  -2.920808829367161E-2   4.792177677154541E-2  -2.911757864058018E-2   4.765289276838303E-2  -3.745157122612000E-1   9.223919510841370E-1  
 5.020000000000000E7     5.999343395233154E-1  -7.922874689102173E-1  -2.738030627369881E-2   4.906422644853592E-2  -2.754393219947815E-2   4.881297424435616E-2  -3.634893596172333E-1   9.269403219223023E-1  
 5.050000000000000E7     5.477114915847778E-1  -8.293544650077820E-1  -2.556752599775791E-2   5.011274665594101E-2  -2.552491798996925E-2   5.015850812196732E-2  -3.521438241004944E-1   9.322433471679688E-1  
 5.080000000000000E7     4.960396289825440E-1  -8.621059656143189E-1  -2.373909950256348E-2   5.086788535118103E-2  -2.380439452826977E-2   5.071159079670906E-2  -3.405215740203857E-1   9.345412254333496E-1  
 5.110000000000000E7     4.431747496128082E-1  -8.901121616363525E-1  -2.179659903049469E-2   5.149098485708237E-2  -2.177324704825878E-2   5.140640959143639E-2  -3.299793899059296E-1   9.396703243255615E-1  
 5.140000000000000E7     3.896630108356476E-1  -9.150201082229614E-1  -1.995778828859329E-2   5.201800167560577E-2  -1.980295777320862E-2   5.207779631018639E-2  -3.178132474422455E-1   9.448293447494507E-1  
 5.170000000000000E7     3.376970589160919E-1  -9.350753426551819E-1  -1.779935136437416E-2   5.215521529316902E-2  -1.789036951959133E-2   5.216475576162338E-2  -3.061255514621735E-1   9.468161463737488E-1  
 5.200000000000000E7     2.856625020503998E-1  -9.538742303848267E-1  -1.588852144777775E-2   5.238779634237289E-2  -1.624980568885803E-2   5.229144170880318E-2  -2.946919798851013E-1   9.495515823364258E-1  
 5.230000000000000E7     2.331043779850006E-1  -9.671810865402222E-1  -1.420587487518787E-2   5.231906473636627E-2  -1.406042184680700E-2   5.231923237442970E-2  -2.838588953018189E-1   9.540664553642273E-1  
 5.260000000000000E7     1.811223477125168E-1  -9.776223301887512E-1  -1.225909870117903E-2   5.229165032505989E-2  -1.233061961829662E-2   5.212575197219849E-2  -2.722905576229096E-1   9.577838778495789E-1  
 5.290000000000000E7     1.300050616264343E-1  -9.866764545440674E-1  -1.049975585192442E-2   5.182589963078499E-2  -1.050145085901022E-2   5.193484574556351E-2  -2.613736093044281E-1   9.599131345748901E-1  
 5.320000000000000E7     8.062805235385895E-2  -9.925632476806641E-1  -8.768186904489994E-3   5.147333443164825E-2  -8.840162307024002E-3   5.159822478890419E-2  -2.498612701892853E-1   9.637657999992371E-1  
 5.350000000000000E7     3.071863949298859E-2  -9.943127632141113E-1  -7.191696669906378E-3   5.108328536152840E-2  -7.078850641846657E-3   5.106639862060547E-2  -2.398109287023544E-1   9.670245647430420E-1  
 5.380000000000000E7    -1.775667816400528E-2  -9.938364624977112E-1  -5.564775783568621E-3   5.042905360460281E-2  -5.296094343066216E-3   5.026086047291756E-2  -2.264979034662247E-1   9.687246680259705E-1  
 5.410000000000000E7    -6.657780706882477E-2  -9.943630099296570E-1  -3.886047517880797E-3   4.978581517934799E-2  -3.731725271791220E-3   4.978486150503159E-2  -2.159022688865662E-1   9.717554450035095E-1  
 5.440000000000000E7    -1.142903417348862E-1  -9.888166189193726E-1  -2.328667789697647E-3   4.903443530201912E-2  -2.276502782478929E-3   4.892366752028465E-2  -2.044952362775803E-1   9.741133451461792E-1  
 5.470000000000000E7    -1.588238477706909E-1  -9.827937483787537E-1  -9.415239328518510E-4   4.804300889372826E-2  -8.339250925928354E-4   4.813757166266441E-2  -1.921481341123581E-1   9.764764904975891E-1  
 5.500000000000000E7    -2.048126757144928E-1  -9.749599099159241E-1   6.447532214224339E-4   4.730604216456413E-2   4.650691989809275E-4   4.710275679826737E-2  -1.804294884204865E-1   9.796671867370606E-1  
 5.530000000000000E7    -2.490237057209015E-1  -9.643140435218811E-1   1.725213369354606E-3   4.623688757419586E-2   1.835599308833480E-3   4.624946415424347E-2  -1.691045463085175E-1   9.811661839485169E-1  
 5.560000000000000E7    -2.929084897041321E-1  -9.519857764244080E-1   3.102385206148028E-3   4.520477727055550E-2   2.993711736053228E-3   4.508175328373909E-2  -1.588060259819031E-1   9.832905530929565E-1  
 5.590000000000000E7    -3.344360291957855E-1  -9.393782019615173E-1   4.212582483887672E-3   4.411722719669342E-2   4.289454780519009E-3   4.406492412090302E-2  -1.462073922157288E-1   9.848291277885437E-1  
 5.620000000000000E7    -3.763139247894287E-1  -9.219927191734314E-1   5.396001972258091E-3   4.303659498691559E-2   5.382283125072718E-3   4.276433214545250E-2  -1.354727596044540E-1   9.872012138366699E-1  
 5.650000000000000E7    -4.147977530956268E-1  -9.060097336769104E-1   6.238840520381928E-3   4.167403280735016E-2   6.263900548219681E-3   4.162996262311935E-2  -1.238140314817429E-1   9.881278872489929E-1  
 5.680000000000000E7    -4.534494876861572E-1  -8.874869346618652E-1   7.288272958248854E-3   4.052192345261574E-2   7.296395022422075E-3   4.033967480063438E-2  -1.120856255292893E-1   9.889355897903442E-1  
 5.710000000000000E7    -4.916648864746094E-1  -8.665714859962463E-1   8.223060518503189E-3   3.908016160130501E-2   8.214803412556648E-3   3.922327607870102E-2  -1.004749909043312E-1   9.907689690589905E-1  
 5.740000000000000E7    -5.282278656959534E-1  -8.457141518592835E-1   8.964953012764454E-3   3.786594048142433E-2   8.989064954221249E-3   3.786987811326981E-2  -8.803073316812515E-2   9.920191764831543E-1  
 5.770000000000000E7    -5.615931749343872E-1  -8.227421045303345E-1   9.610951878130436E-3   3.656375035643578E-2   9.479902684688568E-3   3.647959232330322E-2  -7.836245000362396E-2   9.921659827232361E-1  
 5.800000000000000E7    -5.961908698081970E-1  -7.983850836753845E-1   1.045486796647310E-2   3.527637571096420E-2   1.041923929005861E-2   3.511510416865349E-2  -6.489812582731247E-2   9.949787855148315E-1  
 5.830000000000000E7    -6.281045079231262E-1  -7.730674743652344E-1   1.084426883608103E-2   3.393323346972466E-2   1.082577649503946E-2   3.383315727114677E-2  -5.453296005725861E-2   9.954243302345276E-1  
 5.860000000000000E7    -6.602311730384827E-1  -7.482929229736328E-1   1.140472572296858E-2   3.247514367103577E-2   1.133534032851458E-2   3.233636915683746E-2  -4.231345653533936E-2   9.952343106269836E-1  
 5.890000000000000E7    -6.893543004989624E-1  -7.196202874183655E-1   1.185495033860207E-2   3.106497228145599E-2   1.174531970173121E-2   3.103959187865257E-2  -3.168297186493874E-2   9.955219626426697E-1  
 5.920000000000000E7    -7.186862826347351E-1  -6.911312341690064E-1   1.213939301669598E-2   2.968360856175423E-2   1.229393389075995E-2   2.950137667357922E-2  -1.938471943140030E-2   9.966837763786316E-1  
 5.950000000000000E7    -7.448492646217346E-1  -6.617401242256165E-1   1.245763804763556E-2   2.811776101589203E-2   1.243882626295090E-2   2.809472754597664E-2  -7.736921310424805E-3   9.953390359878540E-1  
 5.980000000000000E7    -7.715619206428528E-1  -6.320013999938965E-1   1.261921133846045E-2   2.672480978071690E-2   1.264606975018978E-2   2.668133005499840E-2   4.548162221908569E-3   9.957106709480286E-1  
 6.010000000000000E7    -7.935672402381897E-1  -6.010710000991821E-1   1.269699167460203E-2   2.533163875341415E-2   1.265767496079207E-2   2.529212087392807E-2   1.531661301851273E-2   9.964920282363892E-1  
 6.040000000000000E7    -8.182483911514282E-1  -5.684233307838440E-1   1.278761401772499E-2   2.386382967233658E-2   1.281493157148361E-2   2.391761355102062E-2   2.735360711812973E-2   9.969928860664368E-1  
 6.070000000000000E7    -8.397924900054932E-1  -5.384387373924255E-1   1.285804621875286E-2   2.246365696191788E-2   1.271243859082460E-2   2.253385446965694E-2   3.835204243659973E-2   9.956952929496765E-1  
 6.100000000000000E7    -8.592814803123474E-1  -5.050941109657288E-1   1.272049732506275E-2   2.104287780821323E-2   1.268713735044003E-2   2.107464522123337E-2   5.152194574475288E-2   9.955849051475525E-1  
 6.130000000000000E7    -8.793281316757202E-1  -4.714171290397644E-1   1.255311537533999E-2   1.973585411906242E-2   1.249767560511828E-2   1.970286853611469E-2   6.337462365627289E-2   9.954798221588135E-1  
 6.160000000000000E7    -8.960156440734863E-1  -4.372548758983612E-1   1.224918756633997E-2   1.832515001296997E-2   1.229904964566231E-2   1.826765947043896E-2   7.386507093906403E-2   9.933337569236755E-1  
 6.190000000000000E7    -9.121027588844299E-1  -4.024007618427277E-1   1.193689741194248E-2   1.694419980049133E-2   1.197459734976292E-2   1.683257333934307E-2   8.516174554824829E-2   9.919426441192627E-1  
 6.220000000000000E7    -9.265362620353699E-1  -3.678135573863983E-1   1.153015345335007E-2   1.554929744452238E-2   1.157569140195847E-2   1.560326106846333E-2   9.664939343929291E-2   9.924284219741821E-1  
 6.250000000000000E7    -9.401056766510010E-1  -3.320252597332001E-1   1.112475432455540E-2   1.426940318197012E-2   1.115074846893549E-2   1.420529372990131E-2   1.081033349037170E-1   9.913791418075562E-1  
 6.280000000000000E7    -9.513576030731201E-1  -2.964731454849243E-1   1.062366273254156E-2   1.295195519924164E-2   1.060025673359633E-2   1.294510345906019E-2   1.202373653650284E-1   9.902766942977905E-1  
 6.310000000000000E7    -9.626827836036682E-1  -2.591365277767181E-1   1.009352225810289E-2   1.165880635380745E-2   1.003679353743792E-2   1.164153777062893E-2   1.318004280328751E-1   9.887116551399231E-1  
 6.340000000000000E7    -9.709525704383850E-1  -2.234219461679459E-1   9.427260607481003E-3   1.040978357195854E-2   9.395777247846127E-3   1.038221269845963E-2   1.439430713653565E-1   9.873080849647522E-1  
 6.370000000000000E7    -9.789541363716126E-1  -1.869775950908661E-1   8.712948299944401E-3   9.154709987342358E-3   8.679845370352268E-3   9.159424342215061E-3   1.546682119369507E-1   9.846148490905762E-1  
 6.400000000000000E7    -9.842541813850403E-1  -1.503486335277557E-1   7.964555174112320E-3   7.963297888636589E-3   7.950901053845882E-3   7.943389005959034E-3   1.671343743801117E-1   9.838016629219055E-1  
 6.430000000000000E7    -9.899322986602783E-1  -1.125643849372864E-1   7.148754317313433E-3   6.848715711385012E-3   7.092126645147800E-3   6.793558131903410E-3   1.785705834627152E-1   9.811071753501892E-1  
 6.460000000000000E7    -9.939368367195129E-1  -7.620897889137268E-2   6.224944256246090E-3   5.691011901944876E-3   6.208289414644241E-3   5.684727802872658E-3   1.891421377658844E-1   9.785159826278687E-1  
 6.490000000000000E7    -9.966018795967102E-1  -4.050631821155548E-2   5.224804393947125E-3   4.610292147845030E-3   5.207747686654329E-3   4.602053202688694E-3   2.007083892822266E-1   9.772185683250427E-1  
 6.520000000000000E7    -9.964677095413208E-1  -3.545790910720825E-3   4.202048294246197E-3   3.598775714635849E-3   4.216824192553759E-3   3.549138549715281E-3   2.128958106040955E-1   9.753344058990479E-1  
 6.550000000000000E7    -9.959319829940796E-1   3.246816247701645E-2   3.109227400273085E-3   2.593382727354765E-3   3.132965182885528E-3   2.588411793112755E-3   2.239930033683777E-1   9.708698391914368E-1  
 6.580000000000000E7    -9.941765069961548E-1   6.965590268373489E-2   2.014807425439358E-3   1.615866785869002E-3   2.001988003030419E-3   1.627020770683885E-3   2.360887080430985E-1   9.696593880653381E-1  
 6.610000000000000E7    -9.900584816932678E-1   1.064791008830071E-1   7.924026576802135E-4   7.440769113600254E-4   8.218588773161173E-4   7.265768363140523E-4   2.485728263854981E-1   9.651455283164978E-1  
 6.640000000000000E7    -9.870121479034424E-1   1.414701789617539E-1  -4.402938357088715E-4  -1.308068167418242E-4  -4.540935333352536E-4  -1.476252364227548E-4   2.601496875286102E-1   9.622814655303955E-1  
 6.670000000000000E7    -9.802542328834534E-1   1.779235601425171E-1  -1.747279195114970E-3  -9.176785824820399E-4  -1.767340814694762E-3  -9.363042190670967E-4   2.705528140068054E-1   9.602007269859314E-1  
 6.700000000000000E7    -9.727649092674255E-1   2.136094123125076E-1  -3.090848680585623E-3  -1.668387325480580E-3  -3.101814771071076E-3  -1.679018023423851E-3   2.816011309623718E-1   9.557048678398132E-1  
 6.730000000000000E7    -9.647507071495056E-1   2.487788200378418E-1  -4.501996561884880E-3  -2.338805701583624E-3  -4.508363548666239E-3  -2.335350262001157E-3   2.941936254501343E-1   9.535334110260010E-1  
 6.760000000000000E7    -9.554250240325928E-1   2.832625806331635E-1  -5.953282117843628E-3  -2.970858011394739E-3  -5.928135011345148E-3  -2.995170652866364E-3   3.059265613555908E-1   9.492885470390320E-1  
 6.790000000000000E7    -9.442047476768494E-1   3.178603649139404E-1  -7.438464555889368E-3  -3.555156057700515E-3  -7.475241087377071E-3  -3.549362532794476E-3   3.164757490158081E-1   9.448015689849854E-1  
 6.820000000000000E7    -9.317270517349243E-1   3.513570427894592E-1  -8.979295380413532E-3  -4.034654237329960E-3  -8.977031335234642E-3  -4.055950324982405E-3   3.277603089809418E-1   9.416981935501099E-1  
 6.850000000000000E7    -9.192257523536682E-1   3.855276107788086E-1  -1.059907395392656E-2  -4.496536217629910E-3  -1.059749722480774E-2  -4.489635583013296E-3   3.388077914714813E-1   9.380003213882446E-1  
 6.880000000000000E7    -9.043037295341492E-1   4.177562594413757E-1  -1.226431783288717E-2  -4.870772827416658E-3  -1.220904942601919E-2  -4.814910236746073E-3   3.508691787719727E-1   9.329795241355896E-1  
 6.910000000000000E7    -8.886591792106628E-1   4.499732851982117E-1  -1.396728027611971E-2  -5.182452965527773E-3  -1.391534321010113E-2  -5.177873186767101E-3   3.624886870384216E-1   9.287976026535034E-1  
 6.940000000000000E7    -8.726043701171875E-1   4.816600680351257E-1  -1.566416397690773E-2  -5.422675982117653E-3  -1.564486883580685E-2  -5.397350993007422E-3   3.730683624744415E-1   9.246552586555481E-1  
 6.970000000000000E7    -8.534585833549500E-1   5.132272839546204E-1  -1.741732843220234E-2  -5.546308122575283E-3  -1.743640005588532E-2  -5.500424187630415E-3   3.851168453693390E-1   9.196604490280151E-1  
 7.000000000000000E7    -8.349068164825440E-1   5.438961982727051E-1  -1.924400404095650E-2  -5.640900693833828E-3  -1.925028674304485E-2  -5.612475331872702E-3   3.959467411041260E-1   9.156376123428345E-1  
