#  HZ   S   RI   R     50.00 
! Rohde & Schwarz ZVT8 8Ports - Version 4.11 - 1300.0000k08 SN: 100242
! Date: 2026-07-31 14:26:46
! Measurements: S11 S21 S12 S22 
! 
 1.000000000000000E7    -4.030255675315857E-1   9.111765027046204E-1   5.382331088185310E-2   5.405004322528839E-2   5.364988371729851E-2   5.400179699063301E-2  -9.165189266204834E-1   3.909731507301331E-1  
 1.030000000000000E7    -3.703237175941467E-1   9.237389564514160E-1   5.752203240990639E-2   5.471177399158478E-2   5.719824135303497E-2   5.472316220402718E-2  -9.104669690132141E-1   4.046334326267242E-1  
 1.060000000000000E7    -3.346928656101227E-1   9.368112087249756E-1   6.103888526558876E-2   5.551708862185478E-2   6.097194179892540E-2   5.533513054251671E-2  -9.058269262313843E-1   4.169470667839050E-1  
 1.090000000000000E7    -3.023483753204346E-1   9.471664428710938E-1   6.476883590221405E-2   5.593319237232208E-2   6.466277688741684E-2   5.596533417701721E-2  -8.995610475540161E-1   4.289945065975189E-1  
 1.120000000000000E7    -2.666124701499939E-1   9.565526247024536E-1   6.891819089651108E-2   5.681994184851646E-2   6.851796805858612E-2   5.663573741912842E-2  -8.933698534965515E-1   4.419562816619873E-1  
 1.150000000000000E7    -2.310971319675446E-1   9.668052196502686E-1   7.277096062898636E-2   5.670432373881340E-2   7.274120301008225E-2   5.690998584032059E-2  -8.853915929794312E-1   4.520980715751648E-1  
 1.180000000000000E7    -1.963625699281693E-1   9.718561172485352E-1   7.665097713470459E-2   5.729343742132187E-2   7.674729824066162E-2   5.725129693746567E-2  -8.800669908523560E-1   4.635501801967621E-1  
 1.210000000000000E7    -1.612049639225006E-1   9.786279201507568E-1   8.151494711637497E-2   5.766851827502251E-2   8.128785341978073E-2   5.754331126809120E-2  -8.716149926185608E-1   4.770232141017914E-1  
 1.240000000000000E7    -1.249453350901604E-1   9.830550551414490E-1   8.586001396179199E-2   5.767879635095596E-2   8.599744737148285E-2   5.710373073816299E-2  -8.641061186790466E-1   4.880798459053040E-1  
 1.270000000000000E7    -8.907362818717957E-2   9.863523840904236E-1   9.116365760564804E-2   5.724963545799255E-2   9.072422236204147E-2   5.700379610061646E-2  -8.566251397132874E-1   5.030338168144226E-1  
 1.300000000000000E7    -5.386015027761459E-2   9.889799356460571E-1   9.551459550857544E-2   5.705954506993294E-2   9.547167271375656E-2   5.680973827838898E-2  -8.478550314903259E-1   5.149151682853699E-1  
 1.330000000000000E7    -1.644061133265495E-2   9.908064603805542E-1   1.009584814310074E-1   5.655717849731445E-2   1.006894260644913E-1   5.607356503605843E-2  -8.394343852996826E-1   5.274065732955933E-1  
 1.360000000000000E7     2.098370157182217E-2   9.901518225669861E-1   1.061406582593918E-1   5.601529404520989E-2   1.063704565167427E-1   5.534403026103973E-2  -8.307765126228333E-1   5.384332537651062E-1  
 1.390000000000000E7     5.643289536237717E-2   9.877039194107056E-1   1.120339483022690E-1   5.478514358401299E-2   1.115592494606972E-1   5.517842993140221E-2  -8.221573829650879E-1   5.516826510429382E-1  
 1.420000000000000E7     9.421538561582565E-2   9.848027825355530E-1   1.173586919903755E-1   5.400608479976654E-2   1.171156615018845E-1   5.419036373496056E-2  -8.143574595451355E-1   5.636003017425537E-1  
 1.450000000000000E7     1.308428645133972E-1   9.786776900291443E-1   1.233331859111786E-1   5.264143645763397E-2   1.231751441955566E-1   5.247725546360016E-2  -8.021761775016785E-1   5.777508020401001E-1  
 1.480000000000000E7     1.689768135547638E-1   9.725522398948669E-1   1.296408176422119E-1   5.093724280595779E-2   1.295142173767090E-1   5.160807445645332E-2  -7.935913801193237E-1   5.897325873374939E-1  
 1.510000000000000E7     2.052321434020996E-1   9.639955759048462E-1   1.357057094573975E-1   4.921637102961540E-2   1.354732364416122E-1   4.932486265897751E-2  -7.801082730293274E-1   6.031518578529358E-1  
 1.540000000000000E7     2.413187623023987E-1   9.552646875381470E-1   1.424442827701569E-1   4.824022948741913E-2   1.422750204801559E-1   4.750103503465653E-2  -7.716836929321289E-1   6.155065298080444E-1  
 1.570000000000000E7     2.782726585865021E-1   9.455443620681763E-1   1.492031067609787E-1   4.524707421660423E-2   1.492460519075394E-1   4.515623301267624E-2  -7.587603926658630E-1   6.292465925216675E-1  
 1.600000000000000E7     3.154886364936829E-1   9.313727021217346E-1   1.559664756059647E-1   4.252640902996063E-2   1.563775390386581E-1   4.221913218498230E-2  -7.473866939544678E-1   6.403906941413879E-1  
 1.630000000000000E7     3.509875237941742E-1   9.173003435134888E-1   1.641051024198532E-1   3.891547769308090E-2   1.638984233140945E-1   3.929240629076958E-2  -7.334469556808472E-1   6.554664373397827E-1  
 1.660000000000000E7     3.867198228836060E-1   9.003890752792358E-1   1.719319075345993E-1   3.519225493073463E-2   1.714712977409363E-1   3.503915667533875E-2  -7.193362712860107E-1   6.682717800140381E-1  
 1.690000000000000E7     4.216727912425995E-1   8.836126923561096E-1   1.799136698246002E-1   3.207442909479141E-2   1.796096563339233E-1   3.171513229608536E-2  -7.054988145828247E-1   6.804709434509277E-1  
 1.720000000000000E7     4.589566290378571E-1   8.648865222930908E-1   1.873352676630020E-1   2.678003907203674E-2   1.878156810998917E-1   2.735876105725765E-2  -6.904051303863525E-1   6.934479475021362E-1  
 1.750000000000000E7     4.887198209762573E-1   8.465124368667603E-1   1.971108019351959E-1   2.340440079569817E-2   1.971057802438736E-1   2.278633788228035E-2  -6.750792860984802E-1   7.080392241477966E-1  
 1.780000000000000E7     5.251260995864868E-1   8.205977082252502E-1   2.050277590751648E-1   1.701463758945465E-2   2.053031623363495E-1   1.742963492870331E-2  -6.580167412757874E-1   7.186176776885986E-1  
 1.810000000000000E7     5.568490624427795E-1   7.976288795471191E-1   2.156146466732025E-1   1.113735139369965E-2   2.142542898654938E-1   1.048800162971020E-2  -6.402739286422730E-1   7.348273396492004E-1  
 1.840000000000000E7     5.907402634620667E-1   7.717471718788147E-1   2.252546101808548E-1   2.999292686581612E-3   2.242930382490158E-1   3.528367727994919E-3  -6.210054159164429E-1   7.473511099815369E-1  
 1.870000000000000E7     6.198858022689819E-1   7.447061538696289E-1   2.350079268217087E-1  -3.857301548123360E-3   2.341058403253555E-1  -4.326140508055687E-3  -6.007578372955322E-1   7.596031427383423E-1  
 1.900000000000000E7     6.502869725227356E-1   7.150720357894898E-1   2.451624870300293E-1  -1.210269797593355E-2   2.447584569454193E-1  -1.282823178917170E-2  -5.796923637390137E-1   7.722434997558594E-1  
 1.930000000000000E7     6.794166564941406E-1   6.832974553108215E-1   2.553340792655945E-1  -2.296732179820538E-2   2.557893395423889E-1  -2.208274602890015E-2  -5.570511817932129E-1   7.863076925277710E-1  
 1.960000000000000E7     7.075864076614380E-1   6.488793492317200E-1   2.661347389221191E-1  -3.339172527194023E-2   2.665402293205261E-1  -3.284018486738205E-2  -5.352230072021484E-1   7.979547977447510E-1  
 1.990000000000000E7     7.319327592849731E-1   6.140313744544983E-1   2.775061130523682E-1  -4.548301920294762E-2   2.777882814407349E-1  -4.547728598117828E-2  -5.066447257995606E-1   8.112165927886963E-1  
 2.020000000000000E7     7.564418315887451E-1   5.763600468635559E-1   2.895266413688660E-1  -5.871032178401947E-2   2.888122797012329E-1  -5.832836031913757E-2  -4.812410175800324E-1   8.209090828895569E-1  
 2.050000000000000E7     7.806808352470398E-1   5.370415449142456E-1   3.013738691806793E-1  -7.303014397621155E-2   2.994527220726013E-1  -7.349241524934769E-2  -4.520286321640015E-1   8.321586847305298E-1  
 2.080000000000000E7     8.003556132316589E-1   4.943740963935852E-1   3.133237361907959E-1  -9.033275395631790E-2   3.132594525814056E-1  -9.023602306842804E-2  -4.199850559234619E-1   8.438696265220642E-1  
 2.110000000000000E7     8.194335103034973E-1   4.516591429710388E-1   3.256236314773560E-1  -1.102694720029831E-1   3.255142867565155E-1  -1.100800335407257E-1  -3.858761191368103E-1   8.528120517730713E-1  
 2.140000000000000E7     8.347527980804443E-1   4.065443873405457E-1   3.374979794025421E-1  -1.318747699260712E-1   3.365406095981598E-1  -1.303446441888809E-1  -3.500951230525971E-1   8.606737852096558E-1  
 2.170000000000000E7     8.468730449676514E-1   3.606017231941223E-1   3.494524061679840E-1  -1.548600345849991E-1   3.494479656219482E-1  -1.538630127906799E-1  -3.107160031795502E-1   8.668809533119202E-1  
 2.200000000000000E7     8.571620583534241E-1   3.096085786819458E-1   3.600817620754242E-1  -1.818403005599976E-1   3.603601753711700E-1  -1.813701987266541E-1  -2.675269842147827E-1   8.703778982162476E-1  
 2.230000000000000E7     8.620703816413879E-1   2.593138813972473E-1   3.706446886062622E-1  -2.117666006088257E-1   3.703734278678894E-1  -2.108340412378311E-1  -2.227920442819595E-1   8.718758821487427E-1  
 2.260000000000000E7     8.638412952423096E-1   2.063413262367249E-1   3.792890310287476E-1  -2.452366650104523E-1   3.813281357288361E-1  -2.456036359071732E-1  -1.742414832115173E-1   8.694250583648682E-1  
 2.290000000000000E7     8.603094816207886E-1   1.528540849685669E-1   3.869062960147858E-1  -2.827285826206207E-1   3.880334198474884E-1  -2.823939323425293E-1  -1.205442547798157E-1   8.630231618881226E-1  
 2.320000000000000E7     8.502987027168274E-1   9.949310123920441E-2   3.914039731025696E-1  -3.261078298091888E-1   3.905161321163178E-1  -3.260368108749390E-1  -6.484829634428024E-2   8.538495898246765E-1  
 2.350000000000000E7     8.344898223876953E-1   4.437615349888802E-2   3.913246691226959E-1  -3.742730915546417E-1   3.916283845901489E-1  -3.725566565990448E-1  -5.525406450033188E-3   8.359093070030212E-1  
 2.380000000000000E7     8.126870989799500E-1  -9.125106036663055E-3   3.880603313446045E-1  -4.244529604911804E-1   3.881552517414093E-1  -4.246455132961273E-1   5.725342035293579E-2   8.103104829788208E-1  
 2.410000000000000E7     7.833545207977295E-1  -6.094546616077423E-2   3.765947520732880E-1  -4.818367958068848E-1   3.757731318473816E-1  -4.807199537754059E-1   1.213177144527435E-1   7.744262814521790E-1  
 2.440000000000000E7     7.455779910087585E-1  -1.073023527860642E-1   3.566336929798126E-1  -5.437875986099243E-1   3.567741215229034E-1  -5.443741679191589E-1   1.852836310863495E-1   7.283282876014710E-1  
 2.470000000000000E7     7.008927464485169E-1  -1.484161317348480E-1   3.264680504798889E-1  -6.083486080169678E-1   3.282868862152100E-1  -6.065368652343750E-1   2.502460777759552E-1   6.680365204811096E-1  
 2.500000000000000E7     6.487962603569031E-1  -1.846557706594467E-1   2.850294113159180E-1  -6.737483739852905E-1   2.836737334728241E-1  -6.746808290481567E-1   3.092470765113831E-1   5.954595804214478E-1  
 2.530000000000000E7     5.886906981468201E-1  -2.078582048416138E-1   2.287805229425430E-1  -7.414870262145996E-1   2.287306189537048E-1  -7.390159964561462E-1   3.601228296756744E-1   5.055029392242432E-1  
 2.560000000000000E7     5.269036889076233E-1  -2.189587354660034E-1   1.576497256755829E-1  -8.005555272102356E-1   1.566829681396484E-1  -8.003359436988831E-1   3.973976373672485E-1   4.020726382732391E-1  
 2.590000000000000E7     4.670194387435913E-1  -2.124047130346298E-1   6.634081155061722E-2  -8.490167260169983E-1   6.594078242778778E-2  -8.503558635711670E-1   4.186964333057404E-1   2.881553173065186E-1  
 2.620000000000000E7     4.097831249237061E-1  -1.921135783195496E-1  -3.835874795913696E-2  -8.850233554840088E-1  -3.661408275365830E-2  -8.834682703018189E-1   4.158884882926941E-1   1.637563854455948E-1  
 2.650000000000000E7     3.608404695987701E-1  -1.586620509624481E-1  -1.496101766824722E-1  -9.002609848976135E-1  -1.507665514945984E-1  -9.003467559814453E-1   3.853714764118195E-1   3.889432549476624E-2  
 2.680000000000000E7     3.278570771217346E-1  -1.128776520490646E-1  -2.684001028537750E-1  -8.920008540153503E-1  -2.682749927043915E-1  -8.922060728073120E-1   3.281999528408051E-1  -7.783965021371841E-2  
 2.710000000000000E7     3.128725886344910E-1  -6.525031477212906E-2  -3.824492394924164E-1  -8.602670431137085E-1  -3.841831088066101E-1  -8.590108156204224E-1   2.528751492500305E-1  -1.807389408349991E-1  
 2.740000000000000E7     3.139031231403351E-1  -1.232197973877192E-2  -4.903734624385834E-1  -8.060849905014038E-1  -4.898734092712402E-1  -8.068265318870544E-1   1.514527201652527E-1  -2.619293332099915E-1  
 2.770000000000000E7     3.333268761634827E-1   2.977754734456539E-2  -5.799767374992371E-1  -7.345622181892395E-1  -5.812207460403442E-1  -7.364752292633057E-1   4.471074044704437E-2  -3.199672102928162E-1  
 2.800000000000000E7     3.639211654663086E-1   6.443080306053162E-2  -6.553796529769898E-1  -6.509482860565186E-1  -6.528163552284241E-1  -6.534419059753418E-1  -7.018081843852997E-2  -3.548827469348908E-1  
 2.830000000000000E7     4.033593833446503E-1   8.482463657855988E-2  -7.098278999328613E-1  -5.617003440856934E-1  -7.094568014144898E-1  -5.611504316329956E-1  -1.752121448516846E-1  -3.661754131317139E-1  
 2.860000000000000E7     4.493240118026733E-1   9.133259952068329E-2  -7.475418448448181E-1  -4.700698256492615E-1  -7.473667860031128E-1  -4.697006642818451E-1  -2.771894037723541E-1  -3.584319353103638E-1  
 2.890000000000000E7     4.951432049274445E-1   8.355891704559326E-2  -7.706032395362854E-1  -3.815648555755615E-1  -7.688545584678650E-1  -3.802260458469391E-1  -3.674464225769043E-1  -3.358649611473084E-1  
 2.920000000000000E7     5.397691130638123E-1   6.632859259843826E-2  -7.801120877265930E-1  -2.956518232822418E-1  -7.796205282211304E-1  -2.944327592849731E-1  -4.470682442188263E-1  -3.038287758827210E-1  
 2.950000000000000E7     5.782548785209656E-1   3.500680625438690E-2  -7.801857590675354E-1  -2.177428454160690E-1  -7.793515920639038E-1  -2.175147235393524E-1  -5.133169889450073E-1  -2.630586028099060E-1  
 2.980000000000000E7     6.112225651741028E-1  -2.378214150667191E-3  -7.725445032119751E-1  -1.441241204738617E-1  -7.728301882743835E-1  -1.446996331214905E-1  -5.682120323181152E-1  -2.182701677083969E-1  
 3.010000000000000E7     6.363749504089356E-1  -4.946853965520859E-2  -7.611452937126160E-1  -7.726077735424042E-2  -7.594000697135925E-1  -7.870104163885117E-2  -6.139658689498901E-1  -1.721084415912628E-1  
 3.040000000000000E7     6.556926965713501E-1  -1.025417521595955E-1  -7.426142096519470E-1  -1.652079448103905E-2  -7.449756264686585E-1  -1.615742221474648E-2  -6.483989953994751E-1  -1.254182606935501E-1  
 3.070000000000000E7     6.636063456535339E-1  -1.589125841856003E-1  -7.239661216735840E-1   4.156623408198357E-2  -7.231964468955994E-1   4.011708870530129E-2  -6.774199008941650E-1  -8.153682947158814E-2  
 3.100000000000000E7     6.637347340583801E-1  -2.203492373228073E-1  -7.028458118438721E-1   9.284775704145432E-2  -7.016217112541199E-1   9.268639981746674E-2  -6.993214488029480E-1  -3.816656768321991E-2  
 3.130000000000000E7     6.546205878257752E-1  -2.827052772045136E-1  -6.803183555603027E-1   1.420042365789414E-1  -6.800341606140137E-1   1.413141638040543E-1  -7.139830589294434E-1   4.478178452700377E-3  
 3.160000000000000E7     6.353092193603516E-1  -3.490617871284485E-1  -6.556885838508606E-1   1.870603710412979E-1  -6.561549305915833E-1   1.876183897256851E-1  -7.240043282508850E-1   4.214102774858475E-2  
 3.190000000000000E7     6.051755547523499E-1  -4.132735133171082E-1  -6.306105256080627E-1   2.321818470954895E-1  -6.299675703048706E-1   2.312965244054794E-1  -7.311232686042786E-1   7.858646661043167E-2  
 3.220000000000000E7     5.657810568809509E-1  -4.792566299438477E-1  -6.043705940246582E-1   2.754360139369965E-1  -6.040346622467041E-1   2.750443220138550E-1  -7.340996265411377E-1   1.114552691578865E-1  
 3.250000000000000E7     5.118224024772644E-1  -5.424898862838745E-1  -5.774153470993042E-1   3.167358040809631E-1  -5.771499872207642E-1   3.179131746292114E-1  -7.340825796127319E-1   1.419156640768051E-1  
 3.280000000000000E7     4.430035948753357E-1  -6.023517251014710E-1  -5.472456216812134E-1   3.580811321735382E-1  -5.466757416725159E-1   3.590856492519379E-1  -7.319368124008179E-1   1.706014275550842E-1  
 3.310000000000000E7     3.622525334358215E-1  -6.548990011215210E-1  -5.145696997642517E-1   4.028494358062744E-1  -5.145710706710815E-1   4.033159613609314E-1  -7.267010211944580E-1   1.939626038074493E-1  
 3.340000000000000E7     2.617153823375702E-1  -6.992094516754150E-1  -4.779321551322937E-1   4.474456906318665E-1  -4.767264723777771E-1   4.466878473758698E-1  -7.206560373306274E-1   2.150488644838333E-1  
 3.370000000000000E7     1.450757533311844E-1  -7.303179502487183E-1  -4.346323311328888E-1   4.907284677028656E-1  -4.358351528644562E-1   4.904166758060455E-1  -7.129873633384705E-1   2.318973392248154E-1  
 3.400000000000000E7     9.107552468776703E-3  -7.398519515991211E-1  -3.844237923622131E-1   5.345267653465271E-1  -3.847526609897614E-1   5.351812243461609E-1  -7.054483890533447E-1   2.432461082935333E-1  
 3.430000000000000E7    -1.425957232713699E-1  -7.206249237060547E-1  -3.243746161460877E-1   5.780240297317505E-1  -3.251599073410034E-1   5.761052370071411E-1  -6.998829245567322E-1   2.520674765110016E-1  
 3.460000000000000E7    -3.069328963756561E-1  -6.634979844093323E-1  -2.528689205646515E-1   6.154965758323669E-1  -2.526486515998840E-1   6.146768927574158E-1  -6.969270706176758E-1   2.552305757999420E-1  
 3.490000000000000E7    -4.697262048721314E-1  -5.550238490104675E-1  -1.681806743144989E-1   6.447464823722839E-1  -1.694270074367523E-1   6.411383748054504E-1  -6.960828304290772E-1   2.561213970184326E-1  
 3.520000000000000E7    -6.178938746452332E-1  -3.919835686683655E-1  -7.074921578168869E-2   6.556093096733093E-1  -7.289601117372513E-2   6.550932526588440E-1  -7.015148997306824E-1   2.545847296714783E-1  
 3.550000000000000E7    -7.223723530769348E-1  -1.688480973243713E-1   3.323474898934364E-2   6.446364521980286E-1   3.349536657333374E-2   6.437872052192688E-1  -7.152659296989441E-1   2.507307231426239E-1  
 3.580000000000000E7    -7.548845410346985E-1   9.401138871908188E-2   1.385007202625275E-1   6.060021519660950E-1   1.374955773353577E-1   6.061592698097229E-1  -7.344986796379089E-1   2.531195580959320E-1  
 3.610000000000000E7    -6.967666745185852E-1   3.648087084293366E-1   2.283177673816681E-1   5.412519574165344E-1   2.287746071815491E-1   5.404204130172730E-1  -7.610865831375122E-1   2.622996270656586E-1  
 3.640000000000000E7    -5.529097914695740E-1   6.061584353446960E-1   2.948212921619415E-1   4.529154300689697E-1   2.958495020866394E-1   4.520573019981384E-1  -7.885792255401611E-1   2.784844934940338E-1  
 3.670000000000000E7    -3.438051640987396E-1   7.816140055656433E-1   3.318851888179779E-1   3.575854301452637E-1   3.313693106174469E-1   3.574519157409668E-1  -8.125711679458618E-1   3.055802583694458E-1  
 3.700000000000000E7    -1.067352145910263E-1   8.779605031013489E-1   3.405260145664215E-1   2.653719186782837E-1   3.412587642669678E-1   2.651525437831879E-1  -8.313964605331421E-1   3.395183384418488E-1  
 3.730000000000000E7     1.275753825902939E-1   9.016036391258240E-1   3.281044960021973E-1   1.846518814563751E-1   3.275620341300964E-1   1.857841610908508E-1  -8.411008715629578E-1   3.751702308654785E-1  
 3.760000000000000E7     3.362031280994415E-1   8.680675029754639E-1   3.030398786067963E-1   1.217416077852249E-1   3.027804493904114E-1   1.222736984491348E-1  -8.465598821640015E-1   4.128860533237457E-1  
 3.790000000000000E7     5.131654739379883E-1   7.971112728118897E-1   2.709633708000183E-1   7.392874360084534E-2   2.715087831020355E-1   7.395952939987183E-2  -8.449311852455139E-1   4.479652643203735E-1  
 3.820000000000000E7     6.536439061164856E-1   7.036901116371155E-1   2.380878478288651E-1   3.920924291014671E-2   2.373145371675491E-1   3.872649371623993E-2  -8.390503525733948E-1   4.795672893524170E-1  
 3.850000000000000E7     7.637478113174439E-1   5.990335941314697E-1   2.059663534164429E-1   1.419349946081638E-2   2.057684808969498E-1   1.357410848140717E-2  -8.323305249214172E-1   5.098112225532532E-1  
 3.880000000000000E7     8.444393277168274E-1   4.907326996326447E-1   1.769279390573502E-1  -3.418009728193283E-3   1.765464097261429E-1  -3.267282620072365E-3  -8.220680356025696E-1   5.379623770713806E-1  
 3.910000000000000E7     9.040478467941284E-1   3.839510083198547E-1   1.502359509468079E-1  -1.419720984995365E-2   1.506107896566391E-1  -1.422427874058485E-2  -8.111930489540100E-1   5.639653205871582E-1  
 3.940000000000000E7     9.436708688735962E-1   2.800904214382172E-1   1.273754090070725E-1  -2.076166868209839E-2   1.272395849227905E-1  -2.105639874935150E-2  -7.976273298263550E-1   5.852895975112915E-1  
 3.970000000000000E7     9.706121683120728E-1   1.820869445800781E-1   1.074581891298294E-1  -2.468841522932053E-2   1.073592677712441E-1  -2.462936565279961E-2  -7.839570641517639E-1   6.060189008712769E-1  
 4.000000000000000E7     9.855240583419800E-1   8.982177078723908E-2   9.041409194469452E-2  -2.645585313439369E-2   9.041915088891983E-2  -2.652240172028542E-2  -7.723128199577332E-1   6.254152655601502E-1  
 4.030000000000000E7     9.912695288658142E-1   3.524377942085266E-3   7.605568319559097E-2  -2.684886939823628E-2   7.589752227067947E-2  -2.690096572041512E-2  -7.594338059425354E-1   6.431177258491516E-1  
 4.060000000000000E7     9.896218180656433E-1  -7.810281962156296E-2   6.337437778711319E-2  -2.606396749615669E-2   6.308779865503311E-2  -2.613901719450951E-2  -7.456208467483521E-1   6.594573259353638E-1  
 4.090000000000000E7     9.821288585662842E-1  -1.543772965669632E-1   5.250531807541847E-2  -2.476005256175995E-2   5.245298519730568E-2  -2.489058673381805E-2  -7.329228520393372E-1   6.743544936180115E-1  
 4.120000000000000E7     9.695606231689453E-1  -2.251059859991074E-1   4.340702667832375E-2  -2.287779934704304E-2   4.329961165785790E-2  -2.277710102498531E-2  -7.191858887672424E-1   6.894788742065430E-1  
 4.150000000000000E7     9.512706398963928E-1  -2.895421683788300E-1   3.570877388119698E-2  -2.088825963437557E-2   3.565519675612450E-2  -2.070540376007557E-2  -7.060874104499817E-1   7.032739520072937E-1  
 4.180000000000000E7     9.312648773193359E-1  -3.526455163955689E-1   2.912061102688313E-2  -1.868137903511524E-2   2.902689762413502E-2  -1.857355237007141E-2  -6.945797204971314E-1   7.154396176338196E-1  
 4.210000000000000E7     9.079086780548096E-1  -4.096116125583649E-1   2.348763868212700E-2  -1.646794565021992E-2   2.347989752888680E-2  -1.636852324008942E-2  -6.812120079994202E-1   7.284898161888123E-1  
 4.240000000000000E7     8.815236091613770E-1  -4.626995027065277E-1   1.867356896400452E-2  -1.414265669882298E-2   1.891059428453445E-2  -1.413259468972683E-2  -6.694837212562561E-1   7.401854395866394E-1  
 4.270000000000000E7     8.533042669296265E-1  -5.129513740539551E-1   1.471864432096481E-2  -1.204718742519617E-2   1.480734255164862E-2  -1.203705370426178E-2  -6.561803817749023E-1   7.525534629821777E-1  
 4.300000000000000E7     8.238299489021301E-1  -5.610178112983704E-1   1.144662499427795E-2  -1.001482270658016E-2   1.130472030490637E-2  -9.866572916507721E-3  -6.438667178153992E-1   7.633574604988098E-1  
 4.330000000000000E7     7.937673330307007E-1  -6.035386323928833E-1   8.524412289261818E-3  -7.928952574729919E-3   8.469901047646999E-3  -7.831907831132412E-3  -6.312108039855957E-1   7.728939652442932E-1  
 4.360000000000000E7     7.597389221191406E-1  -6.447367668151856E-1   6.150765810161829E-3  -6.086284760385752E-3   6.122064776718617E-3  -6.174392066895962E-3  -6.196702718734741E-1   7.828306555747986E-1  
 4.390000000000000E7     7.267923951148987E-1  -6.838887929916382E-1   4.164025187492371E-3  -4.464265424758196E-3   4.163172561675310E-3  -4.348167683929205E-3  -6.067295074462891E-1   7.917109727859497E-1  
 4.420000000000000E7     6.908753514289856E-1  -7.181003093719482E-1   2.522760070860386E-3  -2.749035833403468E-3   2.522321650758386E-3  -2.802488859742880E-3  -5.941091775894165E-1   8.004181385040283E-1  
 4.450000000000000E7     6.553240418434143E-1  -7.510712742805481E-1   1.255368581041694E-3  -1.312433625571430E-3   1.240970916114748E-3  -1.378622604534030E-3  -5.833145380020142E-1   8.096382617950440E-1  
 4.480000000000000E7     6.192045211791992E-1  -7.814316749572754E-1   8.737958705751225E-5  -9.247078560292721E-5   5.555188181460835E-5   7.270052446983755E-5  -5.713469982147217E-1   8.176240921020508E-1  
 4.510000000000000E7     5.834850072860718E-1  -8.092707991600037E-1  -6.687073619104922E-4   1.208310830406845E-3  -7.953304448165000E-4   1.122090499848127E-3  -5.599375963211060E-1   8.264811635017395E-1  
 4.540000000000000E7     5.450476408004761E-1  -8.350461721420288E-1  -1.369509729556739E-3   2.190894214436412E-3  -1.344734919257462E-3   2.269545802846551E-3  -5.473127365112305E-1   8.348248004913330E-1  
 4.570000000000000E7     5.065327882766724E-1  -8.590039014816284E-1  -1.751837902702391E-3   3.168759169057012E-3  -1.821157871745527E-3   3.116959240287542E-3  -5.353150963783264E-1   8.421477079391480E-1  
 4.600000000000000E7     4.699080586433411E-1  -8.793419599533081E-1  -2.258383901789784E-3   4.075352102518082E-3  -2.233657753095031E-3   3.951441962271929E-3  -5.240626335144043E-1   8.490255475044251E-1  
 4.630000000000000E7     4.294584989547730E-1  -9.003202319145203E-1  -2.455900656059384E-3   4.674540832638741E-3  -2.460792660713196E-3   4.607637412846088E-3  -5.129208564758301E-1   8.559945225715637E-1  
 4.660000000000000E7     3.905741870403290E-1  -9.187897443771362E-1  -2.625087741762400E-3   5.214608740061522E-3  -2.560388296842575E-3   5.192457698285580E-3  -4.995852112770081E-1   8.635469079017639E-1  
 4.690000000000000E7     3.511875569820404E-1  -9.334403872489929E-1  -2.643316984176636E-3   5.664934404194355E-3  -2.649512141942978E-3   5.667087156325579E-3  -4.887917935848236E-1   8.704722523689270E-1  
 4.720000000000000E7     3.113736510276794E-1  -9.471652507781982E-1  -2.591326367110014E-3   6.035908125340939E-3  -2.635903656482697E-3   6.046255119144917E-3  -4.763209223747253E-1   8.765397667884827E-1  
 4.750000000000000E7     2.727569639682770E-1  -9.598948359489441E-1  -2.458172617480159E-3   6.288938224315643E-3  -2.510621445253491E-3   6.297789514064789E-3  -4.649826288223267E-1   8.829033970832825E-1  
 4.780000000000000E7     2.335425168275833E-1  -9.697511196136475E-1  -2.348009264096618E-3   6.584705784916878E-3  -2.447716426104307E-3   6.537054199725390E-3  -4.522604942321777E-1   8.877838850021362E-1  
 4.810000000000000E7     1.936545372009277E-1  -9.785342812538147E-1  -2.242755144834518E-3   6.604600697755814E-3  -2.274942118674517E-3   6.637044716626406E-3  -4.420430660247803E-1   8.941476345062256E-1  
 4.840000000000000E7     1.544224172830582E-1  -9.860803484916687E-1  -1.988492440432310E-3   6.640725769102573E-3  -2.117940690368414E-3   6.562481168657541E-3  -4.304746389389038E-1   8.999822735786438E-1  
 4.870000000000000E7     1.147365123033524E-1  -9.913246631622315E-1  -1.886118203401566E-3   6.585299503058195E-3  -1.800298923626542E-3   6.569780874997377E-3  -4.186081886291504E-1   9.051772952079773E-1  
 4.900000000000000E7     7.541064918041229E-2  -9.957959055900574E-1  -1.676602638326585E-3   6.417118478566408E-3  -1.647372846491635E-3   6.371053401380777E-3  -4.072455167770386E-1   9.099369049072266E-1  
 4.930000000000000E7     3.565910458564758E-2  -9.980136156082153E-1  -1.386318355798721E-3   6.207527592778206E-3  -1.389020937494934E-3   6.224335171282291E-3  -3.951694667339325E-1   9.158326387405396E-1  
 4.960000000000000E7    -2.830926328897476E-3  -9.966003298759460E-1  -1.165876514278352E-3   5.911655258387327E-3  -1.186441862955689E-3   5.894327536225319E-3  -3.837830424308777E-1   9.202120304107666E-1  
 4.990000000000000E7    -4.065838083624840E-2  -9.962707757949829E-1  -9.798633400350809E-4   5.682190414518118E-3  -9.723492548801005E-4   5.671704187989235E-3  -3.724017739295960E-1   9.247238039970398E-1  
 5.020000000000000E7    -7.806268334388733E-2  -9.949832558631897E-1  -7.822404149919748E-4   5.250547546893358E-3  -8.149723289534450E-4   5.242446437478066E-3  -3.611106574535370E-1   9.297890067100525E-1  
 5.050000000000000E7    -1.167216151952744E-1  -9.910711050033569E-1  -6.368912290781736E-4   4.826008807867765E-3  -6.207602564245462E-4   4.827377852052450E-3  -3.497741222381592E-1   9.350692629814148E-1  
 5.080000000000000E7    -1.534525752067566E-1  -9.864871501922607E-1  -4.369939852040261E-4   4.329709801822901E-3  -4.697460681200028E-4   4.323943518102169E-3  -3.375014066696167E-1   9.373742938041687E-1  
 5.110000000000000E7    -1.914020776748657E-1  -9.793598651885986E-1  -3.048204234801233E-4   3.784834174439311E-3  -3.095833526458591E-4   3.799185622483492E-3  -3.268767595291138E-1   9.425069093704224E-1  
 5.140000000000000E7    -2.278337478637695E-1  -9.711998105049133E-1  -1.824486680561677E-4   3.198104212060571E-3  -2.028450253419578E-4   3.202878404408693E-3  -3.141897916793823E-1   9.481499791145325E-1  
 5.170000000000000E7    -2.632099986076355E-1  -9.621059894561768E-1  -1.248167391167954E-4   2.603931585326791E-3  -1.436016464140266E-4   2.603836357593536E-3  -3.024906218051910E-1   9.500233530998230E-1  
 5.200000000000000E7    -2.988606989383698E-1  -9.532892107963562E-1  -7.474562880815938E-5   1.919135916978121E-3  -4.668583278544247E-5   1.951095066033304E-3  -2.907371520996094E-1   9.523986577987671E-1  
 5.230000000000000E7    -3.341851532459259E-1  -9.404084086418152E-1  -3.528759407345206E-5   1.262260251678526E-3  -2.209848753409460E-5   1.269507454708219E-3  -2.796961665153503E-1   9.571391344070435E-1  
 5.260000000000000E7    -3.678756654262543E-1  -9.261711239814758E-1  -1.454174707760103E-5   5.904146237298846E-4  -4.828215969610028E-5   5.935307708568871E-4  -2.681024670600891E-1   9.609099626541138E-1  
 5.290000000000000E7    -4.024055600166321E-1  -9.128070473670960E-1  -8.104978769551963E-5  -1.994958438444883E-4  -5.744426744058728E-5  -1.875736488727853E-4  -2.567321658134460E-1   9.628702998161316E-1  
 5.320000000000000E7    -4.347860813140869E-1  -8.987903594970703E-1  -1.340539020020515E-4  -9.448532364331186E-4  -1.371652761008591E-4  -9.589774999767542E-4  -2.447365969419479E-1   9.666433334350586E-1  
 5.350000000000000E7    -4.662638306617737E-1  -8.814958333969116E-1  -2.641659229993820E-4  -1.723659806884825E-3  -2.713475259952247E-4  -1.712927944026887E-3  -2.347075194120407E-1   9.698897004127502E-1  
 5.380000000000000E7    -4.968679547309876E-1  -8.642066717147827E-1  -4.423389327712357E-4  -2.533041173592210E-3  -4.603640991263092E-4  -2.516866428777576E-3  -2.216087430715561E-1   9.716690778732300E-1  
 5.410000000000000E7    -5.301364660263062E-1  -8.463602066040039E-1  -6.248715799301863E-4  -3.356672590598464E-3  -6.369717302732170E-4  -3.352377330884337E-3  -2.103861868381500E-1   9.745018482208252E-1  
 5.440000000000000E7    -5.595954060554504E-1  -8.258127570152283E-1  -8.808978600427508E-4  -4.160279408097267E-3  -9.255586192011833E-4  -4.165134858340025E-3  -1.991151571273804E-1   9.767099618911743E-1  
 5.470000000000000E7    -5.872216224670410E-1  -8.062297701835632E-1  -1.206639688462019E-3  -5.021492019295692E-3  -1.200426369905472E-3  -5.014065187424421E-3  -1.864866167306900E-1   9.788034558296204E-1  
 5.500000000000000E7    -6.170858740806580E-1  -7.846904993057251E-1  -1.544062979519367E-3  -5.914841778576374E-3  -1.549938926473260E-3  -5.861324258148670E-3  -1.747542917728424E-1   9.821290969848633E-1  
 5.530000000000000E7    -6.442129015922546E-1  -7.620779871940613E-1  -1.928978366777301E-3  -6.756230257451534E-3  -1.948665245436132E-3  -6.756075657904148E-3  -1.631626784801483E-1   9.834647178649902E-1  
 5.560000000000000E7    -6.715599298477173E-1  -7.379807233810425E-1  -2.358971396461129E-3  -7.637702394276857E-3  -2.335756784304977E-3  -7.609433494508266E-3  -1.523877382278442E-1   9.854326248168945E-1  
 5.590000000000000E7    -6.969420313835144E-1  -7.150829434394836E-1  -2.831561490893364E-3  -8.463989011943340E-3  -2.881749533116818E-3  -8.490814827382565E-3  -1.397225409746170E-1   9.870744943618774E-1  
 5.620000000000000E7    -7.221974730491638E-1  -6.879448890686035E-1  -3.407526761293411E-3  -9.382084943354130E-3  -3.373815910890698E-3  -9.319923818111420E-3  -1.288497447967529E-1   9.889956116676331E-1  
 5.650000000000000E7    -7.451712489128113E-1  -6.640046834945679E-1  -3.939219284802675E-3  -1.021615043282509E-2  -3.951084800064564E-3  -1.023775432258844E-2  -1.170579940080643E-1   9.896026849746704E-1  
 5.680000000000000E7    -7.680667638778687E-1  -6.369682550430298E-1  -4.624570719897747E-3  -1.110420096665621E-2  -4.589351825416088E-3  -1.106485072523356E-2  -1.049811616539955E-1   9.906253218650818E-1  
 5.710000000000000E7    -7.905630469322205E-1  -6.082093119621277E-1  -5.298613104969263E-3  -1.191978808492422E-2  -5.303279031068087E-3  -1.196957286447287E-2  -9.363675117492676E-2   9.923869967460632E-1  
 5.740000000000000E7    -8.116115331649780E-1  -5.804193615913391E-1  -6.000971421599388E-3  -1.279573515057564E-2  -6.014876533299685E-3  -1.277898903936148E-2  -8.088703453540802E-2   9.935648441314697E-1  
 5.770000000000000E7    -8.299628496170044E-1  -5.526731610298157E-1  -6.771316751837730E-3  -1.363527402281761E-2  -6.729145534336567E-3  -1.361512020230293E-2  -7.085389643907547E-2   9.934699535369873E-1  
 5.800000000000000E7    -8.495616912841797E-1  -5.222263932228088E-1  -7.659516297280788E-3  -1.447556633502245E-2  -7.684599142521620E-3  -1.441848464310169E-2  -5.750247091054916E-2   9.961623549461365E-1  
 5.830000000000000E7    -8.672692775726318E-1  -4.919589757919312E-1  -8.500585332512856E-3  -1.521270908415318E-2  -8.527634665369988E-3  -1.525092776864767E-2  -4.689220339059830E-2   9.964028596878052E-1  
 5.860000000000000E7    -8.847904801368713E-1  -4.624084532260895E-1  -9.423454292118549E-3  -1.602596417069435E-2  -9.482582099735737E-3  -1.603380218148232E-2  -3.467670083045960E-2   9.959440231323242E-1  
 5.890000000000000E7    -8.994025588035584E-1  -4.309940040111542E-1  -1.044677384197712E-2  -1.680296286940575E-2  -1.037166174501181E-2  -1.683192700147629E-2  -2.427891641855240E-2   9.961564540863037E-1  
 5.920000000000000E7    -9.141920804977417E-1  -3.985546827316284E-1  -1.146867312490940E-2  -1.751177944242954E-2  -1.149600744247437E-2  -1.747299917042255E-2  -1.118970662355423E-2   9.974443316459656E-1  
 5.950000000000000E7    -9.269540905952454E-1  -3.663583099842072E-1  -1.253987476229668E-2  -1.822886429727078E-2  -1.250196713954210E-2  -1.819461211562157E-2   3.102272748947144E-4   9.957656264305115E-1  
 5.980000000000000E7    -9.397175908088684E-1  -3.340194523334503E-1  -1.375037711113691E-2  -1.889009214937687E-2  -1.363705843687058E-2  -1.891881786286831E-2   1.268163323402405E-2   9.960051774978638E-1  
 6.010000000000000E7    -9.490145444869995E-1  -3.021760582923889E-1  -1.483413577079773E-2  -1.963718794286251E-2  -1.477708760648966E-2  -1.958106830716133E-2   2.376174926757813E-2   9.965586066246033E-1  
 6.040000000000000E7    -9.597333669662476E-1  -2.678174078464508E-1  -1.609330065548420E-2  -2.025311626493931E-2  -1.608622632920742E-2  -2.025974169373512E-2   3.574883937835693E-2   9.967755079269409E-1  
 6.070000000000000E7    -9.692126512527466E-1  -2.361677885055542E-1  -1.735195331275463E-2  -2.088186889886856E-2  -1.727657765150070E-2  -2.085391059517860E-2   4.694946110248566E-2   9.954290390014648E-1  
 6.100000000000000E7    -9.761359691619873E-1  -2.025062441825867E-1  -1.870513334870338E-2  -2.138211391866207E-2  -1.867483928799629E-2  -2.136588469147682E-2   6.030791252851486E-2   9.951322078704834E-1  
 6.130000000000000E7    -9.829408526420593E-1  -1.676582098007202E-1  -2.009105309844017E-2  -2.194657921791077E-2  -2.006128057837486E-2  -2.192696928977966E-2   7.224173843860626E-2   9.947347044944763E-1  
 6.160000000000000E7    -9.877550601959229E-1  -1.343548148870468E-1  -2.139818295836449E-2  -2.244247868657112E-2  -2.145242132246494E-2  -2.239544875919819E-2   8.272033184766769E-2   9.924450516700745E-1  
 6.190000000000000E7    -9.912648200988770E-1  -1.002475619316101E-1  -2.286489121615887E-2  -2.290289662778378E-2  -2.285696379840374E-2  -2.278133854269981E-2   9.408859163522720E-2   9.910505414009094E-1  
 6.220000000000000E7    -9.946805238723755E-1  -6.619603931903839E-2  -2.431893348693848E-2  -2.328936010599136E-2  -2.441490441560745E-2  -2.334515377879143E-2   1.052819117903709E-1   9.910543560981751E-1  
 6.250000000000000E7    -9.961523413658142E-1  -3.182858228683472E-2  -2.590139582753182E-2  -2.368539199233055E-2  -2.596727386116982E-2  -2.364717982709408E-2   1.170871034264565E-1   9.900283813476563E-1  
 6.280000000000000E7    -9.959836602210999E-1   2.761080861091614E-3  -2.759460546076298E-2  -2.402323670685291E-2  -2.748099155724049E-2  -2.403267659246922E-2   1.295277476310730E-1   9.885458946228027E-1  
 6.310000000000000E7    -9.950486421585083E-1   3.826229274272919E-2  -2.927452698349953E-2  -2.426403760910034E-2  -2.916229330003262E-2  -2.424478158354759E-2   1.410206407308579E-1   9.867582321166992E-1  
 6.340000000000000E7    -9.931514263153076E-1   7.182572036981583E-2  -3.090908750891686E-2  -2.449395135045052E-2  -3.085045143961906E-2  -2.443585544824600E-2   1.532599776983261E-1   9.853767156600952E-1  
 6.370000000000000E7    -9.902768135070801E-1   1.062522158026695E-1  -3.264096006751061E-2  -2.457465976476669E-2  -3.259974718093872E-2  -2.459285408258438E-2   1.641649305820465E-1   9.824239015579224E-1  
 6.400000000000000E7    -9.850319027900696E-1   1.397355794906616E-1  -3.442814946174622E-2  -2.467529848217964E-2  -3.434663265943527E-2  -2.461341582238674E-2   1.766076534986496E-1   9.812551736831665E-1  
 6.430000000000000E7    -9.797443151473999E-1   1.748262643814087E-1  -3.626397997140884E-2  -2.491280809044838E-2  -3.616839274764061E-2  -2.467491850256920E-2   1.883815824985504E-1   9.785125255584717E-1  
 6.460000000000000E7    -9.737486243247986E-1   2.084827125072479E-1  -3.800231963396072E-2  -2.478252723813057E-2  -3.797703608870506E-2  -2.474034205079079E-2   1.989445239305496E-1   9.755763411521912E-1  
 6.490000000000000E7    -9.669692516326904E-1   2.410220801830292E-1  -3.987771645188332E-2  -2.470040135085583E-2  -3.992147371172905E-2  -2.477343939244747E-2   2.106058895587921E-1   9.737668037414551E-1  
 6.520000000000000E7    -9.570114016532898E-1   2.740498185157776E-1  -4.197350889444351E-2  -2.463569119572640E-2  -4.166378080844879E-2  -2.450136840343475E-2   2.225418537855148E-1   9.719859361648560E-1  
 6.550000000000000E7    -9.471282362937927E-1   3.061710596084595E-1  -4.385227337479591E-2  -2.437288314104080E-2  -4.373750090599060E-2  -2.432740479707718E-2   2.339550405740738E-1   9.671527147293091E-1  
 6.580000000000000E7    -9.354685544967651E-1   3.391295671463013E-1  -4.583916813135147E-2  -2.404711209237576E-2  -4.567605257034302E-2  -2.415116503834724E-2   2.457862198352814E-1   9.656954407691956E-1  
 6.610000000000000E7    -9.222890734672546E-1   3.710101842880249E-1  -4.782010987401009E-2  -2.374909445643425E-2  -4.760196805000305E-2  -2.347238548099995E-2   2.584557533264160E-1   9.606468081474304E-1  
 6.640000000000000E7    -9.104344844818115E-1   4.026116132736206E-1  -4.995263367891312E-2  -2.339981496334076E-2  -4.983076453208923E-2  -2.334276586771011E-2   2.700396776199341E-1   9.578446745872498E-1  
 6.670000000000000E7    -8.952617645263672E-1   4.336316287517548E-1  -5.197696015238762E-2  -2.278454229235649E-2  -5.191228538751602E-2  -2.287289313971996E-2   2.805812358856201E-1   9.555305242538452E-1  
 6.700000000000000E7    -8.793181180953980E-1   4.640389680862427E-1  -5.394789949059486E-2  -2.228787168860436E-2  -5.379868671298027E-2  -2.220530807971954E-2   2.920118868350983E-1   9.509612321853638E-1  
 6.730000000000000E7    -8.628884553909302E-1   4.939692616462708E-1  -5.599731951951981E-2  -2.175160869956017E-2  -5.603810027241707E-2  -2.143544331192970E-2   3.044422864913940E-1   9.482127428054810E-1  
 6.760000000000000E7    -8.456803560256958E-1   5.233140587806702E-1  -5.831167846918106E-2  -2.076805755496025E-2  -5.820219963788986E-2  -2.078879438340664E-2   3.163318634033203E-1   9.436543583869934E-1  
 6.790000000000000E7    -8.264567255973816E-1   5.525320172309876E-1  -6.031482666730881E-2  -2.011498063802719E-2  -6.036566570401192E-2  -1.999694108963013E-2   3.267235457897186E-1   9.392031431198120E-1  
 6.820000000000000E7    -8.068752288818359E-1   5.796387195587158E-1  -6.247843801975250E-2  -1.917311921715736E-2  -6.252994388341904E-2  -1.927061565220356E-2   3.381216228008270E-1   9.359334111213684E-1  
 6.850000000000000E7    -7.866926193237305E-1   6.081274151802063E-1  -6.492239981889725E-2  -1.844372041523457E-2  -6.473661959171295E-2  -1.825489476323128E-2   3.489046692848206E-1   9.319462180137634E-1  
 6.880000000000000E7    -7.645902633666992E-1   6.342861056327820E-1  -6.708106398582459E-2  -1.725392974913120E-2  -6.684310734272003E-2  -1.709409430623055E-2   3.611729145050049E-1   9.266551733016968E-1  
 6.910000000000000E7    -7.420152425765991E-1   6.604325175285339E-1  -6.943486630916596E-2  -1.595198921859264E-2  -6.918316334486008E-2  -1.595990918576717E-2   3.730364441871643E-1   9.220958352088928E-1  
 6.940000000000000E7    -7.194296717643738E-1   6.857085824012756E-1  -7.154936343431473E-2  -1.490239053964615E-2  -7.151622325181961E-2  -1.482871640473604E-2   3.832332491874695E-1   9.176012277603149E-1  
 6.970000000000000E7    -6.938105821609497E-1   7.102113962173462E-1  -7.377704977989197E-2  -1.351233292371035E-2  -7.383234798908234E-2  -1.322178076952696E-2   3.950895071029663E-1   9.119520187377930E-1  
 7.000000000000000E7    -6.692471504211426E-1   7.342404127120972E-1  -7.614281028509140E-2  -1.202781032770872E-2  -7.587450742721558E-2  -1.187071669846773E-2   4.065089225769043E-1   9.074271917343140E-1  
