#  HZ   S   RI   R     50.00 
! Rohde & Schwarz ZVT8 8Ports - Version 4.11 - 1300.0000k08 SN: 100242
! Date: 2026-07-31 14:31:38
! Measurements: S11 S21 S12 S22 
! 
 1.000000000000000E7    -4.049095511436462E-1   9.103478193283081E-1   5.262985825538635E-2   5.303670465946198E-2   5.245370417833328E-2   5.311803519725800E-2  -9.170653223991394E-1   3.892244100570679E-1  
 1.030000000000000E7    -3.724225759506226E-1   9.228011369705200E-1   5.593315139412880E-2   5.354918166995049E-2   5.588629469275475E-2   5.353420972824097E-2  -9.110653996467590E-1   4.024855792522430E-1  
 1.060000000000000E7    -3.366195559501648E-1   9.358918666839600E-1   5.952129513025284E-2   5.446026474237442E-2   5.951905995607376E-2   5.424769595265389E-2  -9.070807695388794E-1   4.143729805946350E-1  
 1.090000000000000E7    -3.050050735473633E-1   9.464985728263855E-1   6.296458095312119E-2   5.475889518857002E-2   6.287472695112228E-2   5.480005219578743E-2  -9.008224606513977E-1   4.264172613620758E-1  
 1.120000000000000E7    -2.700116634368897E-1   9.559285044670105E-1   6.709001958370209E-2   5.573897436261177E-2   6.649426370859146E-2   5.540816858410835E-2  -8.946979641914368E-1   4.385889470577240E-1  
 1.150000000000000E7    -2.346284389495850E-1   9.662165641784668E-1   7.051769644021988E-2   5.535564199090004E-2   7.042192667722702E-2   5.558603256940842E-2  -8.872820138931274E-1   4.486199915409088E-1  
 1.180000000000000E7    -2.001717388629913E-1   9.711292386054993E-1   7.423947006464005E-2   5.576862022280693E-2   7.434929907321930E-2   5.576921999454498E-2  -8.822996616363525E-1   4.600595533847809E-1  
 1.210000000000000E7    -1.655358970165253E-1   9.783756732940674E-1   7.851722091436386E-2   5.611639469861984E-2   7.850839942693710E-2   5.598848313093185E-2  -8.743244409561157E-1   4.730384945869446E-1  
 1.240000000000000E7    -1.300259679555893E-1   9.828060865402222E-1   8.293718844652176E-2   5.616421625018120E-2   8.268640190362930E-2   5.578311160206795E-2  -8.674283027648926E-1   4.836868643760681E-1  
 1.270000000000000E7    -9.407706558704376E-2   9.858327507972717E-1   8.742672950029373E-2   5.561588704586029E-2   8.712124824523926E-2   5.552175268530846E-2  -8.595187664031982E-1   4.988622665405273E-1  
 1.300000000000000E7    -5.896273255348206E-2   9.893657565116882E-1   9.170299768447876E-2   5.540999397635460E-2   9.143991768360138E-2   5.539557337760925E-2  -8.517441153526306E-1   5.096518397331238E-1  
 1.330000000000000E7    -2.302476763725281E-2   9.910017848014832E-1   9.656167775392532E-2   5.507311969995499E-2   9.634441882371903E-2   5.436781421303749E-2  -8.432335853576660E-1   5.220804810523987E-1  
 1.360000000000000E7     1.434178650379181E-2   9.910176396369934E-1   1.012812554836273E-1   5.442208424210548E-2   1.015363410115242E-1   5.394798889756203E-2  -8.356219530105591E-1   5.329096913337708E-1  
 1.390000000000000E7     4.920500516891480E-2   9.882638454437256E-1   1.064831390976906E-1   5.328627303242683E-2   1.062060669064522E-1   5.354347825050354E-2  -8.270475268363953E-1   5.452516078948975E-1  
 1.420000000000000E7     8.614702522754669E-2   9.863276481628418E-1   1.111850067973137E-1   5.256902426481247E-2   1.112326830625534E-1   5.252974852919579E-2  -8.198764324188232E-1   5.564353466033936E-1  
 1.450000000000000E7     1.219649910926819E-1   9.806662201881409E-1   1.166932806372643E-1   5.107215046882629E-2   1.166929677128792E-1   5.113785713911057E-2  -8.081700205802918E-1   5.704200267791748E-1  
 1.480000000000000E7     1.599245816469193E-1   9.750415086746216E-1   1.222570985555649E-1   4.966631159186363E-2   1.222405359148979E-1   5.006901547312737E-2  -8.003706932067871E-1   5.816182494163513E-1  
 1.510000000000000E7     1.953219175338745E-1   9.672837257385254E-1   1.276961117982864E-1   4.796902835369110E-2   1.274946480989456E-1   4.797817021608353E-2  -7.875466942787170E-1   5.944854617118835E-1  
 1.540000000000000E7     2.306294143199921E-1   9.590799212455750E-1   1.334179937839508E-1   4.698737710714340E-2   1.332783997058868E-1   4.634957015514374E-2  -7.810943126678467E-1   6.054739952087402E-1  
 1.570000000000000E7     2.671376168727875E-1   9.501213431358337E-1   1.393593102693558E-1   4.434670880436897E-2   1.394002884626389E-1   4.419355094432831E-2  -7.692189216613770E-1   6.193213462829590E-1  
 1.600000000000000E7     3.035975694656372E-1   9.376239776611328E-1   1.451950669288635E-1   4.177017509937286E-2   1.456136107444763E-1   4.143058881163597E-2  -7.582921385765076E-1   6.296368241310120E-1  
 1.630000000000000E7     3.385041356086731E-1   9.243826270103455E-1   1.522795557975769E-1   3.871113434433937E-2   1.517488807439804E-1   3.904369473457336E-2  -7.463748455047607E-1   6.433692574501038E-1  
 1.660000000000000E7     3.732694089412689E-1   9.088601469993591E-1   1.588215231895447E-1   3.563123568892479E-2   1.583482772111893E-1   3.538886457681656E-2  -7.330367565155029E-1   6.555062532424927E-1  
 1.690000000000000E7     4.070299863815308E-1   8.930151462554932E-1   1.653048694133759E-1   3.284430876374245E-2   1.652250885963440E-1   3.238736838102341E-2  -7.211098074913025E-1   6.673969626426697E-1  
 1.720000000000000E7     4.437605440616608E-1   8.759630322456360E-1   1.716943085193634E-1   2.827544510364533E-2   1.718375831842423E-1   2.866159379482269E-2  -7.079083323478699E-1   6.792770624160767E-1  
 1.750000000000000E7     4.727653264999390E-1   8.591207265853882E-1   1.797126680612564E-1   2.550065517425537E-2   1.798342317342758E-1   2.493697032332420E-2  -6.952393651008606E-1   6.932559013366699E-1  
 1.780000000000000E7     5.084006786346436E-1   8.351117372512817E-1   1.859608739614487E-1   2.011178061366081E-2   1.862746924161911E-1   2.055846154689789E-2  -6.803534626960754E-1   7.029358148574829E-1  
 1.810000000000000E7     5.394905805587769E-1   8.149585127830505E-1   1.948626339435577E-1   1.552899740636349E-2   1.934681385755539E-1   1.473438739776611E-2  -6.648432612419128E-1   7.184321880340576E-1  
 1.840000000000000E7     5.731778740882874E-1   7.908688187599182E-1   2.025635093450546E-1   8.607635274529457E-3   2.016910165548325E-1   9.212141856551170E-3  -6.487517356872559E-1   7.301602363586426E-1  
 1.870000000000000E7     6.017351746559143E-1   7.666773796081543E-1   2.102610021829605E-1   3.560416400432587E-3   2.094348371028900E-1   3.055535256862640E-3  -6.315717697143555E-1   7.415444850921631E-1  
 1.900000000000000E7     6.314591765403748E-1   7.402305006980896E-1   2.183601409196854E-1  -2.769554033875465E-3   2.179735749959946E-1  -3.335939720273018E-3  -6.145181655883789E-1   7.531844377517700E-1  
 1.930000000000000E7     6.605682373046875E-1   7.113344669342041E-1   2.261528521776199E-1  -1.133227813988924E-2   2.267108559608460E-1  -1.032578386366367E-2  -5.959326028823853E-1   7.667108774185181E-1  
 1.960000000000000E7     6.889020204544067E-1   6.810305118560791E-1   2.346700876951218E-1  -1.907706633210182E-2   2.349800318479538E-1  -1.846660487353802E-2  -5.787292718887329E-1   7.781174182891846E-1  
 1.990000000000000E7     7.133442759513855E-1   6.502459645271301E-1   2.434856593608856E-1  -2.796684950590134E-2   2.436929494142532E-1  -2.789599448442459E-2  -5.554972290992737E-1   7.910095453262329E-1  
 2.020000000000000E7     7.390106320381165E-1   6.173304319381714E-1   2.527313232421875E-1  -3.746887296438217E-2   2.519524395465851E-1  -3.711820766329765E-2  -5.357601642608643E-1   7.999963760375977E-1  
 2.050000000000000E7     7.642888426780701E-1   5.827187299728394E-1   2.615012526512146E-1  -4.763491451740265E-2   2.598769068717957E-1  -4.792656004428864E-2  -5.134916901588440E-1   8.115294575691223E-1  
 2.080000000000000E7     7.855378985404968E-1   5.455422401428223E-1   2.708239555358887E-1  -5.948194116353989E-2   2.707530260086060E-1  -5.930099636316299E-2  -4.893926978111267E-1   8.240997195243835E-1  
 2.110000000000000E7     8.070987462997437E-1   5.088256001472473E-1   2.803455889225006E-1  -7.310929894447327E-2   2.801147699356079E-1  -7.282991707324982E-2  -4.634816646575928E-1   8.339748978614807E-1  
 2.140000000000000E7     8.254519701004028E-1   4.701876342296600E-1   2.895294427871704E-1  -8.754738420248032E-2   2.885753512382507E-1  -8.623518049716950E-2  -4.374201297760010E-1   8.438560962677002E-1  
 2.170000000000000E7     8.412046432495117E-1   4.311740398406982E-1   2.988804280757904E-1  -1.022453159093857E-1   2.986668348312378E-1  -1.011694669723511E-1  -4.090974628925324E-1   8.530496358871460E-1  
 2.200000000000000E7     8.573622703552246E-1   3.876418769359589E-1   3.075603246688843E-1  -1.194538325071335E-1   3.076488971710205E-1  -1.190985143184662E-1  -3.775712251663208E-1   8.607487678527832E-1  
 2.230000000000000E7     8.685963153839111E-1   3.448968827724457E-1   3.165401816368103E-1  -1.378535926342011E-1   3.161727190017700E-1  -1.372608840465546E-1  -3.459444940090179E-1   8.682302236557007E-1  
 2.260000000000000E7     8.795128464698792E-1   3.001407980918884E-1   3.247404396533966E-1  -1.582559347152710E-1   3.265246450901032E-1  -1.583054214715958E-1  -3.121762573719025E-1   8.743563890457153E-1  
 2.290000000000000E7     8.861977458000183E-1   2.541153430938721E-1   3.330229818820953E-1  -1.804608404636383E-1   3.340327739715576E-1  -1.799282729625702E-1  -2.748104631900787E-1   8.782936334609985E-1  
 2.320000000000000E7     8.892761468887329E-1   2.079824209213257E-1   3.406798243522644E-1  -2.061307579278946E-1   3.401295840740204E-1  -2.061796784400940E-1  -2.365485131740570E-1   8.827776908874512E-1  
 2.350000000000000E7     8.899703621864319E-1   1.593954563140869E-1   3.469803333282471E-1  -2.342600524425507E-1   3.465476930141449E-1  -2.331220060586929E-1  -1.954509019851685E-1   8.834373950958252E-1  
 2.380000000000000E7     8.869503736495972E-1   1.113637983798981E-1   3.521813154220581E-1  -2.626455724239349E-1   3.523260653018951E-1  -2.626824080944061E-1  -1.521593630313873E-1   8.816658854484558E-1  
 2.410000000000000E7     8.804957866668701E-1   6.186081469058991E-2   3.550114929676056E-1  -2.960645556449890E-1   3.543712496757507E-1  -2.955375909805298E-1  -1.055296286940575E-1   8.755965828895569E-1  
 2.440000000000000E7     8.684292435646057E-1   1.365422829985619E-2   3.560661375522614E-1  -3.324861526489258E-1   3.562904596328735E-1  -3.328647315502167E-1  -5.795982852578163E-2   8.666548728942871E-1  
 2.470000000000000E7     8.526184558868408E-1  -3.432348743081093E-2   3.538358211517334E-1  -3.719127178192139E-1   3.547493815422058E-1  -3.695087730884552E-1  -5.656071007251740E-3   8.521703481674194E-1  
 2.500000000000000E7     8.328533768653870E-1  -8.319489657878876E-2   3.487211763858795E-1  -4.130346775054932E-1   3.482228517532349E-1  -4.141515493392944E-1   4.827810078859329E-2   8.340597152709961E-1  
 2.530000000000000E7     8.061338663101196E-1  -1.297134310007095E-1   3.401303589344025E-1  -4.594412744045258E-1   3.401134312152863E-1  -4.584208130836487E-1   1.038472652435303E-1   8.079463243484497E-1  
 2.560000000000000E7     7.750495076179504E-1  -1.724513322114945E-1   3.253720700740814E-1  -5.066161155700684E-1   3.256094157695770E-1  -5.072656273841858E-1   1.603640019893646E-1   7.746834158897400E-1  
 2.590000000000000E7     7.377451658248901E-1  -2.099653929471970E-1   3.012608885765076E-1  -5.584114193916321E-1   3.018130958080292E-1  -5.593569278717041E-1   2.185907512903214E-1   7.346448302268982E-1  
 2.620000000000000E7     6.952638626098633E-1  -2.443805932998657E-1   2.706619799137116E-1  -6.126279234886169E-1   2.711616754531860E-1  -6.110630631446838E-1   2.763041257858276E-1   6.818506121635437E-1  
 2.650000000000000E7     6.480509042739868E-1  -2.728307545185089E-1   2.333765625953674E-1  -6.650432348251343E-1   2.326314002275467E-1  -6.657716035842896E-1   3.283043205738068E-1   6.193456053733826E-1  
 2.680000000000000E7     5.964304208755493E-1  -2.915359735488892E-1   1.835815906524658E-1  -7.180578112602234E-1   1.829332560300827E-1  -7.182431221008301E-1   3.750842809677124E-1   5.453217029571533E-1  
 2.710000000000000E7     5.449802875518799E-1  -3.025871217250824E-1   1.208833009004593E-1  -7.654595375061035E-1   1.202008724212647E-1  -7.653706669807434E-1   4.162896275520325E-1   4.625153839588165E-1  
 2.740000000000000E7     4.894091486930847E-1  -3.023350834846497E-1   4.903578013181686E-2  -8.099290132522583E-1   4.810143262147903E-2  -8.095946311950684E-1   4.417122602462769E-1   3.643939793109894E-1  
 2.770000000000000E7     4.414209425449371E-1  -2.916381061077118E-1  -3.554048389196396E-2  -8.413529396057129E-1  -3.522991016507149E-2  -8.423685431480408E-1   4.544119536876679E-1   2.613409161567688E-1  
 2.800000000000000E7     3.957166671752930E-1  -2.714999020099640E-1  -1.282015293836594E-1  -8.627266883850098E-1  -1.260539293289185E-1  -8.626326322555542E-1   4.493637382984161E-1   1.483431011438370E-1  
 2.830000000000000E7     3.581005334854126E-1  -2.423884570598602E-1  -2.259520888328552E-1  -8.668187260627747E-1  -2.276128232479096E-1  -8.653569817543030E-1   4.255915880203247E-1   4.192002117633820E-2  
 2.860000000000000E7     3.337995707988739E-1  -2.050119489431381E-1  -3.285474777221680E-1  -8.532027006149292E-1  -3.294259905815125E-1  -8.515074253082275E-1   3.796925544738770E-1  -6.616272777318955E-2  
 2.890000000000000E7     3.230363130569458E-1  -1.661012023687363E-1  -4.283294975757599E-1  -8.213518261909485E-1  -4.284507930278778E-1  -8.194982409477234E-1   3.151198625564575E-1  -1.626916676759720E-1  
 2.920000000000000E7     3.220655918121338E-1  -1.256419271230698E-1  -5.218276977539063E-1  -7.742583155632019E-1  -5.216638445854187E-1  -7.714830040931702E-1   2.346126586198807E-1  -2.457224428653717E-1  
 2.950000000000000E7     3.374792337417603E-1  -9.223588556051254E-2  -6.041617393493652E-1  -7.097381949424744E-1  -6.023938059806824E-1  -7.089238762855530E-1   1.411246657371521E-1  -3.100527226924896E-1  
 2.980000000000000E7     3.589759171009064E-1  -6.449711322784424E-2  -6.733124852180481E-1  -6.355406045913696E-1  -6.733147501945496E-1  -6.349645256996155E-1   4.039431735873222E-2  -3.554672598838806E-1  
 3.010000000000000E7     3.899298608303070E-1  -4.899155348539352E-2  -7.281702160835266E-1  -5.544289946556091E-1  -7.261490821838379E-1  -5.537235140800476E-1  -6.140230596065521E-2  -3.823441267013550E-1  
 3.040000000000000E7     4.268495142459869E-1  -4.200955480337143E-2  -7.667298913002014E-1  -4.679808318614960E-1  -7.677333354949951E-1  -4.692419171333313E-1  -1.594917327165604E-1  -3.891073465347290E-1  
 3.070000000000000E7     4.614873528480530E-1  -4.733338579535484E-2  -7.937456369400024E-1  -3.821744620800018E-1  -7.911935448646545E-1  -3.828176856040955E-1  -2.510974109172821E-1  -3.850245475769043E-1  
 3.100000000000000E7     4.974919855594635E-1  -6.388701498508453E-2  -8.064228296279907E-1  -2.995788156986237E-1  -8.052358031272888E-1  -2.994156479835510E-1  -3.363100886344910E-1  -3.678022921085358E-1  
 3.130000000000000E7     5.280447602272034E-1  -8.834592998027802E-2  -8.098555803298950E-1  -2.209232002496719E-1  -8.093238472938538E-1  -2.213815450668335E-1  -4.125434458255768E-1  -3.379192650318146E-1  
 3.160000000000000E7     5.563095808029175E-1  -1.219394505023956E-1  -8.026400208473206E-1  -1.472125649452210E-1  -8.040744662284851E-1  -1.473637670278549E-1  -4.769683182239533E-1  -3.039258420467377E-1  
 3.190000000000000E7     5.764404535293579E-1  -1.601068675518036E-1  -7.915542721748352E-1  -7.822642475366592E-2  -7.904993295669556E-1  -7.873456180095673E-2  -5.344917774200440E-1  -2.653221189975739E-1  
 3.220000000000000E7     5.922345519065857E-1  -2.039861381053925E-1  -7.749482393264771E-1  -1.482010260224342E-2  -7.743592262268066E-1  -1.533998455852270E-2  -5.828276872634888E-1  -2.240303158760071E-1  
 3.250000000000000E7     5.990335941314697E-1  -2.527575492858887E-1  -7.536475658416748E-1   4.148143902420998E-2  -7.542878985404968E-1   4.209044575691223E-2  -6.219467520713806E-1  -1.808133423328400E-1  
 3.280000000000000E7     5.981208086013794E-1  -3.048418164253235E-1  -7.286880016326904E-1   9.366229176521301E-2  -7.290825843811035E-1   9.444080293178558E-2  -6.564546823501587E-1  -1.368873417377472E-1  
 3.310000000000000E7     5.901948809623718E-1  -3.549624383449554E-1  -7.048625946044922E-1   1.433166265487671E-1  -7.047020792961121E-1   1.431633234024048E-1  -6.818140745162964E-1  -9.430373460054398E-2  
 3.340000000000000E7     5.736725926399231E-1  -4.094508588314056E-1  -6.786222457885742E-1   1.885221153497696E-1  -6.773955821990967E-1   1.884643733501434E-1  -7.035868763923645E-1  -5.266084149479866E-2  
 3.370000000000000E7     5.506079196929932E-1  -4.616828262805939E-1  -6.490695476531982E-1   2.288638651371002E-1  -6.501327753067017E-1   2.276628315448761E-1  -7.195243835449219E-1  -1.213254593312740E-2  
 3.400000000000000E7     5.183937549591065E-1  -5.148416161537170E-1  -6.206488013267517E-1   2.674106657505035E-1  -6.212841272354126E-1   2.674794793128967E-1  -7.304459810256958E-1   2.505159378051758E-2  
 3.430000000000000E7     4.783846735954285E-1  -5.649935603141785E-1  -5.917140245437622E-1   3.045043647289276E-1  -5.903883576393127E-1   3.029687702655792E-1  -7.398322224617004E-1   6.041758507490158E-2  
 3.460000000000000E7     4.298387467861176E-1  -6.134222149848938E-1  -5.610633492469788E-1   3.388431966304779E-1  -5.609758496284485E-1   3.378483951091766E-1  -7.450071573257446E-1   9.300098568201065E-2  
 3.490000000000000E7     3.717231154441834E-1  -6.564505696296692E-1  -5.303257107734680E-1   3.718744516372681E-1  -5.274426937103272E-1   3.695827424526215E-1  -7.485672831535339E-1   1.247729733586311E-1  
 3.520000000000000E7     3.070775866508484E-1  -6.976045966148377E-1  -4.964496791362763E-1   4.025299251079559E-1  -4.964358210563660E-1   4.004113078117371E-1  -7.493612766265869E-1   1.542864888906479E-1  
 3.550000000000000E7     2.303180247545242E-1  -7.313765883445740E-1  -4.624015986919403E-1   4.312948584556580E-1  -4.621836543083191E-1   4.317483007907867E-1  -7.481272816658020E-1   1.804407387971878E-1  
 3.580000000000000E7     1.457300186157227E-1  -7.559400796890259E-1  -4.255873560905457E-1   4.614526331424713E-1  -4.257282018661499E-1   4.609297811985016E-1  -7.458096742630005E-1   2.056564390659332E-1  
 3.610000000000000E7     5.003842711448669E-2  -7.693492174148560E-1  -3.883004784584045E-1   4.902063906192780E-1  -3.871502280235291E-1   4.893815517425537E-1  -7.436429858207703E-1   2.284696400165558E-1  
 3.640000000000000E7    -5.379095673561096E-2  -7.718524932861328E-1  -3.457976579666138E-1   5.162845849990845E-1  -3.462172150611877E-1   5.173232555389404E-1  -7.376646995544434E-1   2.471464574337006E-1  
 3.670000000000000E7    -1.653642654418945E-1  -7.572376728057861E-1  -3.005786240100861E-1   5.425379276275635E-1  -2.991406917572022E-1   5.412228703498840E-1  -7.347284555435181E-1   2.640978693962097E-1  
 3.700000000000000E7    -2.850635051727295E-1  -7.208307981491089E-1  -2.488604933023453E-1   5.658278465270996E-1  -2.492330670356751E-1   5.661809444427490E-1  -7.296714782714844E-1   2.798815965652466E-1  
 3.730000000000000E7    -4.058773815631867E-1  -6.611605286598206E-1  -1.910209953784943E-1   5.848480463027954E-1  -1.919149905443192E-1   5.851128101348877E-1  -7.258864641189575E-1   2.910497188568115E-1  
 3.760000000000000E7    -5.257449746131897E-1  -5.705061554908752E-1  -1.300686746835709E-1   6.008735299110413E-1  -1.302370727062225E-1   6.003271937370300E-1  -7.245860099792481E-1   3.022180497646332E-1  
 3.790000000000000E7    -6.367483735084534E-1  -4.476804435253143E-1  -6.359218806028366E-2   6.069692969322205E-1  -6.376118957996368E-2   6.055443286895752E-1  -7.246028184890747E-1   3.109534382820129E-1  
 3.820000000000000E7    -7.257432341575623E-1  -2.886361479759216E-1   8.982598781585693E-3   6.036888957023621E-1   1.083380356431007E-2   6.025549173355103E-1  -7.263734340667725E-1   3.171352446079254E-1  
 3.850000000000000E7    -7.825673222541809E-1  -1.007155552506447E-1   8.326827734708786E-2   5.863444805145264E-1   8.492456376552582E-2   5.857992768287659E-1  -7.325168848037720E-1   3.257993459701538E-1  
 3.880000000000000E7    -7.906143665313721E-1   1.099878996610642E-1   1.594462692737579E-1   5.550601482391357E-1   1.575897186994553E-1   5.551126003265381E-1  -7.405691146850586E-1   3.345968723297119E-1  
 3.910000000000000E7    -7.430681586265564E-1   3.297443687915802E-1   2.266067415475845E-1   5.053314566612244E-1   2.258144021034241E-1   5.064524412155151E-1  -7.535423636436462E-1   3.465981185436249E-1  
 3.940000000000000E7    -6.343595981597900E-1   5.368559956550598E-1   2.816110849380493E-1   4.441064298152924E-1   2.820754349231720E-1   4.448703527450562E-1  -7.652221322059631E-1   3.600980043411255E-1  
 3.970000000000000E7    -4.720842838287354E-1   7.087904214859009E-1   3.210196495056152E-1   3.718166053295136E-1   3.210844695568085E-1   3.711256384849548E-1  -7.784897685050964E-1   3.799133598804474E-1  
 4.000000000000000E7    -2.725665867328644E-1   8.290895819664002E-1   3.422087132930756E-1   2.972213327884674E-1   3.421191573143005E-1   2.967527508735657E-1  -7.907580733299255E-1   4.037954807281494E-1  
 4.030000000000000E7    -5.468851327896118E-2   8.922088146209717E-1   3.463447093963623E-1   2.259954959154129E-1   3.458087146282196E-1   2.256739288568497E-1  -7.988290786743164E-1   4.307671785354614E-1  
 4.060000000000000E7     1.619322896003723E-1   8.989328145980835E-1   3.345711529254913E-1   1.599424481391907E-1   3.342541158199310E-1   1.589909344911575E-1  -8.032775521278381E-1   4.592839777469635E-1  
 4.090000000000000E7     3.595574498176575E-1   8.585947751998901E-1   3.130580186843872E-1   1.043531298637390E-1   3.132723271846771E-1   1.046734973788261E-1  -8.035159707069397E-1   4.880747795104981E-1  
 4.120000000000000E7     5.297953486442566E-1   7.818480730056763E-1   2.845876216888428E-1   6.102374941110611E-2   2.846378982067108E-1   5.967640504240990E-2  -7.998710870742798E-1   5.185713768005371E-1  
 4.150000000000000E7     6.687996387481690E-1   6.798890233039856E-1   2.550626397132874E-1   2.679426595568657E-2   2.539121806621552E-1   2.697412669658661E-2  -7.937289476394653E-1   5.458627939224243E-1  
 4.180000000000000E7     7.789452075958252E-1   5.676253437995911E-1   2.246479839086533E-1   1.987969502806664E-3   2.243750393390656E-1   2.061616629362106E-3  -7.856072783470154E-1   5.708190202713013E-1  
 4.210000000000000E7     8.608251810073853E-1   4.492717683315277E-1   1.955337673425674E-1  -1.525867357850075E-2   1.955526024103165E-1  -1.524029113352299E-2  -7.754498124122620E-1   5.956963300704956E-1  
 4.240000000000000E7     9.186381101608276E-1   3.300315141677856E-1   1.687519252300263E-1  -2.684354595839977E-2   1.685979366302490E-1  -2.682139538228512E-2  -7.644943594932556E-1   6.179589033126831E-1  
 4.270000000000000E7     9.560023546218872E-1   2.153182923793793E-1   1.447668075561523E-1  -3.448148444294930E-2   1.445485800504684E-1  -3.432720527052879E-2  -7.515181303024292E-1   6.401888728141785E-1  
 4.300000000000000E7     9.795991182327271E-1   1.049395501613617E-1   1.234098523855209E-1  -3.855446726083756E-2   1.232522428035736E-1  -3.832969069480896E-2  -7.383740544319153E-1   6.597512960433960E-1  
 4.330000000000000E7     9.864801764488220E-1   2.708967775106430E-3   1.043255105614662E-1  -3.993334621191025E-2   1.044224500656128E-1  -3.996301442384720E-2  -7.247124314308167E-1   6.765611171722412E-1  
 4.360000000000000E7     9.842227101325989E-1  -9.585865586996079E-2   8.826488256454468E-2  -3.969155251979828E-2   8.785908669233322E-2  -3.994440287351608E-2  -7.116210460662842E-1   6.931035518646240E-1  
 4.390000000000000E7     9.738847613334656E-1  -1.856141388416290E-1   7.426209747791290E-2  -3.856750205159187E-2   7.405614852905273E-2  -3.836939483880997E-2  -6.972489356994629E-1   7.076977491378784E-1  
 4.420000000000000E7     9.542180299758911E-1  -2.685020864009857E-1   6.185157224535942E-2  -3.662526607513428E-2   6.177387759089470E-2  -3.648041561245918E-2  -6.829147338867188E-1   7.224718332290649E-1  
 4.450000000000000E7     9.303395748138428E-1  -3.447787463665009E-1   5.151840671896935E-2  -3.385215997695923E-2   5.124092474579811E-2  -3.387806192040443E-2  -6.710370779037476E-1   7.354587316513062E-1  
 4.480000000000000E7     9.025050401687622E-1  -4.151710867881775E-1   4.245406016707420E-2  -3.094778209924698E-2   4.239770397543907E-2  -3.094945661723614E-2  -6.572993397712708E-1   7.483900785446167E-1  
 4.510000000000000E7     8.714337944984436E-1  -4.790099859237671E-1   3.491099923849106E-2  -2.786278910934925E-2   3.477827832102776E-2  -2.768702432513237E-2  -6.441957354545593E-1   7.607819437980652E-1  
 4.540000000000000E7     8.359009027481079E-1  -5.386923551559448E-1   2.822454273700714E-2  -2.486293576657772E-2   2.827044576406479E-2  -2.476501278579235E-2  -6.303241848945618E-1   7.726970314979553E-1  
 4.570000000000000E7     7.981222867965698E-1  -5.941155552864075E-1   2.273203805088997E-2  -2.155757695436478E-2   2.270783856511116E-2  -2.136823907494545E-2  -6.171518564224243E-1   7.834895849227905E-1  
 4.600000000000000E7     7.600767612457275E-1  -6.419223546981812E-1   1.806120760738850E-2  -1.836408860981464E-2   1.807391829788685E-2  -1.848728395998478E-2  -6.047715544700623E-1   7.934091091156006E-1  
 4.630000000000000E7     7.188071608543396E-1  -6.895321607589722E-1   1.407653279602528E-2  -1.553886849433184E-2   1.408524718135595E-2  -1.549830660223961E-2  -5.919058322906494E-1   8.028035163879395E-1  
 4.660000000000000E7     6.773293018341065E-1  -7.317713499069214E-1   1.070871111005545E-2  -1.271742768585682E-2   1.060651335865259E-2  -1.269456744194031E-2  -5.776601433753967E-1   8.133214116096497E-1  
 4.690000000000000E7     6.339583396911621E-1  -7.686780691146851E-1   7.886727340519428E-3  -9.938361123204231E-3   7.849859073758125E-3  -1.002106443047524E-2  -5.656329989433289E-1   8.222429156303406E-1  
 4.720000000000000E7     5.894631743431091E-1  -8.030376434326172E-1   5.555942654609680E-3  -7.568993605673313E-3   5.659481044858694E-3  -7.516698911786079E-3  -5.519751310348511E-1   8.306280970573425E-1  
 4.750000000000000E7     5.465000867843628E-1  -8.336521983146668E-1   3.569744760170579E-3  -5.247041583061218E-3   3.650563769042492E-3  -5.250350572168827E-3  -5.398307442665100E-1   8.395880460739136E-1  
 4.780000000000000E7     5.018488764762878E-1  -8.607286810874939E-1   2.067373367026448E-3  -3.166772425174713E-3   2.153324661776424E-3  -3.091407939791679E-3  -5.259678363800049E-1   8.464233279228210E-1  
 4.810000000000000E7     4.569089710712433E-1  -8.858413100242615E-1   8.332807919941843E-4  -1.158914412371814E-3   7.851623231545091E-4  -1.164478948339820E-3  -5.147035717964172E-1   8.541421890258789E-1  
 4.840000000000000E7     4.123615026473999E-1  -9.078208804130554E-1  -1.635610387893394E-4   6.708102882839739E-4  -6.988752284087241E-5   5.809909198433161E-4  -5.020577907562256E-1   8.616497516632080E-1  
 4.870000000000000E7     3.667595088481903E-1  -9.271121025085449E-1  -9.413219522684813E-4   2.247023163363338E-3  -8.688312373124063E-4   2.215745858848095E-3  -4.896062016487122E-1   8.688730597496033E-1  
 4.900000000000000E7     3.219402134418488E-1  -9.445129632949829E-1  -1.533993519842625E-3   3.736372571438551E-3  -1.585459336638451E-3   3.755901241675019E-3  -4.774018526077271E-1   8.751713633537293E-1  
 4.930000000000000E7     2.766227722167969E-1  -9.590008854866028E-1  -1.926825032569468E-3   5.014936905354261E-3  -1.965475734323263E-3   4.943772684782744E-3  -4.645044207572937E-1   8.825522065162659E-1  
 4.960000000000000E7     2.311618030071259E-1  -9.690202474594116E-1  -2.091006841510534E-3   6.199751514941454E-3  -2.235426334664226E-3   6.097331177443266E-3  -4.520795941352844E-1   8.884261250495911E-1  
 4.990000000000000E7     1.875005960464478E-1  -9.790458083152771E-1  -2.358512952923775E-3   7.201395928859711E-3  -2.333123469725251E-3   7.112248800694943E-3  -4.403087794780731E-1   8.946201801300049E-1  
 5.020000000000000E7     1.442018151283264E-1  -9.870259761810303E-1  -2.406297717243433E-3   7.978199981153011E-3  -2.413955051451922E-3   7.976502180099487E-3  -4.284248352050781E-1   9.006613492965698E-1  
 5.050000000000000E7     9.945939481258392E-2  -9.921860694885254E-1  -2.324247267097235E-3   8.789458312094212E-3  -2.329583279788494E-3   8.755459450185299E-3  -4.161460399627686E-1   9.073060154914856E-1  
 5.080000000000000E7     5.645703151822090E-2  -9.962929487228394E-1  -2.246445743367076E-3   9.371278807520866E-3  -2.240982837975025E-3   9.346405975520611E-3  -4.032421112060547E-1   9.108641147613525E-1  
 5.110000000000000E7     1.294390857219696E-2  -9.973598122596741E-1  -2.094060881063342E-3   9.889390319585800E-3  -2.078656340017915E-3   9.865783154964447E-3  -3.926030397415161E-1   9.170581102371216E-1  
 5.140000000000000E7    -3.022962436079979E-2  -9.968804717063904E-1  -1.877365983091295E-3   1.025865785777569E-2  -1.847386592999101E-3   1.029101107269526E-2  -3.796526193618774E-1   9.237718582153320E-1  
 5.170000000000000E7    -7.107470929622650E-2  -9.943526983261108E-1  -1.640327507629991E-3   1.055189035832882E-2  -1.618344453163445E-3   1.050893031060696E-2  -3.669173717498779E-1   9.267808794975281E-1  
 5.200000000000000E7    -1.130067631602287E-1  -9.921301007270813E-1  -1.352992025204003E-3   1.075567770749331E-2  -1.390166347846389E-3   1.074332650750876E-2  -3.546267151832581E-1   9.303477406501770E-1  
 5.230000000000000E7    -1.539875268936157E-1  -9.854925870895386E-1  -1.081368653103709E-3   1.087043993175030E-2  -1.039218856021762E-3   1.082214619964361E-2  -3.430764377117157E-1   9.361139535903931E-1  
 5.260000000000000E7    -1.941174268722534E-1  -9.774571657180786E-1  -7.922121440060437E-4   1.087607908993959E-2  -7.820755708962679E-4   1.086342427879572E-2  -3.311026096343994E-1   9.405916929244995E-1  
 5.290000000000000E7    -2.341160923242569E-1  -9.696035981178284E-1  -4.835627332795411E-4   1.078177150338888E-2  -4.837054875679314E-4   1.077576912939549E-2  -3.192308545112610E-1   9.440420269966126E-1  
 5.320000000000000E7    -2.721487879753113E-1  -9.602764844894409E-1  -2.131154760718346E-4   1.064268592745066E-2  -1.906419056467712E-4   1.069747097790241E-2  -3.072364926338196E-1   9.485788345336914E-1  
 5.350000000000000E7    -3.097003400325775E-1  -9.477023482322693E-1   2.944841980934143E-5   1.046277768909931E-2   5.424156552180648E-5   1.047007367014885E-2  -2.963105142116547E-1   9.524678587913513E-1  
 5.380000000000000E7    -3.457645177841187E-1  -9.345635175704956E-1   2.762615913525224E-4   1.019953377544880E-2   3.198715276084840E-4   1.017048489302397E-2  -2.823127508163452E-1   9.552854299545288E-1  
 5.410000000000000E7    -3.845084905624390E-1  -9.215407371520996E-1   5.545821040868759E-4   9.835333563387394E-3   5.791375879198313E-4   9.872019290924072E-3  -2.709346413612366E-1   9.592929482460022E-1  
 5.440000000000000E7    -4.202539920806885E-1  -9.046653509140015E-1   7.795394049026072E-4   9.471419267356396E-3   7.711978396400809E-4   9.463733993470669E-3  -2.593894004821777E-1   9.624713659286499E-1  
 5.470000000000000E7    -4.528813958168030E-1  -8.880765438079834E-1   9.313468472100794E-4   8.967199362814426E-3   9.671865263953805E-4   9.014400653541088E-3  -2.464495897293091E-1   9.653444290161133E-1  
 5.500000000000000E7    -4.880555272102356E-1  -8.704084157943726E-1   1.131961937062442E-3   8.565156720578671E-3   1.140448497608304E-3   8.529183454811573E-3  -2.342759221792221E-1   9.696627855300903E-1  
 5.530000000000000E7    -5.206083059310913E-1  -8.510636091232300E-1   1.224755658768117E-3   8.012033067643642E-3   1.282975543290377E-3   8.021869696676731E-3  -2.223380655050278E-1   9.713590145111084E-1  
 5.560000000000000E7    -5.536116361618042E-1  -8.300209045410156E-1   1.354477833956480E-3   7.406335324048996E-3   1.360660535283387E-3   7.413500919938088E-3  -2.114348411560059E-1   9.744554162025452E-1  
 5.590000000000000E7    -5.840330719947815E-1  -8.096467256546021E-1   1.414366997778416E-3   6.818557623773813E-3   1.409850432537496E-3   6.840392015874386E-3  -1.982433497905731E-1   9.770634770393372E-1  
 5.620000000000000E7    -6.147386431694031E-1  -7.852734327316284E-1   1.426603761501610E-3   6.158533971756697E-3   1.457610283978283E-3   6.129159592092037E-3  -1.871857643127441E-1   9.797298312187195E-1  
 5.650000000000000E7    -6.425023078918457E-1  -7.627675533294678E-1   1.423570327460766E-3   5.485570989549160E-3   1.417955034412444E-3   5.477820523083210E-3  -1.746995896100998E-1   9.814309477806091E-1  
 5.680000000000000E7    -6.709184646606445E-1  -7.382458448410034E-1   1.337502500973642E-3   4.791863262653351E-3   1.355629996396601E-3   4.779369104653597E-3  -1.623408049345017E-1   9.831272959709168E-1  
 5.710000000000000E7    -6.983966231346130E-1  -7.117958068847656E-1   1.225225627422333E-3   4.052144009619951E-3   1.237515010870993E-3   4.028910305351019E-3  -1.507532596588135E-1   9.850170612335205E-1  
 5.740000000000000E7    -7.249521017074585E-1  -6.858050227165222E-1   1.088056131266058E-3   3.298158524557948E-3   1.103096990846098E-3   3.295967821031809E-3  -1.380750685930252E-1   9.873146414756775E-1  
 5.770000000000000E7    -7.484605908393860E-1  -6.592808365821838E-1   8.753779111430049E-4   2.548285992816091E-3   8.873691549524665E-4   2.540268935263157E-3  -1.276081204414368E-1   9.878206253051758E-1  
 5.800000000000000E7    -7.727145552635193E-1  -6.305248141288757E-1   6.541988695971668E-4   1.748297712765634E-3   6.344835273921490E-4   1.750363735482097E-3  -1.140109673142433E-1   9.913371205329895E-1  
 5.830000000000000E7    -7.950654029846191E-1  -6.016442775726318E-1   3.103807976003736E-4   9.457058622501791E-4   3.611281863413751E-4   9.455601684749126E-4  -1.029959768056870E-1   9.920017123222351E-1  
 5.860000000000000E7    -8.175547719001770E-1  -5.731552839279175E-1  -2.738924740697257E-5   1.596388174220920E-4  -4.717649062513374E-6   1.639112742850557E-4  -9.061548113822937E-2   9.927776455879211E-1  
 5.890000000000000E7    -8.369405269622803E-1  -5.423715114593506E-1  -3.838338307105005E-4  -6.433016969822347E-4  -4.121551755815744E-4  -5.982378497719765E-4  -7.933630049228668E-2   9.934186339378357E-1  
 5.920000000000000E7    -8.568309545516968E-1  -5.109946131706238E-1  -8.422176470048726E-4  -1.414484111592174E-3  -8.410335285589099E-4  -1.424435642547905E-3  -6.641662120819092E-2   9.953359961509705E-1  
 5.950000000000000E7    -8.738332390785217E-1  -4.796801805496216E-1  -1.337997848168016E-3  -2.238198881968856E-3  -1.335015171207488E-3  -2.261376706883311E-3  -5.450492352247238E-2   9.941453337669373E-1  
 5.980000000000000E7    -8.913486599922180E-1  -4.477574229240418E-1  -1.881526666693389E-3  -3.012683475390077E-3  -1.876659109257162E-3  -3.018665825948119E-3  -4.194492846727371E-2   9.956077933311462E-1  
 6.010000000000000E7    -9.050812721252441E-1  -4.158242940902710E-1  -2.443609293550253E-3  -3.850006498396397E-3  -2.441339893266559E-3  -3.840749850496650E-3  -3.055150806903839E-2   9.965683817863464E-1  
 6.040000000000000E7    -9.206756353378296E-1  -3.819238245487213E-1  -3.127501811832190E-3  -4.629385657608509E-3  -3.145576454699040E-3  -4.624986089766026E-3  -1.821333914995194E-2   9.976103305816650E-1  
 6.070000000000000E7    -9.338694214820862E-1  -3.506801128387451E-1  -3.827464766800404E-3  -5.411016754806042E-3  -3.821120597422123E-3  -5.417806562036276E-3  -7.077276706695557E-3   9.967283010482788E-1  
 6.100000000000000E7    -9.454255700111389E-1  -3.167409896850586E-1  -4.602708388119936E-3  -6.128984969109297E-3  -4.570211749523878E-3  -6.146823056042194E-3   6.441220641136169E-3   9.971847534179688E-1  
 6.130000000000000E7    -9.572405219078064E-1  -2.822924256324768E-1  -5.417484790086746E-3  -6.916618905961514E-3  -5.379871465265751E-3  -6.907301489263773E-3   1.864044368267059E-2   9.973591566085815E-1  
 6.160000000000000E7    -9.656043052673340E-1  -2.483485043048859E-1  -6.223994307219982E-3  -7.622472476214171E-3  -6.238586269319058E-3  -7.628767285495997E-3   2.978752553462982E-2   9.961386322975159E-1  
 6.190000000000000E7    -9.733575582504273E-1  -2.139687091112137E-1  -7.111434824764729E-3  -8.354049175977707E-3  -7.082523778080940E-3  -8.312219753861427E-3   4.115084558725357E-2   9.948804378509522E-1  
 6.220000000000000E7    -9.808405637741089E-1  -1.791652143001556E-1  -8.041188120841980E-3  -9.047584608197212E-3  -8.090623654425144E-3  -9.040086530148983E-3   5.301709473133087E-2   9.959511756896973E-1  
 6.250000000000000E7    -9.865886569023132E-1  -1.443654745817184E-1  -9.074983187019825E-3  -9.714631363749504E-3  -9.102133102715015E-3  -9.698045440018177E-3   6.474214792251587E-2   9.950214028358460E-1  
 6.280000000000000E7    -9.905906319618225E-1  -1.092870980501175E-1  -1.014005951583386E-2  -1.037969719618559E-2  -1.010205969214439E-2  -1.035148184746504E-2   7.706058770418167E-2   9.943649768829346E-1  
 6.310000000000000E7    -9.939207434654236E-1  -7.286159694194794E-2  -1.127026230096817E-2  -1.095344498753548E-2  -1.123012416064739E-2  -1.095192786306143E-2   8.917465060949326E-2   9.933738708496094E-1  
 6.340000000000000E7    -9.955479502677918E-1  -3.846769034862518E-2  -1.242819987237454E-2  -1.153512485325337E-2  -1.238062046468258E-2  -1.148837897926569E-2   1.013440415263176E-1   9.925819039344788E-1  
 6.370000000000000E7    -9.966235756874085E-1  -3.217086195945740E-3  -1.362260989844799E-2  -1.205512508749962E-2  -1.360660232603550E-2  -1.203125808387995E-2   1.126963421702385E-1   9.902286529541016E-1  
 6.400000000000000E7    -9.949280619621277E-1   3.195753693580627E-2  -1.488324347883463E-2  -1.252995990216732E-2  -1.485186070203781E-2  -1.250473223626614E-2   1.255310177803040E-1   9.897047877311707E-1  
 6.430000000000000E7    -9.936293363571167E-1   6.812478601932526E-2  -1.619525440037251E-2  -1.305318623781204E-2  -1.614536531269550E-2  -1.295430678874254E-2   1.371953487396240E-1   9.877889156341553E-1  
 6.460000000000000E7    -9.910399317741394E-1   1.024207696318626E-1  -1.747773960232735E-2  -1.345208287239075E-2  -1.745090633630753E-2  -1.342376321554184E-2   1.480346471071243E-1   9.855467081069946E-1  
 6.490000000000000E7    -9.876641631126404E-1   1.364426910877228E-1  -1.885118708014488E-2  -1.382740028202534E-2  -1.885168440639973E-2  -1.383230090141296E-2   1.601194292306900E-1   9.840880632400513E-1  
 6.520000000000000E7    -9.813761115074158E-1   1.710686981678009E-1  -2.034597471356392E-2  -1.423423364758492E-2  -2.029707841575146E-2  -1.414158008992672E-2   1.721371859312058E-1   9.830907583236694E-1  
 6.550000000000000E7    -9.752039313316345E-1   2.046788930892944E-1  -2.181727066636086E-2  -1.445326022803783E-2  -2.176674082875252E-2  -1.441763620823622E-2   1.837061494588852E-1   9.787573814392090E-1  
 6.580000000000000E7    -9.668287038803101E-1   2.396843433380127E-1  -2.337575331330299E-2  -1.460859738290310E-2  -2.330447919666767E-2  -1.465681008994579E-2   1.959008425474167E-1   9.781975150108337E-1  
 6.610000000000000E7    -9.568142294883728E-1   2.732875645160675E-1  -2.491242811083794E-2  -1.481544971466065E-2  -2.482634782791138E-2  -1.468845736235380E-2   2.087802141904831E-1   9.740092754364014E-1  
 6.640000000000000E7    -9.485762715339661E-1   3.062911033630371E-1  -2.650914900004864E-2  -1.501493807882071E-2  -2.648676373064518E-2  -1.500683743506670E-2   2.206860184669495E-1   9.716519117355347E-1  
 6.670000000000000E7    -9.364309310913086E-1   3.394179344177246E-1  -2.819364145398140E-2  -1.501559838652611E-2  -2.809260971844196E-2  -1.509545091539621E-2   2.311133146286011E-1   9.698535799980164E-1  
 6.700000000000000E7    -9.235263466835022E-1   3.720421493053436E-1  -2.981794066727161E-2  -1.505930721759796E-2  -2.974197641015053E-2  -1.499182078987360E-2   2.431371808052063E-1   9.658558368682861E-1  
 6.730000000000000E7    -9.100781083106995E-1   4.040291309356690E-1  -3.146614879369736E-2  -1.505051739513874E-2  -3.151345998048782E-2  -1.488494127988815E-2   2.554665803909302E-1   9.637312889099121E-1  
 6.760000000000000E7    -8.955842852592468E-1   4.353017210960388E-1  -3.334993496537209E-2  -1.480652857571840E-2  -3.326012566685677E-2  -1.486408431082964E-2   2.676663696765900E-1   9.602820873260498E-1  
 6.790000000000000E7    -8.792073726654053E-1   4.668027162551880E-1  -3.508972376585007E-2  -1.473209820687771E-2  -3.507003188133240E-2  -1.464487984776497E-2   2.783387005329132E-1   9.559503197669983E-1  
 6.820000000000000E7    -8.623288869857788E-1   4.964288473129273E-1  -3.685922920703888E-2  -1.444195769727230E-2  -3.679874166846275E-2  -1.442646328359842E-2   2.901326417922974E-1   9.531372785568237E-1  
 6.850000000000000E7    -8.448823094367981E-1   5.271583795547485E-1  -3.884714096784592E-2  -1.419895142316818E-2  -3.874953836202622E-2  -1.416819170117378E-2   3.013172149658203E-1   9.499382376670837E-1  
 6.880000000000000E7    -8.255901336669922E-1   5.558516979217529E-1  -4.064571857452393E-2  -1.370230037719011E-2  -4.050455242395401E-2  -1.369393896311522E-2   3.136657774448395E-1   9.450530409812927E-1  
 6.910000000000000E7    -8.057685494422913E-1   5.843394994735718E-1  -4.261133819818497E-2  -1.321233622729778E-2  -4.249681532382965E-2  -1.324287895113230E-2   3.257641792297363E-1   9.415045380592346E-1  
 6.940000000000000E7    -7.850019335746765E-1   6.119875907897949E-1  -4.449032247066498E-2  -1.280413102358580E-2  -4.451538249850273E-2  -1.274386234581471E-2   3.365100026130676E-1   9.376921653747559E-1  
 6.970000000000000E7    -7.622289061546326E-1   6.392957568168640E-1  -4.645052179694176E-2  -1.212473958730698E-2  -4.643711447715759E-2  -1.195018459111452E-2   3.482962250709534E-1   9.328722357749939E-1  
 7.000000000000000E7    -7.397384643554688E-1   6.662311553955078E-1  -4.848026111721993E-2  -1.141141727566719E-2  -4.834421351552010E-2  -1.138943526893854E-2   3.595130741596222E-1   9.286932945251465E-1  
