#  HZ   S   RI   R     50.00 
! Rohde & Schwarz ZVT8 8Ports - Version 4.11 - 1300.0000k08 SN: 100242
! Date: 2026-07-31 14:32:32
! Measurements: S11 S21 S12 S22 
! 
 1.000000000000000E7    -4.034955203533173E-1   9.109799265861511E-1   5.308381840586662E-2   5.355895683169365E-2   5.310992524027824E-2   5.343293398618698E-2  -9.169819951057434E-1   3.892804384231567E-1  
 1.030000000000000E7    -3.707938790321350E-1   9.235147237777710E-1   5.648772045969963E-2   5.395698919892311E-2   5.645622685551643E-2   5.405389145016670E-2  -9.109944701194763E-1   4.029864966869354E-1  
 1.060000000000000E7    -3.344686627388001E-1   9.367834925651550E-1   6.025358289480209E-2   5.496400222182274E-2   6.009712442755699E-2   5.470376834273338E-2  -9.073005318641663E-1   4.147925376892090E-1  
 1.090000000000000E7    -3.026497960090637E-1   9.472372531890869E-1   6.397943943738937E-2   5.537108331918716E-2   6.379524618387222E-2   5.521366372704506E-2  -9.006565213203430E-1   4.272820055484772E-1  
 1.120000000000000E7    -2.672044634819031E-1   9.568534493446350E-1   6.794589012861252E-2   5.630506575107575E-2   6.731983274221420E-2   5.587034672498703E-2  -8.947637081146240E-1   4.389109909534454E-1  
 1.150000000000000E7    -2.317155599594116E-1   9.668239951133728E-1   7.150761783123016E-2   5.620665103197098E-2   7.145377993583679E-2   5.606196820735931E-2  -8.872119188308716E-1   4.489697813987732E-1  
 1.180000000000000E7    -1.966348737478256E-1   9.719841480255127E-1   7.558702677488327E-2   5.636130645871162E-2   7.551356405019760E-2   5.655054003000259E-2  -8.819980621337891E-1   4.606780111789703E-1  
 1.210000000000000E7    -1.622034311294556E-1   9.789944887161255E-1   7.999271899461746E-2   5.684231594204903E-2   7.992217689752579E-2   5.670052021741867E-2  -8.738214969635010E-1   4.737456738948822E-1  
 1.240000000000000E7    -1.264081895351410E-1   9.829441905021668E-1   8.413706719875336E-2   5.686121061444283E-2   8.424085378646851E-2   5.643592402338982E-2  -8.666864633560181E-1   4.842686951160431E-1  
 1.270000000000000E7    -9.025160223245621E-2   9.864025712013245E-1   8.909609913825989E-2   5.630781874060631E-2   8.862402290105820E-2   5.614317208528519E-2  -8.590313196182251E-1   4.991587400436401E-1  
 1.300000000000000E7    -5.505299940705299E-2   9.895111322402954E-1   9.348149597644806E-2   5.600181221961975E-2   9.333904832601547E-2   5.622229352593422E-2  -8.509956598281860E-1   5.101037025451660E-1  
 1.330000000000000E7    -1.791538298130035E-2   9.907749295234680E-1   9.845983237028122E-2   5.569759011268616E-2   9.846860170364380E-2   5.518173798918724E-2  -8.430399298667908E-1   5.228475928306580E-1  
 1.360000000000000E7     1.972533762454987E-2   9.905627369880676E-1   1.035646572709084E-1   5.510701984167099E-2   1.035301759839058E-1   5.458090826869011E-2  -8.348106145858765E-1   5.331817865371704E-1  
 1.390000000000000E7     5.502906441688538E-2   9.878422021865845E-1   1.090065762400627E-1   5.404840782284737E-2   1.085203737020493E-1   5.435585975646973E-2  -8.262751698493958E-1   5.458291172981262E-1  
 1.420000000000000E7     9.281995892524719E-2   9.852691292762756E-1   1.140454709529877E-1   5.329892784357071E-2   1.141215339303017E-1   5.335503444075584E-2  -8.191712498664856E-1   5.576322078704834E-1  
 1.450000000000000E7     1.289714723825455E-1   9.792819619178772E-1   1.197483688592911E-1   5.192369595170021E-2   1.195715591311455E-1   5.187912285327911E-2  -8.073140978813171E-1   5.708339810371399E-1  
 1.480000000000000E7     1.672898679971695E-1   9.734299182891846E-1   1.255193203687668E-1   5.010563880205154E-2   1.254356950521469E-1   5.049023404717445E-2  -7.987904548645020E-1   5.823622345924377E-1  
 1.510000000000000E7     2.032861709594727E-1   9.654998183250427E-1   1.313986182212830E-1   4.843567311763763E-2   1.310208290815353E-1   4.854346066713333E-2  -7.862375974655151E-1   5.949639081954956E-1  
 1.540000000000000E7     2.390762418508530E-1   9.562369585037231E-1   1.373749077320099E-1   4.753610864281654E-2   1.373378634452820E-1   4.689588770270348E-2  -7.790976762771606E-1   6.059949994087219E-1  
 1.570000000000000E7     2.760829329490662E-1   9.467902183532715E-1   1.438747793436050E-1   4.474023357033730E-2   1.438768208026886E-1   4.457983002066612E-2  -7.668909430503845E-1   6.197767853736877E-1  
 1.600000000000000E7     3.134185075759888E-1   9.337471723556519E-1   1.499281674623489E-1   4.201482608914375E-2   1.505155861377716E-1   4.184339568018913E-2  -7.562317848205566E-1   6.308325529098511E-1  
 1.630000000000000E7     3.484623730182648E-1   9.197863340377808E-1   1.576128602027893E-1   3.885853663086891E-2   1.570349633693695E-1   3.927719965577126E-2  -7.443321347236633E-1   6.444269418716431E-1  
 1.660000000000000E7     3.841507434844971E-1   9.031030535697937E-1   1.645699441432953E-1   3.566020354628563E-2   1.640511453151703E-1   3.513931110501289E-2  -7.302824854850769E-1   6.569865345954895E-1  
 1.690000000000000E7     4.186949431896210E-1   8.865604996681213E-1   1.716507673263550E-1   3.273251652717590E-2   1.714293062686920E-1   3.229303658008575E-2  -7.181939482688904E-1   6.684960722923279E-1  
 1.720000000000000E7     4.555764198303223E-1   8.683006167411804E-1   1.785331964492798E-1   2.779485471546650E-2   1.788410842418671E-1   2.820577844977379E-2  -7.051467895507813E-1   6.806178092956543E-1  
 1.750000000000000E7     4.854329526424408E-1   8.502449393272400E-1   1.872632354497910E-1   2.476475760340691E-2   1.872732490301132E-1   2.404039353132248E-2  -6.915976405143738E-1   6.947200894355774E-1  
 1.780000000000000E7     5.219947099685669E-1   8.251942396163940E-1   1.941848248243332E-1   1.891504973173142E-2   1.945680081844330E-1   1.931586861610413E-2  -6.765291094779968E-1   7.045532464981079E-1  
 1.810000000000000E7     5.535166859626770E-1   8.028547763824463E-1   2.036590129137039E-1   1.377063244581223E-2   2.023819237947464E-1   1.313615962862968E-2  -6.605400443077087E-1   7.198398113250732E-1  
 1.840000000000000E7     5.876436233520508E-1   7.777310609817505E-1   2.121105790138245E-1   6.600471213459969E-3   2.112589925527573E-1   6.947975605726242E-3  -6.436415910720825E-1   7.314078211784363E-1  
 1.870000000000000E7     6.170478463172913E-1   7.514580488204956E-1   2.208725064992905E-1   7.476154714822769E-4   2.199696004390717E-1   3.395508974790573E-4  -6.266088485717773E-1   7.428672313690186E-1  
 1.900000000000000E7     6.468632221221924E-1   7.231185436248779E-1   2.295957207679749E-1  -6.316076964139938E-3   2.293519377708435E-1  -6.933972239494324E-3  -6.086226701736450E-1   7.548285722732544E-1  
 1.930000000000000E7     6.768022179603577E-1   6.919963359832764E-1   2.385393083095551E-1  -1.600548252463341E-2   2.388952076435089E-1  -1.484109181910753E-2  -5.894755721092224E-1   7.682226300239563E-1  
 1.960000000000000E7     7.052224874496460E-1   6.593040823936462E-1   2.478932291269302E-1  -2.458105608820915E-2   2.481401413679123E-1  -2.408408746123314E-2  -5.710703134536743E-1   7.790716886520386E-1  
 1.990000000000000E7     7.296656966209412E-1   6.256252527236939E-1   2.574707865715027E-1  -3.453937545418739E-2   2.579227089881897E-1  -3.468882292509079E-2  -5.473148226737976E-1   7.920279502868652E-1  
 2.020000000000000E7     7.551653981208801E-1   5.899844765663147E-1   2.679308354854584E-1  -4.540519416332245E-2   2.671208977699280E-1  -4.512632265686989E-2  -5.267944335937500E-1   8.009163737297058E-1  
 2.050000000000000E7     7.802834510803223E-1   5.520164966583252E-1   2.778051495552063E-1  -5.707940459251404E-2   2.762591540813446E-1  -5.739717930555344E-2  -5.033103227615356E-1   8.123579025268555E-1  
 2.080000000000000E7     8.013466000556946E-1   5.115436911582947E-1   2.883280217647553E-1  -7.084387540817261E-2   2.882896661758423E-1  -7.063492387533188E-2  -4.781465530395508E-1   8.241618871688843E-1  
 2.110000000000000E7     8.217639923095703E-1   4.706460237503052E-1   2.986612319946289E-1  -8.663576841354370E-2   2.985974848270416E-1  -8.645071089267731E-2  -4.506604969501495E-1   8.334585428237915E-1  
 2.140000000000000E7     8.394274711608887E-1   4.279092252254486E-1   3.091988861560822E-1  -1.037284433841705E-1   3.081689774990082E-1  -1.021871268749237E-1  -4.228634238243103E-1   8.421061038970947E-1  
 2.170000000000000E7     8.539556264877319E-1   3.846434950828552E-1   3.196543455123901E-1  -1.211255490779877E-1   3.194656670093536E-1  -1.200357005000114E-1  -3.930333256721497E-1   8.507206439971924E-1  
 2.200000000000000E7     8.676147460937500E-1   3.361682593822479E-1   3.291580677032471E-1  -1.416132301092148E-1   3.293393850326538E-1  -1.411612927913666E-1  -3.598742783069611E-1   8.572469353675842E-1  
 2.230000000000000E7     8.763326406478882E-1   2.880058288574219E-1   3.388949334621429E-1  -1.638821065425873E-1   3.385095894336700E-1  -1.629220545291901E-1  -3.260907232761383E-1   8.629139661788940E-1  
 2.260000000000000E7     8.833926320075989E-1   2.383233904838562E-1   3.477602303028107E-1  -1.883323788642883E-1   3.495272099971771E-1  -1.885278820991516E-1  -2.903111577033997E-1   8.665967583656311E-1  
 2.290000000000000E7     8.860771656036377E-1   1.867686510086060E-1   3.563883304595947E-1  -2.154507339000702E-1   3.573911786079407E-1  -2.148951888084412E-1  -2.507131397724152E-1   8.681523203849793E-1  
 2.320000000000000E7     8.837376832962036E-1   1.349139511585236E-1   3.637245595455170E-1  -2.466002553701401E-1   3.628507256507874E-1  -2.469205856323242E-1  -2.097135186195374E-1   8.698395490646362E-1  
 2.350000000000000E7     8.777343630790710E-1   8.024767786264420E-2   3.690569996833801E-1  -2.812900543212891E-1   3.688614666461945E-1  -2.797903418540955E-1  -1.668404936790466E-1   8.664813041687012E-1  
 2.380000000000000E7     8.672252297401428E-1   2.651197090744972E-2   3.727914988994598E-1  -3.165560066699982E-1   3.728641569614410E-1  -3.165466189384460E-1  -1.204839050769806E-1   8.595870733261108E-1  
 2.410000000000000E7     8.508939743041992E-1  -2.854820527136326E-2   3.727666139602661E-1  -3.576654195785523E-1   3.721794486045837E-1  -3.569648861885071E-1  -7.210941612720490E-2   8.481481671333313E-1  
 2.440000000000000E7     8.280180096626282E-1  -8.106630295515060E-2   3.698165118694305E-1  -4.029273092746735E-1   3.698535561561585E-1  -4.031917750835419E-1  -2.263373136520386E-2   8.318706750869751E-1  
 2.470000000000000E7     7.993068695068359E-1  -1.327434480190277E-1   3.615932464599609E-1  -4.513074457645416E-1   3.626120686531067E-1  -4.486889541149139E-1   3.072540462017059E-2   8.086207509040833E-1  
 2.500000000000000E7     7.643181085586548E-1  -1.844054609537125E-1   3.483901917934418E-1  -5.018031597137451E-1   3.477677404880524E-1  -5.029141306877136E-1   8.445388078689575E-2   7.802957892417908E-1  
 2.530000000000000E7     7.207226157188416E-1  -2.307608723640442E-1   3.296059370040894E-1  -5.581076741218567E-1   3.291652798652649E-1  -5.566928386688232E-1   1.382114142179489E-1   7.420765757560730E-1  
 2.560000000000000E7     6.714091897010803E-1  -2.710439860820770E-1   3.014056682586670E-1  -6.140516400337219E-1   3.011102974414825E-1  -6.146051287651062E-1   1.902756690979004E-1   6.954467892646790E-1  
 2.590000000000000E7     6.148675084114075E-1  -3.017900884151459E-1   2.598184943199158E-1  -6.727064251899719E-1   2.605590224266052E-1  -6.737412214279175E-1   2.413255125284195E-1   6.409995555877686E-1  
 2.620000000000000E7     5.525163412094116E-1  -3.251200616359711E-1   2.086487710475922E-1  -7.317422032356262E-1   2.094087600708008E-1  -7.301090359687805E-1   2.869853973388672E-1   5.725927352905273E-1  
 2.650000000000000E7     4.858694374561310E-1  -3.379837572574616E-1   1.480243951082230E-1  -7.853164076805115E-1   1.469628214836121E-1  -7.858095765113831E-1   3.220159113407135E-1   4.948805868625641E-1  
 2.680000000000000E7     4.180530309677124E-1  -3.360779881477356E-1   7.194574922323227E-2  -8.340368866920471E-1   7.103221863508225E-2  -8.338268399238586E-1   3.460364639759064E-1   4.078566431999207E-1  
 2.710000000000000E7     3.547908961772919E-1  -3.221436440944672E-1  -1.695263385772705E-2  -8.702638149261475E-1  -1.757507771253586E-2  -8.699524998664856E-1   3.592972159385681E-1   3.161925375461578E-1  
 2.740000000000000E7     2.924250066280365E-1  -2.921580970287323E-1  -1.155972033739090E-1  -8.964089155197144E-1  -1.160687357187271E-1  -8.952141404151917E-1   3.496480286121368E-1   2.162345349788666E-1  
 2.770000000000000E7     2.454642951488495E-1  -2.520100176334381E-1  -2.214322388172150E-1  -9.022108316421509E-1  -2.212630212306976E-1  -9.030434489250183E-1   3.258958756923676E-1   1.201064586639404E-1  
 2.800000000000000E7     2.076220512390137E-1  -2.024463713169098E-1  -3.302969634532929E-1  -8.919402360916138E-1  -3.278923332691193E-1  -8.923844099044800E-1   2.822546362876892E-1   2.406318113207817E-2  
 2.830000000000000E7     1.856081485748291E-1  -1.477924436330795E-1  -4.352567195892334E-1  -8.613502979278565E-1  -4.361201822757721E-1  -8.601045012474060E-1   2.257186919450760E-1  -5.455994978547096E-2  
 2.860000000000000E7     1.820658296346664E-1  -9.126354753971100E-2  -5.356524586677551E-1  -8.120577931404114E-1  -5.359817147254944E-1  -8.108590245246887E-1   1.524535268545151E-1  -1.241941452026367E-1  
 2.890000000000000E7     1.943315118551254E-1  -4.077193513512611E-2  -6.247643828392029E-1  -7.479620575904846E-1  -6.240938305854797E-1  -7.461146116256714E-1   7.093279063701630E-2  -1.756982207298279E-1  
 2.920000000000000E7     2.173386365175247E-1   5.703021772205830E-3  -7.007899284362793E-1  -6.724034547805786E-1  -7.002937793731690E-1  -6.701183319091797E-1  -1.483716908842325E-2  -2.110265791416168E-1  
 2.950000000000000E7     2.530469596385956E-1   3.665249049663544E-2  -7.610718011856079E-1  -5.879080891609192E-1  -7.595787644386292E-1  -5.872158408164978E-1  -1.012486368417740E-1  -2.272881418466568E-1  
 2.980000000000000E7     2.922483980655670E-1   5.910027027130127E-2  -8.069731593132019E-1  -5.000185370445252E-1  -8.064708709716797E-1  -5.001029372215271E-1  -1.837365627288818E-1  -2.285017520189285E-1  
 3.010000000000000E7     3.349036872386932E-1   6.593931466341019E-2  -8.394653201103210E-1  -4.112941026687622E-1  -8.376594781875610E-1  -4.112134873867035E-1  -2.600915133953095E-1  -2.181208878755570E-1  
 3.040000000000000E7     3.805473446846008E-1   6.230086833238602E-2  -8.578747510910034E-1  -3.242343664169312E-1  -8.592792749404907E-1  -3.246903419494629E-1  -3.258635699748993E-1  -1.957203894853592E-1  
 3.070000000000000E7     4.197658598423004E-1   4.714973270893097E-2  -8.692865967750549E-1  -2.391414493322372E-1  -8.673327565193176E-1  -2.399039268493652E-1  -3.839614689350128E-1  -1.702336668968201E-1  
 3.100000000000000E7     4.562289416790009E-1   2.094303816556931E-2  -8.702785372734070E-1  -1.600198596715927E-1  -8.688035607337952E-1  -1.599272489547730E-1  -4.339281022548676E-1  -1.386203914880753E-1  
 3.130000000000000E7     4.849668741226196E-1  -1.141185406595469E-2  -8.652318716049194E-1  -8.490016311407089E-2  -8.646735548973084E-1  -8.537677675485611E-2  -4.744651019573212E-1  -1.007035747170448E-1  
 3.160000000000000E7     5.088281035423279E-1  -5.311729758977890E-2  -8.532928228378296E-1  -1.430426910519600E-2  -8.542652130126953E-1  -1.427921373397112E-2  -5.056543946266174E-1  -6.456797569990158E-2  
 3.190000000000000E7     5.231317281723023E-1  -9.731718897819519E-2  -8.394957184791565E-1   5.363636463880539E-2  -8.379523754119873E-1   5.299051105976105E-2  -5.314499735832214E-1  -2.719558961689472E-2  
 3.220000000000000E7     5.311360359191895E-1  -1.465556323528290E-1  -8.217601180076599E-1   1.174654513597488E-1  -8.208606839179993E-1   1.172915399074554E-1  -5.495419502258301E-1   8.851322345435619E-3  
 3.250000000000000E7     5.273658037185669E-1  -1.996431946754456E-1  -8.016388416290283E-1   1.776600927114487E-1  -8.015428781509399E-1   1.786824613809586E-1  -5.608347654342651E-1   4.439210519194603E-2  
 3.280000000000000E7     5.131177902221680E-1  -2.556287050247192E-1  -7.778680324554443E-1   2.366439849138260E-1  -7.774602770805359E-1   2.373541146516800E-1  -5.687811374664307E-1   7.874719798564911E-2  
 3.310000000000000E7     4.901702404022217E-1  -3.071481287479401E-1  -7.533973455429077E-1   2.965819835662842E-1  -7.534477710723877E-1   2.962376773357391E-1  -5.686234831809998E-1   1.088329255580902E-1  
 3.340000000000000E7     4.537432789802551E-1  -3.611592352390289E-1  -7.265260219573975E-1   3.555511832237244E-1  -7.249773740768433E-1   3.549293279647827E-1  -5.658410787582398E-1   1.363110393285751E-1  
 3.370000000000000E7     4.070626199245453E-1  -4.118875265121460E-1  -6.947649121284485E-1   4.130814373493195E-1  -6.955785751342773E-1   4.119943082332611E-1  -5.579005479812622E-1   1.610678732395172E-1  
 3.400000000000000E7     3.448883295059204E-1  -4.574605822563171E-1  -6.598830819129944E-1   4.730222523212433E-1  -6.603276729583740E-1   4.729219973087311E-1  -5.461283922195435E-1   1.784216463565826E-1  
 3.430000000000000E7     2.694618105888367E-1  -4.940134584903717E-1  -6.192697882652283E-1   5.355749130249023E-1  -6.187406182289124E-1   5.333716869354248E-1  -5.334352254867554E-1   1.922518014907837E-1  
 3.460000000000000E7     1.778276264667511E-1  -5.199182033538818E-1  -5.705938339233398E-1   5.988295674324036E-1  -5.708383917808533E-1   5.977998971939087E-1  -5.169835686683655E-1   1.982306838035584E-1  
 3.490000000000000E7     7.170770317316055E-2  -5.245482325553894E-1  -5.120210647583008E-1   6.635606288909912E-1  -5.107774734497070E-1   6.597670316696167E-1  -5.011255741119385E-1   1.993696987628937E-1  
 3.520000000000000E7    -4.845491051673889E-2  -5.096024274826050E-1  -4.387780427932739E-1   7.255848050117493E-1  -4.404325485229492E-1   7.239761352539063E-1  -4.840341806411743E-1   1.914300769567490E-1  
 3.550000000000000E7    -1.799226701259613E-1  -4.582449793815613E-1  -3.500908017158508E-1   7.838537096977234E-1  -3.494347333908081E-1   7.833499908447266E-1  -4.708884656429291E-1   1.715105772018433E-1  
 3.580000000000000E7    -3.066573143005371E-1  -3.630810678005219E-1  -2.397297918796539E-1   8.321692943572998E-1  -2.407299876213074E-1   8.315557241439819E-1  -4.652135968208313E-1   1.447635740041733E-1  
 3.610000000000000E7    -4.156537950038910E-1  -2.165458351373673E-1  -1.116337329149246E-1   8.611373305320740E-1  -1.112386137247086E-1   8.597310185432434E-1  -4.723685085773468E-1   1.095391958951950E-1  
 3.640000000000000E7    -4.851593077182770E-1  -2.478642761707306E-2   3.313522040843964E-2   8.566643595695496E-1   3.392863273620606E-2   8.573170304298401E-1  -4.954070150852203E-1   6.779193133115768E-2  
 3.670000000000000E7    -4.865240752696991E-1   1.986986398696899E-1   1.796085983514786E-1   8.139607310295105E-1   1.787303686141968E-1   8.123750090599060E-1  -5.395845770835877E-1   3.526328504085541E-2  
 3.700000000000000E7    -4.064786732196808E-1   4.214204549789429E-1   3.104630112648010E-1   7.275264263153076E-1   3.107997477054596E-1   7.280610799789429E-1  -5.997500419616699E-1   1.371014025062323E-2  
 3.730000000000000E7    -2.527569830417633E-1   6.053754687309265E-1   4.084193706512451E-1   6.087108254432678E-1   4.062130451202393E-1   6.092061996459961E-1  -6.692916750907898E-1   1.525109261274338E-2  
 3.760000000000000E7    -4.878154397010803E-2   7.232315540313721E-1   4.616444706916809E-1   4.789825081825256E-1   4.609836637973785E-1   4.793434739112854E-1  -7.375996708869934E-1   3.836006671190262E-2  
 3.790000000000000E7     1.703567802906036E-1   7.703924775123596E-1   4.750356674194336E-1   3.529804944992065E-1   4.753936827182770E-1   3.544585108757019E-1  -7.941598296165466E-1   7.877415418624878E-2  
 3.820000000000000E7     3.731165528297424E-1   7.517852187156677E-1   4.584062397480011E-1   2.454959899187088E-1   4.579245448112488E-1   2.438620775938034E-1  -8.377373218536377E-1   1.307810395956039E-1  
 3.850000000000000E7     5.476312041282654E-1   6.895236372947693E-1   4.239485859870911E-1   1.578692793846130E-1   4.243378341197968E-1   1.564858555793762E-1  -8.668707013130188E-1   1.859270334243774E-1  
 3.880000000000000E7     6.846646070480347E-1   5.982914566993713E-1   3.820309638977051E-1   9.127995371818543E-2   3.809216618537903E-1   9.106878936290741E-2  -8.833304643630981E-1   2.411420494318008E-1  
 3.910000000000000E7     7.902411818504334E-1   4.946430325508118E-1   3.357685208320618E-1   4.356700181961060E-2   3.363322317600250E-1   4.385635256767273E-2  -8.907326459884644E-1   2.946631908416748E-1  
 3.940000000000000E7     8.654016852378845E-1   3.850996196269989E-1   2.919958531856537E-1   1.069785095751286E-2   2.921018302440643E-1   1.017623580992222E-2  -8.890960216522217E-1   3.415535688400269E-1  
 3.970000000000000E7     9.183973073959351E-1   2.782947719097138E-1   2.521077692508698E-1  -1.201834715902805E-2   2.521627545356751E-1  -1.233411207795143E-2  -8.826783895492554E-1   3.856956362724304E-1  
 4.000000000000000E7     9.525288939476013E-1   1.754922121763229E-1   2.171821147203445E-1  -2.744315378367901E-2   2.171566486358643E-1  -2.728905342519283E-2  -8.756260871887207E-1   4.247013926506043E-1  
 4.030000000000000E7     9.724273085594177E-1   7.863561809062958E-2   1.868688762187958E-1  -3.665969893336296E-2   1.864407211542130E-1  -3.693922609090805E-2  -8.644061684608460E-1   4.600003063678742E-1  
 4.060000000000000E7     9.806870818138123E-1  -1.280846446752548E-2   1.594673693180084E-1  -4.210898652672768E-2   1.590297520160675E-1  -4.220927879214287E-2  -8.514515161514282E-1   4.918110966682434E-1  
 4.090000000000000E7     9.801088571548462E-1  -9.762977808713913E-2   1.360071897506714E-1  -4.507618770003319E-2   1.359303742647171E-1  -4.510571435093880E-2  -8.383498787879944E-1   5.199751257896423E-1  
 4.120000000000000E7     9.722125530242920E-1  -1.759234964847565E-1   1.158431619405747E-1  -4.530721902847290E-2   1.158710271120071E-1  -4.541354998946190E-2  -8.236908316612244E-1   5.474447011947632E-1  
 4.150000000000000E7     9.574875235557556E-1  -2.474575638771057E-1   9.910938143730164E-2  -4.490086436271668E-2   9.891351312398911E-2  -4.446632042527199E-2  -8.098132014274597E-1   5.715124011039734E-1  
 4.180000000000000E7     9.397384524345398E-1  -3.161130249500275E-1   8.428091555833817E-2  -4.336215928196907E-2   8.399564772844315E-2  -4.310697317123413E-2  -7.958984971046448E-1   5.926644206047058E-1  
 4.210000000000000E7     9.180176854133606E-1  -3.783255517482758E-1   7.173819839954376E-2  -4.114329814910889E-2   7.161374390125275E-2  -4.091923683881760E-2  -7.816737294197083E-1   6.142254471778870E-1  
 4.240000000000000E7     8.920737504959106E-1  -4.358427822589874E-1   6.083782389760017E-2  -3.829743713140488E-2   6.076611205935478E-2  -3.838893026113510E-2  -7.682945728302002E-1   6.332851648330689E-1  
 4.270000000000000E7     8.644783496856690E-1  -4.894054532051086E-1   5.150710791349411E-2  -3.574309498071671E-2   5.142054334282875E-2  -3.564780578017235E-2  -7.530164718627930E-1   6.524053812026978E-1  
 4.300000000000000E7     8.354513049125671E-1  -5.408032536506653E-1   4.354113340377808E-2  -3.284851089119911E-2   4.341947659850121E-2  -3.268519788980484E-2  -7.389431595802307E-1   6.695891618728638E-1  
 4.330000000000000E7     8.052673339843750E-1  -5.859755873680115E-1   3.652237728238106E-2  -2.980120107531548E-2   3.660120069980621E-2  -2.985323220491409E-2  -7.245205640792847E-1   6.842622160911560E-1  
 4.360000000000000E7     7.714020609855652E-1  -6.298614740371704E-1   3.066786378622055E-2  -2.692645229399204E-2   3.057788498699665E-2  -2.684134244918823E-2  -7.116524577140808E-1   6.993438601493835E-1  
 4.390000000000000E7     7.378718256950378E-1  -6.706368327140808E-1   2.567307464778423E-2  -2.424343861639500E-2   2.560615353286266E-2  -2.414866350591183E-2  -6.965612769126892E-1   7.126515507698059E-1  
 4.420000000000000E7     7.016467452049255E-1  -7.068424224853516E-1   2.125739678740501E-2  -2.159213647246361E-2   2.130033820867539E-2  -2.145145274698734E-2  -6.824063658714294E-1   7.257065773010254E-1  
 4.450000000000000E7     6.657828092575073E-1  -7.413227558135986E-1   1.763445697724819E-2  -1.904656738042831E-2   1.755864545702934E-2  -1.891501806676388E-2  -6.701595187187195E-1   7.383796572685242E-1  
 4.480000000000000E7     6.292839050292969E-1  -7.728303670883179E-1   1.432829257100821E-2  -1.663693599402905E-2   1.436500996351242E-2  -1.662226021289825E-2  -6.565783619880676E-1   7.503927946090698E-1  
 4.510000000000000E7     5.930410027503967E-1  -8.016257286071777E-1   1.163330953568220E-2  -1.432650350034237E-2   1.160020660609007E-2  -1.438222546130419E-2  -6.438632607460022E-1   7.628528475761414E-1  
 4.540000000000000E7     5.544732809066773E-1  -8.282554745674133E-1   9.291349910199642E-3  -1.238287240266800E-2   9.362862445414066E-3  -1.234710961580277E-2  -6.299645900726318E-1   7.738063931465149E-1  
 4.570000000000000E7     5.155948400497437E-1  -8.534004688262940E-1   7.439576089382172E-3  -1.056227646768093E-2   7.481907960027456E-3  -1.039982121437788E-2  -6.166254281997681E-1   7.842939496040344E-1  
 4.600000000000000E7     4.786221981048584E-1  -8.744155764579773E-1   5.712555255740881E-3  -8.664826862514019E-3   5.894525442272425E-3  -8.719153702259064E-3  -6.041094064712524E-1   7.939051985740662E-1  
 4.630000000000000E7     4.375456869602203E-1  -8.963342308998108E-1   4.465024452656508E-3  -7.117724511772394E-3   4.429708234965801E-3  -7.152070291340351E-3  -5.915602445602417E-1   8.033004403114319E-1  
 4.660000000000000E7     3.985534310340881E-1  -9.152470231056213E-1   3.249351168051362E-3  -5.618728697299957E-3   3.439784748479724E-3  -5.665998905897141E-3  -5.777905583381653E-1   8.135827183723450E-1  
 4.690000000000000E7     3.587386906147003E-1  -9.306622147560120E-1   2.474094275385141E-3  -4.352050833404064E-3   2.390958368778229E-3  -4.263235256075859E-3  -5.655173063278198E-1   8.222972750663757E-1  
 4.720000000000000E7     3.185894787311554E-1  -9.448919892311096E-1   1.669544260948896E-3  -3.202935447916389E-3   1.582112861797214E-3  -3.137863241136074E-3  -5.520924329757690E-1   8.307538032531738E-1  
 4.750000000000000E7     2.796670496463776E-1  -9.577812552452087E-1   9.782337583601475E-4  -2.107631880789995E-3   1.100224559195340E-3  -2.152660163119435E-3  -5.398803949356079E-1   8.393650650978088E-1  
 4.780000000000000E7     2.404350191354752E-1  -9.682456254959106E-1   5.691243568435311E-4  -1.256401883438230E-3   5.304280202835798E-4  -1.224720617756248E-3  -5.259700417518616E-1   8.464852571487427E-1  
 4.810000000000000E7     2.003551870584488E-1  -9.773656129837036E-1   2.471577899996191E-4  -4.771341045852751E-4   2.378559584030882E-4  -4.550564335659146E-4  -5.145972371101379E-1   8.542305827140808E-1  
 4.840000000000000E7     1.610530316829681E-1  -9.848515391349793E-1  -2.909936301875860E-5   1.784459745977074E-4  -9.955804125638679E-5   2.017366932705045E-4  -5.019531250000000E-1   8.617169857025147E-1  
 4.870000000000000E7     1.206822097301483E-1  -9.908357262611389E-1  -2.529574558138847E-4   7.890852866694331E-4  -2.343412052141503E-4   7.739645079709590E-4  -4.895365834236145E-1   8.688506484031677E-1  
 4.900000000000000E7     8.125682175159454E-2  -9.954237937927246E-1  -3.600634518079460E-4   1.260410528630018E-3  -2.665030770003796E-4   1.238354831002653E-3  -4.775899052619934E-1   8.753138184547424E-1  
 4.930000000000000E7     4.161112755537033E-2  -9.977796077728272E-1  -3.860051510855556E-4   1.626448356546462E-3  -3.859473217744380E-4   1.645343843847513E-3  -4.643717110157013E-1   8.826200962066650E-1  
 4.960000000000000E7     2.696529030799866E-3  -9.964845776557922E-1  -3.965518262702972E-4   1.817272510379553E-3  -4.681446007452905E-4   1.828798092901707E-3  -4.526289403438568E-1   8.887900710105896E-1  
 4.990000000000000E7    -3.510226309299469E-2  -9.965435862541199E-1  -4.404773062560707E-4   2.158324699848890E-3  -4.599732928909361E-4   2.075896365568042E-3  -4.399922192096710E-1   8.945623040199280E-1  
 5.020000000000000E7    -7.283502817153931E-2  -9.954431056976318E-1  -4.296622937545180E-4   2.185912802815437E-3  -4.099622310604900E-4   2.159204334020615E-3  -4.282158911228180E-1   9.010812640190125E-1  
 5.050000000000000E7    -1.116903275251389E-1  -9.917979836463928E-1  -3.737669030670077E-4   2.209595404565334E-3  -3.640131326392293E-4   2.197565510869026E-3  -4.163725674152374E-1   9.073926210403442E-1  
 5.080000000000000E7    -1.487992107868195E-1  -9.870330095291138E-1  -2.863391418941319E-4   2.190435305237770E-3  -3.113255079369992E-4   2.141409320756793E-3  -4.032175838947296E-1   9.109302163124085E-1  
 5.110000000000000E7    -1.865157485008240E-1  -9.803839325904846E-1  -2.242557675344870E-4   2.082155086100102E-3  -2.422737452434376E-4   2.058865502476692E-3  -3.924111425876617E-1   9.170739650726318E-1  
 5.140000000000000E7    -2.235291004180908E-1  -9.722508192062378E-1  -1.709066564217210E-4   1.879890798591077E-3  -1.996404898818582E-4   1.862763660028577E-3  -3.791254758834839E-1   9.240676164627075E-1  
 5.170000000000000E7    -2.589613795280457E-1  -9.634832143783569E-1  -1.172618794953451E-4   1.647571334615350E-3  -1.046388861141168E-4   1.623732736334205E-3  -3.667649328708649E-1   9.269380569458008E-1  
 5.200000000000000E7    -2.946680188179016E-1  -9.547950029373169E-1  -6.899485015310347E-5   1.322414609603584E-3  -9.237354970537126E-5   1.335876644589007E-3  -3.541084229946137E-1   9.307551980018616E-1  
 5.230000000000000E7    -3.298818469047546E-1  -9.415257573127747E-1  -4.348133006715216E-5   1.002621138468385E-3  -1.890648127300665E-5   9.642122895456851E-4  -3.425346016883850E-1   9.363256692886353E-1  
 5.260000000000000E7    -3.639957606792450E-1  -9.278098344802856E-1   9.691131708677858E-6   6.321922410279512E-4  -1.319922739639878E-5   5.798685597255826E-4  -3.303332924842835E-1   9.411082863807678E-1  
 5.290000000000000E7    -3.986223638057709E-1  -9.146934151649475E-1  -1.534100010758266E-5   1.332367392024025E-4  -3.954040585085750E-5   1.232757203979418E-4  -3.186862468719482E-1   9.442793130874634E-1  
 5.320000000000000E7    -4.308818876743317E-1  -9.005666375160217E-1  -8.452602196484804E-5  -3.521519829519093E-4  -6.900372682139278E-5  -3.578795876819640E-4  -3.061868846416473E-1   9.488703012466431E-1  
 5.350000000000000E7    -4.627504050731659E-1  -8.835322856903076E-1  -1.240441342815757E-4  -8.512640488334000E-4  -1.032357904477976E-4  -8.600786095485091E-4  -2.954622507095337E-1   9.530109167098999E-1  
 5.380000000000000E7    -4.933546781539917E-1  -8.661289811134338E-1  -1.944340474437922E-4  -1.399825792759657E-3  -1.984009577427059E-4  -1.399684348143637E-3  -2.815596461296082E-1   9.558954834938049E-1  
 5.410000000000000E7    -5.270457863807678E-1  -8.486194610595703E-1  -3.212616138625890E-4  -2.006828319281340E-3  -3.288174630142748E-4  -1.998591469600797E-3  -2.702564895153046E-1   9.598543047904968E-1  
 5.440000000000000E7    -5.564038753509522E-1  -8.280177116394043E-1  -4.914140445180237E-4  -2.625341061502695E-3  -4.968254361301661E-4  -2.640317194163799E-3  -2.585028409957886E-1   9.626298546791077E-1  
 5.470000000000000E7    -5.843676328659058E-1  -8.083090782165527E-1  -7.055493188090622E-4  -3.237912664189935E-3  -6.708729779347777E-4  -3.256320487707853E-3  -2.454042285680771E-1   9.654815793037415E-1  
 5.500000000000000E7    -6.140188574790955E-1  -7.868427634239197E-1  -8.993497467599809E-4  -3.976105712354183E-3  -8.991706999950111E-4  -3.927124664187431E-3  -2.332444787025452E-1   9.700360298156738E-1  
 5.530000000000000E7    -6.411592364311218E-1  -7.646141052246094E-1  -1.180999330244958E-3  -4.587392322719097E-3  -1.186512527056038E-3  -4.609567578881979E-3  -2.213266193866730E-1   9.717833995819092E-1  
 5.560000000000000E7    -6.687386035919190E-1  -7.404184341430664E-1  -1.497501507401466E-3  -5.324714351445437E-3  -1.470399438403547E-3  -5.339303985238075E-3  -2.101445496082306E-1   9.744212627410889E-1  
 5.590000000000000E7    -6.943568587303162E-1  -7.177391052246094E-1  -1.858359668403864E-3  -6.035076919943094E-3  -1.849330030381680E-3  -6.039638072252274E-3  -1.969580352306366E-1   9.770542979240418E-1  
 5.620000000000000E7    -7.196566462516785E-1  -6.906916499137878E-1  -2.189584774896503E-3  -6.769504398107529E-3  -2.223662333562970E-3  -6.763353012502194E-3  -1.857383251190186E-1   9.801001548767090E-1  
 5.650000000000000E7    -7.424139976501465E-1  -6.664446592330933E-1  -2.649869304150343E-3  -7.476981263607740E-3  -2.641399623826146E-3  -7.519997656345367E-3  -1.735223680734634E-1   9.817738533020020E-1  
 5.680000000000000E7    -7.655510902404785E-1  -6.399254202842712E-1  -3.145634662359953E-3  -8.280426263809204E-3  -3.145057242363691E-3  -8.213797584176064E-3  -1.610763221979141E-1   9.830855727195740E-1  
 5.710000000000000E7    -7.886224389076233E-1  -6.112690567970276E-1  -3.670995123684406E-3  -8.999524638056755E-3  -3.676238702610135E-3  -9.001025930047035E-3  -1.495366990566254E-1   9.856139421463013E-1  
 5.740000000000000E7    -8.098099827766419E-1  -5.835040211677551E-1  -4.237842280417681E-3  -9.755382314324379E-3  -4.253276158124209E-3  -9.731704369187355E-3  -1.363413184881210E-1   9.873990416526794E-1  
 5.770000000000000E7    -8.282944560050964E-1  -5.553159713745117E-1  -4.841657821089029E-3  -1.050275657325983E-2  -4.817072302103043E-3  -1.047524344176054E-2  -1.261702030897141E-1   9.880830049514771E-1  
 5.800000000000000E7    -8.476302623748779E-1  -5.253307223320007E-1  -5.532010458409786E-3  -1.126868091523647E-2  -5.575361661612988E-3  -1.118113566190004E-2  -1.122475713491440E-1   9.913294911384583E-1  
 5.830000000000000E7    -8.653539419174194E-1  -4.953736066818237E-1  -6.244284566491842E-3  -1.196394860744476E-2  -6.271771620959044E-3  -1.198398135602474E-2  -1.012207120656967E-1   9.922925829887390E-1  
 5.860000000000000E7    -8.833422660827637E-1  -4.654923677444458E-1  -7.001036778092384E-3  -1.273902319371700E-2  -7.022540085017681E-3  -1.273839082568884E-2  -8.868412673473358E-2   9.927352666854858E-1  
 5.890000000000000E7    -8.976629376411438E-1  -4.340164661407471E-1  -7.812398951500654E-3  -1.342222280800343E-2  -7.779550738632679E-3  -1.344903931021690E-2  -7.769579440355301E-2   9.935491681098938E-1  
 5.920000000000000E7    -9.129401445388794E-1  -4.016744494438171E-1  -8.741705678403378E-3  -1.416339818388224E-2  -8.705547079443932E-3  -1.407938729971647E-2  -6.467580795288086E-2   9.950771927833557E-1  
 5.950000000000000E7    -9.256489276885986E-1  -3.702010810375214E-1  -9.576098062098026E-3  -1.481830980628729E-2  -9.596019983291626E-3  -1.479853875935078E-2  -5.246629565954208E-2   9.943377971649170E-1  
 5.980000000000000E7    -9.385034441947937E-1  -3.370328545570374E-1  -1.055679656565189E-2  -1.548855192959309E-2  -1.054173614829779E-2  -1.549095101654530E-2  -4.001727700233460E-2   9.953051805496216E-1  
 6.010000000000000E7    -9.477267861366272E-1  -3.057429194450378E-1  -1.151240430772305E-2  -1.618426851928234E-2  -1.148903928697109E-2  -1.615035161376000E-2  -2.870085835456848E-2   9.964385628700256E-1  
 6.040000000000000E7    -9.590120315551758E-1  -2.711970210075378E-1  -1.259196083992720E-2  -1.679183170199394E-2  -1.260097883641720E-2  -1.676571741700172E-2  -1.608835160732269E-2   9.972953796386719E-1  
 6.070000000000000E7    -9.684624671936035E-1  -2.396498918533325E-1  -1.369290146976709E-2  -1.744609326124191E-2  -1.366076245903969E-2  -1.742799207568169E-2  -5.063578486442566E-3   9.965366721153259E-1  
 6.100000000000000E7    -9.755614995956421E-1  -2.055971175432205E-1  -1.491431891918182E-2  -1.794983819127083E-2  -1.486659608781338E-2  -1.796323619782925E-2   8.717373013496399E-3   9.967894554138184E-1  
 6.130000000000000E7    -9.824343919754028E-1  -1.710310131311417E-1  -1.607951708137989E-2  -1.858419179916382E-2  -1.606768555939198E-2  -1.853862032294273E-2   2.099324762821198E-2   9.972370266914368E-1  
 6.160000000000000E7    -9.872250556945801E-1  -1.374824047088623E-1  -1.724182069301605E-2  -1.906243339180946E-2  -1.726360991597176E-2  -1.901577413082123E-2   3.172305226325989E-2   9.954479336738586E-1  
 6.190000000000000E7    -9.911252260208130E-1  -1.034450680017471E-1  -1.852679625153542E-2  -1.958495005965233E-2  -1.851146481931210E-2  -1.946500502526760E-2   4.359641671180725E-2   9.946882724761963E-1  
 6.220000000000000E7    -9.943953752517700E-1  -6.953416764736176E-2  -1.980310864746571E-2  -2.001355215907097E-2  -1.986665092408657E-2  -2.002863027155399E-2   5.484403669834137E-2   9.954837560653687E-1  
 6.250000000000000E7    -9.960383176803589E-1  -3.507679700851440E-2  -2.120922505855560E-2  -2.043591812252998E-2  -2.125027216970921E-2  -2.041669562458992E-2   6.703796237707138E-2   9.944654703140259E-1  
 6.280000000000000E7    -9.959229826927185E-1  -5.678385496139526E-4  -2.269398793578148E-2  -2.083041518926621E-2  -2.261015400290489E-2  -2.086904644966126E-2   7.946068793535233E-2   9.939899444580078E-1  
 6.310000000000000E7    -9.954928755760193E-1   3.478516638278961E-2  -2.421385794878006E-2  -2.117891423404217E-2  -2.408436872065067E-2  -2.116545103490353E-2   9.154853224754334E-2   9.930039048194885E-1  
 6.340000000000000E7    -9.933854341506958E-1   6.856332719326019E-2  -2.567175030708313E-2  -2.149536833167076E-2  -2.565013989806175E-2  -2.142490632832050E-2   1.041633039712906E-1   9.920101165771484E-1  
 6.370000000000000E7    -9.906720519065857E-1   1.024674177169800E-1  -2.725246921181679E-2  -2.169299498200417E-2  -2.720188908278942E-2  -2.166776917874813E-2   1.151648014783859E-1   9.895227551460266E-1  
 6.400000000000000E7    -9.857663512229919E-1   1.365344524383545E-1  -2.888092398643494E-2  -2.182835526764393E-2  -2.879540249705315E-2  -2.181636169552803E-2   1.279558539390564E-1   9.890983104705811E-1  
 6.430000000000000E7    -9.804224967956543E-1   1.715383529663086E-1  -3.054124116897583E-2  -2.209386229515076E-2  -3.042997606098652E-2  -2.196235209703445E-2   1.397967636585236E-1   9.868368506431580E-1  
 6.460000000000000E7    -9.748337864875794E-1   2.049694657325745E-1  -3.211463242769241E-2  -2.208386920392513E-2  -3.210381418466568E-2  -2.214656770229340E-2   1.506521999835968E-1   9.844127893447876E-1  
 6.490000000000000E7    -9.681627154350281E-1   2.377530932426453E-1  -3.374856337904930E-2  -2.222486771643162E-2  -3.385395556688309E-2  -2.227173373103142E-2   1.625567227602005E-1   9.830337762832642E-1  
 6.520000000000000E7    -9.581384658813477E-1   2.709271013736725E-1  -3.564186394214630E-2  -2.224373817443848E-2  -3.555172681808472E-2  -2.214821986854076E-2   1.747289001941681E-1   9.819306135177612E-1  
 6.550000000000000E7    -9.487360119819641E-1   3.029667139053345E-1  -3.749486804008484E-2  -2.210208401083946E-2  -3.734600916504860E-2  -2.213168889284134E-2   1.866116523742676E-1   9.775549173355103E-1  
 6.580000000000000E7    -9.370931386947632E-1   3.360618948936462E-1  -3.921112418174744E-2  -2.186578884720802E-2  -3.918232768774033E-2  -2.201101370155811E-2   1.988543570041657E-1   9.767358899116516E-1  
 6.610000000000000E7    -9.238945245742798E-1   3.678979277610779E-1  -4.116231948137283E-2  -2.176679857075214E-2  -4.096416756510735E-2  -2.154658362269402E-2   2.117525786161423E-1   9.726367592811585E-1  
 6.640000000000000E7    -9.124103784561157E-1   3.997604250907898E-1  -4.305841028690338E-2  -2.152085304260254E-2  -4.302047193050385E-2  -2.156476303935051E-2   2.233273833990097E-1   9.701120257377625E-1  
 6.670000000000000E7    -8.972232937812805E-1   4.305280148983002E-1  -4.498665779829025E-2  -2.107568085193634E-2  -4.485888034105301E-2  -2.119206450879574E-2   2.340876907110214E-1   9.682213068008423E-1  
 6.700000000000000E7    -8.813480138778687E-1   4.612918496131897E-1  -4.696258902549744E-2  -2.076336368918419E-2  -4.668042063713074E-2  -2.062993310391903E-2   2.459167540073395E-1   9.639941453933716E-1  
 6.730000000000000E7    -8.648351430892944E-1   4.912506341934204E-1  -4.872247204184532E-2  -2.031653001904488E-2  -4.882914572954178E-2  -2.015884779393673E-2   2.585884332656860E-1   9.620141983032227E-1  
 6.760000000000000E7    -8.478649854660034E-1   5.206406116485596E-1  -5.098018795251846E-2  -1.965633779764175E-2  -5.083236843347549E-2  -1.968691498041153E-2   2.705937922000885E-1   9.583249688148499E-1  
 6.790000000000000E7    -8.287643194198608E-1   5.497296452522278E-1  -5.285832658410072E-2  -1.920834369957447E-2  -5.285584181547165E-2  -1.909561082720757E-2   2.816888093948364E-1   9.541288614273071E-1  
 6.820000000000000E7    -8.092885613441467E-1   5.770880579948425E-1  -5.489754676818848E-2  -1.831321790814400E-2  -5.483596771955490E-2  -1.834812946617603E-2   2.929200530052185E-1   9.512401223182678E-1  
 6.850000000000000E7    -7.893371582031250E-1   6.054278016090393E-1  -5.710458755493164E-2  -1.775728352367878E-2  -5.696352943778038E-2  -1.766529306769371E-2   3.042122721672058E-1   9.479560256004334E-1  
 6.880000000000000E7    -7.675024867057800E-1   6.321382522583008E-1  -5.923365801572800E-2  -1.681091450154781E-2  -5.898874625563622E-2  -1.673455722630024E-2   3.164507150650024E-1   9.430215358734131E-1  
 6.910000000000000E7    -7.449080348014832E-1   6.582247614860535E-1  -6.136100739240646E-2  -1.577840000391007E-2  -6.121062114834786E-2  -1.578141003847122E-2   3.286397755146027E-1   9.392408728599548E-1  
 6.940000000000000E7    -7.224849462509155E-1   6.835859417915344E-1  -6.345296651124954E-2  -1.496483851224184E-2  -6.341427564620972E-2  -1.483005844056606E-2   3.392384946346283E-1   9.352843761444092E-1  
 6.970000000000000E7    -6.970307230949402E-1   7.080208659172058E-1  -6.555154919624329E-2  -1.378619298338890E-2  -6.552166491746903E-2  -1.352637819945812E-2   3.515118956565857E-1   9.304717183113098E-1  
 7.000000000000000E7    -6.723051071166992E-1   7.323031425476074E-1  -6.780856102705002E-2  -1.263349596410990E-2  -6.762016564607620E-2  -1.235703472048044E-2   3.627319335937500E-1   9.264148473739624E-1  
