#  HZ   S   RI   R     50.00 
! Rohde & Schwarz ZVT8 8Ports - Version 4.11 - 1300.0000k08 SN: 100242
! Date: 2026-07-31 14:36:52
! Measurements: S11 S21 S12 S22 
! 
 1.000000000000000E7    -3.983989953994751E-1   9.129917621612549E-1   5.428448691964150E-2   5.450139194726944E-2   5.434922873973846E-2   5.451490730047226E-2  -9.171610474586487E-1   3.887421190738678E-1  
 1.030000000000000E7    -3.650904595851898E-1   9.257089495658875E-1   5.794126167893410E-2   5.512280762195587E-2   5.804144963622093E-2   5.505831167101860E-2  -9.110465049743652E-1   4.016875028610230E-1  
 1.060000000000000E7    -3.283137679100037E-1   9.385015368461609E-1   6.191318854689598E-2   5.614032223820686E-2   6.180288270115852E-2   5.602654442191124E-2  -9.068011641502380E-1   4.133839309215546E-1  
 1.090000000000000E7    -2.955789864063263E-1   9.488589167594910E-1   6.583368778228760E-2   5.661661550402641E-2   6.560201197862625E-2   5.657849833369255E-2  -9.008842706680298E-1   4.255965054035187E-1  
 1.120000000000000E7    -2.590032219886780E-1   9.585657119750977E-1   6.999381631612778E-2   5.739850923418999E-2   6.943999975919724E-2   5.720488727092743E-2  -8.947287797927856E-1   4.379467070102692E-1  
 1.150000000000000E7    -2.225097417831421E-1   9.684640765190125E-1   7.406422495841980E-2   5.747337266802788E-2   7.368521392345429E-2   5.753187835216522E-2  -8.874142765998840E-1   4.475931227207184E-1  
 1.180000000000000E7    -1.869466155767441E-1   9.732537865638733E-1   7.806552201509476E-2   5.803726240992546E-2   7.806445658206940E-2   5.784700810909271E-2  -8.827129602432251E-1   4.592207372188568E-1  
 1.210000000000000E7    -1.507279872894287E-1   9.796307086944580E-1   8.303866535425186E-2   5.839952453970909E-2   8.279388397932053E-2   5.820336192846298E-2  -8.744774460792542E-1   4.722177684307098E-1  
 1.240000000000000E7    -1.136536598205566E-1   9.837844967842102E-1   8.768346160650253E-2   5.840061232447624E-2   8.751889318227768E-2   5.806746706366539E-2  -8.673133254051209E-1   4.823296964168549E-1  
 1.270000000000000E7    -7.681596279144287E-2   9.873002171516419E-1   9.310584515333176E-2   5.803756788372994E-2   9.246531128883362E-2   5.792171508073807E-2  -8.601179122924805E-1   4.970057606697083E-1  
 1.300000000000000E7    -3.981487080454826E-2   9.891643524169922E-1   9.784896671772003E-2   5.790624767541885E-2   9.780994802713394E-2   5.781560018658638E-2  -8.517720699310303E-1   5.077472925186157E-1  
 1.330000000000000E7    -1.824565231800079E-3   9.903696179389954E-1   1.035683304071426E-1   5.759769678115845E-2   1.032197922468185E-1   5.691612139344215E-2  -8.436499834060669E-1   5.202639102935791E-1  
 1.360000000000000E7     3.753219544887543E-2   9.891717433929443E-1   1.088885962963104E-1   5.711294710636139E-2   1.089796796441078E-1   5.639147385954857E-2  -8.356900215148926E-1   5.310740470886231E-1  
 1.390000000000000E7     7.423090934753418E-2   9.859955906867981E-1   1.149864271283150E-1   5.579114332795143E-2   1.145477667450905E-1   5.601549893617630E-2  -8.274647593498230E-1   5.434250235557556E-1  
 1.420000000000000E7     1.142674759030342E-1   9.820588827133179E-1   1.206784546375275E-1   5.505007132887840E-2   1.206718236207962E-1   5.510162189602852E-2  -8.197904825210571E-1   5.548261404037476E-1  
 1.450000000000000E7     1.521743983030319E-1   9.745738506317139E-1   1.270297914743424E-1   5.338143929839134E-2   1.269572526216507E-1   5.347773432731628E-2  -8.083187937736511E-1   5.679850578308106E-1  
 1.480000000000000E7     1.921548247337341E-1   9.674270749092102E-1   1.338164955377579E-1   5.178704857826233E-2   1.337754428386688E-1   5.219494923949242E-2  -8.000826835632324E-1   5.796358585357666E-1  
 1.510000000000000E7     2.305651903152466E-1   9.576481580734253E-1   1.404242962598801E-1   4.976788535714150E-2   1.401301771402359E-1   5.006589367985725E-2  -7.875014543533325E-1   5.916301012039185E-1  
 1.540000000000000E7     2.687011063098908E-1   9.466177225112915E-1   1.474696695804596E-1   4.864080622792244E-2   1.474204510450363E-1   4.787483811378479E-2  -7.801861763000488E-1   6.031580567359924E-1  
 1.570000000000000E7     3.082329928874970E-1   9.353185892105103E-1   1.550972014665604E-1   4.561463370919228E-2   1.550632268190384E-1   4.545002430677414E-2  -7.680513262748718E-1   6.163414120674133E-1  
 1.600000000000000E7     3.470157086849213E-1   9.190711975097656E-1   1.624520272016525E-1   4.268120974302292E-2   1.628087908029556E-1   4.231036454439163E-2  -7.575037479400635E-1   6.259306669235230E-1  
 1.630000000000000E7     3.850853145122528E-1   9.022635817527771E-1   1.713580638170242E-1   3.905018046498299E-2   1.706273257732391E-1   3.924022614955902E-2  -7.450190782546997E-1   6.396114230155945E-1  
 1.660000000000000E7     4.231891930103302E-1   8.822074532508850E-1   1.797804385423660E-1   3.518564626574516E-2   1.793795078992844E-1   3.471499681472778E-2  -7.316061854362488E-1   6.514961123466492E-1  
 1.690000000000000E7     4.606619179248810E-1   8.618227243423462E-1   1.884909868240356E-1   3.136372566223145E-2   1.882662326097488E-1   3.103860840201378E-2  -7.194210290908814E-1   6.626180410385132E-1  
 1.720000000000000E7     5.002857446670532E-1   8.385879993438721E-1   1.969075053930283E-1   2.566935122013092E-2   1.972951442003250E-1   2.605738304555416E-2  -7.058526277542114E-1   6.738850474357605E-1  
 1.750000000000000E7     5.332134962081909E-1   8.162317276000977E-1   2.078517377376556E-1   2.165246009826660E-2   2.077824026346207E-1   2.105811610817909E-2  -6.929441690444946E-1   6.874320507049561E-1  
 1.780000000000000E7     5.721623301506043E-1   7.849324345588684E-1   2.166779786348343E-1   1.450309902429581E-2   2.171146720647812E-1   1.479428634047508E-2  -6.773517131805420E-1   6.969256997108460E-1  
 1.810000000000000E7     6.065480709075928E-1   7.562322020530701E-1   2.286439687013626E-1   8.067041635513306E-3   2.270422428846359E-1   7.215034216642380E-3  -6.618384122848511E-1   7.114577889442444E-1  
 1.840000000000000E7     6.430872678756714E-1   7.233418822288513E-1   2.396039664745331E-1  -1.535052433609963E-3   2.383803725242615E-1  -1.029271632432938E-3  -6.442107558250427E-1   7.226327657699585E-1  
 1.870000000000000E7     6.747021675109863E-1   6.890860795974731E-1   2.507982552051544E-1  -9.423775598406792E-3   2.497707605361939E-1  -9.827384725213051E-3  -6.266820430755615E-1   7.332286834716797E-1  
 1.900000000000000E7     7.070951461791992E-1   6.511608958244324E-1   2.625937461853027E-1  -1.939340308308601E-2   2.620680630207062E-1  -1.996329799294472E-2  -6.082324385643005E-1   7.437357306480408E-1  
 1.930000000000000E7     7.380931973457336E-1   6.094400286674500E-1   2.744073569774628E-1  -3.207508847117424E-2   2.748132050037384E-1  -3.127665072679520E-2  -5.884380340576172E-1   7.561028003692627E-1  
 1.960000000000000E7     7.675480842590332E-1   5.644055008888245E-1   2.870269715785980E-1  -4.475777596235275E-2   2.872673273086548E-1  -4.410530254244804E-2  -5.697569251060486E-1   7.654944658279419E-1  
 1.990000000000000E7     7.930894494056702E-1   5.174787640571594E-1   3.002882599830627E-1  -5.955917388200760E-2   3.004636168479919E-1  -5.975995957851410E-2  -5.449483990669251E-1   7.769405245780945E-1  
 2.020000000000000E7     8.174517154693604E-1   4.663963019847870E-1   3.143949806690216E-1  -7.591795921325684E-2   3.134956359863281E-1  -7.561723887920380E-2  -5.234746932983398E-1   7.836065888404846E-1  
 2.050000000000000E7     8.408011794090271E-1   4.108387231826782E-1   3.281210660934448E-1  -9.452084451913834E-2   3.259472250938416E-1  -9.456040710210800E-2  -4.987529516220093E-1   7.926526665687561E-1  
 2.080000000000000E7     8.578429222106934E-1   3.512587547302246E-1   3.421266376972199E-1  -1.165179610252380E-1   3.424111306667328E-1  -1.164885312318802E-1  -4.721373915672302E-1   8.016647696495056E-1  
 2.110000000000000E7     8.722085356712341E-1   2.885921001434326E-1   3.560335636138916E-1  -1.423176974058151E-1   3.558981120586395E-1  -1.419821679592133E-1  -4.432302117347717E-1   8.067432045936585E-1  
 2.140000000000000E7     8.810431361198425E-1   2.221784889698029E-1   3.695498704910278E-1  -1.710171550512314E-1   3.686124682426453E-1  -1.691522598266602E-1  -4.138387143611908E-1   8.112393617630005E-1  
 2.170000000000000E7     8.833609223365784E-1   1.520013809204102E-1   3.825220763683319E-1  -2.022351920604706E-1   3.826053440570831E-1  -2.010411620140076E-1  -3.819341063499451E-1   8.131000399589539E-1  
 2.200000000000000E7     8.791124820709229E-1   7.466138899326325E-2   3.930556774139404E-1  -2.393202483654022E-1   3.933601677417755E-1  -2.385372370481491E-1  -3.470325171947479E-1   8.123233914375305E-1  
 2.230000000000000E7     8.648971915245056E-1  -3.879487514495850E-3   4.024441242218018E-1  -2.809585928916931E-1   4.024230837821960E-1  -2.798069417476654E-1  -3.114944398403168E-1   8.088622689247131E-1  
 2.260000000000000E7     8.410605192184448E-1  -8.632245659828186E-2   4.078319966793060E-1  -3.279565572738648E-1   4.097984433174133E-1  -3.289450705051422E-1  -2.746880650520325E-1   8.004975318908691E-1  
 2.290000000000000E7     8.035832047462463E-1  -1.707403063774109E-1   4.094212055206299E-1  -3.815178275108337E-1   4.109821915626526E-1  -3.818650543689728E-1  -2.340492606163025E-1   7.877572774887085E-1  
 2.320000000000000E7     7.508414387702942E-1  -2.531876862049103E-1   4.043374359607697E-1  -4.427894949913025E-1   4.033498764038086E-1  -4.419936239719391E-1  -1.954156458377838E-1   7.716996073722839E-1  
 2.350000000000000E7     6.804322004318237E-1  -3.340843617916107E-1   3.890885412693024E-1  -5.099439620971680E-1   3.892263174057007E-1  -5.079540014266968E-1  -1.561120897531509E-1   7.462661266326904E-1  
 2.380000000000000E7     5.918653011322022E-1  -4.080426692962647E-1   3.635214269161224E-1  -5.796409845352173E-1   3.638842105865479E-1  -5.797193050384522E-1  -1.187922134995461E-1   7.127093076705933E-1  
 2.410000000000000E7     4.831678569316864E-1  -4.680009186267853E-1   3.215257823467255E-1  -6.543518304824829E-1   3.217730820178986E-1  -6.527879238128662E-1  -8.634281158447266E-2   6.716058850288391E-1  
 2.440000000000000E7     3.550143241882324E-1  -5.053608417510986E-1   2.618418335914612E-1  -7.283556461334229E-1   2.615215182304382E-1  -7.279478907585144E-1  -6.320281326770783E-2   6.218524575233460E-1  
 2.470000000000000E7     2.135492265224457E-1  -5.167409777641296E-1   1.825114190578461E-1  -7.968595623970032E-1   1.842243373394013E-1  -7.950128316879273E-1  -4.660096392035484E-2   5.633327364921570E-1  
 2.500000000000000E7     6.215246766805649E-2  -4.943021535873413E-1   8.406470715999603E-2  -8.505966067314148E-1   8.347474783658981E-2  -8.508188128471375E-1  -4.630297794938088E-2   5.050659775733948E-1  
 2.530000000000000E7    -8.520537614822388E-2  -4.291062653064728E-1  -3.119340911507607E-2  -8.870651125907898E-1  -3.048365563154221E-2  -8.853577375411987E-1  -6.231187283992767E-2   4.433631896972656E-1  
 2.560000000000000E7    -2.126773297786713E-1  -3.285753130912781E-1  -1.567903012037277E-1  -8.958572745323181E-1  -1.574470400810242E-1  -8.950598239898682E-1  -9.566276520490646E-2   3.893387615680695E-1  
 2.590000000000000E7    -3.041397333145142E-1  -1.949434876441956E-1  -2.846935093402863E-1  -8.752360939979553E-1  -2.840697169303894E-1  -8.760725259780884E-1  -1.381188184022903E-1   3.489606976509094E-1  
 2.620000000000000E7    -3.595118522644043E-1  -4.209240525960922E-2  -4.047958850860596E-1  -8.275544643402100E-1  -4.031452238559723E-1  -8.271847963333130E-1  -1.913515180349350E-1   3.221379518508911E-1  
 2.650000000000000E7    -3.739068806171417E-1   1.144741103053093E-1  -5.054980516433716E-1  -7.552462220191956E-1  -5.066835880279541E-1  -7.556164860725403E-1  -2.503445148468018E-1   3.141213059425354E-1  
 2.680000000000000E7    -3.468672037124634E-1   2.613906562328339E-1  -5.864348411560059E-1  -6.691374778747559E-1  -5.861840248107910E-1  -6.684889793395996E-1  -3.051341474056244E-1   3.238856494426727E-1  
 2.710000000000000E7    -2.916017174720764E-1   3.866428136825562E-1  -6.457058787345886E-1  -5.753159523010254E-1  -6.464053392410278E-1  -5.746827125549316E-1  -3.494358956813812E-1   3.452114462852478E-1  
 2.740000000000000E7    -2.125963270664215E-1   4.926106333732605E-1  -6.815268993377686E-1  -4.803089797496796E-1  -6.813964247703552E-1  -4.787620007991791E-1  -3.871427476406097E-1   3.801459074020386E-1  
 2.770000000000000E7    -1.232331618666649E-1   5.698081851005554E-1  -7.023353576660156E-1  -3.879065215587616E-1  -7.026296854019165E-1  -3.888641595840454E-1  -4.125140011310577E-1   4.200517833232880E-1  
 2.800000000000000E7    -2.828986197710037E-2   6.261530518531799E-1  -7.075643539428711E-1  -3.017619848251343E-1  -7.063995599746704E-1  -3.029959499835968E-1  -4.295299649238586E-1   4.629847407341003E-1  
 2.830000000000000E7     6.688681244850159E-2   6.610646843910217E-1  -7.031469345092773E-1  -2.251939475536346E-1  -7.037261724472046E-1  -2.258747518062592E-1  -4.334923923015595E-1   5.056523084640503E-1  
 2.860000000000000E7     1.590316891670227E-1   6.783113479614258E-1  -6.912546157836914E-1  -1.564037799835205E-1  -6.922109127044678E-1  -1.550926268100739E-1  -4.290557503700256E-1   5.514114499092102E-1  
 2.890000000000000E7     2.442435026168823E-1   6.813482642173767E-1  -6.761410236358643E-1  -9.397609531879425E-2  -6.746531128883362E-1  -9.393088519573212E-2  -4.169439375400543E-1   5.937138199806213E-1  
 2.920000000000000E7     3.261090517044067E-1   6.740672588348389E-1  -6.548147797584534E-1  -3.994039818644524E-2  -6.542969942092896E-1  -3.813029080629349E-2  -3.983018696308136E-1   6.334461569786072E-1  
 2.950000000000000E7     3.967580795288086E-1   6.563201546669006E-1  -6.334148049354553E-1   9.784016758203507E-3  -6.323743462562561E-1   1.024385355412960E-2  -3.718156814575195E-1   6.732766628265381E-1  
 2.980000000000000E7     4.629850983619690E-1   6.345643997192383E-1  -6.094741225242615E-1   5.336633324623108E-2  -6.097238659858704E-1   5.349091440439224E-2  -3.394089639186859E-1   7.088813781738281E-1  
 3.010000000000000E7     5.216947197914124E-1   6.055990457534790E-1  -5.856153368949890E-1   9.480927884578705E-2  -5.848496556282044E-1   9.356644004583359E-2  -3.021075725555420E-1   7.413399219512940E-1  
 3.040000000000000E7     5.747004747390747E-1   5.728109478950501E-1  -5.622185468673706E-1   1.298540681600571E-1  -5.620323419570923E-1   1.301027983427048E-1  -2.562338411808014E-1   7.694040536880493E-1  
 3.070000000000000E7     6.223645210266113E-1   5.363767743110657E-1  -5.369431376457214E-1   1.663545817136765E-1  -5.367758274078369E-1   1.655681282281876E-1  -2.072083204984665E-1   7.942856550216675E-1  
 3.100000000000000E7     6.632929444313049E-1   4.997516274452210E-1  -5.136017203330994E-1   1.989213526248932E-1  -5.123147368431091E-1   1.987720429897308E-1  -1.512223631143570E-1   8.159198760986328E-1  
 3.130000000000000E7     6.983070969581604E-1   4.615869522094727E-1  -4.874788224697113E-1   2.296119630336762E-1  -4.876300394535065E-1   2.281849086284638E-1  -8.863015472888947E-2   8.305006027221680E-1  
 3.160000000000000E7     7.298849821090698E-1   4.211283028125763E-1  -4.630073606967926E-1   2.600796222686768E-1  -4.636491537094116E-1   2.594076693058014E-1  -1.929250732064247E-2   8.412190079689026E-1  
 3.190000000000000E7     7.566173076629639E-1   3.818219006061554E-1  -4.363010525703430E-1   2.896717190742493E-1  -4.353419542312622E-1   2.887846529483795E-1   5.815892666578293E-2   8.432561755180359E-1  
 3.220000000000000E7     7.801710367202759E-1   3.423815369606018E-1  -4.088453948497772E-1   3.176638484001160E-1  -4.075621068477631E-1   3.179657459259033E-1   1.417438536882401E-1   8.356781601905823E-1  
 3.250000000000000E7     7.989891767501831E-1   3.034555912017822E-1  -3.786286115646362E-1   3.477947115898132E-1  -3.780768215656281E-1   3.479758501052856E-1   2.357648611068726E-1   8.180229663848877E-1  
 3.280000000000000E7     8.129432201385498E-1   2.640353441238403E-1  -3.444770574569702E-1   3.774409592151642E-1  -3.427423536777496E-1   3.756252229213715E-1   3.357928097248077E-1   7.828893661499023E-1  
 3.310000000000000E7     8.264997005462647E-1   2.276976406574249E-1  -3.060362040996552E-1   4.041631817817688E-1  -3.052929937839508E-1   4.039049148559570E-1   4.436760842800140E-1   7.273665666580200E-1  
 3.340000000000000E7     8.375113606452942E-1   1.932777017354965E-1  -2.614541947841644E-1   4.322347939014435E-1  -2.616468966007233E-1   4.308327436447144E-1   5.538790225982666E-1   6.476966142654419E-1  
 3.370000000000000E7     8.453042507171631E-1   1.596151441335678E-1  -2.113624066114426E-1   4.551258981227875E-1  -2.113601863384247E-1   4.542561471462250E-1   6.632198095321655E-1   5.369221568107605E-1  
 3.400000000000000E7     8.531087040901184E-1   1.285415440797806E-1  -1.529491096735001E-1   4.733863770961762E-1  -1.536804288625717E-1   4.732430875301361E-1   7.599018216133118E-1   3.887456953525543E-1  
 3.430000000000000E7     8.618097305297852E-1   9.968429058790207E-2  -8.753417432308197E-2   4.821619689464569E-1  -8.705570548772812E-2   4.820800125598908E-1   8.322237730026245E-1   2.034052014350891E-1  
 3.460000000000000E7     8.706790208816528E-1   7.138554006814957E-2  -1.622741669416428E-2   4.787568151950836E-1  -1.606512814760208E-2   4.782700538635254E-1   8.611990213394165E-1  -1.815283298492432E-2  
 3.490000000000000E7     8.827475905418396E-1   4.291025549173355E-2   5.617605894804001E-2   4.560290277004242E-1   5.746506899595261E-2   4.573374688625336E-1   8.304077386856079E-1  -2.591335773468018E-1  
 3.520000000000000E7     8.959252834320068E-1   1.416211575269699E-2   1.237056329846382E-1   4.182940125465393E-1   1.241640374064446E-1   4.177297651767731E-1   7.267463207244873E-1  -4.991841316223145E-1  
 3.550000000000000E7     9.088177680969238E-1  -1.937274634838104E-2   1.786942034959793E-1   3.629099428653717E-1   1.784712076187134E-1   3.630921840667725E-1   5.541657209396362E-1  -7.051181197166443E-1  
 3.580000000000000E7     9.241492748260498E-1  -5.679658800363541E-2   2.147034257650375E-1   2.985053956508637E-1   2.143348455429077E-1   2.985380291938782E-1   3.322063684463501E-1  -8.508227467536926E-1  
 3.610000000000000E7     9.367824792861939E-1  -9.808184951543808E-2   2.306494414806366E-1   2.318449318408966E-1   2.306371331214905E-1   2.315191924571991E-1   8.643119037151337E-2  -9.252952933311462E-1  
 3.640000000000000E7     9.442365169525147E-1  -1.430686414241791E-1   2.300703525543213E-1   1.703053861856461E-1   2.298192679882050E-1   1.708766967058182E-1  -1.518749892711639E-1  -9.317305684089661E-1  
 3.670000000000000E7     9.475369453430176E-1  -1.884310543537140E-1   2.171435952186585E-1   1.187376976013184E-1   2.167235165834427E-1   1.185474097728729E-1  -3.631530404090881E-1  -8.844817876815796E-1  
 3.700000000000000E7     9.456591010093689E-1  -2.352660298347473E-1   1.968102306127548E-1   7.788966596126556E-2   1.964042484760284E-1   7.814414799213409E-2  -5.376559495925903E-1  -8.034524917602539E-1  
 3.730000000000000E7     9.393951892852783E-1  -2.818769812583923E-1   1.737612485885620E-1   4.675355553627014E-2   1.734598875045776E-1   4.716236144304276E-2  -6.765005588531494E-1  -7.008029222488403E-1  
 3.760000000000000E7     9.298644065856934E-1  -3.249799013137817E-1   1.499073356389999E-1   2.527673915028572E-2   1.498665511608124E-1   2.519378624856472E-2  -7.806215882301331E-1  -5.932291746139526E-1  
 3.790000000000000E7     9.175178408622742E-1  -3.688057959079742E-1   1.272044181823731E-1   9.702189825475216E-3   1.274247318506241E-1   9.653520770370960E-3  -8.562523126602173E-1  -4.859308302402496E-1  
 3.820000000000000E7     9.031435251235962E-1  -4.109001457691193E-1   1.070972159504890E-1  -2.479907125234604E-4   1.070907115936279E-1  -5.599269643425942E-4  -9.107865095138550E-1  -3.812421858310700E-1  
 3.850000000000000E7     8.851061463356018E-1  -4.510084390640259E-1   8.907838165760040E-2  -7.051006890833378E-3   8.889448642730713E-2  -7.175567094236612E-3  -9.482706189155579E-1  -2.853963971138001E-1  
 3.880000000000000E7     8.661464452743530E-1  -4.879415929317474E-1   7.361210137605667E-2  -1.085191965103149E-2   7.330105453729630E-2  -1.076499745249748E-2  -9.719457626342773E-1  -1.969684660434723E-1  
 3.910000000000000E7     8.466528058052063E-1  -5.253495573997498E-1   6.012807041406632E-2  -1.280475966632366E-2   6.013329327106476E-2  -1.276558265089989E-2  -9.880307912826538E-1  -1.153668761253357E-1  
 3.940000000000000E7     8.239253759384155E-1  -5.583264827728272E-1   4.844722524285317E-2  -1.308948639780283E-2   4.846715182065964E-2  -1.315378956496716E-2  -9.935075044631958E-1  -4.131363332271576E-2  
 3.970000000000000E7     8.027489781379700E-1  -5.918928980827332E-1   3.876188397407532E-2  -1.282219216227531E-2   3.872941806912422E-2  -1.277934852987528E-2  -9.941861629486084E-1   2.774794399738312E-2  
 4.000000000000000E7     7.775564193725586E-1  -6.237303614616394E-1   3.049475885927677E-2  -1.176489237695932E-2   3.037436679005623E-2  -1.180081535130739E-2  -9.920886158943176E-1   8.782184869050980E-2  
 4.030000000000000E7     7.536177635192871E-1  -6.537141799926758E-1   2.357860095798969E-2  -1.033654343336821E-2   2.351122722029686E-2  -1.041208952665329E-2  -9.857422113418579E-1   1.441278010606766E-1  
 4.060000000000000E7     7.277945876121521E-1  -6.821557879447937E-1   1.775320619344711E-2  -8.621412329375744E-3   1.768853701651096E-2  -8.703168481588364E-3  -9.766797423362732E-1   1.954233646392822E-1  
 4.090000000000000E7     7.006718516349793E-1  -7.102431058883667E-1   1.270717009902000E-2  -6.895298603922129E-3   1.272586546838284E-2  -6.997349672019482E-3  -9.662960171699524E-1   2.420672029256821E-1  
 4.120000000000000E7     6.738719940185547E-1  -7.366964221000671E-1   8.449151180684567E-3  -5.129663273692131E-3   8.633554913103581E-3  -5.125231575220823E-3  -9.543066620826721E-1   2.866739034652710E-1  
 4.150000000000000E7     6.461945772171021E-1  -7.600712180137634E-1   5.188732407987118E-3  -3.345116507261992E-3   5.252276547253132E-3  -3.216973273083568E-3  -9.418201446533203E-1   3.261697292327881E-1  
 4.180000000000000E7     6.167904734611511E-1  -7.845581769943237E-1   2.487096237018704E-3  -1.615466899238527E-3   2.455568173900247E-3  -1.574330148287118E-3  -9.283740520477295E-1   3.615025579929352E-1  
 4.210000000000000E7     5.877832770347595E-1  -8.066788315773010E-1   1.461998472223058E-4   2.076454111374915E-4   1.207273089676164E-4   1.510308356955648E-4  -9.146484136581421E-1   3.958162665367127E-1  
 4.240000000000000E7     5.576311945915222E-1  -8.268626332283020E-1  -1.704508671537042E-3   1.649949233978987E-3  -1.774279517121613E-3   1.595343346707523E-3  -9.013646245002747E-1   4.268254339694977E-1  
 4.270000000000000E7     5.264726281166077E-1  -8.469890952110291E-1  -3.171199932694435E-3   3.220617072656751E-3  -3.212534589692950E-3   3.034500172361732E-3  -8.866788744926453E-1   4.578453898429871E-1  
 4.300000000000000E7     4.945334196090698E-1  -8.662366867065430E-1  -4.401822108775377E-3   4.507291130721569E-3  -4.311465192586184E-3   4.380554426461458E-3  -8.718334436416626E-1   4.858601093292236E-1  
 4.330000000000000E7     4.654904901981354E-1  -8.837462663650513E-1  -5.272977054119110E-3   5.570806097239256E-3  -5.239519290626049E-3   5.671490915119648E-3  -8.564279675483704E-1   5.111938118934631E-1  
 4.360000000000000E7     4.319793879985809E-1  -8.995808959007263E-1  -5.953563842922449E-3   6.751515902578831E-3  -5.846998188644648E-3   6.723859813064337E-3  -8.423287868499756E-1   5.352869033813477E-1  
 4.390000000000000E7     3.989430665969849E-1  -9.154376387596130E-1  -6.341958884149790E-3   7.668627426028252E-3  -6.336997728794813E-3   7.681132759898901E-3  -8.261222839355469E-1   5.571130514144898E-1  
 4.420000000000000E7     3.659827411174774E-1  -9.279793500900269E-1  -6.659398321062326E-3   8.562794886529446E-3  -6.614947691559792E-3   8.474235422909260E-3  -8.104644417762756E-1   5.793237686157227E-1  
 4.450000000000000E7     3.328537046909332E-1  -9.405335783958435E-1  -6.685523781925440E-3   9.148437529802322E-3  -6.647798232734203E-3   9.189620614051819E-3  -7.969824075698853E-1   5.992227792739868E-1  
 4.480000000000000E7     2.993478178977966E-1  -9.516588449478149E-1  -6.898032501339912E-3   9.859848767518997E-3  -6.702777929604054E-3   9.938479401171207E-3  -7.820167541503906E-1   6.178844571113586E-1  
 4.510000000000000E7     2.667894661426544E-1  -9.621726870536804E-1  -6.701644044369459E-3   1.031605154275894E-2  -6.701394915580750E-3   1.034706458449364E-2  -7.680723667144775E-1   6.369072794914246E-1  
 4.540000000000000E7     2.322867959737778E-1  -9.702038168907166E-1  -6.440395023673773E-3   1.077239215373993E-2  -6.542363669723272E-3   1.081125717610121E-2  -7.531386017799377E-1   6.545623540878296E-1  
 4.570000000000000E7     1.978265494108200E-1  -9.780868887901306E-1  -6.283505819737911E-3   1.112010795623064E-2  -6.291559431701899E-3   1.109379343688488E-2  -7.382081747055054E-1   6.709181666374207E-1  
 4.600000000000000E7     1.663362085819244E-1  -9.838052392005920E-1  -6.073284894227982E-3   1.121052913367748E-2  -5.979499313980341E-3   1.136780530214310E-2  -7.241204977035523E-1   6.858713030815125E-1  
 4.630000000000000E7     1.289540529251099E-1  -9.896197319030762E-1  -5.706350319087505E-3   1.143052987754345E-2  -5.621534772217274E-3   1.137152872979641E-2  -7.098320722579956E-1   7.004123330116272E-1  
 4.660000000000000E7     9.420050680637360E-2  -9.943650960922241E-1  -5.356627982109785E-3   1.154135260730982E-2  -5.333898123353720E-3   1.154112815856934E-2  -6.949999332427979E-1   7.158606052398682E-1  
 4.690000000000000E7     6.069697439670563E-2  -9.960136413574219E-1  -4.938797093927860E-3   1.134963426738977E-2  -4.982765298336744E-3   1.136434637010098E-2  -6.812981963157654E-1   7.290547490119934E-1  
 4.720000000000000E7     2.591627091169357E-2  -9.971422553062439E-1  -4.481584299355745E-3   1.122236251831055E-2  -4.464067053049803E-3   1.124393381178379E-2  -6.660858392715454E-1   7.421085834503174E-1  
 4.750000000000000E7    -8.052762597799301E-3  -9.984238743782044E-1  -4.029009491205216E-3   1.111635286360979E-2  -4.081179387867451E-3   1.096277404576540E-2  -6.522508263587952E-1   7.545378208160400E-1  
 4.780000000000000E7    -4.171671718358994E-2  -9.972203969955444E-1  -3.626859048381448E-3   1.078257244080305E-2  -3.622204996645451E-3   1.082436181604862E-2  -6.368793845176697E-1   7.660666704177856E-1  
 4.810000000000000E7    -7.660751044750214E-2  -9.950882792472839E-1  -3.358220914378762E-3   1.042857114225626E-2  -3.187300404533744E-3   1.039371453225613E-2  -6.244791746139526E-1   7.773270606994629E-1  
 4.840000000000000E7    -1.104198172688484E-1  -9.923695921897888E-1  -2.843843307346106E-3   1.006928272545338E-2  -2.810790203511715E-3   1.001803018152714E-2  -6.106207966804504E-1   7.880231142044067E-1  
 4.870000000000000E7    -1.448695063591003E-1  -9.880479574203491E-1  -2.484574215486646E-3   9.655855596065521E-3  -2.490634797140956E-3   9.576641954481602E-3  -5.966120958328247E-1   7.987870573997498E-1  
 4.900000000000000E7    -1.787655949592590E-1  -9.832547307014465E-1  -2.069195266813040E-3   9.082479402422905E-3  -2.133707981556654E-3   9.138432331383228E-3  -5.833296179771423E-1   8.084548711776733E-1  
 4.930000000000000E7    -2.127062976360321E-1  -9.760364294052124E-1  -1.677825581282377E-3   8.529127575457096E-3  -1.837370800785720E-3   8.573081344366074E-3  -5.691823363304138E-1   8.186284899711609E-1  
 4.960000000000000E7    -2.448445558547974E-1  -9.662046432495117E-1  -1.442656852304936E-3   7.983149029314518E-3  -1.339100184850395E-3   7.942743599414825E-3  -5.556872487068176E-1   8.277795910835266E-1  
 4.990000000000000E7    -2.772268354892731E-1  -9.578416943550110E-1  -1.114794518798590E-3   7.219086866825819E-3  -1.128423493355513E-3   7.216452620923519E-3  -5.423769354820252E-1   8.362026810646057E-1  
 5.020000000000000E7    -3.091217279434204E-1  -9.494068622589111E-1  -8.410843438468874E-4   6.621412001550198E-3  -8.876185747794807E-4   6.597056984901428E-3  -5.291364192962647E-1   8.452557921409607E-1  
 5.050000000000000E7    -3.419682979583740E-1  -9.376552104949951E-1  -6.265811389312148E-4   5.879811942577362E-3  -6.436203257180750E-4   5.858530756086111E-3  -5.162006616592407E-1   8.544951677322388E-1  
 5.080000000000000E7    -3.729752898216248E-1  -9.265170097351074E-1  -4.124982515349984E-4   5.116818938404322E-3  -4.202115233056247E-4   5.102666560560465E-3  -5.015990734100342E-1   8.605988621711731E-1  
 5.110000000000000E7    -4.045796096324921E-1  -9.124325513839722E-1  -2.919684629887343E-4   4.304889123886824E-3  -2.617300488054752E-4   4.284037277102470E-3  -4.896078705787659E-1   8.692312836647034E-1  
 5.140000000000000E7    -4.351018369197846E-1  -8.976356983184815E-1  -1.317810092587024E-4   3.493974683806300E-3  -1.419721229467541E-4   3.506131237372756E-3  -4.759054481983185E-1   8.784298896789551E-1  
 5.170000000000000E7    -4.648054838180542E-1  -8.829524517059326E-1  -7.902628567535430E-5   2.640830120071769E-3  -6.664347893092781E-5   2.629855414852500E-3  -4.617493450641632E-1   8.832337856292725E-1  
 5.200000000000000E7    -4.950711429119110E-1  -8.679686188697815E-1  -2.773622691165656E-5   1.793370232917368E-3  -1.012295251712203E-5   1.758473110385239E-3  -4.481599330902100E-1   8.889197707176209E-1  
 5.230000000000000E7    -5.234360098838806E-1  -8.495927453041077E-1  -7.389404345303774E-6   8.717166492715478E-4  -1.547872670926154E-6   8.958844700828195E-4  -4.355355501174927E-1   8.964755535125732E-1  
 5.260000000000000E7    -5.510929226875305E-1  -8.305687904357910E-1  -2.898610546253622E-5  -6.877323903609067E-5  -7.477735198335722E-5  -5.187151691643521E-5  -4.223566055297852E-1   9.030565619468689E-1  
 5.290000000000000E7    -5.798169374465942E-1  -8.116701841354370E-1  -1.886241370812058E-4  -9.823403088375926E-4  -1.854705769801512E-4  -9.803669527173042E-4  -4.097508192062378E-1   9.086189866065979E-1  
 5.320000000000000E7    -6.065270900726318E-1  -7.928496599197388E-1  -2.910672337748110E-4  -1.938705914653838E-3  -3.070321690756828E-4  -1.927330973558128E-3  -3.966616094112396E-1   9.149684309959412E-1  
 5.350000000000000E7    -6.316183805465698E-1  -7.717628479003906E-1  -4.909153794869781E-4  -2.854470163583756E-3  -5.036032525822520E-4  -2.875077072530985E-3  -3.851162195205689E-1   9.201084971427918E-1  
 5.380000000000000E7    -6.564875841140747E-1  -7.503542900085449E-1  -7.216112571768463E-4  -3.799112513661385E-3  -7.426941883750260E-4  -3.823232604190707E-3  -3.700246512889862E-1   9.249550104141235E-1  
 5.410000000000000E7    -6.837198734283447E-1  -7.278290987014771E-1  -1.020783209241927E-3  -4.793052095919848E-3  -9.978732559829950E-4  -4.760097712278366E-3  -3.576364815235138E-1   9.305505156517029E-1  
 5.440000000000000E7    -7.067427635192871E-1  -7.037443518638611E-1  -1.374324434436858E-3  -5.752059631049633E-3  -1.357935019768775E-3  -5.775139667093754E-3  -3.450062870979309E-1   9.349339008331299E-1  
 5.470000000000000E7    -7.290848493576050E-1  -6.808704733848572E-1  -1.742374617606401E-3  -6.762248929589987E-3  -1.731013180688024E-3  -6.739743053913117E-3  -3.311212062835693E-1   9.397599101066589E-1  
 5.500000000000000E7    -7.523177266120911E-1  -6.557533144950867E-1  -2.186566125601530E-3  -7.715376559644938E-3  -2.178602386265993E-3  -7.745839655399323E-3  -3.182740211486816E-1   9.454540014266968E-1  
 5.530000000000000E7    -7.736638188362122E-1  -6.303141713142395E-1  -2.625843975692987E-3  -8.717733435332775E-3  -2.689732704311609E-3  -8.686167187988758E-3  -3.055524230003357E-1   9.485437273979187E-1  
 5.560000000000000E7    -7.949140667915344E-1  -6.031948328018189E-1  -3.218164900317788E-3  -9.704845026135445E-3  -3.215608419850469E-3  -9.652800858020783E-3  -2.937292456626892E-1   9.529738426208496E-1  
 5.590000000000000E7    -8.147343993186951E-1  -5.772849917411804E-1  -3.785024862736464E-3  -1.065230742096901E-2  -3.799878759309650E-3  -1.063425093889237E-2  -2.794162034988403E-1   9.565526247024536E-1  
 5.620000000000000E7    -8.332139253616333E-1  -5.481659173965454E-1  -4.410515539348126E-3  -1.161045022308826E-2  -4.407275002449751E-3  -1.157801412045956E-2  -2.678790688514710E-1   9.606839418411255E-1  
 5.650000000000000E7    -8.504078984260559E-1  -5.213149785995483E-1  -5.094654392451048E-3  -1.254281494766474E-2  -5.096076987683773E-3  -1.253126002848148E-2  -2.547629773616791E-1   9.635748863220215E-1  
 5.680000000000000E7    -8.675732016563416E-1  -4.924964904785156E-1  -5.888237152248621E-3  -1.347532030194998E-2  -5.878861062228680E-3  -1.342739164829254E-2  -2.414164990186691E-1   9.665226936340332E-1  
 5.710000000000000E7    -8.837053179740906E-1  -4.619472920894623E-1  -6.698126904666424E-3  -1.437781751155853E-2  -6.715364754199982E-3  -1.437943149358034E-2  -2.284743636846542E-1   9.700419902801514E-1  
 5.740000000000000E7    -8.994572758674622E-1  -4.321520328521729E-1  -7.552917581051588E-3  -1.530385389924049E-2  -7.496453355997801E-3  -1.528504397720099E-2  -2.155065238475800E-1   9.731083512306213E-1  
 5.770000000000000E7    -9.120433330535889E-1  -4.030239880084992E-1  -8.392408490180969E-3  -1.619728282094002E-2  -8.363815024495125E-3  -1.616184785962105E-2  -2.040333449840546E-1   9.744510650634766E-1  
 5.800000000000000E7    -9.252266883850098E-1  -3.712217807769775E-1  -9.427081793546677E-3  -1.706027425825596E-2  -9.416083805263042E-3  -1.697315461933613E-2  -1.899864077568054E-1   9.794361591339111E-1  
 5.830000000000000E7    -9.370707869529724E-1  -3.398588001728058E-1  -1.040031667798758E-2  -1.786984689533711E-2  -1.037559937685728E-2  -1.788941211998463E-2  -1.783405989408493E-1   9.812329411506653E-1  
 5.860000000000000E7    -9.490895271301270E-1  -3.090682029724121E-1  -1.143348030745983E-2  -1.872354000806809E-2  -1.146761234849691E-2  -1.868434064090252E-2  -1.651144325733185E-1   9.826325774192810E-1  
 5.890000000000000E7    -9.579619169235230E-1  -2.769910097122192E-1  -1.252272352576256E-2  -1.951801590621471E-2  -1.252459362149239E-2  -1.951849088072777E-2  -1.529758721590042E-1   9.845386147499085E-1  
 5.920000000000000E7    -9.663152694702148E-1  -2.436292171478272E-1  -1.377524062991142E-2  -2.022417820990086E-2  -1.376845221966505E-2  -2.017597295343876E-2  -1.394641548395157E-1   9.873003959655762E-1  
 5.950000000000000E7    -9.739434719085693E-1  -2.114073038101196E-1  -1.494961604475975E-2  -2.092799544334412E-2  -1.489451061934233E-2  -2.094177529215813E-2  -1.270140111446381E-1   9.871609210968018E-1  
 5.980000000000000E7    -9.809264540672302E-1  -1.780062764883041E-1  -1.630438864231110E-2  -2.161117270588875E-2  -1.617231965065002E-2  -2.159965224564076E-2  -1.135272085666657E-1   9.894980192184448E-1  
 6.010000000000000E7    -9.848314523696899E-1  -1.467086523771286E-1  -1.749830320477486E-2  -2.240301854908466E-2  -1.741474866867065E-2  -2.232572063803673E-2  -1.019154489040375E-1   9.914173483848572E-1  
 6.040000000000000E7    -9.899702072143555E-1  -1.120056658983231E-1  -1.887257024645805E-2  -2.300524711608887E-2  -1.885344833135605E-2  -2.296237647533417E-2  -8.870746195316315E-2   9.932986497879028E-1  
 6.070000000000000E7    -9.941698312759399E-1  -7.986637949943543E-2  -2.026367746293545E-2  -2.359618991613388E-2  -2.021060883998871E-2  -2.360227704048157E-2  -7.683140039443970E-2   9.933205246925354E-1  
 6.100000000000000E7    -9.955434799194336E-1  -4.689842462539673E-2  -2.178929001092911E-2  -2.405705861747265E-2  -2.173812873661518E-2  -2.406088821589947E-2  -6.295743584632874E-2   9.949313402175903E-1  
 6.130000000000000E7    -9.968861341476440E-1  -1.206749677658081E-2  -2.335930243134499E-2  -2.461014688014984E-2  -2.326262928545475E-2  -2.463286370038986E-2  -4.990245401859283E-2   9.957229495048523E-1  
 6.160000000000000E7    -9.960506558418274E-1   2.046176791191101E-2  -2.473576739430428E-2  -2.506946958601475E-2  -2.480388246476650E-2  -2.504594251513481E-2  -3.842754662036896E-2   9.949219822883606E-1  
 6.190000000000000E7    -9.944390654563904E-1   5.378584563732147E-2  -2.630639076232910E-2  -2.554006502032280E-2  -2.630252577364445E-2  -2.534310892224312E-2  -2.588590979576111E-2   9.950662851333618E-1  
 6.220000000000000E7    -9.926608204841614E-1   8.707468211650848E-2  -2.790360525250435E-2  -2.583450265228748E-2  -2.800271660089493E-2  -2.588377892971039E-2  -1.419295370578766E-2   9.965858459472656E-1  
 6.250000000000000E7    -9.890403151512146E-1   1.204267889261246E-1  -2.964278310537338E-2  -2.622734010219574E-2  -2.968532033264637E-2  -2.615517750382423E-2  -1.419708132743835E-3   9.963409900665283E-1  
 6.280000000000000E7    -9.837110042572022E-1   1.539040505886078E-1  -3.145026043057442E-2  -2.646322920918465E-2  -3.133358433842659E-2  -2.652300521731377E-2   1.122765243053436E-2   9.964510202407837E-1  
 6.310000000000000E7    -9.776965975761414E-1   1.878117918968201E-1  -3.332001715898514E-2  -2.667546831071377E-2  -3.314496576786041E-2  -2.670150622725487E-2   2.368424832820892E-2   9.963351488113403E-1  
 6.340000000000000E7    -9.709041118621826E-1   2.201411128044128E-1  -3.500506654381752E-2  -2.688960917294025E-2  -3.496538847684860E-2  -2.680274285376072E-2   3.692771494388580E-2   9.958674907684326E-1  
 6.370000000000000E7    -9.628938436508179E-1   2.527782022953033E-1  -3.700207173824310E-2  -2.684497088193893E-2  -3.681501001119614E-2  -2.686944231390953E-2   4.869465529918671E-2   9.942989945411682E-1  
 6.400000000000000E7    -9.531213641166687E-1   2.844386100769043E-1  -3.883204236626625E-2  -2.680938504636288E-2  -3.871458023786545E-2  -2.682085707783699E-2   6.176625192165375E-2   9.947220087051392E-1  
 6.430000000000000E7    -9.423562288284302E-1   3.178870677947998E-1  -4.083421081304550E-2  -2.696362137794495E-2  -4.067859053611755E-2  -2.678924426436424E-2   7.419212162494659E-2   9.932106733322144E-1  
 6.460000000000000E7    -9.320132732391357E-1   3.497506082057953E-1  -4.265978187322617E-2  -2.682044357061386E-2  -4.261757805943489E-2  -2.678544260561466E-2   8.568356186151505E-2   9.912806153297424E-1  
 6.490000000000000E7    -9.207805395126343E-1   3.804885149002075E-1  -4.460644349455833E-2  -2.665855735540390E-2  -4.469247907400131E-2  -2.661891281604767E-2   9.791920334100723E-2   9.912922382354736E-1  
 6.520000000000000E7    -9.058397412300110E-1   4.108425974845886E-1  -4.678102210164070E-2  -2.653994783759117E-2  -4.664710536599159E-2  -2.638599276542664E-2   1.108229830861092E-1   9.903593063354492E-1  
 6.550000000000000E7    -8.919306397438049E-1   4.410329163074493E-1  -4.884681850671768E-2  -2.607740089297295E-2  -4.875234514474869E-2  -2.608498185873032E-2   1.228415369987488E-1   9.868916273117065E-1  
 6.580000000000000E7    -8.758229613304138E-1   4.713556170463562E-1  -5.096361413598061E-2  -2.564688026905060E-2  -5.087456852197647E-2  -2.573257684707642E-2   1.355691850185394E-1   9.866561293601990E-1  
 6.610000000000000E7    -8.583931922912598E-1   5.003151893615723E-1  -5.310056358575821E-2  -2.520063892006874E-2  -5.288216471672058E-2  -2.500496990978718E-2   1.490889191627502E-1   9.835644364356995E-1  
 6.640000000000000E7    -8.425717353820801E-1   5.297423601150513E-1  -5.524141341447830E-2  -2.475685067474842E-2  -5.527167022228241E-2  -2.478146553039551E-2   1.612229943275452E-1   9.815306067466736E-1  
 6.670000000000000E7    -8.233855962753296E-1   5.575878620147705E-1  -5.743550881743431E-2  -2.412345632910729E-2  -5.739120766520500E-2  -2.414782345294952E-2   1.724230349063873E-1   9.803641438484192E-1  
 6.700000000000000E7    -8.034137487411499E-1   5.854657888412476E-1  -5.965897440910339E-2  -2.343347482383251E-2  -5.940694361925125E-2  -2.335487306118012E-2   1.846946775913239E-1   9.768459200859070E-1  
 6.730000000000000E7    -7.828038930892944E-1   6.122726202011108E-1  -6.172004342079163E-2  -2.283555269241333E-2  -6.170672178268433E-2  -2.253680676221848E-2   1.975920498371124E-1   9.757733941078186E-1  
 6.760000000000000E7    -7.618120908737183E-1   6.386165618896484E-1  -6.426311284303665E-2  -2.175916172564030E-2  -6.394883990287781E-2  -2.181162685155869E-2   2.102009057998657E-1   9.723838567733765E-1  
 6.790000000000000E7    -7.387472391128540E-1   6.643717885017395E-1  -6.635218858718872E-2  -2.092031016945839E-2  -6.627406179904938E-2  -2.079689502716065E-2   2.214303612709045E-1   9.690103530883789E-1  
 6.820000000000000E7    -7.155556082725525E-1   6.883318424224854E-1  -6.860093772411346E-2  -1.974464766681194E-2  -6.848856806755066E-2  -1.986255124211311E-2   2.336483299732208E-1   9.663866162300110E-1  
 6.850000000000000E7    -6.917819976806641E-1   7.134642004966736E-1  -7.098486274480820E-2  -1.882652565836906E-2  -7.095222920179367E-2  -1.870032399892807E-2   2.451115548610687E-1   9.636327028274536E-1  
 6.880000000000000E7    -6.667462587356567E-1   7.361317873001099E-1  -7.334580272436142E-2  -1.750853471457958E-2  -7.300458848476410E-2  -1.736226677894592E-2   2.580969929695129E-1   9.596341252326965E-1  
 6.910000000000000E7    -6.409549117088318E-1   7.586465477943420E-1  -7.571731507778168E-2  -1.607321761548519E-2  -7.557941228151321E-2  -1.613860949873924E-2   2.707153856754303E-1   9.564042687416077E-1  
 6.940000000000000E7    -6.148907542228699E-1   7.801105976104736E-1  -7.801517844200134E-2  -1.483951602131128E-2  -7.798638194799423E-2  -1.479514874517918E-2   2.815991640090942E-1   9.530351758003235E-1  
 6.970000000000000E7    -5.863727927207947E-1   8.008679747581482E-1  -8.034940809011459E-2  -1.327964477241039E-2  -8.029572665691376E-2  -1.309895701706410E-2   2.942873835563660E-1   9.486508965492249E-1  
 7.000000000000000E7    -5.584551692008972E-1   8.207908868789673E-1  -8.268291503190994E-2  -1.173668168485165E-2  -8.255591243505478E-2  -1.155420579016209E-2   3.063254952430725E-1   9.456613063812256E-1  
