#  HZ   S   RI   R     50.00 
! Rohde & Schwarz ZVT8 8Ports - Version 4.11 - 1300.0000k08 SN: 100242
! Date: 2026-07-31 14:40:35
! Measurements: S11 S21 S12 S22 
! 
 1.000000000000000E7    -4.072516560554504E-1   9.093403816223145E-1   5.154043436050415E-2   5.206839740276337E-2   5.119836330413818E-2   5.222020298242569E-2  -9.180346727371216E-1   3.872376978397369E-1  
 1.030000000000000E7    -3.749738037586212E-1   9.220364093780518E-1   5.473063513636589E-2   5.258905887603760E-2   5.446328222751617E-2   5.271861702203751E-2  -9.120206832885742E-1   3.997038304805756E-1  
 1.060000000000000E7    -3.391147255897522E-1   9.355034828186035E-1   5.807953327894211E-2   5.336771905422211E-2   5.791463702917099E-2   5.328284576535225E-2  -9.084413647651672E-1   4.118421673774719E-1  
 1.090000000000000E7    -3.076758384704590E-1   9.453672170639038E-1   6.145104020833969E-2   5.352587997913361E-2   6.143318116664887E-2   5.362319201231003E-2  -9.020360708236694E-1   4.240651428699493E-1  
 1.120000000000000E7    -2.727812230587006E-1   9.549289345741272E-1   6.511218845844269E-2   5.450662970542908E-2   6.468194723129273E-2   5.414912849664688E-2  -8.968249559402466E-1   4.360420405864716E-1  
 1.150000000000000E7    -2.378406375646591E-1   9.654144644737244E-1   6.864278763532639E-2   5.426936596632004E-2   6.832786649465561E-2   5.427628010511398E-2  -8.889437317848206E-1   4.456942379474640E-1  
 1.180000000000000E7    -2.034941166639328E-1   9.707595109939575E-1   7.213222980499268E-2   5.450242385268211E-2   7.211028784513474E-2   5.438086763024330E-2  -8.841480016708374E-1   4.568239450454712E-1  
 1.210000000000000E7    -1.691527664661408E-1   9.783402085304260E-1   7.613863795995712E-2   5.481115356087685E-2   7.580335438251495E-2   5.457830056548119E-2  -8.767619132995606E-1   4.692378938198090E-1  
 1.240000000000000E7    -1.341580599546433E-1   9.824042320251465E-1   7.983831316232681E-2   5.465272441506386E-2   7.990983128547669E-2   5.428630113601685E-2  -8.695110678672791E-1   4.798112511634827E-1  
 1.270000000000000E7    -9.871819615364075E-2   9.861110448837280E-1   8.445796370506287E-2   5.412074923515320E-2   8.397623896598816E-2   5.407100915908814E-2  -8.629049658775330E-1   4.940418601036072E-1  
 1.300000000000000E7    -6.440691649913788E-2   9.892318248748779E-1   8.806057274341583E-2   5.401011183857918E-2   8.802448213100433E-2   5.383261665701866E-2  -8.548528552055359E-1   5.054119825363159E-1  
 1.330000000000000E7    -2.809206396341324E-2   9.911059141159058E-1   9.274585545063019E-2   5.355999246239662E-2   9.259320050477982E-2   5.308681353926659E-2  -8.471228480339050E-1   5.172935724258423E-1  
 1.360000000000000E7     8.486013859510422E-3   9.914500713348389E-1   9.695304185152054E-2   5.302554741501808E-2   9.722571820020676E-2   5.238697677850723E-2  -8.392617106437683E-1   5.280304551124573E-1  
 1.390000000000000E7     4.286437109112740E-2   9.893754124641419E-1   1.017944216728210E-1   5.183595791459084E-2   1.013956069946289E-1   5.201069638133049E-2  -8.322054147720337E-1   5.396857261657715E-1  
 1.420000000000000E7     7.964760065078735E-2   9.872555732727051E-1   1.061694324016571E-1   5.100848153233528E-2   1.060748025774956E-1   5.101097375154495E-2  -8.251256942749023E-1   5.506153702735901E-1  
 1.450000000000000E7     1.147930696606636E-1   9.820984005928040E-1   1.109896302223206E-1   4.972094297409058E-2   1.109748035669327E-1   4.952557757496834E-2  -8.140879273414612E-1   5.632679462432861E-1  
 1.480000000000000E7     1.519646793603897E-1   9.770386219024658E-1   1.160894408822060E-1   4.822075739502907E-2   1.159181818366051E-1   4.854232445359230E-2  -8.061318993568420E-1   5.744634866714478E-1  
 1.510000000000000E7     1.868097931146622E-1   9.702394604682922E-1   1.207922250032425E-1   4.679147154092789E-2   1.205712035298348E-1   4.673245176672936E-2  -7.944009900093079E-1   5.867564678192139E-1  
 1.540000000000000E7     2.211651951074600E-1   9.622775316238403E-1   1.258118301630020E-1   4.578357934951782E-2   1.257152110338211E-1   4.522070661187172E-2  -7.879608869552612E-1   5.970894694328308E-1  
 1.570000000000000E7     2.575823664665222E-1   9.540734887123108E-1   1.311582028865814E-1   4.325680807232857E-2   1.310231089591980E-1   4.326239228248596E-2  -7.771884202957153E-1   6.098500490188599E-1  
 1.600000000000000E7     2.931537032127380E-1   9.420100450515747E-1   1.362141072750092E-1   4.102921858429909E-2   1.366879343986511E-1   4.071963205933571E-2  -7.681675553321838E-1   6.201732754707336E-1  
 1.630000000000000E7     3.272455334663391E-1   9.298542737960815E-1   1.423931270837784E-1   3.831293433904648E-2   1.417869180440903E-1   3.848277404904366E-2  -7.567712068557739E-1   6.333091855049133E-1  
 1.660000000000000E7     3.617372214794159E-1   9.152589440345764E-1   1.479400098323822E-1   3.551156446337700E-2   1.476393640041351E-1   3.496082127094269E-2  -7.447471022605896E-1   6.451449394226074E-1  
 1.690000000000000E7     3.950614333152771E-1   9.005941748619080E-1   1.536262780427933E-1   3.296643868088722E-2   1.534667015075684E-1   3.242824226617813E-2  -7.342353463172913E-1   6.560032963752747E-1  
 1.720000000000000E7     4.309143424034119E-1   8.844150900840759E-1   1.590461730957031E-1   2.888996154069901E-2   1.589678972959518E-1   2.936950884759426E-2  -7.223681807518005E-1   6.667963862419128E-1  
 1.750000000000000E7     4.595157206058502E-1   8.691987395286560E-1   1.656178086996079E-1   2.667721547186375E-2   1.657586246728897E-1   2.613373473286629E-2  -7.109490633010864E-1   6.805060505867004E-1  
 1.780000000000000E7     4.947059154510498E-1   8.467883467674255E-1   1.708074361085892E-1   2.205702289938927E-2   1.711996793746948E-1   2.250210754573345E-2  -6.980399489402771E-1   6.893715262413025E-1  
 1.810000000000000E7     5.252706408500671E-1   8.279486894607544E-1   1.782848834991455E-1   1.813989505171776E-2   1.770860403776169E-1   1.747458055615425E-2  -6.843752264976502E-1   7.039507627487183E-1  
 1.840000000000000E7     5.581514835357666E-1   8.059680461883545E-1   1.845975369215012E-1   1.244639232754707E-2   1.839096397161484E-1   1.281360350549221E-2  -6.705638170242310E-1   7.151522636413574E-1  
 1.870000000000000E7     5.865080952644348E-1   7.829387784004211E-1   1.909007579088211E-1   8.231993764638901E-3   1.902225613594055E-1   7.905783131718636E-3  -6.559233069419861E-1   7.257246971130371E-1  
 1.900000000000000E7     6.160010695457459E-1   7.591457366943359E-1   1.974140703678131E-1   3.026938065886498E-3   1.969830989837647E-1   2.485973760485649E-3  -6.409018635749817E-1   7.369695901870728E-1  
 1.930000000000000E7     6.448954939842224E-1   7.326537370681763E-1   2.035676836967468E-1  -3.964245319366455E-3   2.039950340986252E-1  -2.888346090912819E-3  -6.257317662239075E-1   7.496251463890076E-1  
 1.960000000000000E7     6.732483506202698E-1   7.048324346542358E-1   2.103818506002426E-1  -1.014495547860861E-2   2.104336023330689E-1  -9.489368647336960E-3  -6.110655665397644E-1   7.600018978118897E-1  
 1.990000000000000E7     6.977235078811646E-1   6.764624714851379E-1   2.173504531383514E-1  -1.710703596472740E-2   2.175059914588928E-1  -1.705540716648102E-2  -5.916699767112732E-1   7.729063630104065E-1  
 2.020000000000000E7     7.232607603073120E-1   6.467984318733215E-1   2.247399091720581E-1  -2.417666651308537E-2   2.238919585943222E-1  -2.402150258421898E-2  -5.757273435592651E-1   7.810757756233215E-1  
 2.050000000000000E7     7.492827773094177E-1   6.152613759040833E-1   2.314755767583847E-1  -3.179401904344559E-2   2.300225645303726E-1  -3.245904296636581E-2  -5.575352907180786E-1   7.925084233283997E-1  
 2.080000000000000E7     7.713769078254700E-1   5.818473100662231E-1   2.388349771499634E-1  -4.075299575924873E-2   2.385215610265732E-1  -4.052497446537018E-2  -5.387019515037537E-1   8.043172955513001E-1  
 2.110000000000000E7     7.937936782836914E-1   5.489461421966553E-1   2.460892051458359E-1  -5.088091641664505E-2   2.459643781185150E-1  -5.072252824902535E-2  -5.181432366371155E-1   8.148596882820129E-1  
 2.140000000000000E7     8.139583468437195E-1   5.145390629768372E-1   2.533004581928253E-1  -6.139846146106720E-2   2.522393167018890E-1  -6.035257875919342E-2  -4.978849589824677E-1   8.242323994636536E-1  
 2.170000000000000E7     8.311717510223389E-1   4.797107875347138E-1   2.603580653667450E-1  -7.167026400566101E-2   2.600893378257752E-1  -7.081503421068192E-2  -4.760539829730988E-1   8.342059254646301E-1  
 2.200000000000000E7     8.498403429985046E-1   4.407254457473755E-1   2.670426666736603E-1  -8.376985043287277E-2   2.670623064041138E-1  -8.316820859909058E-2  -4.517753720283508E-1   8.429487347602844E-1  
 2.230000000000000E7     8.640432953834534E-1   4.029231667518616E-1   2.741561233997345E-1  -9.633131325244904E-2   2.735364139080048E-1  -9.563647955656052E-2  -4.282753765583038E-1   8.517903685569763E-1  
 2.260000000000000E7     8.780989050865173E-1   3.638479113578796E-1   2.806044518947601E-1  -1.100157797336578E-1   2.820915281772614E-1  -1.096126735210419E-1  -4.037014544010162E-1   8.601030707359314E-1  
 2.290000000000000E7     8.901215195655823E-1   3.235009014606476E-1   2.874669432640076E-1  -1.246540620923042E-1   2.879115045070648E-1  -1.237157285213471E-1  -3.758903741836548E-1   8.672223091125488E-1  
 2.320000000000000E7     8.982422947883606E-1   2.826314270496368E-1   2.941094040870667E-1  -1.411187946796417E-1   2.935520112514496E-1  -1.413267552852631E-1  -3.483895361423492E-1   8.763632774353027E-1  
 2.350000000000000E7     9.058132171630859E-1   2.392782866954804E-1   3.001240491867065E-1  -1.593234390020371E-1   2.994665503501892E-1  -1.581328213214874E-1  -3.194953203201294E-1   8.819268345832825E-1  
 2.380000000000000E7     9.106909632682800E-1   1.972868740558624E-1   3.055745363235474E-1  -1.766370683908463E-1   3.055686354637146E-1  -1.763957291841507E-1  -2.889138758182526E-1   8.870824575424194E-1  
 2.410000000000000E7     9.139437079429627E-1   1.530374288558960E-1   3.102808594703674E-1  -1.973503381013870E-1   3.094110190868378E-1  -1.968142390251160E-1  -2.559120655059815E-1   8.901901245117188E-1  
 2.440000000000000E7     9.131408929824829E-1   1.093677207827568E-1   3.145859241485596E-1  -2.196127772331238E-1   3.146584928035736E-1  -2.195767462253571E-1  -2.233173251152039E-1   8.927747607231140E-1  
 2.470000000000000E7     9.102217555046082E-1   6.526126712560654E-2   3.177776336669922E-1  -2.434309422969818E-1   3.175754547119141E-1  -2.409834265708923E-1  -1.866320818662643E-1   8.925771713256836E-1  
 2.500000000000000E7     9.058653116226196E-1   1.965186744928360E-2   3.195941150188446E-1  -2.675897479057312E-1   3.193548917770386E-1  -2.682541012763977E-1  -1.485398411750794E-1   8.927481770515442E-1  
 2.530000000000000E7     8.966736793518066E-1  -2.512256428599358E-2   3.216162621974945E-1  -2.944509983062744E-1   3.213810026645660E-1  -2.939336299896240E-1  -1.093763709068298E-1   8.889841437339783E-1  
 2.560000000000000E7     8.847638368606567E-1  -6.899195909500122E-2   3.208229243755341E-1  -3.223403692245483E-1   3.213913440704346E-1  -3.225652873516083E-1  -6.894779950380325E-2   8.831039071083069E-1  
 2.590000000000000E7     8.686879873275757E-1  -1.117400303483009E-1   3.170580267906189E-1  -3.545852303504944E-1   3.176694810390472E-1  -3.547974228858948E-1  -2.516778558492661E-2   8.764081001281738E-1  
 2.620000000000000E7     8.493466973304749E-1  -1.553252041339874E-1   3.117114007472992E-1  -3.886913657188416E-1   3.117471933364868E-1  -3.871649205684662E-1   2.151811867952347E-2   8.630205392837524E-1  
 2.650000000000000E7     8.265893459320068E-1  -1.965975165367127E-1   3.050439953804016E-1  -4.218924641609192E-1   3.045048713684082E-1  -4.226352274417877E-1   6.675948202610016E-2   8.466829657554627E-1  
 2.680000000000000E7     7.991191148757935E-1  -2.357970029115677E-1   2.941477894783020E-1  -4.593563079833984E-1   2.934741377830505E-1  -4.599812030792236E-1   1.143857687711716E-1   8.254688978195190E-1  
 2.710000000000000E7     7.690515518188477E-1  -2.734180688858032E-1   2.767160236835480E-1  -4.985068738460541E-1   2.763186097145081E-1  -4.979696273803711E-1   1.636304259300232E-1   8.013871908187866E-1  
 2.740000000000000E7     7.340918183326721E-1  -3.086238801479340E-1   2.590480446815491E-1  -5.394579172134399E-1   2.578404247760773E-1  -5.395846366882324E-1   2.125438749790192E-1   7.667954564094544E-1  
 2.770000000000000E7     6.976124048233032E-1  -3.377858996391296E-1   2.324966043233872E-1  -5.804582834243774E-1   2.320478856563568E-1  -5.809776782989502E-1   2.620567977428436E-1   7.286082506179810E-1  
 2.800000000000000E7     6.574725508689880E-1  -3.647449016571045E-1   2.021208703517914E-1  -6.220241189002991E-1   2.037653923034668E-1  -6.220984458923340E-1   3.111114501953125E-1   6.812855005264282E-1  
 2.830000000000000E7     6.131137609481812E-1  -3.863606154918671E-1   1.650243997573853E-1  -6.625781655311585E-1   1.630993932485580E-1  -6.627247333526611E-1   3.551663160324097E-1   6.302699446678162E-1  
 2.860000000000000E7     5.674152374267578E-1  -4.007132649421692E-1   1.191262602806091E-1  -7.031898498535156E-1   1.165059283375740E-1  -7.027161121368408E-1   3.995747566223145E-1   5.660604834556580E-1  
 2.890000000000000E7     5.222591161727905E-1  -4.077109694480896E-1   6.458225846290588E-2  -7.398355007171631E-1   6.433054059743881E-2  -7.390925288200378E-1   4.358240664005280E-1   4.963911473751068E-1  
 2.920000000000000E7     4.750832021236420E-1  -4.099168777465820E-1   6.189215928316116E-3  -7.736038565635681E-1   4.160217940807343E-3  -7.714444994926453E-1   4.646058678627014E-1   4.191358685493469E-1  
 2.950000000000000E7     4.327730834484100E-1  -4.020697772502899E-1  -6.474246084690094E-2  -7.998042106628418E-1  -6.420313566923142E-2  -7.974085807800293E-1   4.844675660133362E-1   3.320814073085785E-1  
 2.980000000000000E7     3.907365202903748E-1  -3.892533779144287E-1  -1.388272941112518E-1  -8.174231648445129E-1  -1.404603421688080E-1  -8.170319199562073E-1   4.922003448009491E-1   2.401310205459595E-1  
 3.010000000000000E7     3.563999831676483E-1  -3.703269660472870E-1  -2.210808396339417E-1  -8.248019814491272E-1  -2.203528285026550E-1  -8.242911696434021E-1   4.871880412101746E-1   1.445211023092270E-1  
 3.040000000000000E7     3.277301192283630E-1  -3.429919481277466E-1  -3.065066039562225E-1  -8.205783367156982E-1  -3.068527281284332E-1  -8.205751180648804E-1   4.647075831890106E-1   4.894654825329781E-2  
 3.070000000000000E7     3.074807822704315E-1  -3.149146437644959E-1  -3.919720947742462E-1  -8.031400442123413E-1  -3.908306956291199E-1  -8.009708523750305E-1   4.319722354412079E-1  -4.400082305073738E-2  
 3.100000000000000E7     2.980798184871674E-1  -2.839130759239197E-1  -4.764357209205627E-1  -7.715484499931335E-1  -4.748876094818115E-1  -7.700980305671692E-1   3.830518424510956E-1  -1.333885341882706E-1  
 3.130000000000000E7     2.956690490245819E-1  -2.559368908405304E-1  -5.556853413581848E-1  -7.279590368270874E-1  -5.547405481338501E-1  -7.284014225006104E-1   3.172591626644135E-1  -2.125758975744247E-1  
 3.160000000000000E7     3.049080669879913E-1  -2.279214113950729E-1  -6.276463270187378E-1  -6.717791557312012E-1  -6.280754804611206E-1  -6.729387044906616E-1   2.438189238309860E-1  -2.796981334686279E-1  
 3.190000000000000E7     3.186299204826355E-1  -2.065234184265137E-1  -6.908376216888428E-1  -6.074011325836182E-1  -6.891642808914185E-1  -6.071265935897827E-1   1.611312180757523E-1  -3.355901241302490E-1  
 3.220000000000000E7     3.388767838478088E-1  -1.914406418800354E-1  -7.443205118179321E-1  -5.366315841674805E-1  -7.423017621040344E-1  -5.358093976974487E-1   7.317753136157990E-2  -3.761353492736816E-1  
 3.250000000000000E7     3.646074831485748E-1  -1.856184005737305E-1  -7.834327816963196E-1  -4.596489667892456E-1  -7.833142280578613E-1  -4.594376981258392E-1  -1.644666120409966E-2  -4.007607400417328E-1  
 3.280000000000000E7     3.919073939323425E-1  -1.884375661611557E-1  -8.108442425727844E-1  -3.794232010841370E-1  -8.104415535926819E-1  -3.811666667461395E-1  -1.067100092768669E-1  -4.145003259181976E-1  
 3.310000000000000E7     4.149498939514160E-1  -1.970311403274536E-1  -8.303690552711487E-1  -3.024106621742249E-1  -8.290149569511414E-1  -3.025211095809937E-1  -1.920545846223831E-1  -4.127245545387268E-1  
 3.340000000000000E7     4.391771256923676E-1  -2.164739817380905E-1  -8.385892510414124E-1  -2.253777831792831E-1  -8.376554846763611E-1  -2.252102792263031E-1  -2.730041444301605E-1  -4.027021527290344E-1  
 3.370000000000000E7     4.596805870532990E-1  -2.399538010358810E-1  -8.360382914543152E-1  -1.514487564563751E-1  -8.355266451835632E-1  -1.528512686491013E-1  -3.480764329433441E-1  -3.804821968078613E-1  
 3.400000000000000E7     4.752531349658966E-1  -2.708269655704498E-1  -8.277891874313355E-1  -8.223396539688110E-2  -8.281829953193665E-1  -8.276192843914032E-2  -4.135898351669312E-1  -3.533509075641632E-1  
 3.430000000000000E7     4.851205945014954E-1  -3.056983649730682E-1  -8.143934011459351E-1  -1.756206154823303E-2  -8.123853802680969E-1  -1.766028255224228E-2  -4.734316468238831E-1  -3.227151632308960E-1  
 3.460000000000000E7     4.901411533355713E-1  -3.438946306705475E-1  -7.952098846435547E-1   4.268331825733185E-2  -7.939492464065552E-1   4.179399833083153E-2  -5.237543582916260E-1  -2.868546247482300E-1  
 3.490000000000000E7     4.868772327899933E-1  -3.852104246616364E-1  -7.724083662033081E-1   9.698751568794251E-2  -7.689478397369385E-1   9.794535487890244E-2  -5.707620382308960E-1  -2.494438290596008E-1  
 3.520000000000000E7     4.819250404834747E-1  -4.276047945022583E-1  -7.453462481498718E-1   1.482782959938049E-1  -7.438180446624756E-1   1.465240120887756E-1  -6.095852851867676E-1  -2.091750502586365E-1  
 3.550000000000000E7     4.681281447410584E-1  -4.718332588672638E-1  -7.158648967742920E-1   1.929874271154404E-1  -7.155788540840149E-1   1.931357681751251E-1  -6.415018439292908E-1  -1.684825867414475E-1  
 3.580000000000000E7     4.482821524143219E-1  -5.135449171066284E-1  -6.859840750694275E-1   2.355339676141739E-1  -6.856653690338135E-1   2.349332273006439E-1  -6.695836782455444E-1  -1.284444928169251E-1  
 3.610000000000000E7     4.211423993110657E-1  -5.563561320304871E-1  -6.566640138626099E-1   2.729177176952362E-1  -6.544564366340637E-1   2.730019092559815E-1  -6.936631798744202E-1  -8.881153911352158E-2  
 3.640000000000000E7     3.899149894714356E-1  -5.970694422721863E-1  -6.231967210769653E-1   3.072859644889832E-1  -6.240905523300171E-1   3.073040246963501E-1  -7.107756733894348E-1  -4.969052225351334E-2  
 3.670000000000000E7     3.530314862728119E-1  -6.352413892745972E-1  -5.917088389396668E-1   3.391519188880920E-1  -5.898942351341248E-1   3.390567898750305E-1  -7.264459133148193E-1  -1.346011832356453E-2  
 3.700000000000000E7     3.084058463573456E-1  -6.702401638031006E-1  -5.582006573677063E-1   3.688507378101349E-1  -5.587080717086792E-1   3.683439791202545E-1  -7.381959557533264E-1   2.322752773761749E-2  
 3.730000000000000E7     2.608526349067688E-1  -7.016098499298096E-1  -5.232151746749878E-1   3.964591026306152E-1  -5.244313478469849E-1   3.957293033599854E-1  -7.457773685455322E-1   5.755065754055977E-2  
 3.760000000000000E7     2.057619690895081E-1  -7.276995182037354E-1  -4.917979836463928E-1   4.206893444061279E-1  -4.918323159217835E-1   4.204289913177490E-1  -7.526178359985352E-1   9.033048152923584E-2  
 3.790000000000000E7     1.454764604568481E-1  -7.514603137969971E-1  -4.578743278980255E-1   4.419172704219818E-1  -4.569680690765381E-1   4.421868920326233E-1  -7.575259804725647E-1   1.206304430961609E-1  
 3.820000000000000E7     7.911451160907745E-2  -7.680454850196838E-1  -4.243893623352051E-1   4.635476768016815E-1  -4.229436814785004E-1   4.639350175857544E-1  -7.584180235862732E-1   1.500858366489410E-1  
 3.850000000000000E7     9.681306779384613E-3  -7.786924242973328E-1  -3.888609707355499E-1   4.818351268768311E-1  -3.869854509830475E-1   4.823609888553619E-1  -7.610233426094055E-1   1.782051324844360E-1  
 3.880000000000000E7    -6.358473747968674E-2  -7.800967097282410E-1  -3.527244329452515E-1   5.017115473747253E-1  -3.525443077087402E-1   4.988484382629395E-1  -7.608791589736939E-1   2.047691643238068E-1  
 3.910000000000000E7    -1.427009999752045E-1  -7.758291959762573E-1  -3.144725263118744E-1   5.170856118202210E-1  -3.147730827331543E-1   5.168535709381104E-1  -7.603144645690918E-1   2.291481792926788E-1  
 3.940000000000000E7    -2.248096466064453E-1  -7.597531080245972E-1  -2.779771685600281E-1   5.306525230407715E-1  -2.777052521705627E-1   5.302261710166931E-1  -7.564716339111328E-1   2.518613934516907E-1  
 3.970000000000000E7    -3.097794651985169E-1  -7.353644371032715E-1  -2.380778044462204E-1   5.439013838768005E-1  -2.369555085897446E-1   5.441521406173706E-1  -7.523131370544434E-1   2.723957896232605E-1  
 4.000000000000000E7    -3.948915302753449E-1  -6.953124403953552E-1  -1.965306699275971E-1   5.545199513435364E-1  -1.960297077894211E-1   5.544036626815796E-1  -7.499949336051941E-1   2.924093902111054E-1  
 4.030000000000000E7    -4.811190068721771E-1  -6.422016620635986E-1  -1.550460904836655E-1   5.643101930618286E-1  -1.536743938922882E-1   5.614731311798096E-1  -7.473540902137756E-1   3.110826611518860E-1  
 4.060000000000000E7    -5.647609233856201E-1  -5.752197504043579E-1  -1.098073422908783E-1   5.689102411270142E-1  -1.083100736141205E-1   5.688261985778809E-1  -7.421560287475586E-1   3.276376128196716E-1  
 4.090000000000000E7    -6.427956819534302E-1  -4.911518692970276E-1  -6.176038458943367E-2   5.699129104614258E-1  -6.223423779010773E-2   5.688999295234680E-1  -7.399112582206726E-1   3.438767194747925E-1  
 4.120000000000000E7    -7.147330045700073E-1  -3.888990283012390E-1  -1.336946617811918E-2   5.664965510368347E-1  -1.219338364899159E-2   5.686516165733337E-1  -7.357106804847717E-1   3.581205010414124E-1  
 4.150000000000000E7    -7.700966596603394E-1  -2.675663828849793E-1   3.788103908300400E-2   5.614076256752014E-1   3.784270957112312E-2   5.603776574134827E-1  -7.341815829277039E-1   3.714229762554169E-1  
 4.180000000000000E7    -8.091275691986084E-1  -1.310036629438400E-1   8.946999162435532E-2   5.470055341720581E-1   8.776227384805679E-2   5.463198423385620E-1  -7.334789037704468E-1   3.845853507518768E-1  
 4.210000000000000E7    -8.246685266494751E-1   2.096216380596161E-2   1.403765976428986E-1   5.266265869140625E-1   1.400815844535828E-1   5.270461440086365E-1  -7.336006164550781E-1   3.974250555038452E-1  
 4.240000000000000E7    -8.114994168281555E-1   1.825799196958542E-1   1.893600076436997E-1   4.986963570117950E-1   1.899279803037643E-1   4.983479976654053E-1  -7.356118559837341E-1   4.103343188762665E-1  
 4.270000000000000E7    -7.636511325836182E-1   3.475410342216492E-1   2.369645833969116E-1   4.629009068012238E-1   2.364003807306290E-1   4.616199135780335E-1  -7.377896308898926E-1   4.253174960613251E-1  
 4.300000000000000E7    -6.807530522346497E-1   5.068612694740295E-1   2.774681448936462E-1   4.187995493412018E-1   2.774929702281952E-1   4.180621206760407E-1  -7.408608794212341E-1   4.407643675804138E-1  
 4.330000000000000E7    -5.624936223030090E-1   6.518744826316834E-1   3.111904859542847E-1   3.670974671840668E-1   3.111917674541473E-1   3.681498765945435E-1  -7.439450621604919E-1   4.559274315834045E-1  
 4.360000000000000E7    -4.118939042091370E-1   7.709436416625977E-1   3.336625695228577E-1   3.138158619403839E-1   3.349961638450623E-1   3.136015534400940E-1  -7.481358051300049E-1   4.741423428058624E-1  
 4.390000000000000E7    -2.374850809574127E-1   8.532115817070007E-1   3.470798432826996E-1   2.568671107292175E-1   3.466128110885620E-1   2.547549903392792E-1  -7.498736977577210E-1   4.940317869186401E-1  
 4.420000000000000E7    -4.903003573417664E-2   8.974126577377319E-1   3.509176969528198E-1   1.990900039672852E-1   3.494246900081635E-1   1.988779753446579E-1  -7.507416605949402E-1   5.157230496406555E-1  
 4.450000000000000E7     1.415519863367081E-1   9.012053608894348E-1   3.434938490390778E-1   1.469342857599258E-1   3.434129953384399E-1   1.458877772092819E-1  -7.512630820274353E-1   5.377600193023682E-1  
 4.480000000000000E7     3.224761784076691E-1   8.664083480834961E-1   3.279748558998108E-1   9.910394996404648E-2   3.278233110904694E-1   9.882684051990509E-2  -7.487358450889587E-1   5.608728528022766E-1  
 4.510000000000000E7     4.864508211612701E-1   7.986619472503662E-1   3.066524863243103E-1   5.814485996961594E-2   3.064827620983124E-1   5.800793319940567E-2  -7.445815801620483E-1   5.851166844367981E-1  
 4.540000000000000E7     6.285285949707031E-1   7.066047787666321E-1   2.823136746883392E-1   2.350357919931412E-2   2.824551165103912E-1   2.371575124561787E-2  -7.375224828720093E-1   6.082150936126709E-1  
 4.570000000000000E7     7.458092570304871E-1   5.953806042671204E-1   2.551909089088440E-1  -3.475803881883621E-3   2.542653381824493E-1  -3.186248242855072E-3  -7.294561862945557E-1   6.309195160865784E-1  
 4.600000000000000E7     8.365023732185364E-1   4.747130572795868E-1   2.271376252174377E-1  -2.275735884904862E-2   2.268026173114777E-1  -2.271891757845879E-2  -7.193695306777954E-1   6.519239544868469E-1  
 4.630000000000000E7     9.030692577362061E-1   3.495324552059174E-1   2.006254941225052E-1  -3.758195042610169E-2   2.002898007631302E-1  -3.747931867837906E-2  -7.082774043083191E-1   6.712172627449036E-1  
 4.660000000000000E7     9.475072026252747E-1   2.240305840969086E-1   1.754032373428345E-1  -4.809619486331940E-2   1.749938428401947E-1  -4.763326793909073E-2  -6.956204771995544E-1   6.914349198341370E-1  
 4.690000000000000E7     9.728661775588989E-1   1.002988293766975E-1   1.517029553651810E-1  -5.385239794850349E-2   1.511053889989853E-1  -5.395730584859848E-2  -6.830486059188843E-1   7.090253829956055E-1  
 4.720000000000000E7     9.812661409378052E-1  -1.757825724780560E-2   1.303253471851349E-1  -5.725406855344772E-2   1.302564889192581E-1  -5.710120126605034E-2  -6.689539551734924E-1   7.256909608840942E-1  
 4.750000000000000E7     9.757451415061951E-1  -1.265589147806168E-1   1.112143695354462E-1  -5.789478868246079E-2   1.110361143946648E-1  -5.779392272233963E-2  -6.555191278457642E-1   7.412600517272949E-1  
 4.780000000000000E7     9.590574502944946E-1  -2.285778522491455E-1   9.433134645223618E-2  -5.710254609584808E-2   9.422230720520020E-2  -5.656192451715469E-2  -6.403374671936035E-1   7.552442550659180E-1  
 4.810000000000000E7     9.338369965553284E-1  -3.230193257331848E-1   7.959058880805969E-2  -5.440916866064072E-2   7.940825819969177E-2  -5.421911180019379E-2  -6.276374459266663E-1   7.685507535934448E-1  
 4.840000000000000E7     9.006074070930481E-1  -4.088922142982483E-1   6.673391908407211E-2  -5.129862204194069E-2   6.668255478143692E-2  -5.127703770995140E-2  -6.136626601219177E-1   7.813803553581238E-1  
 4.870000000000000E7     8.627646565437317E-1  -4.881382584571838E-1   5.569931119680405E-2  -4.770249873399735E-2   5.560563877224922E-2  -4.751884937286377E-2  -5.994696021080017E-1   7.932904362678528E-1  
 4.900000000000000E7     8.198575377464294E-1  -5.590564608573914E-1   4.597621038556099E-2  -4.364427551627159E-2   4.580418393015862E-2  -4.357617348432541E-2  -5.854141712188721E-1   8.048068284988403E-1  
 4.930000000000000E7     7.736807465553284E-1  -6.237021684646606E-1   3.772709518671036E-2  -3.937550261616707E-2   3.760242834687233E-2  -3.925371915102005E-2  -5.707253217697144E-1   8.154987692832947E-1  
 4.960000000000000E7     7.225490212440491E-1  -6.818106174468994E-1   3.047332353889942E-2  -3.506020456552506E-2   3.041440248489380E-2  -3.499598428606987E-2  -5.574610829353333E-1   8.255469202995300E-1  
 4.990000000000000E7     6.721132993698120E-1  -7.323362827301025E-1   2.439580485224724E-2  -3.075128979980946E-2   2.426487393677235E-2  -3.065937198698521E-2  -5.435181856155396E-1   8.346663713455200E-1  
 5.020000000000000E7     6.202009320259094E-1  -7.777616977691650E-1   1.926441118121147E-2  -2.644537389278412E-2   1.934620365500450E-2  -2.633716538548470E-2  -5.299791693687439E-1   8.440994024276733E-1  
 5.050000000000000E7     5.659304857254028E-1  -8.183171749114990E-1   1.498372107744217E-2  -2.246028557419777E-2   1.489343959838152E-2  -2.238163538277149E-2  -5.169786810874939E-1   8.534837961196899E-1  
 5.080000000000000E7     5.118270516395569E-1  -8.536028265953064E-1   1.141213625669479E-2  -1.851692236959934E-2   1.139920391142368E-2  -1.841894723474979E-2  -5.016167163848877E-1   8.599500060081482E-1  
 5.110000000000000E7     4.571815431118012E-1  -8.845766782760620E-1   8.391899056732655E-3  -1.487695053219795E-2   8.401949889957905E-3  -1.481894217431545E-2  -4.899696409702301E-1   8.684030175209045E-1  
 5.140000000000000E7     4.016660153865814E-1  -9.111866950988770E-1   5.968511104583740E-3  -1.141459494829178E-2   5.929218139499426E-3  -1.143528148531914E-2  -4.761388897895813E-1   8.777385354042053E-1  
 5.170000000000000E7     3.479782640933991E-1  -9.326431155204773E-1   3.908819984644651E-3  -8.153513073921204E-3   3.948456607758999E-3  -8.159901015460491E-3  -4.617890119552612E-1   8.829344511032105E-1  
 5.200000000000000E7     2.940066158771515E-1  -9.525669813156128E-1   2.303387504070997E-3  -5.141874309629202E-3   2.344004577025771E-3  -5.163728259503841E-3  -4.482203722000122E-1   8.890060186386108E-1  
 5.230000000000000E7     2.402123659849167E-1  -9.670581221580505E-1   1.092871068976820E-3  -2.399932360276580E-3   1.104354974813759E-3  -2.376880263909698E-3  -4.359971582889557E-1   8.964726924896240E-1  
 5.260000000000000E7     1.865695714950562E-1  -9.778463244438171E-1   1.331678213318810E-4   1.779136800905690E-4   1.312298263655976E-4   1.644027943257242E-4  -4.224724173545837E-1   9.032724499702454E-1  
 5.290000000000000E7     1.345424056053162E-1  -9.877576231956482E-1  -5.578251439146698E-4   2.518937923014164E-3  -5.528602050617337E-4   2.492767991498113E-3  -4.100801050662994E-1   9.083014726638794E-1  
 5.320000000000000E7     8.348297327756882E-2  -9.936926960945129E-1  -9.986925870180130E-4   4.632520489394665E-3  -1.016068388707936E-3   4.648018162697554E-3  -3.968105912208557E-1   9.151011109352112E-1  
 5.350000000000000E7     3.253654390573502E-2  -9.956008791923523E-1  -1.291855121962726E-3   6.577266845852137E-3  -1.293802051804960E-3   6.578469183295965E-3  -3.852315545082092E-1   9.199216365814209E-1  
 5.380000000000000E7    -1.662080734968185E-2  -9.954157471656799E-1  -1.414593774825335E-3   8.315087296068668E-3  -1.405468676239252E-3   8.263581432402134E-3  -3.701601028442383E-1   9.248175621032715E-1  
 5.410000000000000E7    -6.650617718696594E-2  -9.955174922943115E-1  -1.397932530380786E-3   9.895102120935917E-3  -1.381844165734947E-3   9.824098087847233E-3  -3.580924570560455E-1   9.301973581314087E-1  
 5.440000000000000E7    -1.151530444622040E-1  -9.899641275405884E-1  -1.277179108001292E-3   1.124774664640427E-2  -1.259087701328099E-3   1.122779399156570E-2  -3.455763459205627E-1   9.346806406974793E-1  
 5.470000000000000E7    -1.598590463399887E-1  -9.834270477294922E-1  -1.019133254885674E-3   1.243692170828581E-2  -1.032599364407361E-3   1.242575142532587E-2  -3.315467536449432E-1   9.395607709884644E-1  
 5.500000000000000E7    -2.065073698759079E-1  -9.755936264991760E-1  -7.486356771551073E-4   1.354163326323032E-2  -7.293792441487312E-4   1.347005274146795E-2  -3.191046714782715E-1   9.449540972709656E-1  
 5.530000000000000E7    -2.512702643871307E-1  -9.647664427757263E-1  -3.607975377235562E-4   1.440388709306717E-2  -3.589656553231180E-4   1.439759321510792E-2  -3.064630329608917E-1   9.481388330459595E-1  
 5.560000000000000E7    -2.958447337150574E-1  -9.523994922637940E-1   7.182062836363912E-5   1.520387362688780E-2   2.777372719720006E-5   1.510814018547535E-2  -2.944966852664948E-1   9.523106217384338E-1  
 5.590000000000000E7    -3.371991515159607E-1  -9.389576911926270E-1   4.762122407555580E-4   1.578541286289692E-2   5.014984053559601E-4   1.576705463230610E-2  -2.808260619640350E-1   9.563488960266113E-1  
 5.620000000000000E7    -3.794956207275391E-1  -9.218613505363464E-1   9.591960115358234E-4   1.635602675378323E-2   9.621027274988592E-4   1.623670011758804E-2  -2.689949870109558E-1   9.603094458580017E-1  
 5.650000000000000E7    -4.180087745189667E-1  -9.050005078315735E-1   1.489926362410188E-3   1.667484641075134E-2   1.473261509090662E-3   1.666487380862236E-2  -2.559784352779388E-1   9.633029699325562E-1  
 5.680000000000000E7    -4.569677710533142E-1  -8.863652944564819E-1   1.970434561371803E-3   1.696397550404072E-2   2.004063455387950E-3   1.693225093185902E-2  -2.428917884826660E-1   9.660189151763916E-1  
 5.710000000000000E7    -4.956099987030029E-1  -8.655436635017395E-1   2.532877726480365E-3   1.709394715726376E-2   2.479256596416235E-3   1.714570634067059E-2  -2.308100759983063E-1   9.696809053421021E-1  
 5.740000000000000E7    -5.320895314216614E-1  -8.438109159469605E-1   2.999087795615196E-3   1.722102239727974E-2   2.966694533824921E-3   1.718389987945557E-2  -2.173353433609009E-1   9.725856781005859E-1  
 5.770000000000000E7    -5.656178593635559E-1  -8.210784792900085E-1   3.417107742279768E-3   1.721638254821301E-2   3.388910088688135E-3   1.711656153202057E-2  -2.063866853713989E-1   9.742322564125061E-1  
 5.800000000000000E7    -6.004362106323242E-1  -7.960376143455505E-1   3.930879756808281E-3   1.712027564644814E-2   3.953795880079269E-3   1.707012020051479E-2  -1.924332380294800E-1   9.787972569465637E-1  
 5.830000000000000E7    -6.323065161705017E-1  -7.705099582672119E-1   4.304306115955114E-3   1.689775846898556E-2   4.350370727479458E-3   1.690163277089596E-2  -1.809929609298706E-1   9.802476167678833E-1  
 5.860000000000000E7    -6.639930009841919E-1  -7.453026771545410E-1   4.770783241838217E-3   1.664969325065613E-2   4.772332496941090E-3   1.667017489671707E-2  -1.677212566137314E-1   9.825939536094666E-1  
 5.890000000000000E7    -6.933588385581970E-1  -7.166758179664612E-1   5.158308427780867E-3   1.636936143040657E-2   5.095462314784527E-3   1.632757857441902E-2  -1.559270471334457E-1   9.840735793113709E-1  
 5.920000000000000E7    -7.221948504447937E-1  -6.880236864089966E-1   5.503482650965452E-3   1.598535664379597E-2   5.538014695048332E-3   1.595273986458778E-2  -1.429140418767929E-1   9.872113466262817E-1  
 5.950000000000000E7    -7.481175661087036E-1  -6.585127115249634E-1   5.811513867229223E-3   1.551240403205156E-2   5.770854186266661E-3   1.552065089344978E-2  -1.305017322301865E-1   9.870657920837402E-1  
 5.980000000000000E7    -7.749323248863220E-1  -6.280966401100159E-1   6.157749332487583E-3   1.505887415260077E-2   6.066175177693367E-3   1.498558558523655E-2  -1.171327978372574E-1   9.890416860580444E-1  
 6.010000000000000E7    -7.969584465026856E-1  -5.969883799552918E-1   6.250312086194754E-3   1.458290498703718E-2   6.230070721358061E-3   1.449267473071814E-2  -1.057900413870812E-1   9.911890029907227E-1  
 6.040000000000000E7    -8.212762475013733E-1  -5.645865201950073E-1   6.465586833655834E-3   1.396199036389589E-2   6.507599260658026E-3   1.394285913556814E-2  -9.304247796535492E-2   9.930624961853027E-1  
 6.070000000000000E7    -8.427392840385437E-1  -5.341774225234985E-1   6.630239076912403E-3   1.336935535073280E-2   6.592544727027416E-3   1.333049684762955E-2  -8.108484745025635E-2   9.934230446815491E-1  
 6.100000000000000E7    -8.620337247848511E-1  -5.009402036666870E-1   6.719863973557949E-3   1.271517202258110E-2   6.694823037832975E-3   1.267628185451031E-2  -6.734663993120194E-2   9.949227571487427E-1  
 6.130000000000000E7    -8.818057775497437E-1  -4.666340053081513E-1   6.781728938221932E-3   1.206157356500626E-2   6.752280518412590E-3   1.204572059214115E-2  -5.484770238399506E-2   9.960539340972900E-1  
 6.160000000000000E7    -8.982171416282654E-1  -4.324693977832794E-1   6.694843061268330E-3   1.133348233997822E-2   6.723006721585989E-3   1.130487211048603E-2  -4.351091384887695E-2   9.954391717910767E-1  
 6.190000000000000E7    -9.136655330657959E-1  -3.977782130241394E-1   6.637929473072290E-3   1.062404550611973E-2   6.622567307204008E-3   1.054811757057905E-2  -3.151574730873108E-2   9.953107237815857E-1  
 6.220000000000000E7    -9.283293485641480E-1  -3.633158206939697E-1   6.502347066998482E-3   9.856013581156731E-3   6.527868565171957E-3   9.881030768156052E-3  -1.958699524402618E-2   9.970573782920837E-1  
 6.250000000000000E7    -9.417243599891663E-1  -3.274933695793152E-1   6.351678166538477E-3   9.149231947958469E-3   6.354148965328932E-3   9.117415174841881E-3  -7.172316312789917E-3   9.972574710845947E-1  
 6.280000000000000E7    -9.526690244674683E-1  -2.915641665458679E-1   6.138891912996769E-3   8.377863094210625E-3   6.073463708162308E-3   8.350874297320843E-3   5.717992782592773E-3   9.972584247589111E-1  
 6.310000000000000E7    -9.636427760124207E-1  -2.543607354164124E-1   5.856617353856564E-3   7.587358821183443E-3   5.842632614076138E-3   7.574640214443207E-3   1.805120706558228E-2   9.971525073051453E-1  
 6.340000000000000E7    -9.720380306243897E-1  -2.184965908527374E-1   5.507453810423613E-3   6.824865937232971E-3   5.510477814823389E-3   6.810782011598349E-3   3.062401711940765E-2   9.972802400588989E-1  
 6.370000000000000E7    -9.796921610832214E-1  -1.821626275777817E-1   5.110705271363258E-3   6.012359634041786E-3   5.124664865434170E-3   6.020152475684881E-3   4.266820847988129E-2   9.957575201988220E-1  
 6.400000000000000E7    -9.848698973655701E-1  -1.452155858278275E-1   4.711680114269257E-3   5.241479724645615E-3   4.655037075281143E-3   5.219103302806616E-3   5.523297935724258E-2   9.964137673377991E-1  
 6.430000000000000E7    -9.904283285140991E-1  -1.078069508075714E-1   4.192065447568893E-3   4.488531034439802E-3   4.164119716733694E-3   4.464332945644856E-3   6.755349040031433E-2   9.950699210166931E-1  
 6.460000000000000E7    -9.941976070404053E-1  -7.164372503757477E-2   3.639508970081806E-3   3.739842912182212E-3   3.625841345638037E-3   3.727206727489829E-3   7.885323464870453E-2   9.933281540870667E-1  
 6.490000000000000E7    -9.965840578079224E-1  -3.562799096107483E-2   3.011416876688600E-3   2.953333780169487E-3   3.001654986292124E-3   2.965092658996582E-3   9.097567945718765E-2   9.932407140731812E-1  
 6.520000000000000E7    -9.965911507606506E-1   1.210778951644898E-3   2.351775532588363E-3   2.239455934613943E-3   2.371221082285047E-3   2.214275067672133E-3   1.031258553266525E-1   9.928541779518127E-1  
 6.550000000000000E7    -9.959499239921570E-1   3.716726601123810E-2   1.613502972759306E-3   1.528289052657783E-3   1.620954251848161E-3   1.530151697807014E-3   1.155810654163361E-1   9.895007610321045E-1  
 6.580000000000000E7    -9.938114285469055E-1   7.447622716426849E-2   8.699250174686313E-4   8.354092715308070E-4   8.684911881573498E-4   8.254660642705858E-4   1.278426498174667E-1   9.896532893180847E-1  
 6.610000000000000E7    -9.892777204513550E-1   1.112372577190399E-1   5.514246731763706E-5   1.285358302993700E-4   2.416612733213697E-5   1.472986768931150E-4   1.412546634674072E-1   9.864578247070313E-1  
 6.640000000000000E7    -9.861891269683838E-1   1.462290734052658E-1  -8.530761697329581E-4  -4.924558452330530E-4  -8.621322922408581E-4  -4.996220231987536E-4   1.532712429761887E-1   9.849095940589905E-1  
 6.670000000000000E7    -9.793814420700073E-1   1.823920905590057E-1  -1.778068603016436E-3  -1.148741226643324E-3  -1.778849866241217E-3  -1.116644940339029E-3   1.642593741416931E-1   9.836849570274353E-1  
 6.700000000000000E7    -9.719541668891907E-1   2.180003225803375E-1  -2.746793208643794E-3  -1.705943956039846E-3  -2.747887978330255E-3  -1.702728564850986E-3   1.761700958013535E-1   9.806769490242004E-1  
 6.730000000000000E7    -9.635828137397766E-1   2.530093193054199E-1  -3.794939722865820E-3  -2.270584460347891E-3  -3.798580262809992E-3  -2.266721567139030E-3   1.889619529247284E-1   9.798858761787415E-1  
 6.760000000000000E7    -9.539367556571960E-1   2.872796952724457E-1  -4.877705127000809E-3  -2.767784986644983E-3  -4.888772964477539E-3  -2.776820212602615E-3   2.017703056335449E-1   9.768850803375244E-1  
 6.790000000000000E7    -9.428253173828125E-1   3.220729529857636E-1  -6.015665829181671E-3  -3.249009605497122E-3  -6.022622808814049E-3  -3.246254287660122E-3   2.127080261707306E-1   9.737009406089783E-1  
 6.820000000000000E7    -9.301050305366516E-1   3.555243909358978E-1  -7.189435418695211E-3  -3.708461765199900E-3  -7.178867235779762E-3  -3.719068132340908E-3   2.245513498783112E-1   9.715994596481323E-1  
 6.850000000000000E7    -9.175223708152771E-1   3.891603648662567E-1  -8.451005443930626E-3  -4.107356071472168E-3  -8.404628373682499E-3  -4.133460111916065E-3   2.362322509288788E-1   9.691134691238403E-1  
 6.880000000000000E7    -9.026071429252625E-1   4.216190576553345E-1  -9.722592309117317E-3  -4.464065190404654E-3  -9.668523445725441E-3  -4.432622343301773E-3   2.489489763975143E-1   9.652290344238281E-1  
 6.910000000000000E7    -8.865737318992615E-1   4.539145827293396E-1  -1.104461960494518E-2  -4.740983247756958E-3  -1.100048981606960E-2  -4.723102319985628E-3   2.611577808856964E-1   9.624660611152649E-1  
 6.940000000000000E7    -8.704343438148499E-1   4.852509796619415E-1  -1.239843666553497E-2  -5.025460850447416E-3  -1.237565558403730E-2  -5.006282590329647E-3   2.720461189746857E-1   9.592506885528565E-1  
 6.970000000000000E7    -8.511557579040527E-1   5.165565609931946E-1  -1.377770304679871E-2  -5.196333397179842E-3  -1.381311845034361E-2  -5.119355395436287E-3   2.847150266170502E-1   9.550749659538269E-1  
 7.000000000000000E7    -8.328990340232849E-1   5.473471879959106E-1  -1.526911463588476E-2  -5.320648197084665E-3  -1.525009237229824E-2  -5.296453367918730E-3   2.961794137954712E-1   9.524756073951721E-1  
