#  HZ   S   RI   R     50.00 
! Rohde & Schwarz ZVT8 8Ports - Version 4.11 - 1300.0000k08 SN: 100242
! Date: 2026-07-31 14:42:25
! Measurements: S11 S21 S12 S22 
! 
 1.000000000000000E7    -4.094932377338409E-1   9.085458517074585E-1   5.014525726437569E-2   5.120630562305450E-2   4.979273676872253E-2   5.110285431146622E-2  -9.191668033599854E-1   3.855094313621521E-1  
 1.030000000000000E7    -3.780693411827087E-1   9.209863543510437E-1   5.311238020658493E-2   5.147185176610947E-2   5.296600237488747E-2   5.145091190934181E-2  -9.129366278648377E-1   3.976106941699982E-1  
 1.060000000000000E7    -3.429920673370361E-1   9.341353774070740E-1   5.624687671661377E-2   5.219218134880066E-2   5.626271292567253E-2   5.190805345773697E-2  -9.095301628112793E-1   4.093523621559143E-1  
 1.090000000000000E7    -3.112569451332092E-1   9.446965456008911E-1   5.944768339395523E-2   5.234900489449501E-2   5.939074978232384E-2   5.239976942539215E-2  -9.036311507225037E-1   4.212910234928131E-1  
 1.120000000000000E7    -2.765343189239502E-1   9.542498588562012E-1   6.287901848554611E-2   5.291829630732536E-2   6.246895343065262E-2   5.275238677859306E-2  -8.982074260711670E-1   4.331240057945252E-1  
 1.150000000000000E7    -2.423742413520813E-1   9.648034572601318E-1   6.615859270095825E-2   5.284807831048966E-2   6.583959609270096E-2   5.282029509544373E-2  -8.906756043434143E-1   4.421702921390533E-1  
 1.180000000000000E7    -2.081683129072189E-1   9.703374505043030E-1   6.924232095479965E-2   5.304872989654541E-2   6.930652260780335E-2   5.285260826349258E-2  -8.864961266517639E-1   4.535467624664307E-1  
 1.210000000000000E7    -1.749607920646668E-1   9.771331548690796E-1   7.291416078805924E-2   5.319286882877350E-2   7.284114509820938E-2   5.312600731849670E-2  -8.787387609481812E-1   4.657209515571594E-1  
 1.240000000000000E7    -1.401094794273377E-1   9.820674061775208E-1   7.653058320283890E-2   5.306159332394600E-2   7.655013352632523E-2   5.280129611492157E-2  -8.727776408195496E-1   4.759544730186462E-1  
 1.270000000000000E7    -1.052165329456329E-1   9.859033226966858E-1   8.065722137689591E-2   5.254604294896126E-2   8.026482164859772E-2   5.235847458243370E-2  -8.652934432029724E-1   4.900486767292023E-1  
 1.300000000000000E7    -7.110141217708588E-2   9.892948865890503E-1   8.417578786611557E-2   5.216520279645920E-2   8.402789384126663E-2   5.213915184140205E-2  -8.583837151527405E-1   5.001629590988159E-1  
 1.330000000000000E7    -3.563037887215614E-2   9.917831420898438E-1   8.816597610712051E-2   5.154682323336601E-2   8.803705126047134E-2   5.136753991246223E-2  -8.509485721588135E-1   5.124225616455078E-1  
 1.360000000000000E7     5.086138844490051E-4   9.919304847717285E-1   9.199862927198410E-2   5.108410492539406E-2   9.222902357578278E-2   5.051466077566147E-2  -8.437279462814331E-1   5.225940942764282E-1  
 1.390000000000000E7     3.423652052879334E-2   9.902327656745911E-1   9.623885899782181E-2   4.997847974300385E-2   9.574028849601746E-2   5.029987916350365E-2  -8.360464572906494E-1   5.337842106819153E-1  
 1.420000000000000E7     7.036381214857101E-2   9.885809421539307E-1   9.995938837528229E-2   4.901601001620293E-2   1.000871062278748E-1   4.924480244517326E-2  -8.299759626388550E-1   5.444941520690918E-1  
 1.450000000000000E7     1.050764992833138E-1   9.840943813323975E-1   1.044608652591705E-1   4.784826189279556E-2   1.041278913617134E-1   4.789433628320694E-2  -8.192296624183655E-1   5.568574666976929E-1  
 1.480000000000000E7     1.412745714187622E-1   9.797472953796387E-1   1.087628379464150E-1   4.652261361479759E-2   1.087052971124649E-1   4.688003659248352E-2  -8.120097517967224E-1   5.678328871726990E-1  
 1.510000000000000E7     1.752915084362030E-1   9.728339314460754E-1   1.128151789307594E-1   4.497978836297989E-2   1.127455756068230E-1   4.509349912405014E-2  -8.013320565223694E-1   5.791732668876648E-1  
 1.540000000000000E7     2.090108692646027E-1   9.659913182258606E-1   1.170894131064415E-1   4.433946684002876E-2   1.171606108546257E-1   4.354605078697205E-2  -7.958329916000366E-1   5.891523361206055E-1  
 1.570000000000000E7     2.447440326213837E-1   9.587221145629883E-1   1.219382435083389E-1   4.211288318037987E-2   1.218421161174774E-1   4.186543077230454E-2  -7.854058146476746E-1   6.015717983245850E-1  
 1.600000000000000E7     2.793208658695221E-1   9.479419589042664E-1   1.262917965650559E-1   3.988475725054741E-2   1.264642179012299E-1   3.981252387166023E-2  -7.768867015838623E-1   6.107891201972961E-1  
 1.630000000000000E7     3.125248551368713E-1   9.364114403724670E-1   1.312795430421829E-1   3.745400905609131E-2   1.308231353759766E-1   3.773588314652443E-2  -7.664738297462463E-1   6.232172250747681E-1  
 1.660000000000000E7     3.465122878551483E-1   9.228565692901611E-1   1.362668275833130E-1   3.486106544733048E-2   1.358750313520432E-1   3.459765762090683E-2  -7.556788325309753E-1   6.350018382072449E-1  
 1.690000000000000E7     3.791123032569885E-1   9.096839427947998E-1   1.408244669437408E-1   3.298847749829292E-2   1.404896676540375E-1   3.251249343156815E-2  -7.461338043212891E-1   6.448714733123779E-1  
 1.720000000000000E7     4.141467213630676E-1   8.951355218887329E-1   1.451570540666580E-1   2.923652157187462E-2   1.452356725931168E-1   2.960755303502083E-2  -7.355781793594360E-1   6.549739837646484E-1  
 1.750000000000000E7     4.418697655200958E-1   8.809762597084045E-1   1.506716310977936E-1   2.745853736996651E-2   1.508284658193588E-1   2.699810639023781E-2  -7.258131504058838E-1   6.681256294250488E-1  
 1.780000000000000E7     4.769001603126526E-1   8.601124286651611E-1   1.548700183629990E-1   2.327645570039749E-2   1.550411880016327E-1   2.381112426519394E-2  -7.137678861618042E-1   6.763106584548950E-1  
 1.810000000000000E7     5.064944624900818E-1   8.428693413734436E-1   1.609300076961517E-1   2.025685086846352E-2   1.599479317665100E-1   1.959764957427979E-2  -7.024112939834595E-1   6.906676292419434E-1  
 1.840000000000000E7     5.388448834419251E-1   8.231000900268555E-1   1.658961772918701E-1   1.530727744102478E-2   1.651153415441513E-1   1.572442613542080E-2  -6.898059248924255E-1   7.008115649223328E-1  
 1.870000000000000E7     5.662153959274292E-1   8.023193478584290E-1   1.707908064126968E-1   1.208213157951832E-2   1.702538430690765E-1   1.164226420223713E-2  -6.771907210350037E-1   7.112261056900024E-1  
 1.900000000000000E7     5.952550172805786E-1   7.803842425346375E-1   1.759069263935089E-1   7.832979783415794E-3   1.754577010869980E-1   7.448419928550720E-3  -6.641186475753784E-1   7.212029099464417E-1  
 1.930000000000000E7     6.240620613098145E-1   7.567411661148071E-1   1.807551831007004E-1   2.205021679401398E-3   1.810237169265747E-1   2.860339358448982E-3  -6.511205434799194E-1   7.339619398117065E-1  
 1.960000000000000E7     6.521670222282410E-1   7.312406301498413E-1   1.859373152256012E-1  -2.560835331678391E-3   1.859362274408341E-1  -2.272827550768852E-3  -6.392289996147156E-1   7.430518865585327E-1  
 1.990000000000000E7     6.763688921928406E-1   7.059059143066406E-1   1.911865472793579E-1  -8.063316345214844E-3   1.914629787206650E-1  -7.961058989167213E-3  -6.226712465286255E-1   7.558515071868897E-1  
 2.020000000000000E7     7.018747925758362E-1   6.791822910308838E-1   1.968220323324204E-1  -1.331708487123251E-2   1.960569173097611E-1  -1.332857646048069E-2  -6.090694665908814E-1   7.632244229316711E-1  
 2.050000000000000E7     7.279682159423828E-1   6.512072086334229E-1   2.017659842967987E-1  -1.913199760019779E-2   2.004696428775787E-1  -1.963922008872032E-2  -5.941932201385498E-1   7.738308906555176E-1  
 2.080000000000000E7     7.505717873573303E-1   6.212962269783020E-1   2.071504294872284E-1  -2.577321231365204E-2   2.069985270500183E-1  -2.560699917376041E-2  -5.793976783752441E-1   7.854064106941223E-1  
 2.110000000000000E7     7.734772562980652E-1   5.916038751602173E-1   2.125356793403626E-1  -3.323614224791527E-2   2.124715149402618E-1  -3.308599442243576E-2  -5.622183084487915E-1   7.956247329711914E-1  
 2.140000000000000E7     7.946559190750122E-1   5.610648989677429E-1   2.179439365863800E-1  -4.099510982632637E-2   2.169351428747177E-1  -4.000358656048775E-2  -5.458384752273560E-1   8.048563599586487E-1  
 2.170000000000000E7     8.127843737602234E-1   5.306528210639954E-1   2.229499518871307E-1  -4.804929345846176E-2   2.226891815662384E-1  -4.726195335388184E-2  -5.293692350387573E-1   8.145872950553894E-1  
 2.200000000000000E7     8.331452608108521E-1   4.961873888969421E-1   2.277623862028122E-1  -5.648186802864075E-2   2.276994138956070E-1  -5.614612996578217E-2  -5.098840594291687E-1   8.238310217857361E-1  
 2.230000000000000E7     8.491981029510498E-1   4.629102051258087E-1   2.328651249408722E-1  -6.501716375350952E-2   2.323030382394791E-1  -6.448464095592499E-2  -4.918749034404755E-1   8.326069116592407E-1  
 2.260000000000000E7     8.656182289123535E-1   4.285402297973633E-1   2.373844832181931E-1  -7.435636967420578E-2   2.387185245752335E-1  -7.375698536634445E-2  -4.730845093727112E-1   8.415027260780335E-1  
 2.290000000000000E7     8.802461028099060E-1   3.934757709503174E-1   2.423615753650665E-1  -8.386082947254181E-2   2.427855581045151E-1  -8.312871307134628E-2  -4.519205689430237E-1   8.497771024703980E-1  
 2.320000000000000E7     8.919546008110046E-1   3.574246466159821E-1   2.474267035722733E-1  -9.468999505043030E-2   2.468558400869370E-1  -9.486444294452667E-2  -4.315305352210999E-1   8.598229289054871E-1  
 2.350000000000000E7     9.038022160530090E-1   3.195926845073700E-1   2.519213557243347E-1  -1.063179224729538E-1   2.514464557170868E-1  -1.054775938391686E-1  -4.101619720458984E-1   8.676480650901794E-1  
 2.380000000000000E7     9.130001664161682E-1   2.833543121814728E-1   2.559399604797363E-1  -1.169120594859123E-1   2.560749650001526E-1  -1.167967170476914E-1  -3.883437812328339E-1   8.751958608627319E-1  
 2.410000000000000E7     9.222971200942993E-1   2.446044832468033E-1   2.599489688873291E-1  -1.298733651638031E-1   2.591659128665924E-1  -1.294429749250412E-1  -3.641234040260315E-1   8.813948631286621E-1  
 2.440000000000000E7     9.276888370513916E-1   2.068963944911957E-1   2.638379037380219E-1  -1.432927250862122E-1   2.639557719230652E-1  -1.432790756225586E-1  -3.415515422821045E-1   8.883447647094727E-1  
 2.470000000000000E7     9.324018359184265E-1   1.682050228118897E-1   2.671755552291870E-1  -1.574226170778275E-1   2.667316794395447E-1  -1.555998325347900E-1  -3.153469860553742E-1   8.927609920501709E-1  
 2.500000000000000E7     9.361110925674439E-1   1.285552382469177E-1   2.696218788623810E-1  -1.713023781776428E-1   2.695958018302918E-1  -1.721146702766419E-1  -2.884204089641571E-1   8.995602130889893E-1  
 2.530000000000000E7     9.372944235801697E-1   8.917962759733200E-2   2.730072140693665E-1  -1.864717900753021E-1   2.728103399276733E-1  -1.860816180706024E-1  -2.619843184947968E-1   9.028529524803162E-1  
 2.560000000000000E7     9.359856247901917E-1   5.042548105120659E-2   2.747955620288849E-1  -2.021288275718689E-1   2.755538523197174E-1  -2.021590918302536E-1  -2.344860136508942E-1   9.066082835197449E-1  
 2.590000000000000E7     9.319038391113281E-1   1.095407456159592E-2   2.757635116577148E-1  -2.204851061105728E-1   2.764028608798981E-1  -2.204659432172775E-1  -2.051502615213394E-1   9.110566377639771E-1  
 2.620000000000000E7     9.273309111595154E-1  -2.930468879640102E-2   2.766724824905396E-1  -2.394373267889023E-1   2.763332724571228E-1  -2.382439523935318E-1  -1.721484661102295E-1   9.122534394264221E-1  
 2.650000000000000E7     9.198935031890869E-1  -6.843523681163788E-2   2.770522832870483E-1  -2.569505870342255E-1   2.770342230796814E-1  -2.575938999652863E-1  -1.418814510107040E-1   9.121720790863037E-1  
 2.680000000000000E7     9.101675748825073E-1  -1.070660650730133E-1   2.766474485397339E-1  -2.773489654064179E-1   2.764053046703339E-1  -2.776445746421814E-1  -1.093630492687225E-1   9.106221199035645E-1  
 2.710000000000000E7     8.981006145477295E-1  -1.463423073291779E-1   2.730778455734253E-1  -2.991949915885925E-1   2.727039754390717E-1  -2.988512217998505E-1  -7.493966817855835E-2   9.096761345863342E-1  
 2.740000000000000E7     8.845499157905579E-1  -1.847577691078186E-1   2.716808319091797E-1  -3.208101391792297E-1   2.708209753036499E-1  -3.214090764522553E-1  -3.945874795317650E-2   9.027239084243774E-1  
 2.770000000000000E7     8.689524531364441E-1  -2.209302484989166E-1   2.661558389663696E-1  -3.443255126476288E-1   2.657107412815094E-1  -3.452491462230682E-1  -1.858455128967762E-3   8.971757292747498E-1  
 2.800000000000000E7     8.514554500579834E-1  -2.573550641536713E-1   2.602116167545319E-1  -3.679345846176148E-1   2.614414691925049E-1  -3.680577874183655E-1   3.687428683042526E-2   8.876203298568726E-1  
 2.830000000000000E7     8.298309445381165E-1  -2.931534945964813E-1   2.524367570877075E-1  -3.922179341316223E-1   2.513632476329804E-1  -3.936348259449005E-1   7.374833524227142E-2   8.776208162307739E-1  
 2.860000000000000E7     8.069816827774048E-1  -3.272722363471985E-1   2.424903959035873E-1  -4.193534255027771E-1   2.409293502569199E-1  -4.202881157398224E-1   1.171255931258202E-1   8.624881505966187E-1  
 2.890000000000000E7     7.819988727569580E-1  -3.580073416233063E-1   2.293065190315247E-1  -4.473767280578613E-1   2.290583997964859E-1  -4.468136131763458E-1   1.578894108533859E-1   8.456145524978638E-1  
 2.920000000000000E7     7.547773122787476E-1  -3.894563317298889E-1   2.165684849023819E-1  -4.742627143859863E-1   2.143444567918778E-1  -4.742991328239441E-1   1.985893249511719E-1   8.252581954002380E-1  
 2.950000000000000E7     7.261018753051758E-1  -4.162775278091431E-1   1.978496164083481E-1  -5.046036243438721E-1   1.973209381103516E-1  -5.032154917716980E-1   2.431795597076416E-1   8.003817200660706E-1  
 2.980000000000000E7     6.946040391921997E-1  -4.427210688591003E-1   1.778789609670639E-1  -5.325801372528076E-1   1.772284805774689E-1  -5.334671735763550E-1   2.862365245819092E-1   7.710993885993958E-1  
 3.010000000000000E7     6.622871160507202E-1  -4.658580422401428E-1   1.529303193092346E-1  -5.619711875915527E-1   1.536158919334412E-1  -5.618518590927124E-1   3.294579386711121E-1   7.375931739807129E-1  
 3.040000000000000E7     6.269093751907349E-1  -4.859121143817902E-1   1.256031990051270E-1  -5.920786261558533E-1   1.246603280305862E-1  -5.922248959541321E-1   3.710297942161560E-1   6.967516541481018E-1  
 3.070000000000000E7     5.910179615020752E-1  -5.020093917846680E-1   9.281849861145020E-2  -6.189906001091003E-1   9.220983833074570E-2  -6.181727051734924E-1   4.127891063690186E-1   6.538634896278381E-1  
 3.100000000000000E7     5.545516610145569E-1  -5.143155455589294E-1   5.519389361143112E-2  -6.469218730926514E-1   5.540259554982185E-2  -6.448847651481628E-1   4.527807235717773E-1   6.035788059234619E-1  
 3.130000000000000E7     5.191383361816406E-1  -5.240093469619751E-1   1.442902907729149E-2  -6.709669828414917E-1   1.544410735368729E-2  -6.713396310806274E-1   4.876161813735962E-1   5.465178489685059E-1  
 3.160000000000000E7     4.817082881927490E-1  -5.268641710281372E-1  -3.209575265645981E-2  -6.936863064765930E-1  -3.142444044351578E-2  -6.941265463829041E-1   5.204064846038818E-1   4.851316809654236E-1  
 3.190000000000000E7     4.460834264755249E-1  -5.273566246032715E-1  -8.267198503017426E-2  -7.122521400451660E-1  -8.134230971336365E-2  -7.109717726707459E-1   5.482614040374756E-1   4.160530865192413E-1  
 3.220000000000000E7     4.120300114154816E-1  -5.251680016517639E-1  -1.362345516681671E-1  -7.282561063766480E-1  -1.361423730850220E-1  -7.262267470359802E-1   5.683318376541138E-1   3.426462411880493E-1  
 3.250000000000000E7     3.815774917602539E-1  -5.163582563400269E-1  -1.958484649658203E-1  -7.367765903472900E-1  -1.963862478733063E-1  -7.359261512756348E-1   5.821966528892517E-1   2.638953626155853E-1  
 3.280000000000000E7     3.536021709442139E-1  -5.040577054023743E-1  -2.595595419406891E-1  -7.385678291320801E-1  -2.566580176353455E-1  -7.367553114891052E-1   5.866963267326355E-1   1.796497404575348E-1  
 3.310000000000000E7     3.285165131092072E-1  -4.922541677951813E-1  -3.221910297870636E-1  -7.341179251670837E-1  -3.223240077495575E-1  -7.326030135154724E-1   5.799515843391419E-1   9.335742145776749E-2  
 3.340000000000000E7     3.102555871009827E-1  -4.769774377346039E-1  -3.898468911647797E-1  -7.198495864868164E-1  -3.877853155136108E-1  -7.198584675788879E-1   5.641493797302246E-1   6.204094737768173E-3  
 3.370000000000000E7     2.951411902904511E-1  -4.592399299144745E-1  -4.549596905708313E-1  -6.980144977569580E-1  -4.539777338504791E-1  -6.982089281082153E-1   5.339956283569336E-1  -8.148138225078583E-2  
 3.400000000000000E7     2.861195802688599E-1  -4.425947070121765E-1  -5.190672278404236E-1  -6.668986082077026E-1  -5.193711519241333E-1  -6.672772765159607E-1   4.931845963001251E-1  -1.648664921522141E-1  
 3.430000000000000E7     2.820331752300263E-1  -4.280225336551666E-1  -5.799607038497925E-1  -6.276923418045044E-1  -5.794525146484375E-1  -6.268793344497681E-1   4.435269236564636E-1  -2.443475127220154E-1  
 3.460000000000000E7     2.822748422622681E-1  -4.138031005859375E-1  -6.361585259437561E-1  -5.809118747711182E-1  -6.357305049896240E-1  -5.795292258262634E-1   3.812998831272125E-1  -3.140314817428589E-1  
 3.490000000000000E7     2.874363660812378E-1  -4.063175916671753E-1  -6.840654611587524E-1  -5.254798531532288E-1  -6.851693987846375E-1  -5.242018103599548E-1   3.116900622844696E-1  -3.792255818843842E-1  
 3.520000000000000E7     2.962092757225037E-1  -3.985981345176697E-1  -7.281255722045898E-1  -4.652261734008789E-1  -7.266505956649780E-1  -4.648342430591583E-1   2.332659065723419E-1  -4.318992197513580E-1  
 3.550000000000000E7     3.075278103351593E-1  -3.963845968246460E-1  -7.616385817527771E-1  -4.001781940460205E-1  -7.612519264221191E-1  -3.998026251792908E-1   1.495922207832336E-1  -4.719050228595734E-1  
 3.580000000000000E7     3.181755840778351E-1  -4.004275798797607E-1  -7.873196005821228E-1  -3.332514166831970E-1  -7.861274480819702E-1  -3.335246443748474E-1   6.419348716735840E-2  -5.028125047683716E-1  
 3.610000000000000E7     3.302901089191437E-1  -4.116773605346680E-1  -8.030055165290833E-1  -2.651603519916534E-1  -8.022773265838623E-1  -2.644535303115845E-1  -2.309378236532211E-2  -5.214942097663879E-1  
 3.640000000000000E7     3.406691551208496E-1  -4.247063398361206E-1  -8.104765415191650E-1  -1.964362114667893E-1  -8.113693594932556E-1  -1.977615356445313E-1  -1.099739447236061E-1  -5.272416472434998E-1  
 3.670000000000000E7     3.498624563217163E-1  -4.432174563407898E-1  -8.119757771492004E-1  -1.304360479116440E-1  -8.099327087402344E-1  -1.302613317966461E-1  -1.918312311172485E-1  -5.254630446434021E-1  
 3.700000000000000E7     3.534314632415772E-1  -4.656572937965393E-1  -8.042154312133789E-1  -6.679899990558624E-2  -8.041886091232300E-1  -6.816180050373077E-2  -2.717932164669037E-1  -5.132598876953125E-1  
 3.730000000000000E7     3.550487160682678E-1  -4.894829988479614E-1  -7.920504808425903E-1  -5.850329995155335E-3  -7.914593219757080E-1  -7.202252745628357E-3  -3.454135656356812E-1  -4.926117956638336E-1  
 3.760000000000000E7     3.511214852333069E-1  -5.182690620422363E-1  -7.739449739456177E-1   4.745937883853912E-2  -7.735932469367981E-1   4.808206111192703E-2  -4.137690663337708E-1  -4.663412272930145E-1  
 3.790000000000000E7     3.455188274383545E-1  -5.491235256195068E-1  -7.499489188194275E-1   9.935671091079712E-2  -7.502747774124146E-1   9.946572035551071E-2  -4.756444096565247E-1  -4.366986453533173E-1  
 3.820000000000000E7     3.329678177833557E-1  -5.804018378257752E-1  -7.251019477844238E-1   1.449376642704010E-1  -7.250835299491882E-1   1.470099836587906E-1  -5.315657854080200E-1  -3.992392420768738E-1  
 3.850000000000000E7     3.181452751159668E-1  -6.101878285408020E-1  -6.960980892181397E-1   1.879029273986816E-1  -6.952565908432007E-1   1.893999874591827E-1  -5.829403400421143E-1  -3.625596165657044E-1  
 3.880000000000000E7     2.969601750373840E-1  -6.387544870376587E-1  -6.669741272926331E-1   2.264316976070404E-1  -6.649092435836792E-1   2.253806293010712E-1  -6.275086402893066E-1  -3.225818872451782E-1  
 3.910000000000000E7     2.745647430419922E-1  -6.689890623092651E-1  -6.344914436340332E-1   2.613863945007324E-1  -6.344940662384033E-1   2.609986364841461E-1  -6.663160324096680E-1  -2.814013659954071E-1  
 3.940000000000000E7     2.466848492622376E-1  -6.968389153480530E-1  -6.015500426292419E-1   2.890233695507050E-1  -6.016982197761536E-1   2.893520593643189E-1  -6.997538805007935E-1  -2.383835464715958E-1  
 3.970000000000000E7     2.167742252349854E-1  -7.242271900177002E-1  -5.692239999771118E-1   3.159424662590027E-1  -5.692393779754639E-1   3.172225654125214E-1  -7.274163365364075E-1  -1.942106187343597E-1  
 4.000000000000000E7     1.819520890712738E-1  -7.464243769645691E-1  -5.362518429756165E-1   3.393041491508484E-1  -5.357917547225952E-1   3.391786515712738E-1  -7.525646090507507E-1  -1.530048549175263E-1  
 4.030000000000000E7     1.439463794231415E-1  -7.679751515388489E-1  -5.054359436035156E-1   3.579137623310089E-1  -5.026696920394898E-1   3.586523234844208E-1  -7.739244699478149E-1  -1.121082305908203E-1  
 4.060000000000000E7     1.056104749441147E-1  -7.869845628738403E-1  -4.721533656120300E-1   3.746794462203980E-1  -4.714869856834412E-1   3.757049441337585E-1  -7.901391983032227E-1  -6.936011463403702E-2  
 4.090000000000000E7     6.429196149110794E-2  -8.025764226913452E-1  -4.391827881336212E-1   3.897507190704346E-1  -4.380916357040405E-1   3.893036842346191E-1  -8.049362301826477E-1  -3.069815784692764E-2  
 4.120000000000000E7     2.002780884504318E-2  -8.174512982368469E-1  -4.072426855564117E-1   4.006767272949219E-1  -4.086251854896545E-1   4.015620052814484E-1  -8.152844905853272E-1   1.022040471434593E-2  
 4.150000000000000E7    -2.622088044881821E-2  -8.252857923507690E-1  -3.783798813819885E-1   4.117359220981598E-1  -3.786517083644867E-1   4.107595086097717E-1  -8.234086036682129E-1   4.721976071596146E-2  
 4.180000000000000E7    -7.349482923746109E-2  -8.317139148712158E-1  -3.481268882751465E-1   4.200206696987152E-1  -3.475689589977264E-1   4.179570078849793E-1  -8.306444883346558E-1   8.246298879384995E-2  
 4.210000000000000E7    -1.224698424339294E-1  -8.339902162551880E-1  -3.196086883544922E-1   4.251691401004791E-1  -3.196871876716614E-1   4.253880679607391E-1  -8.348013162612915E-1   1.175584048032761E-1  
 4.240000000000000E7    -1.717407852411270E-1  -8.329957723617554E-1  -2.917187809944153E-1   4.290305376052856E-1  -2.916014790534973E-1   4.296909868717194E-1  -8.375335931777954E-1   1.506175696849823E-1  
 4.270000000000000E7    -2.230908423662186E-1  -8.274145126342773E-1  -2.644523084163666E-1   4.338891506195068E-1  -2.632345557212830E-1   4.329073131084442E-1  -8.390253186225891E-1   1.841310560703278E-1  
 4.300000000000000E7    -2.746498286724091E-1  -8.184265494346619E-1  -2.371000498533249E-1   4.355005025863648E-1  -2.372656166553497E-1   4.345866441726685E-1  -8.387767076492310E-1   2.161718010902405E-1  
 4.330000000000000E7    -3.253853917121887E-1  -8.094303011894226E-1  -2.113342583179474E-1   4.355516135692596E-1  -2.117554396390915E-1   4.356325268745422E-1  -8.364791870117188E-1   2.458110600709915E-1  
 4.360000000000000E7    -3.776033222675324E-1  -7.920142412185669E-1  -1.871606558561325E-1   4.336404502391815E-1  -1.872451305389404E-1   4.338277280330658E-1  -8.346604108810425E-1   2.748299241065979E-1  
 4.390000000000000E7    -4.299883246421814E-1  -7.706036567687988E-1  -1.624527871608734E-1   4.329070150852203E-1  -1.612340062856674E-1   4.338016211986542E-1  -8.292798995971680E-1   3.017535805702210E-1  
 4.420000000000000E7    -4.795788824558258E-1  -7.468146681785584E-1  -1.379847824573517E-1   4.306494593620300E-1  -1.374400705099106E-1   4.302096366882324E-1  -8.245732784271240E-1   3.290557861328125E-1  
 4.450000000000000E7    -5.299882292747498E-1  -7.174850106239319E-1  -1.161958500742912E-1   4.264455437660217E-1  -1.153737008571625E-1   4.263525307178497E-1  -8.202602267265320E-1   3.547244966030121E-1  
 4.480000000000000E7    -5.791986584663391E-1  -6.845287084579468E-1  -9.349219501018524E-2   4.217399656772614E-1  -9.310232102870941E-2   4.220932722091675E-1  -8.142694830894470E-1   3.787151277065277E-1  
 4.510000000000000E7    -6.270892620086670E-1  -6.478845477104187E-1  -7.188992947340012E-2   4.167250990867615E-1  -7.181797176599503E-2   4.168764948844910E-1  -8.081343173980713E-1   4.030045270919800E-1  
 4.540000000000000E7    -6.712598800659180E-1  -6.061148643493652E-1  -5.080837756395340E-2   4.110374748706818E-1  -5.183707177639008E-2   4.108054041862488E-1  -8.010468482971191E-1   4.261963963508606E-1  
 4.570000000000000E7    -7.156891226768494E-1  -5.606698989868164E-1  -2.997336536645889E-2   4.045681953430176E-1  -3.096451610326767E-2   4.045330584049225E-1  -7.933497428894043E-1   4.482623636722565E-1  
 4.600000000000000E7    -7.566384673118591E-1  -5.121963620185852E-1  -1.240608841180801E-2   3.958600759506226E-1  -1.061114668846130E-2   3.965609371662140E-1  -7.855702638626099E-1   4.689629375934601E-1  
 4.630000000000000E7    -7.948921322822571E-1  -4.557097554206848E-1   7.372308522462845E-3   3.875685930252075E-1   7.907431572675705E-3   3.868550360202789E-1  -7.775183916091919E-1   4.882503747940064E-1  
 4.660000000000000E7    -8.297419548034668E-1  -3.960083723068237E-1   2.712372690439224E-2   3.791030943393707E-1   2.696275711059570E-2   3.786472082138062E-1  -7.690982222557068E-1   5.093581080436707E-1  
 4.690000000000000E7    -8.603505492210388E-1  -3.342050909996033E-1   4.311582446098328E-2   3.685306310653687E-1   4.339798539876938E-2   3.690993189811707E-1  -7.598851919174194E-1   5.282664299011231E-1  
 4.720000000000000E7    -8.863998055458069E-1  -2.672296762466431E-1   6.060254573822022E-2   3.577851355075836E-1   6.075670570135117E-2   3.570315241813660E-1  -7.507755160331726E-1   5.470523238182068E-1  
 4.750000000000000E7    -9.083979725837708E-1  -1.961734443902969E-1   7.713572680950165E-2   3.465655744075775E-1   7.600269466638565E-2   3.465328216552734E-1  -7.410244941711426E-1   5.649057626724243E-1  
 4.780000000000000E7    -9.247686266899109E-1  -1.222828626632690E-1   9.340910613536835E-2   3.346020281314850E-1   9.248644858598709E-2   3.336739242076874E-1  -7.309854626655579E-1   5.816826820373535E-1  
 4.810000000000000E7    -9.335494637489319E-1  -4.276604950428009E-2   1.070578694343567E-1   3.208474516868591E-1   1.069687753915787E-1   3.207891881465912E-1  -7.221277952194214E-1   5.977510213851929E-1  
 4.840000000000000E7    -9.369074106216431E-1   3.869631886482239E-2   1.211775243282318E-1   3.076614141464233E-1   1.211914718151093E-1   3.064793050289154E-1  -7.122814059257507E-1   6.141502261161804E-1  
 4.870000000000000E7    -9.322630763053894E-1   1.213684529066086E-1   1.343193203210831E-1   2.932876944541931E-1   1.336560696363449E-1   2.922628819942474E-1  -7.024757266044617E-1   6.297357082366943E-1  
 4.900000000000000E7    -9.196928143501282E-1   2.064846903085709E-1   1.461750715970993E-1   2.778197824954987E-1   1.458521783351898E-1   2.769870758056641E-1  -6.922376751899719E-1   6.448258161544800E-1  
 4.930000000000000E7    -8.975655436515808E-1   2.928201556205750E-1   1.569837182760239E-1   2.611669301986694E-1   1.578687131404877E-1   2.612263560295105E-1  -6.820755004882813E-1   6.604481935501099E-1  
 4.960000000000000E7    -8.683220148086548E-1   3.775733709335327E-1   1.668045371770859E-1   2.450889796018601E-1   1.660870760679245E-1   2.441710829734802E-1  -6.713061332702637E-1   6.749244332313538E-1  
 4.990000000000000E7    -8.282358646392822E-1   4.627693295478821E-1   1.757367998361588E-1   2.278313040733337E-1   1.751949042081833E-1   2.279800921678543E-1  -6.610978841781616E-1   6.883105039596558E-1  
 5.020000000000000E7    -7.787289619445801E-1   5.470362305641174E-1   1.830646693706513E-1   2.098004668951035E-1   1.831662505865097E-1   2.097255289554596E-1  -6.505757570266724E-1   7.021565437316895E-1  
 5.050000000000000E7    -7.191566228866577E-1   6.271396279335022E-1   1.889627575874329E-1   1.918964087963104E-1   1.884028315544128E-1   1.917261034250259E-1  -6.403541564941406E-1   7.165902256965637E-1  
 5.080000000000000E7    -6.490972042083740E-1   7.029780149459839E-1   1.932746171951294E-1   1.733641922473908E-1   1.935506314039230E-1   1.727853864431381E-1  -6.281113624572754E-1   7.279186248779297E-1  
 5.110000000000000E7    -5.680345296859741E-1   7.710946202278137E-1   1.960208863019943E-1   1.539693325757980E-1   1.956071704626083E-1   1.544429212808609E-1  -6.179717779159546E-1   7.411830425262451E-1  
 5.140000000000000E7    -4.806177020072937E-1   8.322645425796509E-1   1.969407498836517E-1   1.359385251998901E-1   1.972634941339493E-1   1.356099545955658E-1  -6.067439913749695E-1   7.553862929344177E-1  
 5.170000000000000E7    -3.802647292613983E-1   8.846459388732910E-1   1.968506723642349E-1   1.164627373218536E-1   1.970646977424622E-1   1.170388758182526E-1  -5.946356058120728E-1   7.660261392593384E-1  
 5.200000000000000E7    -2.739253044128418E-1   9.252829551696777E-1   1.943656355142593E-1   9.799481928348541E-2   1.943761110305786E-1   9.777768701314926E-2  -5.817585587501526E-1   7.776178717613220E-1  
 5.230000000000000E7    -1.624805331230164E-1   9.537738561630249E-1   1.902067810297012E-1   8.089207857847214E-2   1.901680678129196E-1   8.078999072313309E-2  -5.710003376007080E-1   7.899009585380554E-1  
 5.260000000000000E7    -4.566702619194984E-2   9.680220484733582E-1   1.849557906389237E-1   6.382658332586289E-2   1.845561116933823E-1   6.357154250144959E-2  -5.587865710258484E-1   8.019591569900513E-1  
 5.290000000000000E7     7.395618408918381E-2   9.681010246276856E-1   1.770158261060715E-1   4.755689948797226E-2   1.773149669170380E-1   4.749485105276108E-2  -5.468295812606812E-1   8.122492432594299E-1  
 5.320000000000000E7     1.951590478420258E-1   9.527314305305481E-1   1.683363765478134E-1   3.275801986455917E-2   1.683306545019150E-1   3.273193910717964E-2  -5.341900587081909E-1   8.235552906990051E-1  
 5.350000000000000E7     3.128589093685150E-1   9.236350059509277E-1   1.585643142461777E-1   1.976183243095875E-2   1.585942953824997E-1   1.992654800415039E-2  -5.227283835411072E-1   8.333235979080200E-1  
 5.380000000000000E7     4.299322366714478E-1   8.792086243629456E-1   1.479504406452179E-1   7.651293650269508E-3   1.476282626390457E-1   7.193915545940399E-3  -5.081821680068970E-1   8.434398770332336E-1  
 5.410000000000000E7     5.364129543304443E-1   8.192203044891357E-1   1.356875151395798E-1  -2.504862844944000E-3   1.355197727680206E-1  -2.535032108426094E-3  -4.956582188606262E-1   8.538126349449158E-1  
 5.440000000000000E7     6.370290517807007E-1   7.461913228034973E-1   1.231868639588356E-1  -1.115373056381941E-2   1.230030134320259E-1  -1.113992836326361E-2  -4.825615286827087E-1   8.625164031982422E-1  
 5.470000000000000E7     7.263271808624268E-1   6.611936092376709E-1   1.101231276988983E-1  -1.801197975873947E-2   1.100195422768593E-1  -1.787993125617504E-2  -4.683288335800171E-1   8.720654249191284E-1  
 5.500000000000000E7     8.033238053321838E-1   5.674147009849548E-1   9.741809964179993E-2  -2.292618714272976E-2   9.736178070306778E-2  -2.285913750529289E-2  -4.550892710685730E-1   8.816330432891846E-1  
 5.530000000000000E7     8.686907291412354E-1   4.644861221313477E-1   8.457987755537033E-2  -2.601728588342667E-2   8.429898321628571E-2  -2.601334452629089E-2  -4.407571852207184E-1   8.888624310493469E-1  
 5.560000000000000E7     9.196768403053284E-1   3.571164608001709E-1   7.222296297550201E-2  -2.775499410927296E-2   7.197305560112000E-2  -2.761567384004593E-2  -4.279283881187439E-1   8.965425491333008E-1  
 5.590000000000000E7     9.561355113983154E-1   2.448037266731262E-1   6.022231280803680E-2  -2.785669639706612E-2   6.025468930602074E-2  -2.769483998417854E-2  -4.129041731357575E-1   9.043654203414917E-1  
 5.620000000000000E7     9.793201088905335E-1   1.325558423995972E-1   4.925050586462021E-2  -2.665710821747780E-2   4.916726797819138E-2  -2.678269892930985E-2  -3.998933732509613E-1   9.114571809768677E-1  
 5.650000000000000E7     9.892346858978272E-1   1.964870095252991E-2   3.884619474411011E-2  -2.431710436940193E-2   3.878892958164215E-2  -2.435047365725040E-2  -3.854180574417114E-1   9.175877571105957E-1  
 5.680000000000000E7     9.855393767356873E-1  -9.018331766128540E-2   2.970562875270844E-2  -2.110791765153408E-2   2.960476651787758E-2  -2.109133079648018E-2  -3.707559406757355E-1   9.236711859703064E-1  
 5.710000000000000E7     9.705301523208618E-1  -1.972364783287048E-1   2.129190228879452E-2  -1.707213371992111E-2   2.138467691838741E-2  -1.710639521479607E-2  -3.575637340545654E-1   9.296344518661499E-1  
 5.740000000000000E7     9.450746178627014E-1  -2.995027601718903E-1   1.403599791228771E-2  -1.252734102308750E-2   1.403665728867054E-2  -1.248272787779570E-2  -3.428575694561005E-1   9.355375766754150E-1  
 5.770000000000000E7     9.088687300682068E-1  -3.953341841697693E-1   7.780000567436218E-3  -7.404614239931107E-3   7.742146961390972E-3  -7.442850619554520E-3  -3.299283385276794E-1   9.394613504409790E-1  
 5.800000000000000E7     8.655818700790405E-1  -4.850546419620514E-1   2.476375550031662E-3  -2.096617128700018E-3   2.474877052009106E-3  -2.113099675625563E-3  -3.154786229133606E-1   9.461508989334106E-1  
 5.830000000000000E7     8.148422241210938E-1  -5.659549236297607E-1  -1.871621003374457E-3   3.410686273127794E-3  -1.874234178103507E-3   3.426620271056891E-3  -3.027052879333496E-1   9.500420689582825E-1  
 5.860000000000000E7     7.590806484222412E-1  -6.404802203178406E-1  -5.327877122908831E-3   9.018779732286930E-3  -5.349115468561649E-3   9.020539931952953E-3  -2.879155278205872E-1   9.540713429450989E-1  
 5.890000000000000E7     6.962229013442993E-1  -7.083281874656677E-1  -7.981903851032257E-3   1.456642616540194E-2  -7.955450564622879E-3   1.449455041438341E-2  -2.749412059783936E-1   9.576428532600403E-1  
 5.920000000000000E7     6.310005784034729E-1  -7.682036161422730E-1  -9.861055761575699E-3   2.001634985208511E-2  -9.841389954090118E-3   2.006382308900356E-2  -2.610886394977570E-1   9.624328613281250E-1  
 5.950000000000000E7     5.615898370742798E-1  -8.190292716026306E-1  -1.098288595676422E-2   2.523545920848846E-2  -1.099597662687302E-2   2.524895779788494E-2  -2.469664514064789E-1   9.641943573951721E-1  
 5.980000000000000E7     4.913792908191681E-1  -8.640244603157044E-1  -1.154654193669558E-2   3.034502454102039E-2  -1.155766751617193E-2   3.025665320456028E-2  -2.331155389547348E-1   9.681515693664551E-1  
 6.010000000000000E7     4.184195399284363E-1  -9.000729322433472E-1  -1.170689053833485E-2   3.507118299603462E-2  -1.155115105211735E-2   3.490568697452545E-2  -2.206674963235855E-1   9.714205861091614E-1  
 6.040000000000000E7     3.461188375949860E-1  -9.315834045410156E-1  -1.120495796203613E-2   3.958243876695633E-2  -1.118381787091494E-2   3.954540193080902E-2  -2.072449475526810E-1   9.748756885528565E-1  
 6.070000000000000E7     2.744950056076050E-1  -9.553413391113281E-1  -1.036489661782980E-2   4.370393231511116E-2  -1.032914593815804E-2   4.351497069001198E-2  -1.943397670984268E-1   9.763076305389404E-1  
 6.100000000000000E7     2.012227177619934E-1  -9.717856049537659E-1  -8.878083899617195E-3   4.748092591762543E-2  -8.989255875349045E-3   4.748494178056717E-2  -1.797975599765778E-1   9.796005487442017E-1  
 6.130000000000000E7     1.303517520427704E-1  -9.856202602386475E-1  -7.495054509490728E-3   5.108791217207909E-2  -7.519683800637722E-3   5.098599568009377E-2  -1.666538864374161E-1   9.820041656494141E-1  
 6.160000000000000E7     5.955283343791962E-2  -9.915857315063477E-1  -5.647799931466579E-3   5.405763536691666E-2  -5.689486861228943E-3   5.410066619515419E-2  -1.542046964168549E-1   9.827383756637573E-1  
 6.190000000000000E7    -9.798618033528328E-3  -9.929776787757874E-1  -3.654713043943048E-3   5.694734677672386E-2  -3.519420046359301E-3   5.691349506378174E-2  -1.412405073642731E-1   9.838306903839111E-1  
 6.220000000000000E7    -7.635031640529633E-2  -9.894493222236633E-1  -1.463340944610536E-3   5.922758579254150E-2  -1.392825506627560E-3   5.946594849228859E-2  -1.290549486875534E-1   9.868063926696777E-1  
 6.250000000000000E7    -1.425881534814835E-1  -9.827849864959717E-1   9.725827258080244E-4   6.158112734556198E-2   1.063802978023887E-3   6.165975332260132E-2  -1.162822246551514E-1   9.883978366851807E-1  
 6.280000000000000E7    -2.048996090888977E-1  -9.711197018623352E-1   3.371248953044415E-3   6.367848068475723E-2   3.505754051730037E-3   6.351971626281738E-2  -1.031278073787689E-1   9.898378849029541E-1  
 6.310000000000000E7    -2.676338553428650E-1  -9.569235444068909E-1   6.081869825720787E-3   6.539095938205719E-2   6.075950805097818E-3   6.501503288745880E-2  -8.976905047893524E-2   9.908264875411987E-1  
 6.340000000000000E7    -3.253510594367981E-1  -9.375897049903870E-1   8.808055892586708E-3   6.669089943170548E-2   8.756464347243309E-3   6.652102619409561E-2  -7.693006098270416E-2   9.926037788391113E-1  
 6.370000000000000E7    -3.817939460277557E-1  -9.163784980773926E-1   1.145577710121870E-2   6.775865703821182E-2   1.145013980567455E-2   6.763593107461929E-2  -6.432481855154038E-2   9.919095635414124E-1  
 6.400000000000000E7    -4.359674155712128E-1  -8.919523358345032E-1   1.427051424980164E-2   6.854738295078278E-2   1.429543364793062E-2   6.836938858032227E-2  -5.139965564012528E-2   9.938787817955017E-1  
 6.430000000000000E7    -4.879412651062012E-1  -8.648431897163391E-1   1.680050417780876E-2   6.928382813930512E-2   1.692020148038864E-2   6.902664154767990E-2  -3.862815350294113E-2   9.939165115356445E-1  
 6.460000000000000E7    -5.359733700752258E-1  -8.360679149627686E-1   1.942321285605431E-2   6.951416283845902E-2   1.932268217206001E-2   6.939615309238434E-2  -2.687127143144608E-2   9.934268593788147E-1  
 6.490000000000000E7    -5.812232494354248E-1  -8.047581315040588E-1   2.189980074763298E-2   6.957796961069107E-2   2.191165834665299E-2   6.956069171428680E-2  -1.452229917049408E-2   9.945279955863953E-1  
 6.520000000000000E7    -6.247903704643250E-1  -7.719750404357910E-1   2.455163374543190E-2   6.980587542057037E-2   2.469508349895477E-2   6.948823481798172E-2  -1.512929797172546E-3   9.951363205909729E-1  
 6.550000000000000E7    -6.651269197463989E-1  -7.365505695343018E-1   2.721943333745003E-2   6.950580328702927E-2   2.720029465854168E-2   6.922980397939682E-2   1.122624427080154E-2   9.933412075042725E-1  
 6.580000000000000E7    -7.042575478553772E-1  -6.996417641639710E-1   2.996072731912136E-2   6.903055310249329E-2   2.976736798882484E-2   6.876952946186066E-2   2.365174144506455E-2   9.944815039634705E-1  
 6.610000000000000E7    -7.400505542755127E-1  -6.600930690765381E-1   3.227341175079346E-2   6.856334954500198E-2   3.235113248229027E-2   6.807709485292435E-2   3.740943968296051E-2   9.926789402961731E-1  
 6.640000000000000E7    -7.729433774948120E-1  -6.233009696006775E-1   3.446748107671738E-2   6.779864430427551E-2   3.430536761879921E-2   6.753958761692047E-2   5.007659643888474E-2   9.924666881561279E-1  
 6.670000000000000E7    -8.042629361152649E-1  -5.819047689437866E-1   3.683022409677506E-2   6.695240736007690E-2   3.665590286254883E-2   6.678314507007599E-2   6.129810959100723E-2   9.924458265304565E-1  
 6.700000000000000E7    -8.322389721870422E-1  -5.402548909187317E-1   3.904994204640389E-2   6.585890054702759E-2   3.892941400408745E-2   6.557174772024155E-2   7.352827489376068E-2   9.905105829238892E-1  
 6.730000000000000E7    -8.584423065185547E-1  -4.984495639801025E-1   4.090531542897224E-2   6.484669446945190E-2   4.120040312409401E-2   6.454274058341980E-2   8.631505072116852E-2   9.906442165374756E-1  
 6.760000000000000E7    -8.813424110412598E-1  -4.561629295349121E-1   4.334152489900589E-2   6.347119063138962E-2   4.316574335098267E-2   6.332877278327942E-2   9.933570027351379E-2   9.892275333404541E-1  
 6.790000000000000E7    -9.025002717971802E-1  -4.129005074501038E-1   4.496330395340920E-2   6.215681135654450E-2   4.501743614673615E-2   6.209389865398407E-2   1.106951907277107E-1   9.871050715446472E-1  
 6.820000000000000E7    -9.212584495544434E-1  -3.686849474906921E-1   4.684792459011078E-2   6.059353426098824E-2   4.678748548030853E-2   6.057617068290710E-2   1.231417283415794E-1   9.863529801368713E-1  
 6.850000000000000E7    -9.385849833488464E-1  -3.249142765998840E-1   4.849951341748238E-2   5.944676324725151E-2   4.848165065050125E-2   5.921374633908272E-2   1.346331238746643E-1   9.849218726158142E-1  
 6.880000000000000E7    -9.525983929634094E-1  -2.805701792240143E-1   5.029658600687981E-2   5.772162601351738E-2   5.017396807670593E-2   5.752145498991013E-2   1.476691663265228E-1   9.823451042175293E-1  
 6.910000000000000E7    -9.636838436126709E-1  -2.358739227056503E-1   5.191945657134056E-2   5.607395991683006E-2   5.169313028454781E-2   5.594260990619659E-2   1.605250537395477E-1   9.809969663619995E-1  
 6.940000000000000E7    -9.743219017982483E-1  -1.922774761915207E-1   5.308030545711517E-2   5.438895151019096E-2   5.327089875936508E-2   5.425988137722015E-2   1.718555986881256E-1   9.789485335350037E-1  
 6.970000000000000E7    -9.819766283035278E-1  -1.467211246490479E-1   5.446982011198998E-2   5.261962860822678E-2   5.464930087327957E-2   5.246347561478615E-2   1.844945996999741E-1   9.765755534172058E-1  
 7.000000000000000E7    -9.878793358802795E-1  -1.027230024337769E-1   5.578825622797012E-2   5.083645507693291E-2   5.568569526076317E-2   5.064431577920914E-2   1.961695402860642E-1   9.749224781990051E-1  
