#  HZ   S   RI   R     50.00 
! Rohde & Schwarz ZVT8 8Ports - Version 4.11 - 1300.0000k08 SN: 100242
! Date: 2026-07-31 14:37:47
! Measurements: S11 S21 S12 S22 
! 
 1.000000000000000E7    -4.004424810409546E-1   9.122828841209412E-1   5.383973941206932E-2   5.405807867646217E-2   5.347727984189987E-2   5.395198613405228E-2  -9.171155691146851E-1   3.879458904266357E-1  
 1.030000000000000E7    -3.670269250869751E-1   9.245491027832031E-1   5.733283236622810E-2   5.454099923372269E-2   5.710712820291519E-2   5.462701618671417E-2  -9.114531278610230E-1   4.012605547904968E-1  
 1.060000000000000E7    -3.307117819786072E-1   9.380944967269898E-1   6.101348623633385E-2   5.572937428951263E-2   6.099301949143410E-2   5.539684370160103E-2  -9.076542258262634E-1   4.131475090980530E-1  
 1.090000000000000E7    -2.982749640941620E-1   9.485400915145874E-1   6.477589160203934E-2   5.607823655009270E-2   6.469453871250153E-2   5.597071349620819E-2  -9.011632800102234E-1   4.249719083309174E-1  
 1.120000000000000E7    -2.621925473213196E-1   9.576436281204224E-1   6.894064694643021E-2   5.699612945318222E-2   6.850718706846237E-2   5.651492625474930E-2  -8.953061699867249E-1   4.372894763946533E-1  
 1.150000000000000E7    -2.262506783008575E-1   9.675993919372559E-1   7.295320183038712E-2   5.677550286054611E-2   7.262601703405380E-2   5.690226331353188E-2  -8.880079388618469E-1   4.471990466117859E-1  
 1.180000000000000E7    -1.905255615711212E-1   9.728862047195435E-1   7.681228965520859E-2   5.713719874620438E-2   7.666026055812836E-2   5.719514936208725E-2  -8.832256793975830E-1   4.584774971008301E-1  
 1.210000000000000E7    -1.549514830112457E-1   9.797231554985046E-1   8.156408369541168E-2   5.754774808883667E-2   8.125283569097519E-2   5.754345655441284E-2  -8.752297163009644E-1   4.715729355812073E-1  
 1.240000000000000E7    -1.183628588914871E-1   9.835061430931091E-1   8.588667958974838E-2   5.757772922515869E-2   8.589794486761093E-2   5.727489292621613E-2  -8.680559396743774E-1   4.820814132690430E-1  
 1.270000000000000E7    -8.173224329948425E-2   9.868840575218201E-1   9.093685448169708E-2   5.722969397902489E-2   9.057932347059250E-2   5.700671672821045E-2  -8.601546883583069E-1   4.963742196559906E-1  
 1.300000000000000E7    -4.551802575588226E-2   9.892957210540772E-1   9.560445696115494E-2   5.686731263995171E-2   9.551630169153214E-2   5.678599700331688E-2  -8.525080084800720E-1   5.072411894798279E-1  
 1.330000000000000E7    -7.934723049402237E-3   9.909465909004211E-1   1.009704321622849E-1   5.649140104651451E-2   1.007519289851189E-1   5.617779865860939E-2  -8.445932269096375E-1   5.200600028038025E-1  
 1.360000000000000E7     3.059540875256062E-2   9.895267486572266E-1   1.060919240117073E-1   5.620906129479408E-2   1.062538847327232E-1   5.539701879024506E-2  -8.367991447448731E-1   5.298728346824646E-1  
 1.390000000000000E7     6.715985387563705E-2   9.867280721664429E-1   1.117100268602371E-1   5.483204871416092E-2   1.113962903618813E-1   5.506360903382301E-2  -8.282488584518433E-1   5.420752167701721E-1  
 1.420000000000000E7     1.062208339571953E-1   9.836457967758179E-1   1.172619014978409E-1   5.409161001443863E-2   1.173340007662773E-1   5.412400141358376E-2  -8.211883306503296E-1   5.537940263748169E-1  
 1.450000000000000E7     1.433032751083374E-1   9.767941236495972E-1   1.233458518981934E-1   5.267557501792908E-2   1.231068074703217E-1   5.253056064248085E-2  -8.095715045928955E-1   5.672086477279663E-1  
 1.480000000000000E7     1.826470792293549E-1   9.699952006340027E-1   1.294523775577545E-1   5.089489370584488E-2   1.294245123863220E-1   5.132287740707398E-2  -8.015798926353455E-1   5.782470703125000E-1  
 1.510000000000000E7     2.203122377395630E-1   9.607232213020325E-1   1.357087343931198E-1   4.913988336920738E-2   1.353633701801300E-1   4.916448891162872E-2  -7.891749143600464E-1   5.906291007995606E-1  
 1.540000000000000E7     2.570342123508453E-1   9.509168863296509E-1   1.422102600336075E-1   4.819034039974213E-2   1.420985013246536E-1   4.749322310090065E-2  -7.824942469596863E-1   6.014937758445740E-1  
 1.570000000000000E7     2.956781387329102E-1   9.404240250587463E-1   1.491362452507019E-1   4.517708346247673E-2   1.491205990314484E-1   4.505403339862824E-2  -7.705605626106262E-1   6.145738959312439E-1  
 1.600000000000000E7     3.337559700012207E-1   9.252980947494507E-1   1.558764278888702E-1   4.239881783723831E-2   1.563066095113754E-1   4.207775741815567E-2  -7.597758173942566E-1   6.246830821037293E-1  
 1.630000000000000E7     3.708448708057404E-1   9.097440242767334E-1   1.641187071800232E-1   3.911310061812401E-2   1.633951514959335E-1   3.939749673008919E-2  -7.480821013450623E-1   6.380915641784668E-1  
 1.660000000000000E7     4.079556763172150E-1   8.911301493644714E-1   1.717320084571838E-1   3.535324335098267E-2   1.712270528078079E-1   3.500439226627350E-2  -7.349445223808289E-1   6.500064730644226E-1  
 1.690000000000000E7     4.447758495807648E-1   8.722310066223145E-1   1.797977238893509E-1   3.211767226457596E-2   1.794596463441849E-1   3.164638206362724E-2  -7.232365608215332E-1   6.612580418586731E-1  
 1.720000000000000E7     4.827533364295960E-1   8.516698479652405E-1   1.872219890356064E-1   2.705092355608940E-2   1.874535530805588E-1   2.730154991149902E-2  -7.100399136543274E-1   6.723883152008057E-1  
 1.750000000000000E7     5.145113468170166E-1   8.307535648345947E-1   1.967654079198837E-1   2.324716001749039E-2   1.967949122190476E-1   2.282291091978550E-2  -6.974952816963196E-1   6.857650279998779E-1  
 1.780000000000000E7     5.523224472999573E-1   8.020506501197815E-1   2.045528739690781E-1   1.700244843959808E-2   2.049235105514526E-1   1.756220310926437E-2  -6.828143596649170E-1   6.946040987968445E-1  
 1.810000000000000E7     5.857661962509155E-1   7.769466638565064E-1   2.152031213045120E-1   1.131585799157620E-2   2.138995677232742E-1   1.062610559165478E-2  -6.677949428558350E-1   7.093632221221924E-1  
 1.840000000000000E7     6.208833456039429E-1   7.474452853202820E-1   2.248045057058334E-1   3.155082464218140E-3   2.237755656242371E-1   3.485880792140961E-3  -6.513866186141968E-1   7.208889126777649E-1  
 1.870000000000000E7     6.521415710449219E-1   7.166658639907837E-1   2.346146106719971E-1  -3.627553582191467E-3   2.336796224117279E-1  -4.205569624900818E-3  -6.347992420196533E-1   7.317707538604736E-1  
 1.900000000000000E7     6.834703683853149E-1   6.830477714538574E-1   2.447641938924789E-1  -1.187273859977722E-2   2.444667369127274E-1  -1.241020672023296E-2  -6.179131865501404E-1   7.427940964698792E-1  
 1.930000000000000E7     7.141568660736084E-1   6.465179920196533E-1   2.548763155937195E-1  -2.282377704977989E-2   2.552645206451416E-1  -2.171949855983257E-2  -5.992680191993713E-1   7.548850774765015E-1  
 1.960000000000000E7     7.434682250022888E-1   6.068994998931885E-1   2.656201124191284E-1  -3.318789228796959E-2   2.657882869243622E-1  -3.243346884846687E-2  -5.817444920539856E-1   7.646023035049439E-1  
 1.990000000000000E7     7.686155438423157E-1   5.666382908821106E-1   2.768115401268005E-1  -4.500915855169296E-2   2.772397100925446E-1  -4.505841061472893E-2  -5.589196085929871E-1   7.767534852027893E-1  
 2.020000000000000E7     7.943772077560425E-1   5.227330327033997E-1   2.889782190322876E-1  -5.807225778698921E-2   2.881083190441132E-1  -5.768028646707535E-2  -5.392264127731323E-1   7.844734191894531E-1  
 2.050000000000000E7     8.192559480667114E-1   4.757783114910126E-1   3.004879355430603E-1  -7.247832417488098E-2   2.986686229705811E-1  -7.257722318172455E-2  -5.167042016983032E-1   7.942873835563660E-1  
 2.080000000000000E7     8.388147950172424E-1   4.258401393890381E-1   3.125765323638916E-1  -8.948757499456406E-2   3.127556145191193E-1  -8.934310078620911E-2  -4.926915764808655E-1   8.046750426292419E-1  
 2.110000000000000E7     8.573704361915588E-1   3.738827705383301E-1   3.248903155326843E-1  -1.092237681150436E-1   3.247246146202087E-1  -1.091700792312622E-1  -4.667123258113861E-1   8.124042153358460E-1  
 2.140000000000000E7     8.719089031219482E-1   3.191292285919190E-1   3.366636931896210E-1  -1.308050751686096E-1   3.355409204959869E-1  -1.289203017950058E-1  -4.401235580444336E-1   8.188338875770569E-1  
 2.170000000000000E7     8.822071552276611E-1   2.625019252300263E-1   3.486729264259338E-1  -1.533861309289932E-1   3.485892713069916E-1  -1.522116363048554E-1  -4.117692708969116E-1   8.246653079986572E-1  
 2.200000000000000E7     8.893672823905945E-1   1.995881199836731E-1   3.592520058155060E-1  -1.801183223724365E-1   3.594056665897369E-1  -1.795057654380798E-1  -3.807525932788849E-1   8.283261060714722E-1  
 2.230000000000000E7     8.899155259132385E-1   1.363569796085358E-1   3.698166012763977E-1  -2.094907462596893E-1   3.694888353347778E-1  -2.085279226303101E-1  -3.489827215671539E-1   8.309965133666992E-1  
 2.260000000000000E7     8.854163885116577E-1   6.899601221084595E-2   3.782733380794525E-1  -2.425363659858704E-1   3.803673982620239E-1  -2.430522441864014E-1  -3.157621622085571E-1   8.303937911987305E-1  
 2.290000000000000E7     8.740036487579346E-1  -3.034397959709168E-4   3.860724568367004E-1  -2.796460390090942E-1   3.873873054981232E-1  -2.795716226100922E-1  -2.782243192195892E-1   8.277554512023926E-1  
 2.320000000000000E7     8.536074161529541E-1  -7.022623717784882E-2   3.912817537784576E-1  -3.223013281822205E-1   3.902298212051392E-1  -3.221656978130341E-1  -2.418955415487289E-1   8.240043520927429E-1  
 2.350000000000000E7     8.237746953964233E-1  -1.429741084575653E-1   3.918553590774536E-1  -3.698167502880096E-1   3.919676840305328E-1  -3.680288195610046E-1  -2.032962143421173E-1   8.138695955276489E-1  
 2.380000000000000E7     7.846378087997437E-1  -2.149612605571747E-1   3.888604342937470E-1  -4.194125235080719E-1   3.892209529876709E-1  -4.195100665092468E-1  -1.631360501050949E-1   7.993847727775574E-1  
 2.410000000000000E7     7.329657077789307E-1  -2.856965661048889E-1   3.782072365283966E-1  -4.759694039821625E-1   3.779481053352356E-1  -4.746897518634796E-1  -1.227390021085739E-1   7.788788676261902E-1  
 2.440000000000000E7     6.672636270523071E-1  -3.497798442840576E-1   3.601284325122833E-1  -5.371174216270447E-1   3.598551154136658E-1  -5.373628139495850E-1  -8.447510749101639E-2   7.524362206459045E-1  
 2.470000000000000E7     5.894066691398621E-1  -4.080450236797333E-1   3.317014873027802E-1  -6.018843054771423E-1   3.333811759948731E-1  -5.995619297027588E-1  -4.455202072858810E-2   7.177046537399292E-1  
 2.500000000000000E7     4.964610040187836E-1  -4.574409425258637E-1   2.918177843093872E-1  -6.666638255119324E-1   2.910486161708832E-1  -6.669653058052063E-1  -1.064411643892527E-2   6.779199838638306E-1  
 2.530000000000000E7     3.892558217048645E-1  -4.891144633293152E-1   2.388551831245422E-1  -7.334736585617065E-1   2.387762814760208E-1  -7.316988706588745E-1   1.773986965417862E-2   6.281293630599976E-1  
 2.560000000000000E7     2.734726369380951E-1  -5.014374852180481E-1   1.692021340131760E-1  -7.937384843826294E-1   1.686290353536606E-1  -7.943143248558044E-1   3.721684217453003E-2   5.720774531364441E-1  
 2.590000000000000E7     1.547560989856720E-1  -4.851921498775482E-1   8.162742108106613E-2  -8.462126255035400E-1   8.243422955274582E-2  -8.467677831649780E-1   4.806652292609215E-2   5.140646696090698E-1  
 2.620000000000000E7     3.496612608432770E-2  -4.426496922969818E-1  -1.983825303614140E-2  -8.857030272483826E-1  -1.831036806106567E-2  -8.840270042419434E-1   4.552810266613960E-2   4.501899778842926E-1  
 2.650000000000000E7    -7.647983729839325E-2  -3.735503554344177E-1  -1.301042884588242E-1  -9.047937393188477E-1  -1.314608901739121E-1  -9.052075147628784E-1   2.552428469061852E-2   3.885587155818939E-1  
 2.680000000000000E7    -1.670367270708084E-1  -2.766590714454651E-1  -2.483087182044983E-1  -9.028038382530212E-1  -2.488851845264435E-1  -9.019834995269775E-1  -8.352010510861874E-3   3.345308899879456E-1  
 2.710000000000000E7    -2.299748063087463E-1  -1.646996885538101E-1  -3.650546967983246E-1  -8.756148815155029E-1  -3.650856316089630E-1  -8.755369186401367E-1  -4.891831427812576E-2   2.915405631065369E-1  
 2.740000000000000E7    -2.658671438694000E-1  -3.669603914022446E-2  -4.739024639129639E-1  -8.272367715835571E-1  -4.744487106800079E-1  -8.252611756324768E-1  -1.048035398125649E-1   2.618538439273834E-1  
 2.770000000000000E7    -2.677839398384094E-1   8.622030913829804E-2  -5.700362920761108E-1  -7.586109638214111E-1  -5.699911713600159E-1  -7.593091726303101E-1  -1.594826877117157E-1   2.480421364307404E-1  
 2.800000000000000E7    -2.447309643030167E-1   2.048474103212357E-1  -6.502550840377808E-1  -6.766378879547119E-1  -6.488453745841980E-1  -6.775162816047669E-1  -2.168601751327515E-1   2.463369518518448E-1  
 2.830000000000000E7    -1.974930763244629E-1   3.075343072414398E-1  -7.097700834274292E-1  -5.885444879531860E-1  -7.094662785530090E-1  -5.884525179862976E-1  -2.631730139255524E-1   2.605402171611786E-1  
 2.860000000000000E7    -1.315886825323105E-1   3.927723467350006E-1  -7.529098391532898E-1  -4.962719976902008E-1  -7.538048624992371E-1  -4.949490129947662E-1  -3.058608174324036E-1   2.855305969715118E-1  
 2.890000000000000E7    -5.681884661316872E-2   4.566416740417481E-1  -7.814592123031616E-1  -4.054974615573883E-1  -7.798262834548950E-1  -4.045245349407196E-1  -3.383578956127167E-1   3.179403841495514E-1  
 2.920000000000000E7     2.489707246422768E-2   5.059018135070801E-1  -7.943307757377625E-1  -3.184496760368347E-1  -7.938399910926819E-1  -3.164803981781006E-1  -3.619251847267151E-1   3.549458980560303E-1  
 2.950000000000000E7     1.052862927317619E-1   5.327063798904419E-1  -7.977923154830933E-1  -2.361261248588562E-1  -7.970852851867676E-1  -2.352848500013351E-1  -3.751139640808106E-1   3.976767361164093E-1  
 2.980000000000000E7     1.843958795070648E-1   5.491197109222412E-1  -7.919703125953674E-1  -1.599489301443100E-1  -7.920918464660645E-1  -1.601021587848663E-1  -3.784847855567932E-1   4.407590031623840E-1  
 3.010000000000000E7     2.589226365089417E-1   5.506920218467712E-1  -7.818787097930908E-1  -8.883834630250931E-2  -7.798294425010681E-1  -8.965770900249481E-2  -3.740998208522797E-1   4.831711351871491E-1  
 3.040000000000000E7     3.297321498394013E-1   5.414958000183106E-1  -7.658708691596985E-1  -2.667264454066753E-2  -7.656283974647522E-1  -2.605828270316124E-2  -3.581281602382660E-1   5.244861245155335E-1  
 3.070000000000000E7     3.935279250144959E-1   5.251702070236206E-1  -7.478269934654236E-1   3.591755777597427E-2  -7.465372681617737E-1   3.472616150975227E-2  -3.375994563102722E-1   5.621351003646851E-1  
 3.100000000000000E7     4.498406648635864E-1   5.013276934623718E-1  -7.276048064231873E-1   9.075893461704254E-2  -7.261191606521606E-1   9.116785228252411E-2  -3.097386658191681E-1   5.986592769622803E-1  
 3.130000000000000E7     4.994803071022034E-1   4.734320044517517E-1  -7.036328911781311E-1   1.435176581144333E-1  -7.031111121177673E-1   1.418206691741943E-1  -2.726880311965942E-1   6.319177746772766E-1  
 3.160000000000000E7     5.440862774848938E-1   4.406096041202545E-1  -6.810636520385742E-1   1.924544125795364E-1  -6.812148094177246E-1   1.915199458599091E-1  -2.297244369983673E-1   6.613319516181946E-1  
 3.190000000000000E7     5.815436840057373E-1   4.067300260066986E-1  -6.551926136016846E-1   2.402577996253967E-1  -6.540461182594299E-1   2.396715134382248E-1  -1.793808639049530E-1   6.860480904579163E-1  
 3.220000000000000E7     6.151786446571350E-1   3.709656894207001E-1  -6.290709972381592E-1   2.854852974414825E-1  -6.278783679008484E-1   2.859373092651367E-1  -1.219088062644005E-1   7.048258185386658E-1  
 3.250000000000000E7     6.405304074287415E-1   3.341368734836578E-1  -6.012029051780701E-1   3.319415152072907E-1  -6.005574464797974E-1   3.323549032211304E-1  -5.496276170015335E-2   7.181580662727356E-1  
 3.280000000000000E7     6.597241163253784E-1   2.957230806350708E-1  -5.699133872985840E-1   3.787289559841156E-1  -5.672722458839417E-1   3.780721724033356E-1   1.940470933914185E-2   7.223586440086365E-1  
 3.310000000000000E7     6.770132780075073E-1   2.614887058734894E-1  -5.341175198554993E-1   4.246791899204254E-1  -5.332161784172058E-1   4.246546626091003E-1   1.046183854341507E-1   7.143141627311707E-1  
 3.340000000000000E7     6.875196099281311E-1   2.281969487667084E-1  -4.936954379081726E-1   4.740666151046753E-1  -4.932262897491455E-1   4.720060229301453E-1   1.963223516941071E-1   6.916913986206055E-1  
 3.370000000000000E7     6.935695409774780E-1   1.962464004755020E-1  -4.470854401588440E-1   5.201671719551086E-1  -4.467583894729614E-1   5.195569992065430E-1   2.976574301719666E-1   6.519544124603272E-1  
 3.400000000000000E7     6.970973014831543E-1   1.691513359546661E-1  -3.916738331317902E-1   5.682571530342102E-1  -3.923911452293396E-1   5.675890445709229E-1   4.027548134326935E-1   5.850744843482971E-1  
 3.430000000000000E7     6.990163326263428E-1   1.473098844289780E-1  -3.246999382972717E-1   6.125822663307190E-1  -3.245006501674652E-1   6.125558614730835E-1   5.076816082000732E-1   4.899714589118958E-1  
 3.460000000000000E7     6.997477412223816E-1   1.294981539249420E-1  -2.446068525314331E-1   6.520737409591675E-1  -2.447981536388397E-1   6.515010595321655E-1   6.039230823516846E-1   3.557196557521820E-1  
 3.490000000000000E7     7.045926451683044E-1   1.195714622735977E-1  -1.489461064338684E-1   6.761293411254883E-1  -1.490509659051895E-1   6.781383156776428E-1   6.757591366767883E-1   1.846796274185181E-1  
 3.520000000000000E7     7.125378847122192E-1   1.134038791060448E-1  -4.302445426583290E-2   6.846638917922974E-1  -4.239051043987274E-2   6.844292283058167E-1   7.071169614791870E-1  -2.674300223588944E-2  
 3.550000000000000E7     7.278644442558289E-1   1.089989691972733E-1   7.056076079607010E-2   6.646062135696411E-1   7.023397088050842E-2   6.645716428756714E-1   6.748582720756531E-1  -2.600489556789398E-1  
 3.580000000000000E7     7.559067010879517E-1   1.023104935884476E-1   1.774139404296875E-1   6.133147478103638E-1   1.771298944950104E-1   6.132392883300781E-1   5.685968995094299E-1  -4.871758818626404E-1  
 3.610000000000000E7     7.923570871353149E-1   8.879311382770538E-2   2.654936611652374E-1   5.340975522994995E-1   2.652526199817658E-1   5.334536433219910E-1   3.907245099544525E-1  -6.779079437255859E-1  
 3.640000000000000E7     8.309001326560974E-1   6.273331493139267E-2   3.247446417808533E-1   4.372062385082245E-1   3.239775002002716E-1   4.378401339054108E-1   1.649680733680725E-1  -8.036390542984009E-1  
 3.670000000000000E7     8.679847717285156E-1   2.542186528444290E-2   3.524100780487061E-1   3.374929130077362E-1   3.516926765441895E-1   3.371499478816986E-1  -7.531775534152985E-2  -8.532494306564331E-1  
 3.700000000000000E7     8.981906771659851E-1  -2.273461036384106E-2   3.522376716136932E-1   2.455550134181976E-1   3.514852821826935E-1   2.459796816110611E-1  -3.003928363323212E-1  -8.373318314552307E-1  
 3.730000000000000E7     9.198507666587830E-1  -7.729113101959229E-2   3.341765701770783E-1   1.681647300720215E-1   3.332051634788513E-1   1.687481254339218E-1  -4.935289621353149E-1  -7.710730433464050E-1  
 3.760000000000000E7     9.323676824569702E-1  -1.325533986091614E-1   3.037588000297546E-1   1.090447455644608E-1   3.035914003849030E-1   1.087695658206940E-1  -6.459445357322693E-1  -6.777428388595581E-1  
 3.790000000000000E7     9.380196928977966E-1  -1.897222697734833E-1   2.692282497882843E-1   6.355052441358566E-2   2.698498964309692E-1   6.355630606412888E-2  -7.607786655426025E-1  -5.720742940902710E-1  
 3.820000000000000E7     9.368593692779541E-1  -2.458163499832153E-1   2.354432195425034E-1   3.176508098840714E-2   2.355956882238388E-1   3.110852837562561E-2  -8.449997901916504E-1  -4.617002606391907E-1  
 3.850000000000000E7     9.289120435714722E-1  -2.997141182422638E-1   2.033036202192307E-1   8.496001362800598E-3   2.031249850988388E-1   8.073494769632816E-3  -9.042856097221375E-1  -3.573623597621918E-1  
 3.880000000000000E7     9.170727729797363E-1  -3.490110933780670E-1   1.746760308742523E-1  -6.801614537835121E-3   1.738913357257843E-1  -6.845106370747089E-3  -9.436304569244385E-1  -2.594105899333954E-1  
 3.910000000000000E7     9.029787182807922E-1  -3.974752724170685E-1   1.486271023750305E-1  -1.707565598189831E-2   1.486264169216156E-1  -1.698288321495056E-2  -9.701233506202698E-1  -1.687248945236206E-1  
 3.940000000000000E7     8.841050863265991E-1  -4.411703646183014E-1   1.258855462074280E-1  -2.252935431897640E-2   1.257342547178268E-1  -2.285576984286308E-2  -9.831829667091370E-1  -8.653478324413300E-2  
 3.970000000000000E7     8.652539253234863E-1  -4.841041564941406E-1   1.064494624733925E-1  -2.602873742580414E-2   1.064879447221756E-1  -2.615730836987495E-2  -9.888010025024414E-1  -1.032698526978493E-2  
 4.000000000000000E7     8.427011370658875E-1  -5.245025753974915E-1   8.979570865631104E-2  -2.753072232007980E-2   8.980260044336319E-2  -2.749174647033215E-2  -9.897708296775818E-1   5.608968436717987E-2  
 4.030000000000000E7     8.199691176414490E-1  -5.621191263198853E-1   7.568185031414032E-2  -2.749167382717133E-2   7.547409087419510E-2  -2.768892981112003E-2  -9.861549735069275E-1   1.176930814981461E-1  
 4.060000000000000E7     7.949135303497315E-1  -5.985527634620667E-1   6.331320106983185E-2  -2.668395824730396E-2   6.318579614162445E-2  -2.673984505236149E-2  -9.785382151603699E-1   1.734622120857239E-1  
 4.090000000000000E7     7.689245939254761E-1  -6.328132748603821E-1   5.262381583452225E-2  -2.538564056158066E-2   5.254355818033218E-2  -2.533951401710510E-2  -9.691961407661438E-1   2.235525101423264E-1  
 4.120000000000000E7     7.425903081893921E-1  -6.652143001556397E-1   4.367486760020256E-2  -2.342006377875805E-2   4.364984855055809E-2  -2.346587181091309E-2  -9.574180245399475E-1   2.710720896720886E-1  
 4.150000000000000E7     7.149856090545654E-1  -6.947129368782044E-1   3.623234108090401E-2  -2.137464284896851E-2   3.609676286578178E-2  -2.129438146948814E-2  -9.452227950096130E-1   3.131550848484039E-1  
 4.180000000000000E7     6.856704354286194E-1  -7.241538763046265E-1   2.960495464503765E-2  -1.922537200152874E-2   2.951821498572826E-2  -1.912997290492058E-2  -9.318664669990540E-1   3.502487838268280E-1  
 4.210000000000000E7     6.566430330276489E-1  -7.513431906700134E-1   2.408525720238686E-2  -1.710959710180759E-2   2.408703602850437E-2  -1.700039952993393E-2  -9.181355834007263E-1   3.869138360023499E-1  
 4.240000000000000E7     6.258971691131592E-1  -7.757705450057983E-1   1.939133368432522E-2  -1.467027701437473E-2   1.943746954202652E-2  -1.478046644479036E-2  -9.046068191528320E-1   4.191679954528809E-1  
 4.270000000000000E7     5.945332646369934E-1  -8.000205159187317E-1   1.543478667736054E-2  -1.261312328279018E-2   1.529724337160587E-2  -1.263471692800522E-2  -8.894698619842529E-1   4.516348540782929E-1  
 4.300000000000000E7     5.623714327812195E-1  -8.237717747688294E-1   1.201780047267675E-2  -1.055950950831175E-2   1.197424530982971E-2  -1.053512096405029E-2  -8.746839761734009E-1   4.803528487682343E-1  
 4.330000000000000E7     5.328519940376282E-1  -8.443798422813416E-1   9.097456932067871E-3  -8.613630197942257E-3   9.205557405948639E-3  -8.671844378113747E-3  -8.591271638870239E-1   5.063952803611755E-1  
 4.360000000000000E7     4.985756576061249E-1  -8.640362620353699E-1   6.805001758038998E-3  -6.703319493681192E-3   6.681993138045073E-3  -6.718784570693970E-3  -8.446978926658630E-1   5.311701297760010E-1  
 4.390000000000000E7     4.652040004730225E-1  -8.836320042610169E-1   4.826989024877548E-3  -5.117855966091156E-3   4.705634433776140E-3  -5.102283321321011E-3  -8.284552097320557E-1   5.542309880256653E-1  
 4.420000000000000E7     4.315912127494812E-1  -8.991348147392273E-1   3.160952823236585E-3  -3.481239080429077E-3   3.146373899653554E-3  -3.563259728252888E-3  -8.123410940170288E-1   5.767172574996948E-1  
 4.450000000000000E7     3.975552320480347E-1  -9.145104885101318E-1   1.750811003148556E-3  -2.030475297942758E-3   1.670026220381260E-3  -2.102479804307222E-3  -7.986758947372437E-1   5.969331264495850E-1  
 4.480000000000000E7     3.636676371097565E-1  -9.291135072708130E-1   7.684747688472271E-4  -8.209893130697310E-4   5.926731391809881E-4  -7.958066416904330E-4  -7.835669517517090E-1   6.162093877792358E-1  
 4.510000000000000E7     3.301110565662384E-1  -9.422711133956909E-1  -2.037267258856446E-4   4.110812151338905E-4  -2.389347355347127E-4   4.180443356744945E-4  -7.689790725708008E-1   6.351243257522583E-1  
 4.540000000000000E7     2.951972484588623E-1  -9.532254338264465E-1  -8.293152204714716E-4   1.455876859836280E-3  -9.144789655692875E-4   1.482819556258619E-3  -7.544024586677551E-1   6.532671451568604E-1  
 4.570000000000000E7     2.597810626029968E-1  -9.635785818099976E-1  -1.428120303899050E-3   2.364405430853367E-3  -1.449864241294563E-3   2.409832784906030E-3  -7.391260862350464E-1   6.698520779609680E-1  
 4.600000000000000E7     2.273794561624527E-1  -9.713760614395142E-1  -1.819888711906970E-3   3.210423979908228E-3  -1.804905594326556E-3   3.155828453600407E-3  -7.250203490257263E-1   6.853135824203491E-1  
 4.630000000000000E7     1.895678937435150E-1  -9.797260761260986E-1  -2.091374713927507E-3   3.830266185104847E-3  -1.956164604052901E-3   3.912173211574554E-3  -7.106386423110962E-1   6.995330452919006E-1  
 4.660000000000000E7     1.539619266986847E-1  -9.869665503501892E-1  -2.135152695700526E-3   4.381737671792507E-3  -2.176594687625766E-3   4.444065038114786E-3  -6.955843567848206E-1   7.150337696075440E-1  
 4.690000000000000E7     1.190735474228859E-1  -9.907392859458923E-1  -2.208113903179765E-3   4.832508508116007E-3  -2.318237908184528E-3   4.867945797741413E-3  -6.817902922630310E-1   7.286770343780518E-1  
 4.720000000000000E7     8.325062692165375E-2  -9.938454627990723E-1  -2.270814962685108E-3   5.315904505550861E-3  -2.232028869912028E-3   5.295042414218187E-3  -6.667476296424866E-1   7.418662309646606E-1  
 4.750000000000000E7     4.889792948961258E-2  -9.972037076950073E-1  -2.177305053919554E-3   5.505855195224285E-3  -2.225475618615747E-3   5.421988200396299E-3  -6.527982354164124E-1   7.539883255958557E-1  
 4.780000000000000E7     1.395735517144203E-2  -9.981558322906494E-1  -2.169269602745771E-3   5.803060252219439E-3  -2.046761801466346E-3   5.805356893688440E-3  -6.375659704208374E-1   7.658581733703613E-1  
 4.810000000000000E7    -2.187788486480713E-2  -9.976534247398377E-1  -2.014448400586844E-3   5.835738033056259E-3  -1.948283519595861E-3   5.810956936329603E-3  -6.249612569808960E-1   7.766556739807129E-1  
 4.840000000000000E7    -5.648408830165863E-2  -9.969132542610169E-1  -1.810403075069189E-3   5.834978539496660E-3  -1.816145842894912E-3   5.910112522542477E-3  -6.110244393348694E-1   7.881347537040710E-1  
 4.870000000000000E7    -9.173967689275742E-2  -9.941078424453735E-1  -1.718864543363452E-3   5.820142570883036E-3  -1.715981634333730E-3   5.829202011227608E-3  -5.970001816749573E-1   7.986450791358948E-1  
 4.900000000000000E7    -1.271620690822601E-1  -9.909574389457703E-1  -1.469316193833947E-3   5.805863067507744E-3  -1.479026395827532E-3   5.510840099304915E-3  -5.834921002388001E-1   8.085115551948547E-1  
 4.930000000000000E7    -1.619413346052170E-1  -9.855675101280212E-1  -1.321393181569874E-3   5.581573117524386E-3  -1.385537441819906E-3   5.585741251707077E-3  -5.691267251968384E-1   8.187240958213806E-1  
 4.960000000000000E7    -1.952984631061554E-1  -9.774137735366821E-1  -1.119317254051566E-3   5.278654862195253E-3  -1.044269185513258E-3   5.183750297874212E-3  -5.556447505950928E-1   8.279345631599426E-1  
 4.990000000000000E7    -2.289005666971207E-1  -9.707223176956177E-1  -8.426302811130881E-4   4.877498373389244E-3  -9.369704057462513E-4   4.981573205441237E-3  -5.422756075859070E-1   8.361490964889526E-1  
 5.020000000000000E7    -2.619536817073822E-1  -9.635458588600159E-1  -6.999249453656375E-4   4.577484913170338E-3  -7.082226220518351E-4   4.578670021146536E-3  -5.292367339134216E-1   8.451631665229797E-1  
 5.050000000000000E7    -2.955204844474793E-1  -9.532777070999146E-1  -5.394945619627833E-4   4.155626520514488E-3  -5.614913534373045E-4   4.161139018833637E-3  -5.161604881286621E-1   8.545006513595581E-1  
 5.080000000000000E7    -3.278051912784576E-1  -9.430292248725891E-1  -3.894320980180055E-4   3.682452952489257E-3  -3.954744315706193E-4   3.686345182359219E-3  -5.015791654586792E-1   8.603738546371460E-1  
 5.110000000000000E7    -3.606957793235779E-1  -9.306133389472961E-1  -2.747007238212973E-4   3.127387259155512E-3  -2.507060708012432E-4   3.141024615615606E-3  -4.896880090236664E-1   8.687931299209595E-1  
 5.140000000000000E7    -3.923495411872864E-1  -9.171265363693237E-1  -1.579680101713166E-4   2.566765062510967E-3  -1.999157539103180E-4   2.569311298429966E-3  -4.757055342197418E-1   8.782676458358765E-1  
 5.170000000000000E7    -4.228041470050812E-1  -9.035338163375855E-1  -1.088600401999429E-4   1.995178638026118E-3  -7.872894639149308E-5   1.978955930098891E-3  -4.617565870285034E-1   8.831053972244263E-1  
 5.200000000000000E7    -4.542645514011383E-1  -8.900345563888550E-1  -7.171044853748754E-5   1.366237411275506E-3  -8.859348599798977E-5   1.325637334957719E-3  -4.482414126396179E-1   8.890773057937622E-1  
 5.230000000000000E7    -4.844837784767151E-1  -8.726563453674316E-1  -4.065595567226410E-5   6.684113177470863E-4  -5.836387572344393E-5   6.620290223509073E-4  -4.359148740768433E-1   8.965536952018738E-1  
 5.260000000000000E7    -5.132203102111816E-1  -8.547371625900269E-1  -6.202852091519162E-5  -1.183276344818296E-5  -5.036910079070367E-5  -4.898832412436605E-5  -4.226305782794952E-1   9.030761718750000E-1  
 5.290000000000000E7    -5.432299971580505E-1  -8.370134830474854E-1  -1.040450661093928E-4  -7.516209734603763E-4  -1.166197544080205E-4  -7.628366001881659E-4  -4.097434282302856E-1   9.081265926361084E-1  
 5.320000000000000E7    -5.707364678382874E-1  -8.191409707069397E-1  -2.459887182340026E-4  -1.524431514553726E-3  -2.008861629292369E-4  -1.533214002847672E-3  -3.967238068580627E-1   9.148736596107483E-1  
 5.350000000000000E7    -5.973387360572815E-1  -7.985157966613770E-1  -3.407434560358524E-4  -2.284727990627289E-3  -3.487451467663050E-4  -2.296498743817210E-3  -3.848115205764771E-1   9.200608730316162E-1  
 5.380000000000000E7    -6.231912374496460E-1  -7.782034873962402E-1  -5.002474645152688E-4  -3.084471449255943E-3  -5.130533827468753E-4  -3.110235324129462E-3  -3.698546290397644E-1   9.247856140136719E-1  
 5.410000000000000E7    -6.521291136741638E-1  -7.568007707595825E-1  -7.522273808717728E-4  -3.904995042830706E-3  -7.183172856457532E-4  -3.890274558216333E-3  -3.578579425811768E-1   9.303604364395142E-1  
 5.440000000000000E7    -6.763963103294373E-1  -7.330648899078369E-1  -1.002453616820276E-3  -4.717509727925062E-3  -1.009492552839220E-3  -4.717687610536814E-3  -3.449704051017761E-1   9.348278045654297E-1  
 5.470000000000000E7    -6.995892524719238E-1  -7.111949324607849E-1  -1.313192886300385E-3  -5.554716568440199E-3  -1.319094561040402E-3  -5.557532887905836E-3  -3.315318226814270E-1   9.395842552185059E-1  
 5.500000000000000E7    -7.240917682647705E-1  -6.863023042678833E-1  -1.701136236079037E-3  -6.424690596759319E-3  -1.662341528572142E-3  -6.400919053703547E-3  -3.182947635650635E-1   9.452508091926575E-1  
 5.530000000000000E7    -7.466428875923157E-1  -6.620169281959534E-1  -2.037792000919581E-3  -7.303682621568441E-3  -2.064344240352511E-3  -7.277998607605696E-3  -3.056231737136841E-1   9.486069083213806E-1  
 5.560000000000000E7    -7.693265676498413E-1  -6.353688240051270E-1  -2.504836302250624E-3  -8.113862015306950E-3  -2.510447520762682E-3  -8.147114887833595E-3  -2.936167716979981E-1   9.527179598808289E-1  
 5.590000000000000E7    -7.904016971588135E-1  -6.103775501251221E-1  -2.974798902869225E-3  -8.995505981147289E-3  -3.038625232875347E-3  -9.034153074026108E-3  -2.794100046157837E-1   9.566479921340942E-1  
 5.620000000000000E7    -8.103399872779846E-1  -5.814284086227417E-1  -3.532664384692907E-3  -9.894190356135368E-3  -3.514365991577506E-3  -9.849943220615387E-3  -2.676132917404175E-1   9.608297348022461E-1  
 5.650000000000000E7    -8.287927508354187E-1  -5.551840066909790E-1  -4.109311383217573E-3  -1.068907137960196E-2  -4.142286255955696E-3  -1.070326846092939E-2  -2.547560930252075E-1   9.637595415115356E-1  
 5.680000000000000E7    -8.472675085067749E-1  -5.269013643264771E-1  -4.792566876858473E-3  -1.155194826424122E-2  -4.768252838402987E-3  -1.155154686421156E-2  -2.413997501134872E-1   9.664974212646484E-1  
 5.710000000000000E7    -8.647994399070740E-1  -4.967118799686432E-1  -5.471140146255493E-3  -1.241763588041067E-2  -5.474637262523174E-3  -1.240770146250725E-2  -2.291588932275772E-1   9.700194597244263E-1  
 5.740000000000000E7    -8.816655874252319E-1  -4.675666987895966E-1  -6.206604652106762E-3  -1.325414236634970E-2  -6.181546952575445E-3  -1.324165891855955E-2  -2.155241370201111E-1   9.730630517005920E-1  
 5.770000000000000E7    -8.957500457763672E-1  -4.386624097824097E-1  -6.974590010941029E-3  -1.411117613315582E-2  -6.926046684384346E-3  -1.406546402722597E-2  -2.040855586528778E-1   9.746280908584595E-1  
 5.800000000000000E7    -9.102349281311035E-1  -4.069859981536865E-1  -7.860926911234856E-3  -1.494507305324078E-2  -7.878704927861691E-3  -1.483406219631434E-2  -1.903063058853149E-1   9.789052009582520E-1  
 5.830000000000000E7    -9.233534336090088E-1  -3.761153817176819E-1  -8.664674125611782E-3  -1.569110900163651E-2  -8.705631829798222E-3  -1.564460247755051E-2  -1.785460114479065E-1   9.809477329254150E-1  
 5.860000000000000E7    -9.364524483680725E-1  -3.454613685607910E-1  -9.672138839960098E-3  -1.646090298891068E-2  -9.690809063613415E-3  -1.641891896724701E-2  -1.650856435298920E-1   9.829834103584290E-1  
 5.890000000000000E7    -9.464460015296936E-1  -3.136279881000519E-1  -1.061864010989666E-2  -1.725111529231072E-2  -1.058326102793217E-2  -1.723184622824192E-2  -1.530238389968872E-1   9.843199253082275E-1  
 5.920000000000000E7    -9.565494060516357E-1  -2.805970013141632E-1  -1.167279854416847E-2  -1.793497242033482E-2  -1.170632895082235E-2  -1.788659207522869E-2  -1.399168819189072E-1   9.874746203422546E-1  
 5.950000000000000E7    -9.654142856597900E-1  -2.481937855482101E-1  -1.280398853123188E-2  -1.864962279796600E-2  -1.274248678237200E-2  -1.861142553389072E-2  -1.270821690559387E-1   9.872744083404541E-1  
 5.980000000000000E7    -9.734390377998352E-1  -2.152167111635208E-1  -1.396438106894493E-2  -1.929437741637230E-2  -1.389590278267860E-2  -1.928965747356415E-2  -1.141044646501541E-1   9.894378781318665E-1  
 6.010000000000000E7    -9.788286685943604E-1  -1.838424950838089E-1  -1.505255512893200E-2  -2.005555853247643E-2  -1.502256281673908E-2  -1.997318863868713E-2  -1.021621823310852E-1   9.914518594741821E-1  
 6.040000000000000E7    -9.847794175148010E-1  -1.490521579980850E-1  -1.633604057133198E-2  -2.062458544969559E-2  -1.630576327443123E-2  -2.062732353806496E-2  -8.900375664234161E-2   9.932590723037720E-1  
 6.070000000000000E7    -9.906278252601624E-1  -1.172107756137848E-1  -1.759215816855431E-2  -2.127272263169289E-2  -1.754898019134998E-2  -2.126432396471500E-2  -7.719126343727112E-2   9.935845136642456E-1  
 6.100000000000000E7    -9.931815266609192E-1  -8.359745144844055E-2  -1.898231357336044E-2  -2.174479141831398E-2  -1.893627271056175E-2  -2.174231596291065E-2  -6.310459971427918E-2   9.947279691696167E-1  
 6.130000000000000E7    -9.960374236106873E-1  -4.919393360614777E-2  -2.035919949412346E-2  -2.231994271278381E-2  -2.028232626616955E-2  -2.233903110027313E-2  -5.046927928924561E-2   9.958271980285645E-1  
 6.160000000000000E7    -9.961064457893372E-1  -1.635685563087463E-2  -2.166893333196640E-2  -2.280644513666630E-2  -2.172378264367580E-2  -2.273817732930183E-2  -3.875617682933807E-2   9.952142834663391E-1  
 6.190000000000000E7    -9.959338903427124E-1   1.715944707393646E-2  -2.316174097359181E-2  -2.326084114611149E-2  -2.313175424933434E-2  -2.311731316149235E-2  -2.636443078517914E-2   9.948795437812805E-1  
 6.220000000000000E7    -9.955378174781799E-1   5.056504905223846E-2  -2.460840716958046E-2  -2.362925000488758E-2  -2.470087073743343E-2  -2.368942089378834E-2  -1.440183818340302E-2   9.964624643325806E-1  
 6.250000000000000E7    -9.929821491241455E-1   8.442059159278870E-2  -2.621182799339294E-2  -2.403885498642921E-2  -2.623232081532478E-2  -2.401689440011978E-2  -2.153828740119934E-3   9.963961243629456E-1  
 6.280000000000000E7    -9.889022111892700E-1   1.176946759223938E-1  -2.790758386254311E-2  -2.438166365027428E-2  -2.777300775051117E-2  -2.436103671789169E-2   1.098240911960602E-2   9.970082044601440E-1  
 6.310000000000000E7    -9.838486313819885E-1   1.520837545394898E-1  -2.955479919910431E-2  -2.457492984831333E-2  -2.945983409881592E-2  -2.463066205382347E-2   2.345649898052216E-2   9.963672161102295E-1  
 6.340000000000000E7    -9.783996939659119E-1   1.848186403512955E-1  -3.122202679514885E-2  -2.484969049692154E-2  -3.114582411944866E-2  -2.478641271591187E-2   3.641575574874878E-2   9.963670969009399E-1  
 6.370000000000000E7    -9.715749621391296E-1   2.178734689950943E-1  -3.295427560806274E-2  -2.492145821452141E-2  -3.291186317801476E-2  -2.490824460983276E-2   4.828563332557678E-2   9.946076273918152E-1  
 6.400000000000000E7    -9.628645181655884E-1   2.502665519714356E-1  -3.489006310701370E-2  -2.502244152128696E-2  -3.467930108308792E-2  -2.495218068361282E-2   6.145800650119782E-2   9.948982596397400E-1  
 6.430000000000000E7    -9.537023305892944E-1   2.837788164615631E-1  -3.662158176302910E-2  -2.508432604372501E-2  -3.648415580391884E-2  -2.499098330736160E-2   7.367654144763947E-2   9.933921098709106E-1  
 6.460000000000000E7    -9.440845847129822E-1   3.160864710807800E-1  -3.829903528094292E-2  -2.501472830772400E-2  -3.830417990684509E-2  -2.505530789494515E-2   8.534558117389679E-2   9.919658303260803E-1  
 6.490000000000000E7    -9.337348937988281E-1   3.474079966545105E-1  -4.023158922791481E-2  -2.496596984565258E-2  -4.030944779515266E-2  -2.507616579532623E-2   9.723330289125443E-2   9.915358424186707E-1  
 6.520000000000000E7    -9.202182888984680E-1   3.781192302703857E-1  -4.219548031687737E-2  -2.505228668451309E-2  -4.210794717073441E-2  -2.483663894236088E-2   1.101451069116592E-1   9.907717704772949E-1  
 6.550000000000000E7    -9.072336554527283E-1   4.090048074722290E-1  -4.425513371825218E-2  -2.460898458957672E-2  -4.401515051722527E-2  -2.463013119995594E-2   1.222252175211906E-1   9.873405098915100E-1  
 6.580000000000000E7    -8.922067880630493E-1   4.398750364780426E-1  -4.617862030863762E-2  -2.427756600081921E-2  -4.602883756160736E-2  -2.436029352247715E-2   1.353503465652466E-1   9.869840741157532E-1  
 6.610000000000000E7    -8.760329484939575E-1   4.697975516319275E-1  -4.817602038383484E-2  -2.401792258024216E-2  -4.799245297908783E-2  -2.371047995984554E-2   1.486002802848816E-1   9.839982986450195E-1  
 6.640000000000000E7    -8.609939813613892E-1   4.994544088840485E-1  -5.031190440058708E-2  -2.359991520643234E-2  -5.031739547848702E-2  -2.356735430657864E-2   1.605733633041382E-1   9.820663928985596E-1  
 6.670000000000000E7    -8.426038622856140E-1   5.282233357429504E-1  -5.226834863424301E-2  -2.306975238025188E-2  -5.221572145819664E-2  -2.312597632408142E-2   1.717701852321625E-1   9.807801842689514E-1  
 6.700000000000000E7    -8.238494396209717E-1   5.565301179885864E-1  -5.452642962336540E-2  -2.258144877851009E-2  -5.422313511371613E-2  -2.247057110071182E-2   1.841844618320465E-1   9.773947596549988E-1  
 6.730000000000000E7    -8.041028976440430E-1   5.840972065925598E-1  -5.635733902454376E-2  -2.195905707776547E-2  -5.640168115496635E-2  -2.174540981650353E-2   1.971065551042557E-1   9.760571718215942E-1  
 6.760000000000000E7    -7.843219637870789E-1   6.111717820167542E-1  -5.877095460891724E-2  -2.107502892613411E-2  -5.856755003333092E-2  -2.112400904297829E-2   2.094823122024536E-1   9.726915359497070E-1  
 6.790000000000000E7    -7.622911334037781E-1   6.381257772445679E-1  -6.084410846233368E-2  -2.036601863801479E-2  -6.072941422462463E-2  -2.030582167208195E-2   2.206174731254578E-1   9.694721698760986E-1  
 6.820000000000000E7    -7.400116920471191E-1   6.629253625869751E-1  -6.292437762022018E-2  -1.939675956964493E-2  -6.293205171823502E-2  -1.943352445960045E-2   2.329620569944382E-1   9.672771692276001E-1  
 6.850000000000000E7    -7.171173691749573E-1   6.889386773109436E-1  -6.537206470966339E-2  -1.862386800348759E-2  -6.514780968427658E-2  -1.851476356387138E-2   2.444085478782654E-1   9.641733765602112E-1  
 6.880000000000000E7    -6.926135420799255E-1   7.121950387954712E-1  -6.745953112840653E-2  -1.745948381721973E-2  -6.718784570693970E-2  -1.732631400227547E-2   2.573227882385254E-1   9.604322314262390E-1  
 6.910000000000000E7    -6.677579283714294E-1   7.358009219169617E-1  -6.984087824821472E-2  -1.618762128055096E-2  -6.964801996946335E-2  -1.617631316184998E-2   2.700074911117554E-1   9.571644067764282E-1  
 6.940000000000000E7    -6.423613429069519E-1   7.583513259887695E-1  -7.200651615858078E-2  -1.515178102999926E-2  -7.198891043663025E-2  -1.507560070604086E-2   2.810685634613037E-1   9.538745880126953E-1  
 6.970000000000000E7    -6.147269606590271E-1   7.795475721359253E-1  -7.426293194293976E-2  -1.366157922893763E-2  -7.429534196853638E-2  -1.350290328264237E-2   2.934819757938385E-1   9.493134021759033E-1  
 7.000000000000000E7    -5.876361131668091E-1   8.011341094970703E-1  -7.664988189935684E-2  -1.218320056796074E-2  -7.643493264913559E-2  -1.210566330701113E-2   3.052305877208710E-1   9.463040232658386E-1  
