#  HZ   S   RI   R     50.00 
! Rohde & Schwarz ZVT8 8Ports - Version 4.11 - 1300.0000k08 SN: 100242
! Date: 2026-07-31 14:44:38
! Measurements: S11 S21 S12 S22 
! 
 1.000000000000000E7    -4.038424193859100E-1   9.108448624610901E-1   5.199808254837990E-2   5.261236056685448E-2   5.179785564541817E-2   5.261945724487305E-2  -9.186605215072632E-1   3.857990801334381E-1  
 1.030000000000000E7    -3.714863657951355E-1   9.234132766723633E-1   5.543406680226326E-2   5.293808504939079E-2   5.515272542834282E-2   5.301683396100998E-2  -9.127190113067627E-1   3.989517986774445E-1  
 1.060000000000000E7    -3.356663584709168E-1   9.366890788078308E-1   5.880968645215035E-2   5.392352491617203E-2   5.869956314563751E-2   5.375145003199577E-2  -9.089575409889221E-1   4.102016687393189E-1  
 1.090000000000000E7    -3.035823702812195E-1   9.469447731971741E-1   6.215018406510353E-2   5.415636673569679E-2   6.211114302277565E-2   5.419040843844414E-2  -9.029028415679932E-1   4.220221340656281E-1  
 1.120000000000000E7    -2.681390047073364E-1   9.563562273979187E-1   6.602527946233749E-2   5.496669560670853E-2   6.561431288719177E-2   5.471954867243767E-2  -8.971192240715027E-1   4.341372847557068E-1  
 1.150000000000000E7    -2.325770258903503E-1   9.667442440986633E-1   6.933578103780747E-2   5.498053506016731E-2   6.936126202344894E-2   5.485962331295013E-2  -8.898280858993530E-1   4.433313012123108E-1  
 1.180000000000000E7    -1.975124478340149E-1   9.720356464385986E-1   7.315162569284439E-2   5.509728193283081E-2   7.301848381757736E-2   5.510711297392845E-2  -8.853867053985596E-1   4.546742737293243E-1  
 1.210000000000000E7    -1.631616950035095E-1   9.788681864738464E-1   7.733886688947678E-2   5.550776794552803E-2   7.703129202127457E-2   5.530864745378494E-2  -8.775846958160400E-1   4.672340452671051E-1  
 1.240000000000000E7    -1.276691257953644E-1   9.829577803611755E-1   8.116700500249863E-2   5.550940707325935E-2   8.122318238019943E-2   5.518423765897751E-2  -8.710757493972778E-1   4.775396585464478E-1  
 1.270000000000000E7    -9.129975736141205E-2   9.866646528244019E-1   8.581332117319107E-2   5.486444383859634E-2   8.533078432083130E-2   5.466749891638756E-2  -8.637682199478149E-1   4.915478229522705E-1  
 1.300000000000000E7    -5.611953884363174E-2   9.894291162490845E-1   8.981662243604660E-2   5.477934330701828E-2   8.973838388919830E-2   5.443245917558670E-2  -8.560082912445068E-1   5.023390054702759E-1  
 1.330000000000000E7    -1.940770260989666E-2   9.912931323051453E-1   9.455056488513947E-2   5.407219752669334E-2   9.429232776165009E-2   5.377140641212463E-2  -8.485438227653503E-1   5.146007537841797E-1  
 1.360000000000000E7     1.819842308759689E-2   9.906941652297974E-1   9.903735667467117E-2   5.369265750050545E-2   9.927609562873840E-2   5.301357433199883E-2  -8.412058353424072E-1   5.243551135063171E-1  
 1.390000000000000E7     5.340711027383804E-2   9.886162281036377E-1   1.038873717188835E-1   5.270386487245560E-2   1.035116538405418E-1   5.275055393576622E-2  -8.332843184471130E-1   5.362664461135864E-1  
 1.420000000000000E7     9.074035286903381E-2   9.858284592628479E-1   1.084851101040840E-1   5.174377560615540E-2   1.085755527019501E-1   5.174797773361206E-2  -8.268798589706421E-1   5.470253229141235E-1  
 1.450000000000000E7     1.267774254083633E-1   9.802458882331848E-1   1.137872189283371E-1   5.036204680800438E-2   1.136406734585762E-1   5.035925656557083E-2  -8.159446120262146E-1   5.594447851181030E-1  
 1.480000000000000E7     1.647785902023315E-1   9.747231602668762E-1   1.188808381557465E-1   4.899222776293755E-2   1.188421323895454E-1   4.926925897598267E-2  -8.088124394416809E-1   5.702508091926575E-1  
 1.510000000000000E7     2.006176859140396E-1   9.667977094650269E-1   1.241392418742180E-1   4.723296687006950E-2   1.237284243106842E-1   4.728085920214653E-2  -7.973210215568543E-1   5.819056630134583E-1  
 1.540000000000000E7     2.361393421888351E-1   9.580910801887512E-1   1.292655766010284E-1   4.623684287071228E-2   1.292134225368500E-1   4.591852053999901E-2  -7.909918427467346E-1   5.921686887741089E-1  
 1.570000000000000E7     2.729826271533966E-1   9.490089416503906E-1   1.348775774240494E-1   4.367941617965698E-2   1.349300891160965E-1   4.367845878005028E-2  -7.807610630989075E-1   6.049325466156006E-1  
 1.600000000000000E7     3.099781572818756E-1   9.360676407814026E-1   1.402786523103714E-1   4.129373654723167E-2   1.407376825809479E-1   4.120466858148575E-2  -7.715370059013367E-1   6.143142580986023E-1  
 1.630000000000000E7     3.448088765144348E-1   9.228912591934204E-1   1.468140482902527E-1   3.854889422655106E-2   1.462404429912567E-1   3.874585777521133E-2  -7.613486051559448E-1   6.268318891525269E-1  
 1.660000000000000E7     3.805830180644989E-1   9.065194725990295E-1   1.527298837900162E-1   3.558737412095070E-2   1.525036692619324E-1   3.522486612200737E-2  -7.490354180335999E-1   6.385925412178040E-1  
 1.690000000000000E7     4.153592586517334E-1   8.907161355018616E-1   1.591274589300156E-1   3.297056630253792E-2   1.587356477975845E-1   3.247890621423721E-2  -7.392753958702087E-1   6.489035487174988E-1  
 1.720000000000000E7     4.520933330059052E-1   8.729069232940674E-1   1.647198349237442E-1   2.870898693799973E-2   1.647915691137314E-1   2.911711111664772E-2  -7.276539802551270E-1   6.599995493888855E-1  
 1.750000000000000E7     4.818435013294220E-1   8.557377457618713E-1   1.719014197587967E-1   2.621408738195896E-2   1.718820631504059E-1   2.573578804731369E-2  -7.166450023651123E-1   6.725306510925293E-1  
 1.780000000000000E7     5.178226232528687E-1   8.313562273979187E-1   1.775360405445099E-1   2.132022567093372E-2   1.779470890760422E-1   2.172068692743778E-2  -7.043150663375855E-1   6.809247136116028E-1  
 1.810000000000000E7     5.495633482933044E-1   8.100246191024780E-1   1.855715215206146E-1   1.722005382180214E-2   1.844493895769119E-1   1.638993620872498E-2  -6.914392709732056E-1   6.952781081199646E-1  
 1.840000000000000E7     5.835450291633606E-1   7.855293750762940E-1   1.925615221261978E-1   1.088446564972401E-2   1.916766464710236E-1   1.130912266671658E-2  -6.781355738639832E-1   7.053677439689636E-1  
 1.870000000000000E7     6.129104495048523E-1   7.608526945114136E-1   1.994393020868301E-1   6.287373602390289E-3   1.985108703374863E-1   5.782749503850937E-3  -6.640073060989380E-1   7.154914140701294E-1  
 1.900000000000000E7     6.431412100791931E-1   7.334136366844177E-1   2.065273076295853E-1   7.705986499786377E-4   2.061126083135605E-1   1.679342240095139E-4  -6.503247022628784E-1   7.257760763168335E-1  
 1.930000000000000E7     6.728942990303040E-1   7.038950324058533E-1   2.134326696395874E-1  -6.954832933843136E-3   2.138158977031708E-1  -5.993338301777840E-3  -6.357265710830689E-1   7.377420663833618E-1  
 1.960000000000000E7     7.020214796066284E-1   6.725761294364929E-1   2.209947407245636E-1  -1.369441300630570E-2   2.210200875997543E-1  -1.303913630545139E-2  -6.224611401557922E-1   7.470657825469971E-1  
 1.990000000000000E7     7.270929217338562E-1   6.405590772628784E-1   2.283656150102615E-1  -2.142591215670109E-2   2.287338674068451E-1  -2.146896719932556E-2  -6.039986014366150E-1   7.598696351051331E-1  
 2.020000000000000E7     7.534027099609375E-1   6.067546606063843E-1   2.366819083690643E-1  -2.939249388873577E-2   2.358415126800537E-1  -2.915539965033531E-2  -5.890246629714966E-1   7.671780586242676E-1  
 2.050000000000000E7     7.792163491249085E-1   5.709073543548584E-1   2.442756891250610E-1  -3.784547746181488E-2   2.426420003175736E-1  -3.830080851912499E-2  -5.723155140876770E-1   7.774536013603210E-1  
 2.080000000000000E7     8.016373515129089E-1   5.324829816818237E-1   2.522469162940979E-1  -4.796109721064568E-2   2.522858977317810E-1  -4.793776571750641E-2  -5.546067357063294E-1   7.890579700469971E-1  
 2.110000000000000E7     8.238715529441834E-1   4.939604401588440E-1   2.604562640190125E-1  -5.947156995534897E-2   2.603183984756470E-1  -5.936926603317261E-2  -5.356600284576416E-1   7.983352541923523E-1  
 2.140000000000000E7     8.430505394935608E-1   4.540876746177673E-1   2.685786485671997E-1  -7.132354378700256E-2   2.672457098960877E-1  -7.017704099416733E-2  -5.165918469429016E-1   8.067471981048584E-1  
 2.170000000000000E7     8.596853017807007E-1   4.134674966335297E-1   2.764290571212769E-1  -8.314743638038635E-2   2.761742770671845E-1  -8.227592706680298E-2  -4.968737959861755E-1   8.156921863555908E-1  
 2.200000000000000E7     8.767587542533875E-1   3.680008649826050E-1   2.838985323905945E-1  -9.701938927173615E-2   2.839129567146301E-1  -9.663790464401245E-2  -4.744811952114105E-1   8.237491846084595E-1  
 2.230000000000000E7     8.892415165901184E-1   3.233004212379456E-1   2.918188571929932E-1  -1.116230860352516E-1   2.913277149200440E-1  -1.108456477522850E-1  -4.531020224094391E-1   8.310018777847290E-1  
 2.260000000000000E7     9.008325934410095E-1   2.761638760566711E-1   2.988122105598450E-1  -1.276031136512756E-1   3.006927073001862E-1  -1.274732351303101E-1  -4.307706356048584E-1   8.380342721939087E-1  
 2.290000000000000E7     9.092672467231751E-1   2.277870923280716E-1   3.063636720180512E-1  -1.447492539882660E-1   3.072089552879334E-1  -1.442514061927795E-1  -4.052970409393311E-1   8.437347412109375E-1  
 2.320000000000000E7     9.138316512107849E-1   1.785447299480438E-1   3.137600719928742E-1  -1.643501222133637E-1   3.130969703197479E-1  -1.644279062747955E-1  -3.807832896709442E-1   8.513592481613159E-1  
 2.350000000000000E7     9.162557125091553E-1   1.266711503267288E-1   3.201083540916443E-1  -1.857511997222900E-1   3.196152448654175E-1  -1.846175193786621E-1  -3.548973798751831E-1   8.558390736579895E-1  
 2.380000000000000E7     9.151647090911865E-1   7.509548217058182E-2   3.258475959300995E-1  -2.067313939332962E-1   3.260380923748016E-1  -2.064553201198578E-1  -3.284118771553040E-1   8.593280315399170E-1  
 2.410000000000000E7     9.109374880790710E-1   2.086831629276276E-2   3.303522169589996E-1  -2.315754443407059E-1   3.296752274036408E-1  -2.308594882488251E-1  -2.992452383041382E-1   8.614152073860169E-1  
 2.440000000000000E7     9.010210037231445E-1  -3.241172432899475E-2   3.343502581119537E-1  -2.581067681312561E-1   3.342080116271973E-1  -2.582170963287354E-1  -2.706556022167206E-1   8.616235852241516E-1  
 2.470000000000000E7     8.878771066665649E-1  -8.677328377962112E-2   3.365154266357422E-1  -2.868438959121704E-1   3.366988897323608E-1  -2.845535874366760E-1  -2.389038652181625E-1   8.598448038101196E-1  
 2.500000000000000E7     8.706175088882446E-1  -1.428727656602860E-1   3.370020985603333E-1  -3.163430690765381E-1   3.367257118225098E-1  -3.170435428619385E-1  -2.066477239131928E-1   8.580984473228455E-1  
 2.530000000000000E7     8.471899628639221E-1  -1.981057077646256E-1   3.368627130985260E-1  -3.492916226387024E-1   3.367713689804077E-1  -3.485496938228607E-1  -1.740199178457260E-1   8.521755337715149E-1  
 2.560000000000000E7     8.191033005714417E-1  -2.518439292907715E-1   3.332964479923248E-1  -3.836558163166046E-1   3.338480889797211E-1  -3.841791749000549E-1  -1.404483765363693E-1   8.446069955825806E-1  
 2.590000000000000E7     7.836482524871826E-1  -3.036676645278931E-1   3.254036903381348E-1  -4.227921068668366E-1   3.261648416519165E-1  -4.227309525012970E-1  -1.050254479050636E-1   8.363350629806519E-1  
 2.620000000000000E7     7.421163916587830E-1  -3.545604348182678E-1   3.147961497306824E-1  -4.637956321239471E-1   3.151457607746124E-1  -4.620763659477234E-1  -6.764271110296249E-2   8.219954371452332E-1  
 2.650000000000000E7     6.947531104087830E-1  -4.030343294143677E-1   3.016206026077271E-1  -5.043279528617859E-1   3.009869456291199E-1  -5.053312182426453E-1  -3.275529667735100E-2   8.038921952247620E-1  
 2.680000000000000E7     6.395016312599182E-1  -4.460220932960510E-1   2.824389934539795E-1  -5.490977168083191E-1   2.815876901149750E-1  -5.497508049011231E-1   2.158560790121555E-3   7.820948958396912E-1  
 2.710000000000000E7     5.788208246231079E-1  -4.839314222335815E-1   2.545806169509888E-1  -5.947924256324768E-1   2.544283270835877E-1  -5.939286351203919E-1   3.771296143531799E-2   7.580716013908386E-1  
 2.740000000000000E7     5.095486640930176E-1  -5.163959264755249E-1   2.247504144906998E-1  -6.417660117149353E-1   2.225844562053680E-1  -6.417974233627319E-1   7.023496180772781E-2   7.243549823760986E-1  
 2.770000000000000E7     4.375392794609070E-1  -5.381786227226257E-1   1.833204180002213E-1  -6.874900460243225E-1   1.824067234992981E-1  -6.877028346061707E-1   1.014244034886360E-1   6.892030239105225E-1  
 2.800000000000000E7     3.595095872879028E-1  -5.529407858848572E-1   1.360255479812622E-1  -7.321928739547730E-1   1.370767354965210E-1  -7.325906753540039E-1   1.300782114267349E-1   6.461718082427979E-1  
 2.830000000000000E7     2.768368422985077E-1  -5.546961426734924E-1   8.012595027685165E-2  -7.726003527641296E-1   7.845386862754822E-2  -7.722508311271668E-1   1.512705385684967E-1   6.040658354759216E-1  
 2.860000000000000E7     1.932268738746643E-1  -5.415515899658203E-1   1.404468715190888E-2  -8.092072606086731E-1   1.139521412551403E-2  -8.089845776557922E-1   1.702588051557541E-1   5.524248480796814E-1  
 2.890000000000000E7     1.135313585400581E-1  -5.150771141052246E-1  -6.155851855874062E-2  -8.387482166290283E-1  -6.162454560399056E-2  -8.376466035842896E-1   1.797155588865280E-1   4.999109506607056E-1  
 2.920000000000000E7     3.353923559188843E-2  -4.759207069873810E-1  -1.410299390554428E-1  -8.605331778526306E-1  -1.429754793643951E-1  -8.579573035240173E-1   1.812512278556824E-1   4.453510344028473E-1  
 2.950000000000000E7    -3.430878371000290E-2  -4.205994009971619E-1  -2.315690964460373E-1  -8.692939281463623E-1  -2.307334393262863E-1  -8.674438595771790E-1   1.738802343606949E-1   3.897086381912231E-1  
 2.980000000000000E7    -9.525660425424576E-2  -3.546371757984161E-1  -3.220792114734650E-1  -8.647958040237427E-1  -3.236030340194702E-1  -8.645857572555542E-1   1.559229642152786E-1   3.362448513507843E-1  
 3.010000000000000E7    -1.398167312145233E-1  -2.794342041015625E-1  -4.163083136081696E-1  -8.464444875717163E-1  -4.159061908721924E-1  -8.463582992553711E-1   1.302537173032761E-1   2.863153815269470E-1  
 3.040000000000000E7    -1.683428734540939E-1  -1.940037012100220E-1  -5.067357420921326E-1  -8.139154314994812E-1  -5.076740384101868E-1  -8.129603266716003E-1   9.449328482151032E-2   2.452574670314789E-1  
 3.070000000000000E7    -1.812733709812164E-1  -1.100685968995094E-1  -5.938115119934082E-1  -7.681959867477417E-1  -5.914334654808044E-1  -7.663834691047669E-1   5.796043574810028E-2   2.103118449449539E-1  
 3.100000000000000E7    -1.744896173477173E-1  -2.597588300704956E-2  -6.720775961875916E-1  -7.102330923080444E-1  -6.706355214118958E-1  -7.090585827827454E-1   1.468646712601185E-2   1.833561509847641E-1  
 3.130000000000000E7    -1.553606837987900E-1   5.188171565532684E-2  -7.408723235130310E-1  -6.405953168869019E-1  -7.393918037414551E-1  -6.409731507301331E-1  -3.387570753693581E-2   1.687505096197128E-1  
 3.160000000000000E7    -1.183357983827591E-1   1.234212666749954E-1  -7.976297140121460E-1  -5.655092000961304E-1  -7.972687482833862E-1  -5.661185383796692E-1  -7.810334116220474E-2   1.633320748806000E-1  
 3.190000000000000E7    -7.414413243532181E-2   1.840549707412720E-1  -8.438566327095032E-1  -4.847374558448792E-1  -8.422884941101074E-1  -4.846530854701996E-1  -1.217625588178635E-1   1.641918718814850E-1  
 3.220000000000000E7    -2.099750749766827E-2   2.348546236753464E-1  -8.781588077545166E-1  -4.024370312690735E-1  -8.770195245742798E-1  -4.019589424133301E-1  -1.618125587701798E-1   1.751325279474258E-1  
 3.250000000000000E7     3.794501721858978E-2   2.700577080249786E-1  -9.015908241271973E-1  -3.194842040538788E-1  -9.012748003005981E-1  -3.191801905632019E-1  -1.957061737775803E-1   1.942442208528519E-1  
 3.280000000000000E7     1.001297459006310E-1   2.925521135330200E-1  -9.149744510650635E-1  -2.367352992296219E-1  -9.141995310783386E-1  -2.361414581537247E-1  -2.267699092626572E-1   2.157257199287415E-1  
 3.310000000000000E7     1.573528796434403E-1   3.087130188941956E-1  -9.194782376289368E-1  -1.565787494182587E-1  -9.181494712829590E-1  -1.557780504226685E-1  -2.476862221956253E-1   2.446230798959732E-1  
 3.340000000000000E7     2.151516973972321E-1   3.103475868701935E-1  -9.179338812828064E-1  -7.858309149742127E-2  -9.159477353096008E-1  -7.884287089109421E-2  -2.628253400325775E-1   2.732666134834290E-1  
 3.370000000000000E7     2.708175182342529E-1   3.047363162040710E-1  -9.065960645675659E-1  -5.497092846781015E-3  -9.063881039619446E-1  -6.258599460124970E-3  -2.730145752429962E-1   3.069072663784027E-1  
 3.400000000000000E7     3.205235302448273E-1   2.913768589496613E-1  -8.932579755783081E-1   6.358624994754791E-2  -8.926107883453369E-1   6.325754523277283E-2  -2.726902961730957E-1   3.381565511226654E-1  
 3.430000000000000E7     3.651364445686340E-1   2.723637521266937E-1  -8.748380541801453E-1   1.304307579994202E-1  -8.737902045249939E-1   1.300774663686752E-1  -2.692492306232452E-1   3.684499263763428E-1  
 3.460000000000000E7     4.056436121463776E-1   2.479393780231476E-1  -8.535369634628296E-1   1.934420764446259E-1  -8.530396223068237E-1   1.917553991079330E-1  -2.561894357204437E-1   3.993313908576965E-1  
 3.490000000000000E7     4.370474219322205E-1   2.204254418611527E-1  -8.276243209838867E-1   2.545453011989594E-1  -8.266013264656067E-1   2.530069351196289E-1  -2.420155704021454E-1   4.259012937545776E-1  
 3.520000000000000E7     4.674805998802185E-1   1.889858841896057E-1  -7.999765872955322E-1   3.105405271053314E-1  -7.999161481857300E-1   3.094915151596069E-1  -2.181817591190338E-1   4.539249539375305E-1  
 3.550000000000000E7     4.897152781486511E-1   1.538550704717636E-1  -7.704573869705200E-1   3.648096621036530E-1  -7.702003717422485E-1   3.644339442253113E-1  -1.880546212196350E-1   4.773725867271423E-1  
 3.580000000000000E7     5.069298744201660E-1   1.222335398197174E-1  -7.369031310081482E-1   4.190113544464111E-1  -7.372388839721680E-1   4.185183346271515E-1  -1.537574231624603E-1   4.963345229625702E-1  
 3.610000000000000E7     5.156470537185669E-1   8.942309021949768E-2  -7.033848762512207E-1   4.728554487228394E-1  -7.013171911239624E-1   4.719972014427185E-1  -1.125186458230019E-1   5.117431879043579E-1  
 3.640000000000000E7     5.225644111633301E-1   5.648160725831986E-2  -6.642093658447266E-1   5.234558582305908E-1  -6.638688445091248E-1   5.224148035049439E-1  -6.476555764675140E-2   5.207700133323669E-1  
 3.670000000000000E7     5.232432484626770E-1   2.659816667437553E-2  -6.231345534324646E-1   5.751970410346985E-1  -6.209979653358460E-1   5.741359591484070E-1  -1.398557424545288E-2   5.217314958572388E-1  
 3.700000000000000E7     5.191096663475037E-1   4.941597580909729E-4  -5.743802189826965E-1   6.257816553115845E-1  -5.737425088882446E-1   6.252664923667908E-1   4.560767859220505E-2   5.152893662452698E-1  
 3.730000000000000E7     5.135884284973145E-1  -2.363330125808716E-2  -5.205258131027222E-1   6.747518777847290E-1  -5.219875574111939E-1   6.749956011772156E-1   1.075182333588600E-1   4.962449371814728E-1  
 3.760000000000000E7     5.018867850303650E-1  -3.801967576146126E-2  -4.604307115077972E-1   7.236866950988770E-1  -4.614852964878082E-1   7.248924970626831E-1   1.749359220266342E-1   4.660522937774658E-1  
 3.790000000000000E7     4.877632558345795E-1  -5.023739859461784E-2  -3.919344544410706E-1   7.715252041816711E-1  -3.919858336448669E-1   7.705780267715454E-1   2.414729446172714E-1   4.195477962493897E-1  
 3.820000000000000E7     4.752052426338196E-1  -5.333716422319412E-2  -3.131273686885834E-1   8.141577839851379E-1  -3.138338029384613E-1   8.136936426162720E-1   3.111598491668701E-1   3.537640869617462E-1  
 3.850000000000000E7     4.637991786003113E-1  -5.138782039284706E-2  -2.234637141227722E-1   8.501541614532471E-1  -2.209082245826721E-1   8.495952486991882E-1   3.727727830410004E-1   2.689294219017029E-1  
 3.880000000000000E7     4.607839882373810E-1  -3.876553103327751E-2  -1.180203035473824E-1   8.728516101837158E-1  -1.181456148624420E-1   8.722791671752930E-1   4.231092035770416E-1   1.588505506515503E-1  
 3.910000000000000E7     4.621874690055847E-1  -2.264319173991680E-2  -5.390955135226250E-3   8.803964853286743E-1  -4.272202029824257E-3   8.801108598709106E-1   4.499162435531616E-1   2.488962188363075E-2  
 3.940000000000000E7     4.761466383934021E-1   9.589297696948052E-4   1.167936846613884E-1   8.634421825408936E-1   1.157053560018539E-1   8.636445403099060E-1   4.482629299163818E-1  -1.260601431131363E-1  
 3.970000000000000E7     5.049896240234375E-1   2.092576213181019E-2   2.372167557477951E-1   8.212500810623169E-1   2.369381338357925E-1   8.218126296997070E-1   4.019183516502380E-1  -2.873438298702240E-1  
 4.000000000000000E7     5.488365888595581E-1   3.358534350991249E-2   3.485588729381561E-1   7.500776052474976E-1   3.489455580711365E-1   7.485491633415222E-1   3.119817972183228E-1  -4.394091069698334E-1  
 4.030000000000000E7     6.066823601722717E-1   3.394171595573425E-2   4.392230808734894E-1   6.520231366157532E-1   4.408260583877564E-1   6.535840034484863E-1   1.805834621191025E-1  -5.661498904228210E-1  
 4.060000000000000E7     6.657355427742004E-1   1.591991260647774E-2   5.020312070846558E-1   5.394817590713501E-1   5.027500391006470E-1   5.394833087921143E-1   1.530240103602409E-2  -6.570425033569336E-1  
 4.090000000000000E7     7.234767675399780E-1  -2.035784721374512E-2   5.346782207489014E-1   4.221321940422058E-1   5.349310636520386E-1   4.207922220230103E-1  -1.613556742668152E-1  -6.978489756584168E-1  
 4.120000000000000E7     7.747666239738464E-1  -7.132387161254883E-2   5.369009971618652E-1   3.082384467124939E-1   5.360770821571350E-1   3.089201748371124E-1  -3.389005661010742E-1  -6.948130130767822E-1  
 4.150000000000000E7     8.119593262672424E-1  -1.361665427684784E-1   5.150655508041382E-1   2.108093649148941E-1   5.141845345497131E-1   2.116619795560837E-1  -4.957642555236816E-1  -6.519196033477783E-1  
 4.180000000000000E7     8.361230492591858E-1  -2.062742114067078E-1   4.805745184421539E-1   1.298985779285431E-1   4.795620143413544E-1   1.289651393890381E-1  -6.271286010742188E-1  -5.838890671730042E-1  
 4.210000000000000E7     8.473452329635620E-1  -2.775976061820984E-1   4.360792934894562E-1   6.687918305397034E-2   4.365195930004120E-1   6.630186736583710E-2  -7.334583401679993E-1  -5.000507831573486E-1  
 4.240000000000000E7     8.465895056724548E-1  -3.471194803714752E-1   3.894370794296265E-1   1.879686862230301E-2   3.897552490234375E-1   1.906167343258858E-2  -8.147760033607483E-1  -4.098947346210480E-1  
 4.270000000000000E7     8.362989425659180E-1  -4.133134782314301E-1   3.453286290168762E-1  -1.567505300045013E-2   3.445935547351837E-1  -1.634988002479076E-2  -8.763006329536438E-1  -3.170732557773590E-1  
 4.300000000000000E7     8.195170760154724E-1  -4.768365919589996E-1   3.025097548961639E-1  -4.043568670749664E-2   3.014941215515137E-1  -4.017221555113792E-2  -9.187474250793457E-1  -2.271914035081863E-1  
 4.330000000000000E7     7.975679636001587E-1  -5.328975319862366E-1   2.626729309558868E-1  -5.631542205810547E-2   2.627048492431641E-1  -5.635314807295799E-2  -9.463216662406921E-1  -1.428502351045609E-1  
 4.360000000000000E7     7.692122459411621E-1  -5.866619348526001E-1   2.272785454988480E-1  -6.605000793933868E-2   2.271850854158402E-1  -6.637673825025559E-2  -9.645715951919556E-1  -6.419301033020020E-2  
 4.390000000000000E7     7.390928268432617E-1  -6.363016366958618E-1   1.972237229347229E-1  -7.187164574861527E-2   1.970678418874741E-1  -7.195279747247696E-2  -9.715725183486939E-1   9.072439745068550E-3  
 4.420000000000000E7     7.044880986213684E-1  -6.788731813430786E-1   1.697390675544739E-1  -7.470300793647766E-2   1.696495264768601E-1  -7.442351430654526E-2  -9.738990068435669E-1   7.616387307643890E-2  
 4.450000000000000E7     6.695437431335449E-1  -7.191942930221558E-1   1.460793912410736E-1  -7.435886561870575E-2   1.458268910646439E-1  -7.450296729803085E-2  -9.722699522972107E-1   1.360698342323303E-1  
 4.480000000000000E7     6.335501074790955E-1  -7.554215788841248E-1   1.255005449056625E-1  -7.289350777864456E-2   1.254049837589264E-1  -7.288607209920883E-2  -9.655448794364929E-1   1.915409713983536E-1  
 4.510000000000000E7     5.972436666488648E-1  -7.885674238204956E-1   1.078354939818382E-1  -7.020884752273560E-2   1.078512817621231E-1  -6.994394958019257E-2  -9.572671055793762E-1   2.427082955837250E-1  
 4.540000000000000E7     5.578136444091797E-1  -8.182618618011475E-1   9.234886616468430E-2  -6.705416738986969E-2   9.220395982265472E-2  -6.677779555320740E-2  -9.463701248168945E-1   2.894886434078217E-1  
 4.570000000000000E7     5.183665752410889E-1  -8.456711769104004E-1   7.902704924345017E-2  -6.332274526357651E-2   7.892364263534546E-2  -6.271441280841827E-2  -9.337507486343384E-1   3.331108689308167E-1  
 4.600000000000000E7     4.806888997554779E-1  -8.686389923095703E-1   6.740744411945343E-2  -5.859966948628426E-2   6.757720559835434E-2  -5.870648846030235E-2  -9.197461605072022E-1   3.723802566528320E-1  
 4.630000000000000E7     4.389869868755341E-1  -8.920717239379883E-1   5.742160603404045E-2  -5.459803715348244E-2   5.741364136338234E-2  -5.463010072708130E-2  -9.053652286529541E-1   4.080761373043060E-1  
 4.660000000000000E7     3.989964723587036E-1  -9.125059247016907E-1   4.878165572881699E-2  -5.060474574565888E-2   4.879882931709290E-2  -5.035842955112457E-2  -8.904009461402893E-1   4.427058398723602E-1  
 4.690000000000000E7     3.586441278457642E-1  -9.285593032836914E-1   4.133954271674156E-2  -4.600361362099648E-2   4.126620292663574E-2  -4.599641263484955E-2  -8.749593496322632E-1   4.740882813930512E-1  
 4.720000000000000E7     3.179964423179627E-1  -9.431628584861755E-1   3.480330109596252E-2  -4.210052639245987E-2   3.476387262344360E-2  -4.202574491500855E-2  -8.585163354873657E-1   5.039164423942566E-1  
 4.750000000000000E7     2.785311937332153E-1  -9.569630026817322E-1   2.925295941531658E-2  -3.825392946600914E-2   2.917057648301125E-2  -3.797514736652374E-2  -8.421051502227783E-1   5.309761166572571E-1  
 4.780000000000000E7     2.385259121656418E-1  -9.676350951194763E-1   2.443152107298374E-2  -3.449588641524315E-2   2.443498559296131E-2  -3.435597568750382E-2  -8.250004649162293E-1   5.567752122879028E-1  
 4.810000000000000E7     1.979825496673584E-1  -9.769564270973206E-1   2.030512318015099E-2  -3.084293752908707E-2   2.030544728040695E-2  -3.079017996788025E-2  -8.094737529754639E-1   5.796340107917786E-1  
 4.840000000000000E7     1.582963764667511E-1  -9.848180413246155E-1   1.687273010611534E-2  -2.754422277212143E-2   1.684435456991196E-2  -2.746371924877167E-2  -7.933542132377625E-1   6.019535064697266E-1  
 4.870000000000000E7     1.177813932299614E-1  -9.906571507453919E-1   1.380202546715736E-2  -2.437016740441322E-2   1.383411139249802E-2  -2.430726774036884E-2  -7.766473293304443E-1   6.232301592826843E-1  
 4.900000000000000E7     7.803927361965179E-2  -9.955290555953980E-1   1.137502677738667E-2  -2.145856060087681E-2   1.119894906878471E-2  -2.149283513426781E-2  -7.604586482048035E-1   6.429089903831482E-1  
 4.930000000000000E7     3.823306411504746E-2  -9.977248311042786E-1   9.136174805462360E-3  -1.870035938918591E-2   9.141910821199417E-3  -1.877026446163654E-2  -7.446970343589783E-1   6.622285246849060E-1  
 4.960000000000000E7    -1.034669578075409E-3  -9.963566064834595E-1   7.253031246364117E-3  -1.617444679141045E-2   7.245702669024468E-3  -1.614171825349331E-2  -7.287231683731079E-1   6.797575354576111E-1  
 4.990000000000000E7    -3.916451334953308E-2  -9.960905909538269E-1   5.758969113230705E-3  -1.387321762740612E-2   5.631455220282078E-3  -1.377871446311474E-2  -7.128406167030335E-1   6.962961554527283E-1  
 5.020000000000000E7    -7.682219147682190E-2  -9.953411221504211E-1   4.448612220585346E-3  -1.176854874938726E-2   4.467848222702742E-3  -1.172784715890884E-2  -6.972241997718811E-1   7.123221158981323E-1  
 5.050000000000000E7    -1.157887205481529E-1  -9.911370873451233E-1   3.391883801668882E-3  -9.815648198127747E-3   3.385979915037751E-3  -9.813919663429260E-3  -6.823300719261169E-1   7.280281186103821E-1  
 5.080000000000000E7    -1.523509919643402E-1  -9.865660667419434E-1   2.535408828407526E-3  -8.034072816371918E-3   2.548256190493703E-3  -8.029759861528873E-3  -6.647344231605530E-1   7.411634325981140E-1  
 5.110000000000000E7    -1.902799010276794E-1  -9.795152544975281E-1   1.862377277575433E-3  -6.424380466341972E-3   1.806532498449087E-3  -6.427643354982138E-3  -6.508381366729736E-1   7.551751732826233E-1  
 5.140000000000000E7    -2.270395159721375E-1  -9.712041616439819E-1   1.282459357753396E-3  -5.007495637983084E-3   1.280931755900383E-3  -5.011634901165962E-3  -6.355768442153931E-1   7.700493335723877E-1  
 5.170000000000000E7    -2.625454962253571E-1  -9.624322652816773E-1   8.638842846266925E-4  -3.696478204801679E-3   8.336894679814577E-4  -3.696849802508950E-3  -6.191069483757019E-1   7.806323766708374E-1  
 5.200000000000000E7    -2.982791662216187E-1  -9.531822800636292E-1   5.085836746729910E-4  -2.533301478251815E-3   5.641336902044714E-4  -2.538141328841448E-3  -6.028431653976440E-1   7.919773459434509E-1  
 5.230000000000000E7    -3.334631025791168E-1  -9.401942491531372E-1   2.707850653678179E-4  -1.531289191916585E-3   2.708951942622662E-4  -1.527579035609961E-3  -5.889640450477600E-1   8.038813471794128E-1  
 5.260000000000000E7    -3.672622144222260E-1  -9.265487790107727E-1   1.482830411987379E-4  -6.538406014442444E-4   1.153425400843844E-4  -6.539912428706884E-4  -5.733649134635925E-1   8.151588439941406E-1  
 5.290000000000000E7    -4.019123017787933E-1  -9.132677316665649E-1   3.038123941223603E-5   1.325987541349605E-4   3.130027471343055E-5   1.412604469805956E-4  -5.590045452117920E-1   8.244662284851074E-1  
 5.320000000000000E7    -4.343850612640381E-1  -8.987450599670410E-1  -1.622385752853006E-6   7.505191024392843E-4   9.664610843174160E-6   7.671003695577383E-4  -5.443288087844849E-1   8.353468775749207E-1  
 5.350000000000000E7    -4.658735692501068E-1  -8.817359209060669E-1  -4.654296935768798E-5   1.314813271164894E-3  -2.314212906640023E-5   1.276703318580985E-3  -5.306199789047241E-1   8.436849713325501E-1  
 5.380000000000000E7    -4.962901771068573E-1  -8.642675280570984E-1  -2.068500907626003E-5   1.773792435415089E-3   4.996589268557727E-6   1.743105705827475E-3  -5.138631463050842E-1   8.531275987625122E-1  
 5.410000000000000E7    -5.298051834106445E-1  -8.468152880668640E-1   5.529496411327273E-5   2.079495694488287E-3   4.795068525709212E-5   2.094143768772483E-3  -5.003503561019898E-1   8.622396588325501E-1  
 5.440000000000000E7    -5.590744018554688E-1  -8.261792063713074E-1   1.241967402165756E-4   2.342195250093937E-3   1.167530717793852E-4   2.337450860068202E-3  -4.859791994094849E-1   8.698695898056030E-1  
 5.470000000000000E7    -5.868109464645386E-1  -8.066395521163940E-1   1.691031066002324E-4   2.520454814657569E-3   1.536846539238468E-4   2.503625117242336E-3  -4.705591201782227E-1   8.780131936073303E-1  
 5.500000000000000E7    -6.162156462669373E-1  -7.849616408348084E-1   2.104870509356260E-4   2.639934420585632E-3   2.339003112865612E-4   2.609656658023596E-3  -4.562523663043976E-1   8.868134617805481E-1  
 5.530000000000000E7    -6.434825658798218E-1  -7.627414464950562E-1   2.929029869847000E-4   2.606883877888322E-3   3.264562983531505E-4   2.629755530506373E-3  -4.421224594116211E-1   8.928336501121521E-1  
 5.560000000000000E7    -6.709689497947693E-1  -7.385206222534180E-1   4.043527878820896E-4   2.579175634309650E-3   3.871843218803406E-4   2.565653529018164E-3  -4.283883869647980E-1   8.994651436805725E-1  
 5.590000000000000E7    -6.962506175041199E-1  -7.153225541114807E-1   4.150311870034784E-4   2.455383772030473E-3   4.310464137233794E-4   2.443965757265687E-3  -4.131487607955933E-1   9.068716168403626E-1  
 5.620000000000000E7    -7.212430238723755E-1  -6.888589262962341E-1   4.256865358911455E-4   2.294891513884068E-3   4.514272150117904E-4   2.271544653922319E-3  -3.999551534652710E-1   9.133946895599365E-1  
 5.650000000000000E7    -7.439891099929810E-1  -6.643200516700745E-1   4.310229851398617E-4   2.059828722849488E-3   4.310293588787317E-4   2.048014430329204E-3  -3.853006064891815E-1   9.190691113471985E-1  
 5.680000000000000E7    -7.676336765289307E-1  -6.380127072334290E-1   4.088535497430712E-4   1.798385288566351E-3   4.287140909582377E-4   1.758662983775139E-3  -3.708316683769226E-1   9.246058464050293E-1  
 5.710000000000000E7    -7.896642684936523E-1  -6.093770861625671E-1   3.973931306973100E-4   1.441449974663556E-3   3.919048467651010E-4   1.431823940947652E-3  -3.575450181961060E-1   9.303003549575806E-1  
 5.740000000000000E7    -8.110448122024536E-1  -5.817943215370178E-1   3.101368783973157E-4   1.089065219275653E-3   3.000540891662240E-4   1.039880677126348E-3  -3.428348600864410E-1   9.356107115745544E-1  
 5.770000000000000E7    -8.293559551239014E-1  -5.535742044448853E-1   2.138610288966447E-4   6.734437192790210E-4   1.817465818021447E-4   6.915143458172679E-4  -3.300765156745911E-1   9.393820166587830E-1  
 5.800000000000000E7    -8.488521575927734E-1  -5.235774517059326E-1   4.537292261375114E-5   2.513870131224394E-4   4.500443901633844E-5   2.357841440243647E-4  -3.152167201042175E-1   9.462370872497559E-1  
 5.830000000000000E7    -8.662537336349487E-1  -4.937925636768341E-1  -1.279341668123379E-4  -2.321484062122181E-4  -1.859353506006300E-4  -2.728569379542023E-4  -3.025134503841400E-1   9.503492712974548E-1  
 5.860000000000000E7    -8.842327594757080E-1  -4.640591740608215E-1  -3.967097145505250E-4  -7.449715049006045E-4  -3.689510922413319E-4  -7.434479193761945E-4  -2.876925766468048E-1   9.539929032325745E-1  
 5.890000000000000E7    -8.983297944068909E-1  -4.324525594711304E-1  -6.312460172921419E-4  -1.292855478823185E-3  -6.285153212957084E-4  -1.261373050510883E-3  -2.748997211456299E-1   9.577594995498657E-1  
 5.920000000000000E7    -9.135175943374634E-1  -4.006050825119019E-1  -9.533116244710982E-4  -1.791249611414969E-3  -9.538611629977822E-4  -1.820409786887467E-3  -2.609115540981293E-1   9.627425670623779E-1  
 5.950000000000000E7    -9.265245199203491E-1  -3.688538074493408E-1  -1.260458375327289E-3  -2.375631127506495E-3  -1.271584187634289E-3  -2.395994029939175E-3  -2.468136101961136E-1   9.646060466766357E-1  
 5.980000000000000E7    -9.388392567634583E-1  -3.359105885028839E-1  -1.655615633353591E-3  -2.974770031869412E-3  -1.682008383795619E-3  -2.958130557090044E-3  -2.325936555862427E-1   9.687185287475586E-1  
 6.010000000000000E7    -9.485356807708740E-1  -3.045487701892853E-1  -2.092844806611538E-3  -3.605235833674669E-3  -2.076514065265656E-3  -3.550216089934111E-3  -2.199010998010635E-1   9.723745584487915E-1  
 6.040000000000000E7    -9.590364098548889E-1  -2.699143290519714E-1  -2.605275250971317E-3  -4.150173626840115E-3  -2.578832209110260E-3  -4.160992335528135E-3  -2.064753770828247E-1   9.758549332618713E-1  
 6.070000000000000E7    -9.688085913658142E-1  -2.385614812374115E-1  -3.135416191071272E-3  -4.751197528094053E-3  -3.101659938693047E-3  -4.748978652060032E-3  -1.933209300041199E-1   9.776469469070435E-1  
 6.100000000000000E7    -9.756807088851929E-1  -2.047196030616760E-1  -3.715951927006245E-3  -5.357074551284313E-3  -3.682588925585151E-3  -5.355257540941238E-3  -1.784060746431351E-1   9.809532165527344E-1  
 6.130000000000000E7    -9.828689098358154E-1  -1.701647639274597E-1  -4.313031211495400E-3  -5.984625779092312E-3  -4.310778807848692E-3  -5.955371074378490E-3  -1.648031324148178E-1   9.839779138565064E-1  
 6.160000000000000E7    -9.872212409973145E-1  -1.367333084344864E-1  -4.945879802107811E-3  -6.540610920637846E-3  -4.962731618434191E-3  -6.535721942782402E-3  -1.519780158996582E-1   9.844784736633301E-1  
 6.190000000000000E7    -9.912663102149963E-1  -1.027874946594238E-1  -5.704614333808422E-3  -7.152788341045380E-3  -5.697691813111305E-3  -7.110535167157650E-3  -1.387749910354614E-1   9.859473705291748E-1  
 6.220000000000000E7    -9.949423074722290E-1  -6.913855671882629E-2  -6.418799050152302E-3  -7.729584816843271E-3  -6.435304414480925E-3  -7.726016920059919E-3  -1.262429505586624E-1   9.889726638793945E-1  
 6.250000000000000E7    -9.966760277748108E-1  -3.461062908172607E-2  -7.278395816683769E-3  -8.288253098726273E-3  -7.265027612447739E-3  -8.297824300825596E-3  -1.129963696002960E-1   9.907851815223694E-1  
 6.280000000000000E7    -9.964339733123779E-1  -2.117604017257690E-4  -8.132770657539368E-3  -8.882828056812286E-3  -8.111517876386643E-3  -8.856615051627159E-3  -9.937834739685059E-2   9.923236370086670E-1  
 6.310000000000000E7    -9.960232973098755E-1   3.494474291801453E-2  -9.062778204679489E-3  -9.405912831425667E-3  -9.026318788528442E-3  -9.399613365530968E-3  -8.587658405303955E-2   9.935639500617981E-1  
 6.340000000000000E7    -9.940783381462097E-1   6.897753477096558E-2  -9.987936355173588E-3  -9.909837506711483E-3  -9.981287643313408E-3  -9.899768978357315E-3  -7.221131026744843E-2   9.948478937149048E-1  
 6.370000000000000E7    -9.911906719207764E-1   1.028939187526703E-1  -1.099262945353985E-2  -1.044470071792603E-2  -1.097947079688311E-2  -1.038293167948723E-2  -5.948232114315033E-2   9.947795867919922E-1  
 6.400000000000000E7    -9.862483143806458E-1   1.366676688194275E-1  -1.207780372351408E-2  -1.084875594824553E-2  -1.207482814788818E-2  -1.083833910524845E-2  -4.599766433238983E-2   9.962943792343140E-1  
 6.430000000000000E7    -9.809924364089966E-1   1.715404242277145E-1  -1.317496784031391E-2  -1.135336793959141E-2  -1.313762087374926E-2  -1.127099525183439E-2  -3.249491751194000E-2   9.966539144515991E-1  
 6.460000000000000E7    -9.752652049064636E-1   2.049041837453842E-1  -1.428684685379267E-2  -1.173054054379463E-2  -1.425404008477926E-2  -1.170779578387737E-2  -2.032585442066193E-2   9.960919022560120E-1  
 6.490000000000000E7    -9.683821797370911E-1   2.376651167869568E-1  -1.546282228082418E-2  -1.212017517536879E-2  -1.549547724425793E-2  -1.215190254151821E-2  -7.731318473815918E-3   9.969305992126465E-1  
 6.520000000000000E7    -9.589635729789734E-1   2.706165909767151E-1  -1.674621179699898E-2  -1.251054462045431E-2  -1.668070629239082E-2  -1.245548296719790E-2   5.851998925209045E-3   9.980247020721436E-1  
 6.550000000000000E7    -9.493913054466248E-1   3.026190400123596E-1  -1.803102530539036E-2  -1.280476339161396E-2  -1.799020357429981E-2  -1.280094310641289E-2   1.899816095829010E-2   9.955837130546570E-1  
 6.580000000000000E7    -9.381450414657593E-1   3.357633948326111E-1  -1.936941221356392E-2  -1.302830409258604E-2  -1.930451206862927E-2  -1.305889897048473E-2   3.189302980899811E-2   9.969677925109863E-1  
 6.610000000000000E7    -9.246374964714050E-1   3.679186403751373E-1  -2.075589261949062E-2  -1.325463503599167E-2  -2.065910771489143E-2  -1.314743794500828E-2   4.638154804706574E-2   9.953080415725708E-1  
 6.640000000000000E7    -9.134378433227539E-1   3.990811109542847E-1  -2.215520478785038E-2  -1.347711030393839E-2  -2.214010246098042E-2  -1.349504757672548E-2   5.932229012250900E-2   9.947981238365173E-1  
 6.670000000000000E7    -8.981631398200989E-1   4.300912916660309E-1  -2.358336374163628E-2  -1.354626473039389E-2  -2.356969006359577E-2  -1.361466012895107E-2   7.099694013595581E-2   9.943793416023254E-1  
 6.700000000000000E7    -8.826359510421753E-1   4.607366323471069E-1  -2.509308047592640E-2  -1.366889849305153E-2  -2.500392869114876E-2  -1.363127492368221E-2   8.379480987787247E-2   9.925049543380737E-1  
 6.730000000000000E7    -8.662332892417908E-1   4.909932613372803E-1  -2.654208429157734E-2  -1.372497621923685E-2  -2.657097950577736E-2  -1.362068485468626E-2   9.715473651885986E-2   9.924014210700989E-1  
 6.760000000000000E7    -8.492583632469177E-1   5.203434824943543E-1  -2.826128154993057E-2  -1.359032467007637E-2  -2.815156057476997E-2  -1.365290209650993E-2   1.105618402361870E-1   9.905039072036743E-1  
 6.790000000000000E7    -8.302795886993408E-1   5.494521856307983E-1  -2.974381856620312E-2  -1.359734684228897E-2  -2.975982055068016E-2  -1.355768367648125E-2   1.224588230252266E-1   9.883741140365601E-1  
 6.820000000000000E7    -8.108043074607849E-1   5.767418146133423E-1  -3.138443827629089E-2  -1.342586521059275E-2  -3.138434514403343E-2  -1.343392208218575E-2   1.353532969951630E-1   9.872459173202515E-1  
 6.850000000000000E7    -7.911630868911743E-1   6.051231622695923E-1  -3.313646465539932E-2  -1.332834549248219E-2  -3.305279463529587E-2  -1.323843467980623E-2   1.474267542362213E-1   9.852960109710693E-1  
 6.880000000000000E7    -7.695324420928955E-1   6.315653324127197E-1  -3.485555574297905E-2  -1.299459859728813E-2  -3.469819575548172E-2  -1.293866150081158E-2   1.609009504318237E-1   9.827806353569031E-1  
 6.910000000000000E7    -7.470847368240356E-1   6.578781008720398E-1  -3.660074248909950E-2  -1.267743576318026E-2  -3.654950857162476E-2  -1.265593245625496E-2   1.741757392883301E-1   9.809078574180603E-1  
 6.940000000000000E7    -7.244639396667481E-1   6.832211017608643E-1  -3.830773010849953E-2  -1.232667174190283E-2  -3.835203498601914E-2  -1.229072641581297E-2   1.856564283370972E-1   9.783403873443604E-1  
 6.970000000000000E7    -6.991943717002869E-1   7.080547809600830E-1  -4.007938876748085E-2  -1.178678125143051E-2  -4.014175385236740E-2  -1.172196213155985E-2   1.989267468452454E-1   9.756921529769898E-1  
 7.000000000000000E7    -6.746606826782227E-1   7.324911355972290E-1  -4.199604317545891E-2  -1.130142807960510E-2  -4.193255677819252E-2  -1.126088481396437E-2   2.113191038370132E-1   9.735677242279053E-1  
