#  HZ   S   RI   R     50.00 
! Rohde & Schwarz ZVT8 8Ports - Version 4.11 - 1300.0000k08 SN: 100242
! Date: 2026-07-31 14:46:10
! Measurements: S11 S21 S12 S22 
! 
 1.000000000000000E7    -3.985572159290314E-1   9.129446148872376E-1   5.373447760939598E-2   5.404984578490257E-2   5.384121835231781E-2   5.412763357162476E-2  -9.179713726043701E-1   3.866692781448364E-1  
 1.030000000000000E7    -3.647846877574921E-1   9.260121583938599E-1   5.735754221677780E-2   5.442127957940102E-2   5.720598623156548E-2   5.462591722607613E-2  -9.117895960807800E-1   3.994262218475342E-1  
 1.060000000000000E7    -3.291009664535523E-1   9.386462569236755E-1   6.112562119960785E-2   5.572359263896942E-2   6.108650937676430E-2   5.541614070534706E-2  -9.083851575851440E-1   4.110158085823059E-1  
 1.090000000000000E7    -2.957716584205627E-1   9.488550424575806E-1   6.486395001411438E-2   5.599707737565041E-2   6.466223299503326E-2   5.604045838117600E-2  -9.018492698669434E-1   4.234723150730133E-1  
 1.120000000000000E7    -2.595483064651489E-1   9.580488801002502E-1   6.899278610944748E-2   5.695853382349014E-2   6.844981014728546E-2   5.658289790153503E-2  -8.962709903717041E-1   4.351808726787567E-1  
 1.150000000000000E7    -2.233792841434479E-1   9.683881402015686E-1   7.275401055812836E-2   5.695051699876785E-2   7.254110276699066E-2   5.683491006493568E-2  -8.887721896171570E-1   4.447707533836365E-1  
 1.180000000000000E7    -1.870510727167130E-1   9.733698964118958E-1   7.692037522792816E-2   5.727539956569672E-2   7.699751853942871E-2   5.716144293546677E-2  -8.839098811149597E-1   4.558892548084259E-1  
 1.210000000000000E7    -1.513052135705948E-1   9.800753593444824E-1   8.156125992536545E-2   5.768213421106339E-2   8.129227161407471E-2   5.737190321087837E-2  -8.763787746429443E-1   4.685689508914948E-1  
 1.240000000000000E7    -1.148889809846878E-1   9.837308526039124E-1   8.591815084218979E-2   5.775414034724236E-2   8.607620000839233E-2   5.728522315621376E-2  -8.691993355751038E-1   4.792337119579315E-1  
 1.270000000000000E7    -7.765203714370728E-2   9.868646264076233E-1   9.129147976636887E-2   5.733304470777512E-2   9.072677791118622E-2   5.705188959836960E-2  -8.617854714393616E-1   4.932639002799988E-1  
 1.300000000000000E7    -4.084954783320427E-2   9.897935390472412E-1   9.580522030591965E-2   5.711550638079643E-2   9.563445299863815E-2   5.701063945889473E-2  -8.543570637702942E-1   5.036174654960632E-1  
 1.330000000000000E7    -2.847395837306976E-3   9.906622171401978E-1   1.013457924127579E-1   5.666495114564896E-2   1.010806187987328E-1   5.613458901643753E-2  -8.465508818626404E-1   5.163135528564453E-1  
 1.360000000000000E7     3.657475113868713E-2   9.892640113830566E-1   1.064367890357971E-1   5.615431442856789E-2   1.066399514675140E-1   5.550519004464150E-2  -8.393238782882690E-1   5.263699293136597E-1  
 1.390000000000000E7     7.319557666778565E-2   9.863605499267578E-1   1.122541278600693E-1   5.496059358119965E-2   1.119023710489273E-1   5.513035878539085E-2  -8.305341601371765E-1   5.385730862617493E-1  
 1.420000000000000E7     1.128789484500885E-1   9.827738404273987E-1   1.176420077681541E-1   5.418796837329865E-2   1.177680343389511E-1   5.409218743443489E-2  -8.239743709564209E-1   5.494810938835144E-1  
 1.450000000000000E7     1.509126573801041E-1   9.756364822387695E-1   1.239406019449234E-1   5.258865281939507E-2   1.237590089440346E-1   5.260634422302246E-2  -8.130132555961609E-1   5.621503591537476E-1  
 1.480000000000000E7     1.907972544431686E-1   9.683170914649963E-1   1.300300657749176E-1   5.086371675133705E-2   1.300708651542664E-1   5.145767703652382E-2  -8.052718639373779E-1   5.731676220893860E-1  
 1.510000000000000E7     2.290467172861099E-1   9.586389660835266E-1   1.364943534135819E-1   4.913141578435898E-2   1.360443532466888E-1   4.931018128991127E-2  -7.929646968841553E-1   5.850899219512940E-1  
 1.540000000000000E7     2.667741477489471E-1   9.482345581054688E-1   1.431409418582916E-1   4.823512583971024E-2   1.429705917835236E-1   4.728204756975174E-2  -7.859894633293152E-1   5.959250330924988E-1  
 1.570000000000000E7     3.063005208969116E-1   9.365633726119995E-1   1.501768380403519E-1   4.521434381604195E-2   1.500749289989471E-1   4.510104656219482E-2  -7.748786807060242E-1   6.085681915283203E-1  
 1.600000000000000E7     3.451623916625977E-1   9.207580685615540E-1   1.570652425289154E-1   4.262316226959229E-2   1.574761718511581E-1   4.204479977488518E-2  -7.646110653877258E-1   6.179040074348450E-1  
 1.630000000000000E7     3.831527233123779E-1   9.042727351188660E-1   1.654379069805145E-1   3.883452713489533E-2   1.648848354816437E-1   3.929080069065094E-2  -7.537689805030823E-1   6.310539841651917E-1  
 1.660000000000000E7     4.210821986198425E-1   8.845701217651367E-1   1.731150895357132E-1   3.549092262983322E-2   1.728222817182541E-1   3.478515148162842E-2  -7.411195039749146E-1   6.429141163825989E-1  
 1.690000000000000E7     4.585666060447693E-1   8.645144104957581E-1   1.816423386335373E-1   3.194396197795868E-2   1.812645196914673E-1   3.140595555305481E-2  -7.297579050064087E-1   6.533632278442383E-1  
 1.720000000000000E7     4.980272948741913E-1   8.417036533355713E-1   1.891715228557587E-1   2.649523690342903E-2   1.893745958805084E-1   2.688226662576199E-2  -7.172920107841492E-1   6.640627384185791E-1  
 1.750000000000000E7     5.308516621589661E-1   8.199326395988464E-1   1.992186605930328E-1   2.283289469778538E-2   1.991414278745651E-1   2.232945337891579E-2  -7.052995562553406E-1   6.767588853836060E-1  
 1.780000000000000E7     5.694772601127625E-1   7.891264557838440E-1   2.072779536247253E-1   1.631942205131054E-2   2.077273279428482E-1   1.671476475894451E-2  -6.913051009178162E-1   6.855693459510803E-1  
 1.810000000000000E7     6.037868261337280E-1   7.615037560462952E-1   2.183039337396622E-1   1.035096310079098E-2   2.169572860002518E-1   9.763184934854507E-3  -6.769865751266480E-1   6.995694637298584E-1  
 1.840000000000000E7     6.404678821563721E-1   7.290003299713135E-1   2.284239828586578E-1   1.615084707736969E-3   2.273690551519394E-1   2.297155559062958E-3  -6.615206003189087E-1   7.099440097808838E-1  
 1.870000000000000E7     6.725764870643616E-1   6.956641077995300E-1   2.386786490678787E-1  -5.370689556002617E-3   2.375048547983170E-1  -5.804410204291344E-3  -6.459506154060364E-1   7.200604677200317E-1  
 1.900000000000000E7     7.051827311515808E-1   6.589078903198242E-1   2.494253516197205E-1  -1.422600354999304E-2   2.489241361618042E-1  -1.480375789105892E-2  -6.298387050628662E-1   7.307686805725098E-1  
 1.930000000000000E7     7.364401817321777E-1   6.181485056877136E-1   2.602322995662689E-1  -2.553768828511238E-2   2.605504989624023E-1  -2.457008138298988E-2  -6.121014356613159E-1   7.421812415122986E-1  
 1.960000000000000E7     7.664855718612671E-1   5.744125247001648E-1   2.715317904949188E-1  -3.674058988690376E-2   2.719462811946869E-1  -3.617579862475395E-2  -5.963597297668457E-1   7.513923645019531E-1  
 1.990000000000000E7     7.922280430793762E-1   5.291399955749512E-1   2.835375666618347E-1  -4.974844306707382E-2   2.838026881217957E-1  -4.987883567810059E-2  -5.744777917861939E-1   7.624991536140442E-1  
 2.020000000000000E7     8.178544044494629E-1   4.792784154415131E-1   2.964981794357300E-1  -6.402208656072617E-2   2.955279946327210E-1  -6.365182250738144E-2  -5.560107231140137E-1   7.691848278045654E-1  
 2.050000000000000E7     8.424337506294251E-1   4.256700277328491E-1   3.089652955532074E-1  -8.001543581485748E-2   3.068260848522186E-1  -8.001545071601868E-2  -5.346484780311585E-1   7.780826091766357E-1  
 2.080000000000000E7     8.610619902610779E-1   3.677969574928284E-1   3.218548893928528E-1  -9.889890253543854E-2   3.218759894371033E-1  -9.884887933731079E-2  -5.120722651481628E-1   7.874084711074829E-1  
 2.110000000000000E7     8.777074813842773E-1   3.070864677429199E-1   3.348653912544251E-1  -1.211539357900620E-1   3.346118628978729E-1  -1.207454577088356E-1  -4.880862832069397E-1   7.937115430831909E-1  
 2.140000000000000E7     8.891010284423828E-1   2.428264021873474E-1   3.475947082042694E-1  -1.457673013210297E-1   3.463474214076996E-1  -1.436503082513809E-1  -4.627202749252319E-1   7.990204095840454E-1  
 2.170000000000000E7     8.951442241668701E-1   1.749069094657898E-1   3.600400984287262E-1  -1.719968318939209E-1   3.600433468818665E-1  -1.705843061208725E-1  -4.365481138229370E-1   8.029571771621704E-1  
 2.200000000000000E7     8.954637646675110E-1   9.976932406425476E-2   3.708526492118835E-1  -2.031910419464111E-1   3.710688352584839E-1  -2.024681866168976E-1  -4.070567488670349E-1   8.051017522811890E-1  
 2.230000000000000E7     8.870250582695007E-1   2.301318198442459E-2   3.810296654701233E-1  -2.382598519325256E-1   3.808925747871399E-1  -2.370360195636749E-1  -3.774666190147400E-1   8.051455616950989E-1  
 2.260000000000000E7     8.703714013099670E-1  -5.882742628455162E-2   3.883204460144043E-1  -2.778497636318207E-1   3.904184997081757E-1  -2.784227132797241E-1  -3.467372357845306E-1   8.019550442695618E-1  
 2.290000000000000E7     8.417601585388184E-1  -1.433771252632141E-1   3.934421241283417E-1  -3.227606415748596E-1   3.950606286525726E-1  -3.228650689125061E-1  -3.123692274093628E-1   7.952142357826233E-1  
 2.320000000000000E7     7.997505068778992E-1  -2.282254844903946E-1   3.944602906703949E-1  -3.748034536838532E-1   3.933925628662109E-1  -3.744014501571655E-1  -2.794070839881897E-1   7.873210310935974E-1  
 2.350000000000000E7     7.414869070053101E-1  -3.142436742782593E-1   3.878835737705231E-1  -4.327402710914612E-1   3.876051902770996E-1  -4.309386312961578E-1  -2.449138760566711E-1   7.717135548591614E-1  
 2.380000000000000E7     6.663311123847961E-1  -3.973100185394287E-1   3.739916682243347E-1  -4.936690628528595E-1   3.743452727794647E-1  -4.936421811580658E-1  -2.114968299865723E-1   7.505902647972107E-1  
 2.410000000000000E7     5.702276229858398E-1  -4.718698263168335E-1   3.474710881710053E-1  -5.611633062362671E-1   3.474143147468567E-1  -5.603627562522888E-1  -1.795147210359573E-1   7.231273651123047E-1  
 2.440000000000000E7     4.526133537292481E-1  -5.307584404945374E-1   3.076474070549011E-1  -6.322413682937622E-1   3.072687983512878E-1  -6.319115161895752E-1  -1.540635377168655E-1   6.881812214851379E-1  
 2.470000000000000E7     3.159950971603394E-1  -5.698332786560059E-1   2.503651678562164E-1  -7.026277780532837E-1   2.519512474536896E-1  -7.004967331886292E-1  -1.303780525922775E-1   6.449316740036011E-1  
 2.500000000000000E7     1.610189676284790E-1  -5.803974270820618E-1   1.747640222311020E-1  -7.651101946830750E-1   1.742541491985321E-1  -7.651397585868835E-1  -1.189632937312126E-1   5.994445681571960E-1  
 2.530000000000000E7    -2.747271908447146E-3  -5.503553748130798E-1   8.081493526697159E-2  -8.181129097938538E-1   8.090642839670181E-2  -8.167414665222168E-1  -1.192461624741554E-1   5.472187995910645E-1  
 2.560000000000000E7    -1.604170352220535E-1  -4.788939952850342E-1  -2.999073453247547E-2  -8.497444391250610E-1  -3.075280040502548E-2  -8.496445417404175E-1  -1.348794400691986E-1   4.964596629142761E-1  
 2.590000000000000E7    -2.941688299179077E-1  -3.628659248352051E-1  -1.517760455608368E-1  -8.571181297302246E-1  -1.508767306804657E-1  -8.576260805130005E-1  -1.609705984592438E-1   4.540756344795227E-1  
 2.620000000000000E7    -3.971890807151794E-1  -2.121634483337402E-1  -2.750647962093353E-1  -8.359271883964539E-1  -2.734128534793854E-1  -8.351371288299561E-1  -1.997655332088471E-1   4.193965494632721E-1  
 2.650000000000000E7    -4.565767645835877E-1  -4.102941602468491E-2  -3.865379989147186E-1  -7.850561738014221E-1  -3.878748714923859E-1  -7.856149673461914E-1  -2.494894117116928E-1   3.999326527118683E-1  
 2.680000000000000E7    -4.655253589153290E-1   1.344779431819916E-1  -4.827226400375366E-1  -7.136865258216858E-1  -4.825903177261353E-1  -7.126003503799439E-1  -3.001846969127655E-1   3.972820937633514E-1  
 2.710000000000000E7    -4.324101209640503E-1   2.953339517116547E-1  -5.576774477958679E-1  -6.271618604660034E-1  -5.576778054237366E-1  -6.271536350250244E-1  -3.442763090133667E-1   4.081955850124359E-1  
 2.740000000000000E7    -3.646577298641205E-1   4.393697082996368E-1  -6.072199940681458E-1  -5.346034169197083E-1  -6.070247888565064E-1  -5.325990915298462E-1  -3.853912651538849E-1   4.332760274410248E-1  
 2.770000000000000E7    -2.743442654609680E-1   5.512610077857971E-1  -6.381006836891174E-1  -4.410136640071869E-1  -6.381856799125671E-1  -4.413545429706574E-1  -4.152392446994782E-1   4.662033915519714E-1  
 2.800000000000000E7    -1.710061579942703E-1   6.377350091934204E-1  -6.503999233245850E-1  -3.517076671123505E-1  -6.490741372108460E-1  -3.524520695209503E-1  -4.378754794597626E-1   5.029418468475342E-1  
 2.830000000000000E7    -6.255114078521729E-2   6.965211033821106E-1  -6.495277881622315E-1  -2.720420658588409E-1  -6.495480537414551E-1  -2.730743885040283E-1  -4.478071928024292E-1   5.416305065155029E-1  
 2.860000000000000E7     4.509442299604416E-2   7.322767972946167E-1  -6.387573480606079E-1  -2.013366520404816E-1  -6.394323110580444E-1  -1.998246610164642E-1  -4.500969648361206E-1   5.838044285774231E-1  
 2.890000000000000E7     1.470167934894562E-1   7.482214570045471E-1  -6.227164268493652E-1  -1.379698067903519E-1  -6.213836669921875E-1  -1.377926766872406E-1  -4.454506635665894E-1   6.228800415992737E-1  
 2.920000000000000E7     2.451251000165939E-1   7.504264712333679E-1  -5.997927784919739E-1  -8.423176407814026E-2  -5.993101596832275E-1  -8.270476013422012E-2  -4.348219335079193E-1   6.596605777740479E-1  
 2.950000000000000E7     3.313879966735840E-1   7.384648323059082E-1  -5.762055516242981E-1  -3.684074059128761E-2  -5.753088593482971E-1  -3.599678352475166E-2  -4.175650477409363E-1   6.976676583290100E-1  
 2.980000000000000E7     4.121225774288178E-1   7.197733521461487E-1  -5.495075583457947E-1   3.704339265823364E-3  -5.496922135353088E-1   3.886427730321884E-3  -3.959389328956604E-1   7.309700846672058E-1  
 3.010000000000000E7     4.845177531242371E-1   6.923730969429016E-1  -5.234719514846802E-1   3.999882563948631E-2  -5.225830674171448E-1   3.925887867808342E-2  -3.709691464900971E-1   7.621209025382996E-1  
 3.040000000000000E7     5.496987104415894E-1   6.597121953964233E-1  -4.978369474411011E-1   6.873642653226852E-2  -4.974759221076965E-1   6.921368837356567E-2  -3.401734530925751E-1   7.896044850349426E-1  
 3.070000000000000E7     6.093356013298035E-1   6.221961975097656E-1  -4.714592099189758E-1   9.786701947450638E-2  -4.714886546134949E-1   9.718400985002518E-2  -3.080902695655823E-1   8.159042596817017E-1  
 3.100000000000000E7     6.611368656158447E-1   5.832900404930115E-1  -4.473241567611694E-1   1.212038844823837E-1  -4.460736215114594E-1   1.213322430849075E-1  -2.722087800502777E-1   8.394121527671814E-1  
 3.130000000000000E7     7.060434222221375E-1   5.418993234634399E-1  -4.216232597827911E-1   1.420195400714874E-1  -4.215504527091980E-1   1.409119963645935E-1  -2.327672541141510E-1   8.593165278434753E-1  
 3.160000000000000E7     7.475984096527100E-1   4.983874261379242E-1  -3.988335430622101E-1   1.603720933198929E-1  -3.989993333816528E-1   1.596614718437195E-1  -1.914761066436768E-1   8.785198330879211E-1  
 3.190000000000000E7     7.827806472778320E-1   4.547014236450195E-1  -3.753885030746460E-1   1.767358332872391E-1  -3.746241927146912E-1   1.762013137340546E-1  -1.458368003368378E-1   8.938310146331787E-1  
 3.220000000000000E7     8.150056600570679E-1   4.105091691017151E-1  -3.529507219791412E-1   1.903583407402039E-1  -3.521281480789185E-1   1.908731609582901E-1  -9.868974983692169E-2   9.055099487304688E-1  
 3.250000000000000E7     8.424463868141174E-1   3.657752573490143E-1  -3.314452767372131E-1   2.044603228569031E-1  -3.310247957706451E-1   2.046640664339066E-1  -4.627478867769241E-2   9.165141582489014E-1  
 3.280000000000000E7     8.644856214523315E-1   3.195242583751679E-1  -3.099009394645691E-1   2.167776226997376E-1  -3.076778650283814E-1   2.161213755607605E-1   8.837111294269562E-3   9.213361740112305E-1  
 3.310000000000000E7     8.848605751991272E-1   2.749405205249786E-1  -2.871686518192291E-1   2.271845191717148E-1  -2.866984903812408E-1   2.271535843610764E-1   6.922790408134460E-2   9.228513240814209E-1  
 3.340000000000000E7     9.021409749984741E-1   2.309795022010803E-1  -2.657398581504822E-1   2.383690476417542E-1  -2.651895284652710E-1   2.373188585042954E-1   1.320004761219025E-1   9.188074469566345E-1  
 3.370000000000000E7     9.150910973548889E-1   1.859649717807770E-1  -2.440122961997986E-1   2.466165274381638E-1  -2.439648807048798E-1   2.460039258003235E-1   1.992588043212891E-1   9.112837910652161E-1  
 3.400000000000000E7     9.264142513275147E-1   1.424556225538254E-1  -2.221770584583283E-1   2.553175687789917E-1  -2.223848998546600E-1   2.546858191490173E-1   2.707920074462891E-1   8.940797448158264E-1  
 3.430000000000000E7     9.355677962303162E-1   9.934088587760925E-2  -1.996442079544067E-1   2.628056108951569E-1  -1.996267586946487E-1   2.625079751014710E-1   3.461492061614990E-1   8.706449866294861E-1  
 3.460000000000000E7     9.413841366767883E-1   5.571470409631729E-2  -1.769375056028366E-1   2.696503996849060E-1  -1.772042661905289E-1   2.697480022907257E-1   4.267358779907227E-1   8.377195596694946E-1  
 3.490000000000000E7     9.463640451431274E-1   1.375426352024078E-2  -1.520158946514130E-1   2.747938930988312E-1  -1.527120471000671E-1   2.748566567897797E-1   5.069999694824219E-1   7.920778393745422E-1  
 3.520000000000000E7     9.487680792808533E-1  -2.755744755268097E-2  -1.285929530858994E-1   2.790968418121338E-1  -1.281356662511826E-1   2.792564034461975E-1   5.942317247390747E-1   7.332613468170166E-1  
 3.550000000000000E7     9.475838541984558E-1  -6.938177347183228E-2  -1.031979173421860E-1   2.818334996700287E-1  -1.030440926551819E-1   2.817953824996948E-1   6.788077354431152E-1   6.592278480529785E-1  
 3.580000000000000E7     9.472086429595947E-1  -1.096439212560654E-1  -7.604524493217468E-2   2.817699015140533E-1  -7.610476016998291E-2   2.814120948314667E-1   7.593790292739868E-1   5.655476450920105E-1  
 3.610000000000000E7     9.446741342544556E-1  -1.485895365476608E-1  -4.767837747931480E-2   2.798085808753967E-1  -4.783581197261810E-2   2.789168357849121E-1   8.355364799499512E-1   4.503999650478363E-1  
 3.640000000000000E7     9.403171539306641E-1  -1.878903508186340E-1  -1.965395174920559E-2   2.737440466880798E-1  -2.008460834622383E-2   2.732385098934174E-1   8.978034853935242E-1   3.152672946453095E-1  
 3.670000000000000E7     9.357231259346008E-1  -2.253821641206741E-1   8.895885199308395E-3   2.644027471542358E-1   8.905630558729172E-3   2.632203698158264E-1   9.414611458778381E-1   1.569518893957138E-1  
 3.700000000000000E7     9.284181594848633E-1  -2.631720900535584E-1   3.676679357886314E-2   2.490257173776627E-1   3.629361465573311E-2   2.484476864337921E-1   9.559497237205505E-1  -2.007606625556946E-2  
 3.730000000000000E7     9.201416969299316E-1  -3.016232550144196E-1   6.173780560493469E-2   2.298385351896286E-1   6.182423979043961E-2   2.296930700540543E-1   9.365915060043335E-1  -2.086752653121948E-1  
 3.760000000000000E7     9.114840626716614E-1  -3.374940156936646E-1   8.347856253385544E-2   2.053356617689133E-1   8.391118049621582E-2   2.056825011968613E-1   8.745008111000061E-1  -4.009220898151398E-1  
 3.790000000000000E7     9.006518721580505E-1  -3.753401041030884E-1   1.009599342942238E-1   1.776725351810455E-1   1.007454693317413E-1   1.775711327791214E-1   7.697407603263855E-1  -5.810490846633911E-1  
 3.820000000000000E7     8.892681002616882E-1  -4.134919047355652E-1   1.116332858800888E-1   1.479860246181488E-1   1.116691976785660E-1   1.484519690275192E-1   6.260852217674255E-1  -7.410140633583069E-1  
 3.850000000000000E7     8.743884563446045E-1  -4.508859813213348E-1   1.160376965999603E-1   1.182063072919846E-1   1.161903515458107E-1   1.176792532205582E-1   4.491314291954041E-1  -8.644239902496338E-1  
 3.880000000000000E7     8.582327961921692E-1  -4.863515496253967E-1   1.136475130915642E-1   8.999627083539963E-2   1.135635301470757E-1   8.950567245483398E-2   2.545611560344696E-1  -9.421812891960144E-1  
 3.910000000000000E7     8.409975171089172E-1  -5.229215025901794E-1   1.070548444986343E-1   6.491480767726898E-2   1.069429367780685E-1   6.481654942035675E-2   5.627182871103287E-2  -9.789893627166748E-1  
 3.940000000000000E7     8.204387426376343E-1  -5.562079548835754E-1   9.599446505308151E-2   4.386802017688751E-2   9.596981108188629E-2   4.385731741786003E-2  -1.346953958272934E-1  -9.746695160865784E-1  
 3.970000000000000E7     8.000628948211670E-1  -5.900331139564514E-1   8.339775353670120E-2   2.749875374138355E-2   8.352361619472504E-2   2.761449478566647E-2  -3.106184601783752E-1  -9.360065460205078E-1  
 4.000000000000000E7     7.762177586555481E-1  -6.221443414688110E-1   6.975150853395462E-2   1.551404036581516E-2   6.970421969890595E-2   1.534880604594946E-2  -4.622389376163483E-1  -8.731467127799988E-1  
 4.030000000000000E7     7.526023387908936E-1  -6.527085900306702E-1   5.619306862354279E-2   7.182473316788673E-3   5.635963380336762E-2   6.864462979137898E-3  -5.910215973854065E-1  -7.940974235534668E-1  
 4.060000000000000E7     7.272139787673950E-1  -6.815477609634399E-1   4.357365891337395E-2   1.518317498266697E-3   4.366380721330643E-2   1.664530951529741E-3  -6.971393823623657E-1  -7.052090167999268E-1  
 4.090000000000000E7     7.005020380020142E-1  -7.097494006156921E-1   3.236369788646698E-2  -1.406316878274083E-3   3.211333230137825E-2  -1.409257296472788E-3  -7.801766991615295E-1  -6.122112274169922E-1  
 4.120000000000000E7     6.736745834350586E-1  -7.364664673805237E-1   2.217712812125683E-2  -2.563764108344913E-3   2.221977524459362E-2  -2.536510583013296E-3  -8.475573062896729E-1  -5.182057619094849E-1  
 4.150000000000000E7     6.461654901504517E-1  -7.600210905075073E-1   1.361871976405382E-2  -2.461219206452370E-3   1.359341107308865E-2  -2.268102718517184E-3  -8.972622156143189E-1  -4.280303120613098E-1  
 4.180000000000000E7     6.165315508842468E-1  -7.850900292396545E-1   6.186462938785553E-3  -1.296777511015534E-3   6.213685963302851E-3  -1.382062211632729E-3  -9.331006407737732E-1  -3.412819802761078E-1  
 4.210000000000000E7     5.875462889671326E-1  -8.067797422409058E-1   1.429663680028170E-4   3.814317169599235E-4   1.634881773497909E-4   3.942221228498966E-4  -9.598548412322998E-1  -2.597678601741791E-1  
 4.240000000000000E7     5.576032400131226E-1  -8.269660472869873E-1  -4.861283581703901E-3   2.502251416444778E-3  -4.864674061536789E-3   2.334234770387411E-3  -9.778715372085571E-1  -1.837395131587982E-1  
 4.270000000000000E7     5.261502861976624E-1  -8.469287753105164E-1  -9.054093621671200E-3   4.725954961031675E-3  -8.928931318223476E-3   4.674805793911219E-3  -9.899498224258423E-1  -1.103836372494698E-1  
 4.300000000000000E7     4.946658611297607E-1  -8.661262989044190E-1  -1.226405426859856E-2   7.003464736044407E-3  -1.214447990059853E-2   6.956152152270079E-3  -9.952028989791870E-1  -4.320728778839111E-2  
 4.330000000000000E7     4.654814004898071E-1  -8.836048841476440E-1  -1.475773099809885E-2   9.419269859790802E-3  -1.473360043019056E-2   9.311781264841557E-3  -9.954184293746948E-1   1.846063509583473E-2  
 4.360000000000000E7     4.321089386940002E-1  -8.989365696907044E-1  -1.665414869785309E-2   1.151351816952229E-2  -1.661917939782143E-2   1.158149261027575E-2  -9.937509894371033E-1   7.598452270030975E-2  
 4.390000000000000E7     3.989771902561188E-1  -9.153923988342285E-1  -1.797998882830143E-2   1.381756272166967E-2  -1.809583790600300E-2   1.381052751094103E-2  -9.863438606262207E-1   1.297558546066284E-1  
 4.420000000000000E7     3.661757111549377E-1  -9.276023507118225E-1  -1.900303550064564E-2   1.582869514822960E-2  -1.904508471488953E-2   1.575802266597748E-2  -9.785510897636414E-1   1.801387816667557E-1  
 4.450000000000000E7     3.328420221805573E-1  -9.399432539939880E-1  -1.972354762256146E-2   1.757753267884255E-2  -1.957943104207516E-2   1.774152740836144E-2  -9.701150059700012E-1   2.252803742885590E-1  
 4.480000000000000E7     2.996262907981873E-1  -9.512160420417786E-1  -1.988412812352181E-2   1.930300332605839E-2  -1.985518261790276E-2   1.932081952691078E-2  -9.585558176040649E-1   2.679003179073334E-1  
 4.510000000000000E7     2.672424316406250E-1  -9.615932703018189E-1  -1.993252150714397E-2   2.092056535184383E-2  -1.989072188735008E-2   2.084736898541451E-2  -9.471323490142822E-1   3.080570399761200E-1  
 4.540000000000000E7     2.329543083906174E-1  -9.697448015213013E-1  -1.965388469398022E-2   2.235681563615799E-2  -1.968812569975853E-2   2.230559475719929E-2  -9.344978928565979E-1   3.456564843654633E-1  
 4.570000000000000E7     1.987310796976090E-1  -9.777005314826965E-1  -1.930360309779644E-2   2.357468195259571E-2  -1.930348388850689E-2   2.338045649230480E-2  -9.207037687301636E-1   3.807597458362579E-1  
 4.600000000000000E7     1.670967191457748E-1  -9.832295179367065E-1  -1.883658580482006E-2   2.441010251641274E-2  -1.883507519960403E-2   2.457054704427719E-2  -9.065430164337158E-1   4.131921231746674E-1  
 4.630000000000000E7     1.300658881664276E-1  -9.889898896217346E-1  -1.819076761603355E-2   2.554626576602459E-2  -1.820276491343975E-2   2.540941722691059E-2  -8.917490839958191E-1   4.427816867828369E-1  
 4.660000000000000E7     9.506942331790924E-2  -9.936505556106567E-1  -1.739059947431088E-2   2.628009393811226E-2  -1.741472259163857E-2   2.626152895390987E-2  -8.776416778564453E-1   4.730200171470642E-1  
 4.690000000000000E7     6.173250079154968E-2  -9.954576492309570E-1  -1.653230562806130E-2   2.676098793745041E-2  -1.665405184030533E-2   2.676503732800484E-2  -8.623718619346619E-1   4.996596574783325E-1  
 4.720000000000000E7     2.709886059165001E-2  -9.967783689498901E-1  -1.562774553894997E-2   2.734852954745293E-2  -1.559948362410069E-2   2.730621211230755E-2  -8.466472029685974E-1   5.257412791252136E-1  
 4.750000000000000E7    -6.614431738853455E-3  -9.979611635208130E-1  -1.478493399918079E-2   2.763353288173676E-2  -1.478378660976887E-2   2.759682945907116E-2  -8.308358192443848E-1   5.493741035461426E-1  
 4.780000000000000E7    -4.019747674465179E-2  -9.969460964202881E-1  -1.368824020028114E-2   2.800982072949410E-2  -1.377891283482313E-2   2.786377258598805E-2  -8.145456910133362E-1   5.723722577095032E-1  
 4.810000000000000E7    -7.533698529005051E-2  -9.948388338088989E-1  -1.275059767067432E-2   2.798647806048393E-2  -1.282597891986370E-2   2.797694504261017E-2  -7.997505068778992E-1   5.932594537734985E-1  
 4.840000000000000E7    -1.089654266834259E-1  -9.922386407852173E-1  -1.186380721628666E-2   2.798813953995705E-2  -1.183744799345732E-2   2.797186933457851E-2  -7.845456600189209E-1   6.139123439788818E-1  
 4.870000000000000E7    -1.429487466812134E-1  -9.876306056976318E-1  -1.078028045594692E-2   2.793424203991890E-2  -1.079048402607441E-2   2.788985148072243E-2  -7.688732743263245E-1   6.332851648330689E-1  
 4.900000000000000E7    -1.772469878196716E-1  -9.828096628189087E-1  -9.936858899891377E-3   2.790570259094238E-2  -9.688604623079300E-3   2.768766134977341E-2  -7.534101605415344E-1   6.513603925704956E-1  
 4.930000000000000E7    -2.108817547559738E-1  -9.758289456367493E-1  -8.927684277296066E-3   2.759206295013428E-2  -8.824262768030167E-3   2.751740626990795E-2  -7.379235029220581E-1   6.697335839271545E-1  
 4.960000000000000E7    -2.428430616855621E-1  -9.663087129592896E-1  -7.898434996604919E-3   2.715191058814526E-2  -7.822802290320396E-3   2.713631466031075E-2  -7.222924232482910E-1   6.858491897583008E-1  
 4.990000000000000E7    -2.749510407447815E-1  -9.580336809158325E-1  -6.961924023926258E-3   2.665915712714195E-2  -6.964829284697771E-3   2.668811380863190E-2  -7.075656056404114E-1   7.014211416244507E-1  
 5.020000000000000E7    -3.073706030845642E-1  -9.498724341392517E-1  -6.035573780536652E-3   2.628141269087791E-2  -6.215900182723999E-3   2.618077956140041E-2  -6.922419071197510E-1   7.168929576873779E-1  
 5.050000000000000E7    -3.400164246559143E-1  -9.381582140922546E-1  -5.277265794575214E-3   2.565135806798935E-2  -5.180883686989546E-3   2.560400962829590E-2  -6.779017448425293E-1   7.316906452178955E-1  
 5.080000000000000E7    -3.709107935428619E-1  -9.267268180847168E-1  -4.422598518431187E-3   2.502806484699249E-2  -4.412473645061255E-3   2.515690773725510E-2  -6.608783006668091E-1   7.442193031311035E-1  
 5.110000000000000E7    -4.026347994804382E-1  -9.127561450004578E-1  -3.623230615630746E-3   2.441924810409546E-2  -3.656366840004921E-3   2.430851012468338E-2  -6.471176743507385E-1   7.576841115951538E-1  
 5.140000000000000E7    -4.330654740333557E-1  -8.983608484268189E-1  -2.948999870568514E-3   2.355964668095112E-2  -2.850739983841777E-3   2.361535467207432E-2  -6.324573755264282E-1   7.720771431922913E-1  
 5.170000000000000E7    -4.625369310379028E-1  -8.836178183555603E-1  -2.151746302843094E-3   2.281623147428036E-2  -2.205820754170418E-3   2.279018051922321E-2  -6.164330840110779E-1   7.824486494064331E-1  
 5.200000000000000E7    -4.927484989166260E-1  -8.691614866256714E-1  -1.534416223876178E-3   2.199038676917553E-2  -1.560866599902511E-3   2.202491648495197E-2  -6.006119251251221E-1   7.936859130859375E-1  
 5.230000000000000E7    -5.214020013809204E-1  -8.503552675247192E-1  -9.591585258021951E-4   2.110452950000763E-2  -9.117443114519119E-4   2.110494859516621E-2  -5.866267085075378E-1   8.054307699203491E-1  
 5.260000000000000E7    -5.492546558380127E-1  -8.315281271934509E-1  -3.715169150382280E-4   2.019555307924748E-2  -3.657108172774315E-4   2.016700059175491E-2  -5.718330740928650E-1   8.162176012992859E-1  
 5.290000000000000E7    -5.780621767044067E-1  -8.127471804618835E-1   1.355905551463366E-4   1.918925158679485E-2   1.522460952401161E-4   1.921464875340462E-2  -5.572011470794678E-1   8.255652189254761E-1  
 5.320000000000000E7    -6.046915650367737E-1  -7.943801879882813E-1   5.910808686167002E-4   1.824907399713993E-2   6.542936898767948E-4   1.826354302465916E-2  -5.425857901573181E-1   8.358260989189148E-1  
 5.350000000000000E7    -6.297519207000732E-1  -7.732637524604797E-1   9.629522683098912E-4   1.721622049808502E-2   9.691233281046152E-4   1.720981858670712E-2  -5.294539332389832E-1   8.445510864257813E-1  
 5.380000000000000E7    -6.540185213088989E-1  -7.517266273498535E-1   1.305086887441576E-3   1.624384149909020E-2   1.342203584499657E-3   1.617288403213024E-2  -5.132066011428833E-1   8.534382581710815E-1  
 5.410000000000000E7    -6.817190051078796E-1  -7.292643785476685E-1   1.598377595655620E-3   1.518781483173370E-2   1.639682450331748E-3   1.508813165128231E-2  -4.997877776622772E-1   8.627834916114807E-1  
 5.440000000000000E7    -7.050670981407166E-1  -7.055575251579285E-1   1.841440796852112E-3   1.408879738301039E-2   1.890824642032385E-3   1.405960228294134E-2  -4.850202500820160E-1   8.702265024185181E-1  
 5.470000000000000E7    -7.268226146697998E-1  -6.824520230293274E-1   2.070955000817776E-3   1.294840965420008E-2   2.079630736261606E-3   1.297422405332327E-2  -4.699113368988037E-1   8.783882260322571E-1  
 5.500000000000000E7    -7.504602670669556E-1  -6.576609611511231E-1   2.185873687267304E-3   1.191371027380228E-2   2.140694297850132E-3   1.186646148562431E-2  -4.560171663761139E-1   8.867202997207642E-1  
 5.530000000000000E7    -7.717545628547669E-1  -6.323679089546204E-1   2.207572339102626E-3   1.074793189764023E-2   2.258868422359228E-3   1.073715463280678E-2  -4.416671097278595E-1   8.931469321250916E-1  
 5.560000000000000E7    -7.930377721786499E-1  -6.053128242492676E-1   2.243343275040388E-3   9.659007191658020E-3   2.242412883788347E-3   9.600208140909672E-3  -4.280173480510712E-1   9.000898003578186E-1  
 5.590000000000000E7    -8.129599094390869E-1  -5.798230171203613E-1   2.173464512452483E-3   8.496114052832127E-3   2.179201226681471E-3   8.460133336484432E-3  -4.129754602909088E-1   9.070684313774109E-1  
 5.620000000000000E7    -8.314641714096069E-1  -5.500620603561401E-1   2.055698772892356E-3   7.336332928389311E-3   2.034777542576194E-3   7.317752577364445E-3  -3.998617529869080E-1   9.134698510169983E-1  
 5.650000000000000E7    -8.488453030586243E-1  -5.239576101303101E-1   1.873295870609582E-3   6.206899881362915E-3   1.859957119449973E-3   6.191388703882694E-3  -3.855462670326233E-1   9.190393686294556E-1  
 5.680000000000000E7    -8.661783337593079E-1  -4.949082136154175E-1   1.673442428000271E-3   5.099126603454351E-3   1.642907503992319E-3   5.039626732468605E-3  -3.706987500190735E-1   9.244298934936523E-1  
 5.710000000000000E7    -8.826965093612671E-1  -4.645031988620758E-1   1.375219551846385E-3   3.906155237928033E-3   1.377789187245071E-3   3.910077735781670E-3  -3.572498559951782E-1   9.302448630332947E-1  
 5.740000000000000E7    -8.979489207267761E-1  -4.349863231182098E-1   1.025400008074939E-3   2.799993380904198E-3   1.033734646625817E-3   2.746266778558493E-3  -3.427908718585968E-1   9.359830021858215E-1  
 5.770000000000000E7    -9.108579158782959E-1  -4.058301448822022E-1   6.215963512659073E-4   1.629817998036742E-3   5.859472439624369E-4   1.626223092898727E-3  -3.300283551216126E-1   9.394666552543640E-1  
 5.800000000000000E7    -9.242264628410339E-1  -3.739227652549744E-1   1.520604564575478E-4   5.196260171942413E-4   1.250324712600559E-4   5.162394954822958E-4  -3.155277669429779E-1   9.461897015571594E-1  
 5.830000000000000E7    -9.361155629158020E-1  -3.429408371448517E-1  -4.079336649738252E-4  -5.641823518089950E-4  -3.722135443240404E-4  -5.943419528193772E-4  -3.023803532123566E-1   9.502738714218140E-1  
 5.860000000000000E7    -9.481432437896729E-1  -3.119052648544312E-1  -9.811085183173418E-4  -1.675300998613238E-3  -9.644881356507540E-4  -1.657404354773462E-3  -2.880188226699829E-1   9.540852904319763E-1  
 5.890000000000000E7    -9.568808078765869E-1  -2.798930406570435E-1  -1.662785187363625E-3  -2.748166210949421E-3  -1.628635800443590E-3  -2.743182238191366E-3  -2.746177613735199E-1   9.574183821678162E-1  
 5.920000000000000E7    -9.659282565116882E-1  -2.467289566993713E-1  -2.362960018217564E-3  -3.790342947468162E-3  -2.336085308343172E-3  -3.768128575757146E-3  -2.609511911869049E-1   9.627915620803833E-1  
 5.950000000000000E7    -9.732891321182251E-1  -2.147842645645142E-1  -3.107019700109959E-3  -4.824614152312279E-3  -3.058761358261108E-3  -4.800044000148773E-3  -2.465422451496124E-1   9.647698998451233E-1  
 5.980000000000000E7    -9.805597066879273E-1  -1.814620941877365E-1  -3.916569054126740E-3  -5.825522821396589E-3  -3.921714611351490E-3  -5.828737746924162E-3  -2.326053678989410E-1   9.686307311058044E-1  
 6.010000000000000E7    -9.846270084381104E-1  -1.501753032207489E-1  -4.773914348334074E-3  -6.820273119956255E-3  -4.751684144139290E-3  -6.830401718616486E-3  -2.197932004928589E-1   9.724442958831787E-1  
 6.040000000000000E7    -9.896638393402100E-1  -1.153346002101898E-1  -5.752708762884140E-3  -7.770761381834745E-3  -5.695061758160591E-3  -7.764735259115696E-3  -2.062184959650040E-1   9.759879708290100E-1  
 6.070000000000000E7    -9.939808845520020E-1  -8.373625576496124E-2  -6.683428306132555E-3  -8.741891011595726E-3  -6.696691270917654E-3  -8.723704144358635E-3  -1.929481327533722E-1   9.776989817619324E-1  
 6.100000000000000E7    -9.958177804946899E-1  -5.007596313953400E-2  -7.824273779988289E-3  -9.561678394675255E-3  -7.761573418974876E-3  -9.597974829375744E-3  -1.779810339212418E-1   9.811826944351196E-1  
 6.130000000000000E7    -9.973385334014893E-1  -1.574404537677765E-2  -8.866186253726482E-3  -1.048343162983656E-2  -8.850692771375179E-3  -1.046808622777462E-2  -1.643621325492859E-1   9.837321639060974E-1  
 6.160000000000000E7    -9.965281486511231E-1   1.681800186634064E-2  -9.983244352042675E-3  -1.126762293279171E-2  -1.001624856144190E-2  -1.126799639314413E-2  -1.516880244016647E-1   9.847233295440674E-1  
 6.190000000000000E7    -9.952581524848938E-1   5.010002851486206E-2  -1.122522167861462E-2  -1.207247190177441E-2  -1.116292737424374E-2  -1.203025877475739E-2  -1.383939236402512E-1   9.857955574989319E-1  
 6.220000000000000E7    -9.934930801391602E-1   8.367175608873367E-2  -1.244621910154820E-2  -1.281952112913132E-2  -1.245027408003807E-2  -1.283955853432417E-2  -1.258236318826675E-1   9.889286756515503E-1  
 6.250000000000000E7    -9.899887442588806E-1   1.170816943049431E-1  -1.376912835985422E-2  -1.357131265103817E-2  -1.377389952540398E-2  -1.350928470492363E-2  -1.126540303230286E-1   9.903290271759033E-1  
 6.280000000000000E7    -9.848818182945252E-1   1.499972045421600E-1  -1.514026895165443E-2  -1.422118674963713E-2  -1.507948990911245E-2  -1.423411443829536E-2  -9.897486865520477E-2   9.922670125961304E-1  
 6.310000000000000E7    -9.788616299629211E-1   1.843121945858002E-1  -1.661874353885651E-2  -1.486531645059586E-2  -1.652149856090546E-2  -1.485058385878801E-2  -8.526632189750671E-2   9.934098720550537E-1  
 6.340000000000000E7    -9.724514484405518E-1   2.166963964700699E-1  -1.804605498909950E-2  -1.546686887741089E-2  -1.797001808881760E-2  -1.538550294935703E-2  -7.161653041839600E-2   9.946966767311096E-1  
 6.370000000000000E7    -9.644737839698792E-1   2.491982281208038E-1  -1.954296417534351E-2  -1.591844484210014E-2  -1.949754729866982E-2  -1.587934046983719E-2  -5.870749056339264E-2   9.944845438003540E-1  
 6.400000000000000E7    -9.545640945434570E-1   2.811899185180664E-1  -2.113945968449116E-2  -1.635116897523403E-2  -2.105352468788624E-2  -1.634349115192890E-2  -4.516407847404480E-2   9.964047074317932E-1  
 6.430000000000000E7    -9.446877241134644E-1   3.144581615924835E-1  -2.273443713784218E-2  -1.687896996736527E-2  -2.268936857581139E-2  -1.673618331551552E-2  -3.191347420215607E-2   9.963927865028381E-1  
 6.460000000000000E7    -9.339241981506348E-1   3.462627530097961E-1  -2.436934225261211E-2  -1.714507490396500E-2  -2.433888055384159E-2  -1.715612411499023E-2  -1.940378546714783E-2   9.956926107406616E-1  
 6.490000000000000E7    -9.230262637138367E-1   3.773435354232788E-1  -2.602622658014298E-2  -1.749423518776894E-2  -2.606165409088135E-2  -1.751954108476639E-2  -6.841376423835754E-3   9.969673156738281E-1  
 6.520000000000000E7    -9.084826111793518E-1   4.074806571006775E-1  -2.783450484275818E-2  -1.781260967254639E-2  -2.773150801658630E-2  -1.770057901740074E-2   6.865084171295166E-3   9.973075389862061E-1  
 6.550000000000000E7    -8.950314521789551E-1   4.378606975078583E-1  -2.961132675409317E-2  -1.792603731155396E-2  -2.955459430813789E-2  -1.790822111070156E-2   1.991812884807587E-2   9.951263666152954E-1  
 6.580000000000000E7    -8.787879943847656E-1   4.682127237319946E-1  -3.137918189167976E-2  -1.799649186432362E-2  -3.136171400547028E-2  -1.804494112730026E-2   3.313761949539185E-2   9.965106844902039E-1  
 6.610000000000000E7    -8.614759445190430E-1   4.973217844963074E-1  -3.337781876325607E-2  -1.798681914806366E-2  -3.313627839088440E-2  -1.788535714149475E-2   4.777543246746063E-2   9.946789741516113E-1  
 6.640000000000000E7    -8.456181287765503E-1   5.268706083297730E-1  -3.526025265455246E-2  -1.801375672221184E-2  -3.520057350397110E-2  -1.809726655483246E-2   6.026053428649902E-2   9.941211342811585E-1  
 6.670000000000000E7    -8.265495300292969E-1   5.549263954162598E-1  -3.708846494555473E-2  -1.794883050024509E-2  -3.706588223576546E-2  -1.798431947827339E-2   7.228241115808487E-2   9.938426017761231E-1  
 6.700000000000000E7    -8.066736459732056E-1   5.825657844543457E-1  -3.910746052861214E-2  -1.776347681879997E-2  -3.891596198081970E-2  -1.773278415203095E-2   8.533126115798950E-2   9.915808439254761E-1  
 6.730000000000000E7    -7.865633368492127E-1   6.093739271163940E-1  -4.103529080748558E-2  -1.754140108823776E-2  -4.100006818771362E-2  -1.743617095053196E-2   9.885854274034500E-2   9.914317727088928E-1  
 6.760000000000000E7    -7.657642960548401E-1   6.361514329910278E-1  -4.329290986061096E-2  -1.712463982403278E-2  -4.306018352508545E-2  -1.719043962657452E-2   1.120764389634132E-1   9.895692467689514E-1  
 6.790000000000000E7    -7.426679134368897E-1   6.620362401008606E-1  -4.505286365747452E-2  -1.677422039210796E-2  -4.510938003659248E-2  -1.674905046820641E-2   1.241340041160584E-1   9.872884154319763E-1  
 6.820000000000000E7    -7.197394967079163E-1   6.858799457550049E-1  -4.723567888140678E-2  -1.623741537332535E-2  -4.714504629373550E-2  -1.637155935168266E-2   1.366528123617172E-1   9.861431121826172E-1  
 6.850000000000000E7    -6.962561607360840E-1   7.111307382583618E-1  -4.941188544034958E-2  -1.589987426996231E-2  -4.926847666501999E-2  -1.578640565276146E-2   1.489793062210083E-1   9.843227267265320E-1  
 6.880000000000000E7    -6.709434986114502E-1   7.341392040252686E-1  -5.151701718568802E-2  -1.501900330185890E-2  -5.131866410374641E-2  -1.505402661859989E-2   1.624517142772675E-1   9.815433025360107E-1  
 6.910000000000000E7    -6.453649997711182E-1   7.566393613815308E-1  -5.377997830510140E-2  -1.437394041568041E-2  -5.359454080462456E-2  -1.430649030953646E-2   1.757999956607819E-1   9.795574545860291E-1  
 6.940000000000000E7    -6.194177269935608E-1   7.782939672470093E-1  -5.589491873979569E-2  -1.366748847067356E-2  -5.583374947309494E-2  -1.357930898666382E-2   1.874584108591080E-1   9.772222638130188E-1  
 6.970000000000000E7    -5.910480618476868E-1   7.986924052238464E-1  -5.799132585525513E-2  -1.262532640248537E-2  -5.805220454931259E-2  -1.244462002068758E-2   2.009326964616776E-1   9.744967222213745E-1  
 7.000000000000000E7    -5.634835362434387E-1   8.197306394577026E-1  -6.037317216396332E-2  -1.167786773294210E-2  -6.012931093573570E-2  -1.154965814203024E-2   2.130048871040344E-1   9.723567366600037E-1  
