#  HZ   S   RI   R     50.00 
! Rohde & Schwarz ZVT8 8Ports - Version 4.11 - 1300.0000k08 SN: 100242
! Date: 2026-07-31 14:46:54
! Measurements: S11 S21 S12 S22 
! 
 1.000000000000000E7    -3.965118527412415E-1   9.138023257255554E-1   5.459085106849670E-2   5.467873066663742E-2   5.433958023786545E-2   5.465827882289887E-2  -9.176623821258545E-1   3.874610364437103E-1  
 1.030000000000000E7    -3.631920516490936E-1   9.264875650405884E-1   5.815035849809647E-2   5.514001846313477E-2   5.798000097274780E-2   5.507835745811462E-2  -9.115738272666931E-1   4.000267982482910E-1  
 1.060000000000000E7    -3.264196515083313E-1   9.393503069877625E-1   6.200240179896355E-2   5.623777210712433E-2   6.190302222967148E-2   5.604662373661995E-2  -9.079061746597290E-1   4.123364984989166E-1  
 1.090000000000000E7    -2.933048903942108E-1   9.493886232376099E-1   6.574860960245132E-2   5.648674815893173E-2   6.566811352968216E-2   5.661543831229210E-2  -9.016554355621338E-1   4.237894415855408E-1  
 1.120000000000000E7    -2.561417520046234E-1   9.589751362800598E-1   7.009197771549225E-2   5.764416605234146E-2   6.966646015644074E-2   5.741215869784355E-2  -8.955984115600586E-1   4.361798167228699E-1  
 1.150000000000000E7    -2.195573151111603E-1   9.686226844787598E-1   7.403065264225006E-2   5.759704485535622E-2   7.380577921867371E-2   5.744455009698868E-2  -8.883192539215088E-1   4.452296197414398E-1  
 1.180000000000000E7    -1.832163929939270E-1   9.737375974655151E-1   7.837861776351929E-2   5.801402404904366E-2   7.837957143783569E-2   5.802242457866669E-2  -8.836941123008728E-1   4.565118551254273E-1  
 1.210000000000000E7    -1.473982483148575E-1   9.804463386535645E-1   8.309610933065414E-2   5.862718075513840E-2   8.295093476772308E-2   5.830425024032593E-2  -8.758572340011597E-1   4.689230620861054E-1  
 1.240000000000000E7    -1.099708974361420E-1   9.841304421424866E-1   8.781421184539795E-2   5.858758464455605E-2   8.775789290666580E-2   5.811877176165581E-2  -8.690947294235230E-1   4.793965220451355E-1  
 1.270000000000000E7    -7.251005619764328E-2   9.872292280197144E-1   9.330270439386368E-2   5.819169804453850E-2   9.281448274850845E-2   5.805594474077225E-2  -8.614507913589478E-1   4.938563704490662E-1  
 1.300000000000000E7    -3.494987264275551E-2   9.894159436225891E-1   9.803603589534760E-2   5.793549865484238E-2   9.794337302446365E-2   5.770384892821312E-2  -8.535950779914856E-1   5.046208500862122E-1  
 1.330000000000000E7     3.533158451318741E-3   9.904351830482483E-1   1.038282066583633E-1   5.761352553963661E-2   1.037371903657913E-1   5.713166669011116E-2  -8.458452820777893E-1   5.170634984970093E-1  
 1.360000000000000E7     4.388654232025147E-2   9.887778759002686E-1   1.095003411173821E-1   5.707821995019913E-2   1.095622330904007E-1   5.642569810152054E-2  -8.383836150169373E-1   5.273728966712952E-1  
 1.390000000000000E7     8.149580657482147E-2   9.853821992874146E-1   1.153583005070686E-1   5.590257048606873E-2   1.150270923972130E-1   5.622816085815430E-2  -8.302047252655029E-1   5.398544073104858E-1  
 1.420000000000000E7     1.215746700763702E-1   9.810689687728882E-1   1.214875876903534E-1   5.512211099267006E-2   1.213496997952461E-1   5.521824583411217E-2  -8.228796124458313E-1   5.503062605857849E-1  
 1.450000000000000E7     1.604326963424683E-1   9.734733104705811E-1   1.279843449592590E-1   5.362203717231751E-2   1.278000026941299E-1   5.354166775941849E-2  -8.112018704414368E-1   5.632435083389282E-1  
 1.480000000000000E7     2.014821618795395E-1   9.652726054191589E-1   1.346880495548248E-1   5.175629258155823E-2   1.344438642263413E-1   5.236228182911873E-2  -8.031476140022278E-1   5.743196010589600E-1  
 1.510000000000000E7     2.404911667108536E-1   9.550790190696716E-1   1.414303332567215E-1   4.993054270744324E-2   1.412506401538849E-1   4.995790496468544E-2  -7.910875678062439E-1   5.863535404205322E-1  
 1.540000000000000E7     2.796420156955719E-1   9.434838891029358E-1   1.487543582916260E-1   4.864461347460747E-2   1.485860198736191E-1   4.794698208570480E-2  -7.839411497116089E-1   5.971093773841858E-1  
 1.570000000000000E7     3.197503685951233E-1   9.310512542724609E-1   1.566004604101181E-1   4.550835490226746E-2   1.564292609691620E-1   4.563817754387856E-2  -7.724450230598450E-1   6.099441647529602E-1  
 1.600000000000000E7     3.600898385047913E-1   9.138214588165283E-1   1.641608178615570E-1   4.257110878825188E-2   1.644776612520218E-1   4.221639782190323E-2  -7.621482610702515E-1   6.194862127304077E-1  
 1.630000000000000E7     3.990955352783203E-1   8.958415985107422E-1   1.732355058193207E-1   3.891266509890556E-2   1.727375984191895E-1   3.906560689210892E-2  -7.506092786788940E-1   6.330719590187073E-1  
 1.660000000000000E7     4.379710555076599E-1   8.740655779838562E-1   1.820805966854096E-1   3.477434068918228E-2   1.814930886030197E-1   3.441763669252396E-2  -7.371451854705811E-1   6.443617939949036E-1  
 1.690000000000000E7     4.767763018608093E-1   8.520790934562683E-1   1.914914697408676E-1   3.107892349362373E-2   1.908258795738220E-1   3.050412982702255E-2  -7.253279685974121E-1   6.551112532615662E-1  
 1.720000000000000E7     5.174981951713562E-1   8.275410532951355E-1   2.002873271703720E-1   2.497973479330540E-2   2.003780305385590E-1   2.538368664681912E-2  -7.125114798545837E-1   6.656026244163513E-1  
 1.750000000000000E7     5.521647334098816E-1   8.025534749031067E-1   2.115753293037415E-1   2.073083817958832E-2   2.113766819238663E-1   2.014451287686825E-2  -7.000772953033447E-1   6.787322759628296E-1  
 1.780000000000000E7     5.923175811767578E-1   7.684217691421509E-1   2.207794189453125E-1   1.319191046059132E-2   2.212721258401871E-1   1.372214779257774E-2  -6.856074929237366E-1   6.870757341384888E-1  
 1.810000000000000E7     6.280031800270081E-1   7.370625734329224E-1   2.335871309041977E-1   6.067125126719475E-3   2.318814396858215E-1   5.373379215598106E-3  -6.702391505241394E-1   7.014466524124146E-1  
 1.840000000000000E7     6.655534505844116E-1   7.005857229232788E-1   2.450451254844666E-1  -3.741852939128876E-3   2.439985126256943E-1  -3.190353512763977E-3  -6.542333364486694E-1   7.115197181701660E-1  
 1.870000000000000E7     6.985930800437927E-1   6.618885397911072E-1   2.573398053646088E-1  -1.255753729492426E-2   2.561783790588379E-1  -1.301013212651014E-2  -6.370689272880554E-1   7.218545079231262E-1  
 1.900000000000000E7     7.322340607643127E-1   6.191810965538025E-1   2.700184583663940E-1  -2.336013503372669E-2   2.693221867084503E-1  -2.403656207025051E-2  -6.191706657409668E-1   7.316492795944214E-1  
 1.930000000000000E7     7.643576264381409E-1   5.716166496276856E-1   2.827699184417725E-1  -3.746621310710907E-2   2.830343544483185E-1  -3.645540773868561E-2  -6.004990935325623E-1   7.429735660552979E-1  
 1.960000000000000E7     7.940865755081177E-1   5.201846361160278E-1   2.963741421699524E-1  -5.167993158102036E-2   2.966361641883850E-1  -5.099165439605713E-2  -5.825864076614380E-1   7.515605688095093E-1  
 1.990000000000000E7     8.194261193275452E-1   4.655801057815552E-1   3.108420968055725E-1  -6.842303276062012E-2   3.112877309322357E-1  -6.850443780422211E-2  -5.588837862014771E-1   7.620638608932495E-1  
 2.020000000000000E7     8.430950641632080E-1   4.053249657154083E-1   3.262339532375336E-1  -8.732207119464874E-2   3.253651857376099E-1  -8.683652430772781E-2  -5.378028750419617E-1   7.677297592163086E-1  
 2.050000000000000E7     8.647828102111816E-1   3.390347957611084E-1   3.411753773689270E-1  -1.089606732130051E-1   3.389334976673126E-1  -1.087626367807388E-1  -5.137629508972168E-1   7.751114368438721E-1  
 2.080000000000000E7     8.785139918327332E-1   2.674352824687958E-1   3.564864993095398E-1  -1.352033764123917E-1   3.566009104251862E-1  -1.350128352642059E-1  -4.881547093391419E-1   7.821857929229736E-1  
 2.110000000000000E7     8.872157335281372E-1   1.912978887557983E-1   3.712076842784882E-1  -1.659015566110611E-1   3.711450695991516E-1  -1.656760573387146E-1  -4.604542851448059E-1   7.852438092231751E-1  
 2.140000000000000E7     8.881686329841614E-1   1.092884168028832E-1   3.852786421775818E-1  -2.012793123722076E-1   3.841902613639832E-1  -1.990383267402649E-1  -4.317086935043335E-1   7.874692678451538E-1  
 2.170000000000000E7     8.790684342384338E-1   2.129436284303665E-2   3.977290689945221E-1  -2.405759841203690E-1   3.980185985565186E-1  -2.392994016408920E-1  -4.007263779640198E-1   7.861487865447998E-1  
 2.200000000000000E7     8.570665121078491E-1  -7.477325946092606E-2   4.062044024467468E-1  -2.871593534946442E-1   4.067097604274750E-1  -2.865955829620361E-1  -3.671703040599823E-1   7.808609008789063E-1  
 2.230000000000000E7     8.190549612045288E-1  -1.728440374135971E-1   4.113041460514069E-1  -3.406749665737152E-1   4.115294814109802E-1  -3.396236896514893E-1  -3.336659371852875E-1   7.715856432914734E-1  
 2.260000000000000E7     7.622362971305847E-1  -2.744273543357849E-1   4.088117778301239E-1  -4.014105200767517E-1   4.106065034866333E-1  -4.025162160396576E-1  -3.002668619155884E-1   7.557170987129211E-1  
 2.290000000000000E7     6.815983653068543E-1  -3.738827407360077E-1   3.977734446525574E-1  -4.703723192214966E-1   3.988516926765442E-1  -4.712363481521606E-1  -2.643297612667084E-1   7.334896326065064E-1  
 2.320000000000000E7     5.738936066627502E-1  -4.634450972080231E-1   3.727624714374542E-1  -5.474920868873596E-1   3.717580437660217E-1  -5.466264486312866E-1  -2.334513068199158E-1   7.071100473403931E-1  
 2.350000000000000E7     4.361919164657593E-1  -5.366196036338806E-1   3.284897506237030E-1  -6.278308033943176E-1   3.290873765945435E-1  -6.259831190109253E-1  -2.069889307022095E-1   6.686747074127197E-1  
 2.380000000000000E7     2.707091569900513E-1  -5.824429988861084E-1   2.638780772686005E-1  -7.048580646514893E-1   2.641938924789429E-1  -7.051308751106262E-1  -1.892253011465073E-1   6.222918629646301E-1  
 2.410000000000000E7     8.494804054498673E-2  -5.834541320800781E-1   1.733919680118561E-1  -7.733531594276428E-1   1.739712953567505E-1  -7.727515101432800E-1  -1.838141977787018E-1   5.713686347007752E-1  
 2.440000000000000E7    -1.064014062285423E-1  -5.288080573081970E-1   6.014057248830795E-2  -8.234845995903015E-1   6.017235666513443E-2  -8.226894736289978E-1  -1.968508064746857E-1   5.193337798118591E-1  
 2.470000000000000E7    -2.828057706356049E-1  -4.188749194145203E-1  -6.949094682931900E-2  -8.448948860168457E-1  -6.787215173244476E-2  -8.430210351943970E-1  -2.227072268724442E-1   4.688896238803864E-1  
 2.500000000000000E7    -4.230600595474243E-1  -2.573000192642212E-1  -2.016954571008682E-1  -8.284227252006531E-1  -2.018636167049408E-1  -8.287236690521240E-1  -2.647535800933838E-1   4.363563954830170E-1  
 2.530000000000000E7    -5.065997838973999E-1  -6.099846214056015E-2  -3.251174688339233E-1  -7.804011702537537E-1  -3.243504464626312E-1  -7.793176174163818E-1  -3.168476819992065E-1   4.166554510593414E-1  
 2.560000000000000E7    -5.284077525138855E-1   1.403061449527741E-1  -4.271814823150635E-1  -7.032046914100647E-1  -4.274525344371796E-1  -7.022781372070313E-1  -3.710782229900360E-1   4.172820448875427E-1  
 2.590000000000000E7    -4.919184744358063E-1   3.267562389373779E-1  -5.041875839233398E-1  -6.118170619010925E-1  -5.039263963699341E-1  -6.131881475448608E-1  -4.167214035987854E-1   4.338838756084442E-1  
 2.620000000000000E7    -4.163604080677033E-1   4.871389269828796E-1  -5.537689924240112E-1  -5.148326158523560E-1  -5.523412227630615E-1  -5.145238637924194E-1  -4.547479152679443E-1   4.621184170246124E-1  
 2.650000000000000E7    -3.145684599876404E-1   6.117517948150635E-1  -5.759711265563965E-1  -4.197632968425751E-1  -5.773113965988159E-1  -4.194135963916779E-1  -4.835175871849060E-1   4.992978572845459E-1  
 2.680000000000000E7    -1.992583423852921E-1   7.015920877456665E-1  -5.824664235115051E-1  -3.335938155651093E-1  -5.820867419242859E-1  -3.331912159919739E-1  -4.998891353607178E-1   5.402835607528687E-1  
 2.710000000000000E7    -8.294801414012909E-2   7.616921663284302E-1  -5.776951909065247E-1  -2.565009593963623E-1  -5.781619548797607E-1  -2.558922469615936E-1  -5.065626502037048E-1   5.813483595848084E-1  
 2.740000000000000E7     3.188202530145645E-2   7.965915799140930E-1  -5.606247186660767E-1  -1.917495876550674E-1  -5.604434013366699E-1  -1.909722983837128E-1  -5.044695138931274E-1   6.223290562629700E-1  
 2.770000000000000E7     1.386653184890747E-1   8.109686374664307E-1  -5.405573248863220E-1  -1.343868672847748E-1  -5.412641167640686E-1  -1.350181698799133E-1  -4.963219761848450E-1   6.613930463790894E-1  
 2.800000000000000E7     2.378833889961243E-1   8.107942938804627E-1  -5.157691240310669E-1  -8.603577315807343E-2  -5.151485204696655E-1  -8.714361488819122E-2  -4.831128716468811E-1   6.971992254257202E-1  
 2.830000000000000E7     3.287299275398254E-1   7.978915572166443E-1  -4.905558228492737E-1  -4.574738442897797E-2  -4.919543564319611E-1  -4.614885896444321E-2  -4.661883413791657E-1   7.294917106628418E-1  
 2.860000000000000E7     4.104697108268738E-1   7.779421806335449E-1  -4.656385481357575E-1  -1.222905516624451E-2  -4.661797583103180E-1  -1.098577678203583E-2  -4.428831934928894E-1   7.620667219161987E-1  
 2.890000000000000E7     4.830070137977600E-1   7.503153085708618E-1  -4.414174258708954E-1   1.755732297897339E-2  -4.404811859130859E-1   1.723687537014484E-2  -4.182855784893036E-1   7.897963523864746E-1  
 2.920000000000000E7     5.498715043067932E-1   7.177485823631287E-1  -4.160498678684235E-1   4.085138812661171E-2  -4.155110716819763E-1   4.215799272060394E-2  -3.916004300117493E-1   8.150070309638977E-1  
 2.950000000000000E7     6.060897707939148E-1   6.817489862442017E-1  -3.927415907382965E-1   6.222690269351006E-2  -3.920401334762573E-1   6.260425597429276E-2  -3.609257936477661E-1   8.407000899314880E-1  
 2.980000000000000E7     6.594626307487488E-1   6.439526677131653E-1  -3.694638609886169E-1   7.970915734767914E-2  -3.698168098926544E-1   8.010575175285339E-2  -3.282674551010132E-1   8.626054525375366E-1  
 3.010000000000000E7     7.059941887855530E-1   6.028240919113159E-1  -3.475304245948792E-1   9.608814120292664E-2  -3.473052382469177E-1   9.507779777050018E-2  -2.944001853466034E-1   8.822361230850220E-1  
 3.040000000000000E7     7.476267814636231E-1   5.610853433609009E-1  -3.273631632328033E-1   1.081330850720406E-1  -3.272556364536285E-1   1.085278019309044E-1  -2.556745111942291E-1   8.988533020019531E-1  
 3.070000000000000E7     7.849977612495422E-1   5.163344144821167E-1  -3.064610958099365E-1   1.210821196436882E-1  -3.063737452030182E-1   1.207990124821663E-1  -2.166126966476440E-1   9.148135185241699E-1  
 3.100000000000000E7     8.180273771286011E-1   4.731791913509369E-1  -2.878153920173645E-1   1.314489841461182E-1  -2.870946824550629E-1   1.314245462417603E-1  -1.744883358478546E-1   9.290768504142761E-1  
 3.130000000000000E7     8.458862304687500E-1   4.297749102115631E-1  -2.686843872070313E-1   1.400555223226547E-1  -2.687400579452515E-1   1.393932402133942E-1  -1.301029622554779E-1   9.387605786323547E-1  
 3.160000000000000E7     8.717306256294251E-1   3.850876688957214E-1  -2.514953613281250E-1   1.480239480733872E-1  -2.515638768672943E-1   1.478034555912018E-1  -8.322153240442276E-2   9.493082761764526E-1  
 3.190000000000000E7     8.933464884757996E-1   3.408092260360718E-1  -2.339504063129425E-1   1.549869775772095E-1  -2.333205193281174E-1   1.545497179031372E-1  -3.240934386849403E-2   9.548382759094238E-1  
 3.220000000000000E7     9.130713939666748E-1   2.972648143768311E-1  -2.173046618700028E-1   1.600506603717804E-1  -2.167058289051056E-1   1.602751165628433E-1   1.885974407196045E-2   9.576092958450317E-1  
 3.250000000000000E7     9.293063879013062E-1   2.532717287540436E-1  -2.010478824377060E-1   1.656633019447327E-1  -2.006251811981201E-1   1.658670306205750E-1   7.582434266805649E-2   9.591786861419678E-1  
 3.280000000000000E7     9.415346980094910E-1   2.083098888397217E-1  -1.848326623439789E-1   1.705107092857361E-1  -1.835605055093765E-1   1.695629358291626E-1   1.355243921279907E-1   9.537815451622009E-1  
 3.310000000000000E7     9.526300430297852E-1   1.659626662731171E-1  -1.682477295398712E-1   1.732688695192337E-1  -1.677996963262558E-1   1.732757240533829E-1   1.999311894178391E-1   9.443079233169556E-1  
 3.340000000000000E7     9.620263576507568E-1   1.230115890502930E-1  -1.519531160593033E-1   1.769009828567505E-1  -1.517429351806641E-1   1.762043237686157E-1   2.666242122650147E-1   9.290216565132141E-1  
 3.370000000000000E7     9.675007462501526E-1   8.025826513767242E-2  -1.359259635210037E-1   1.782996207475662E-1  -1.359475553035736E-1   1.779923439025879E-1   3.374724984169006E-1   9.084262251853943E-1  
 3.400000000000000E7     9.723425507545471E-1   3.841100633144379E-2  -1.198140829801559E-1   1.798490136861801E-1  -1.201160252094269E-1   1.797098666429520E-1   4.118868708610535E-1   8.776619434356690E-1  
 3.430000000000000E7     9.753843545913696E-1  -3.115043044090271E-3  -1.034805402159691E-1   1.802993416786194E-1  -1.034113615751267E-1   1.801554858684540E-1   4.892766475677490E-1   8.389970064163208E-1  
 3.460000000000000E7     9.755221605300903E-1  -4.501503705978394E-2  -8.714520931243897E-2   1.797355860471726E-1  -8.726181089878082E-2   1.799068748950958E-1   5.704869031906128E-1   7.885470390319824E-1  
 3.490000000000000E7     9.751368761062622E-1  -8.568029105663300E-2  -6.997531652450562E-2   1.775943338871002E-1  -7.031856477260590E-2   1.778870373964310E-1   6.493471264839172E-1   7.245542407035828E-1  
 3.520000000000000E7     9.730609655380249E-1  -1.254144161939621E-1  -5.382511019706726E-2   1.746255755424500E-1  -5.378559231758118E-2   1.746917665004730E-1   7.318559885025024E-1   6.443276405334473E-1  
 3.550000000000000E7     9.670256376266480E-1  -1.659838110208511E-1  -3.728929907083511E-2   1.701182872056961E-1  -3.723479434847832E-2   1.701148301362991E-1   8.088790774345398E-1   5.486082434654236E-1  
 3.580000000000000E7     9.618896842002869E-1  -2.050607353448868E-1  -2.075391449034214E-2   1.631384640932083E-1  -2.084762975573540E-2   1.629620492458344E-1   8.765016198158264E-1   4.313766360282898E-1  
 3.610000000000000E7     9.550368785858154E-1  -2.432654201984406E-1  -4.408720880746841E-3   1.543951183557510E-1  -4.648964852094650E-3   1.540348529815674E-1   9.331136345863342E-1   2.935833930969238E-1  
 3.640000000000000E7     9.460249543190002E-1  -2.816316187381744E-1   1.009670644998550E-2   1.430434286594391E-1   9.781211614608765E-3   1.428805738687515E-1   9.699997901916504E-1   1.383109837770462E-1  
 3.670000000000000E7     9.365984201431274E-1  -3.181174397468567E-1   2.331976965069771E-2   1.298116743564606E-1   2.330077439546585E-2   1.292609572410584E-1   9.803591370582581E-1  -3.563183546066284E-2  
 3.700000000000000E7     9.251254796981812E-1  -3.551535308361054E-1   3.402683883905411E-2   1.140202805399895E-1   3.377924859523773E-2   1.136083900928497E-1   9.562087655067444E-1  -2.191986441612244E-1  
 3.730000000000000E7     9.112695455551148E-1  -3.918393254280090E-1   4.155074059963226E-2   9.668508917093277E-2   4.158744961023331E-2   9.657020866870880E-2   8.960312008857727E-1  -4.044343233108521E-1  
 3.760000000000000E7     8.972662687301636E-1  -4.259065389633179E-1   4.553353413939476E-2   7.831856608390808E-2   4.565514996647835E-2   7.828187197446823E-2   7.938420176506043E-1  -5.802241563796997E-1  
 3.790000000000000E7     8.810769915580750E-1  -4.614644050598145E-1   4.595869034528732E-2   6.027566641569138E-2   4.595694318413734E-2   6.019768863916397E-2   6.554375886917114E-1  -7.331511974334717E-1  
 3.820000000000000E7     8.641091585159302E-1  -4.966009557247162E-1   4.269422963261604E-2   4.364015534520149E-2   4.266587644815445E-2   4.372038319706917E-2   4.875873327255249E-1  -8.574303984642029E-1  
 3.850000000000000E7     8.438384532928467E-1  -5.302873849868774E-1   3.641499578952789E-2   2.917512878775597E-2   3.632949292659760E-2   2.910152822732925E-2   2.993539273738861E-1  -9.409281015396118E-1  
 3.880000000000000E7     8.238912224769592E-1  -5.615201592445374E-1   2.779464423656464E-2   1.764868386089802E-2   2.774045988917351E-2   1.754550635814667E-2   1.066525354981422E-1  -9.814153909683228E-1  
 3.910000000000000E7     8.027136325836182E-1  -5.934112071990967E-1   1.830524392426014E-2   9.100577794015408E-3   1.828627288341522E-2   9.044989943504334E-3  -8.129268139600754E-2  -9.862161278724670E-1  
 3.940000000000000E7     7.790508270263672E-1  -6.216100454330444E-1   8.279474452137947E-3   3.352152183651924E-3   8.195532485842705E-3   3.424627007916570E-3  -2.547937631607056E-1  -9.570427536964417E-1  
 3.970000000000000E7     7.572612762451172E-1  -6.508843302726746E-1  -1.113947597332299E-3   3.184603410772979E-4  -1.097859698347747E-3   2.728363033384085E-4  -4.112032651901245E-1  -9.018119573593140E-1  
 4.000000000000000E7     7.314795851707459E-1  -6.781515479087830E-1  -9.849796071648598E-3  -6.879960419610143E-4  -9.849866852164269E-3  -7.496643811464310E-4  -5.431463718414307E-1  -8.294510245323181E-1  
 4.030000000000000E7     7.068223953247070E-1  -7.042939662933350E-1  -1.723682880401611E-2  -1.932794693857431E-4  -1.728286407887936E-2  -1.422993373125792E-4  -6.536854505538940E-1  -7.459999322891235E-1  
 4.060000000000000E7     6.808950901031494E-1  -7.294756174087524E-1  -2.352837659418583E-2   1.414310652762651E-3  -2.354713901877403E-2   1.418028492480516E-3  -7.443582415580750E-1  -6.565485000610352E-1  
 4.090000000000000E7     6.534552574157715E-1  -7.538891434669495E-1  -2.871527150273323E-2   4.000518936663866E-3  -2.861173450946808E-2   4.011358600109816E-3  -8.156093358993530E-1  -5.657686591148377E-1  
 4.120000000000000E7     6.265362501144409E-1  -7.769664525985718E-1  -3.260413184762001E-2   6.811143830418587E-3  -3.265631571412087E-2   6.747010163962841E-3  -8.727356195449829E-1  -4.751378297805786E-1  
 4.150000000000000E7     5.988820195198059E-1  -7.976109385490418E-1  -3.556462749838829E-2   9.735465049743652E-3  -3.558956831693649E-2   9.656999260187149E-3  -9.143964648246765E-1  -3.887045085430145E-1  
 4.180000000000000E7     5.696131587028503E-1  -8.191486001014710E-1  -3.771475329995155E-2   1.291490532457829E-2  -3.757962957024574E-2   1.284633018076420E-2  -9.447510838508606E-1  -3.066249787807465E-1  
 4.210000000000000E7     5.408423542976379E-1  -8.382893800735474E-1  -3.914732113480568E-2   1.579475775361061E-2  -3.916922211647034E-2   1.589803211390972E-2  -9.670674204826355E-1  -2.288729548454285E-1  
 4.240000000000000E7     5.107717514038086E-1  -8.555608391761780E-1  -3.983179479837418E-2   1.875605247914791E-2  -3.986479341983795E-2   1.871606148779392E-2  -9.816523790359497E-1  -1.569524109363556E-1  
 4.270000000000000E7     4.796089529991150E-1  -8.732230067253113E-1  -4.024723917245865E-2   2.155338786542416E-2  -4.003662988543510E-2   2.151113562285900E-2  -9.914813637733460E-1  -8.702030032873154E-2  
 4.300000000000000E7     4.481425583362579E-1  -8.898994326591492E-1  -4.000118374824524E-2   2.410866506397724E-2  -3.991997241973877E-2   2.402918972074986E-2  -9.950208663940430E-1  -2.266454696655273E-2  
 4.330000000000000E7     4.193930327892304E-1  -9.051838517189026E-1  -3.946962580084801E-2   2.627956494688988E-2  -3.937808051705360E-2   2.621417492628098E-2  -9.937802553176880E-1   3.610719740390778E-2  
 4.360000000000000E7     3.864921033382416E-1  -9.185600876808167E-1  -3.857800364494324E-2   2.831118740141392E-2  -3.854838013648987E-2   2.817930281162262E-2  -9.916139245033264E-1   9.112255275249481E-2  
 4.390000000000000E7     3.536201715469360E-1  -9.328944683074951E-1  -3.756687045097351E-2   3.011498600244522E-2  -3.755596652626991E-2   3.016071580350399E-2  -9.838299155235291E-1   1.427231132984161E-1  
 4.420000000000000E7     3.215628266334534E-1  -9.433375597000122E-1  -3.633172065019608E-2   3.182842209935188E-2  -3.628505766391754E-2   3.166950494050980E-2  -9.755980372428894E-1   1.914778947830200E-1  
 4.450000000000000E7     2.889333367347717E-1  -9.535661935806274E-1  -3.500229492783546E-2   3.310998529195786E-2  -3.490111231803894E-2   3.304918110370636E-2  -9.665720462799072E-1   2.351146489381790E-1  
 4.480000000000000E7     2.558224201202393E-1  -9.633505940437317E-1  -3.351276367902756E-2   3.423371911048889E-2  -3.350917622447014E-2   3.425152972340584E-2  -9.555874466896057E-1   2.762072086334229E-1  
 4.510000000000000E7     2.238090038299561E-1  -9.720389842987061E-1  -3.213836252689362E-2   3.529171645641327E-2  -3.204185515642166E-2   3.518967702984810E-2  -9.442554116249085E-1   3.155545294284821E-1  
 4.540000000000000E7     1.900554895401001E-1  -9.783760905265808E-1  -3.050099499523640E-2   3.615979105234146E-2  -3.040966391563416E-2   3.601235523819923E-2  -9.310396909713745E-1   3.517167866230011E-1  
 4.570000000000000E7     1.560335755348206E-1  -9.847677946090698E-1  -2.876780927181244E-2   3.689985722303391E-2  -2.890221215784550E-2   3.659003600478172E-2  -9.179547429084778E-1   3.862400054931641E-1  
 4.600000000000000E7     1.250620335340500E-1  -9.888322949409485E-1  -2.733369544148445E-2   3.701155632734299E-2  -2.731231041252613E-2   3.725416958332062E-2  -9.037212729454041E-1   4.182281196117401E-1  
 4.630000000000000E7     8.873615413904190E-2  -9.930156469345093E-1  -2.556061930954456E-2   3.745824098587036E-2  -2.542774565517902E-2   3.747995197772980E-2  -8.893996477127075E-1   4.472068548202515E-1  
 4.660000000000000E7     5.445634946227074E-2  -9.964383244514465E-1  -2.386405691504479E-2   3.785226866602898E-2  -2.377418242394924E-2   3.775063157081604E-2  -8.750372529029846E-1   4.765731990337372E-1  
 4.690000000000000E7     2.135153114795685E-2  -9.968454837799072E-1  -2.227736636996269E-2   3.772017732262611E-2  -2.233294770121574E-2   3.769647330045700E-2  -8.598538637161255E-1   5.029335021972656E-1  
 4.720000000000000E7    -1.255658268928528E-2  -9.968358278274536E-1  -2.065497823059559E-2   3.766718879342079E-2  -2.050036564469338E-2   3.762515634298325E-2  -8.445542454719544E-1   5.282843708992004E-1  
 4.750000000000000E7    -4.592247307300568E-2  -9.964882731437683E-1  -1.907210424542427E-2   3.760340809822083E-2  -1.907254382967949E-2   3.734488040208817E-2  -8.291985988616943E-1   5.519300699234009E-1  
 4.780000000000000E7    -7.883161306381226E-2  -9.942685365676880E-1  -1.739394478499889E-2   3.735395520925522E-2  -1.750660687685013E-2   3.716348856687546E-2  -8.129800558090210E-1   5.744196772575378E-1  
 4.810000000000000E7    -1.132983267307282E-1  -9.909345507621765E-1  -1.593961007893086E-2   3.682500869035721E-2  -1.599324680864811E-2   3.677236661314964E-2  -7.983739376068115E-1   5.949583649635315E-1  
 4.840000000000000E7    -1.463413536548615E-1  -9.872472882270813E-1  -1.460713241249323E-2   3.641279414296150E-2  -1.445855759084225E-2   3.626772016286850E-2  -7.829016447067261E-1   6.150900721549988E-1  
 4.870000000000000E7    -1.799562722444534E-1  -9.813992381095886E-1  -1.314022112637758E-2   3.579541668295860E-2  -1.311585120856762E-2   3.580019250512123E-2  -7.676278352737427E-1   6.343942880630493E-1  
 4.900000000000000E7    -2.132134437561035E-1  -9.755057096481323E-1  -1.176476106047630E-2   3.519738838076592E-2  -1.171887665987015E-2   3.531219065189362E-2  -7.522888183593750E-1   6.524564027786255E-1  
 4.930000000000000E7    -2.460336387157440E-1  -9.671717286109924E-1  -1.042683236300945E-2   3.456081077456474E-2  -1.044735312461853E-2   3.454319760203362E-2  -7.368425726890564E-1   6.707606315612793E-1  
 4.960000000000000E7    -2.772938311100006E-1  -9.569185972213745E-1  -9.165730327367783E-3   3.377531468868256E-2  -9.149312973022461E-3   3.371624648571014E-2  -7.212933301925659E-1   6.863843202590942E-1  
 4.990000000000000E7    -3.091835677623749E-1  -9.475911855697632E-1  -7.982680574059486E-3   3.304445743560791E-2  -7.945359684526920E-3   3.291144222021103E-2  -7.066164016723633E-1   7.023113369941711E-1  
 5.020000000000000E7    -3.404695391654968E-1  -9.381745457649231E-1  -6.963174324482679E-3   3.208896517753601E-2  -6.876557134091854E-3   3.215246275067329E-2  -6.912523508071899E-1   7.170189023017883E-1  
 5.050000000000000E7    -3.723611235618591E-1  -9.255447983741760E-1  -5.798484198749065E-3   3.112724423408508E-2  -5.663341842591763E-3   3.108004108071327E-2  -6.771004796028137E-1   7.323368787765503E-1  
 5.080000000000000E7    -4.027196168899536E-1  -9.131299853324890E-1  -4.799899179488421E-3   3.014300949871540E-2  -4.861829802393913E-3   3.011262230575085E-2  -6.603066921234131E-1   7.449283003807068E-1  
 5.110000000000000E7    -4.336136579513550E-1  -8.983703851699829E-1  -3.692837897688150E-3   2.926102466881275E-2  -3.761672880500555E-3   2.913083881139755E-2  -6.464540958404541E-1   7.577731609344482E-1  
 5.140000000000000E7    -4.630571603775024E-1  -8.832180500030518E-1  -2.914448734372854E-3   2.807059139013290E-2  -2.912539523094893E-3   2.805730327963829E-2  -6.316148638725281E-1   7.725338935852051E-1  
 5.170000000000000E7    -4.917674064636231E-1  -8.673532009124756E-1  -2.192507963627577E-3   2.697088755667210E-2  -2.148087369278073E-3   2.694238536059856E-2  -6.158653497695923E-1   7.827466130256653E-1  
 5.200000000000000E7    -5.212460160255432E-1  -8.519735932350159E-1  -1.288291066884995E-3   2.584248594939709E-2  -1.396974548697472E-3   2.587647549808025E-2  -5.999377369880676E-1   7.936418652534485E-1  
 5.230000000000000E7    -5.493023991584778E-1  -8.327389359474182E-1  -7.036542519927025E-4   2.467226423323154E-2  -6.310385651886463E-4   2.464898861944675E-2  -5.863651037216187E-1   8.053460121154785E-1  
 5.260000000000000E7    -5.762179493904114E-1  -8.130213618278503E-1  -4.228623583912849E-5   2.348499372601509E-2  -5.900417454540730E-5   2.347474731504917E-2  -5.713157057762146E-1   8.160560727119446E-1  
 5.290000000000000E7    -6.041435599327087E-1  -7.936471104621887E-1   5.560803692787886E-4   2.224541082978249E-2   5.113980732858181E-4   2.224659919738770E-2  -5.571594834327698E-1   8.259083628654480E-1  
 5.320000000000000E7    -6.297143101692200E-1  -7.747014164924622E-1   1.015882007777691E-3   2.102291025221348E-2   1.072329236194491E-3   2.101572602987289E-2  -5.426599979400635E-1   8.362403512001038E-1  
 5.350000000000000E7    -6.541658043861389E-1  -7.527801990509033E-1   1.431531272828579E-3   1.977681368589401E-2   1.423476263880730E-3   1.971235312521458E-2  -5.292020440101624E-1   8.445735573768616E-1  
 5.380000000000000E7    -6.776884794235230E-1  -7.310114502906799E-1   1.776399789378047E-3   1.849679462611675E-2   1.820396049879491E-3   1.845498569309712E-2  -5.128513574600220E-1   8.537344336509705E-1  
 5.410000000000000E7    -7.044253349304199E-1  -7.077704668045044E-1   2.122530713677406E-3   1.724961400032044E-2   2.170947846025229E-3   1.721053943037987E-2  -4.995704889297485E-1   8.625404834747315E-1  
 5.440000000000000E7    -7.263073921203613E-1  -6.831887364387512E-1   2.366623375564814E-3   1.595894433557987E-2   2.335274126380682E-3   1.594820432364941E-2  -4.851366281509399E-1   8.703473210334778E-1  
 5.470000000000000E7    -7.479594349861145E-1  -6.598505973815918E-1   2.526358701288700E-3   1.464549358934164E-2   2.563793445006013E-3   1.466422434896231E-2  -4.698161482810974E-1   8.784964084625244E-1  
 5.500000000000000E7    -7.703582644462585E-1  -6.340032219886780E-1   2.648442517966032E-3   1.339554879814386E-2   2.663098508492112E-3   1.333532296121121E-2  -4.556482136249542E-1   8.868547677993774E-1  
 5.530000000000000E7    -7.908279299736023E-1  -6.084863543510437E-1   2.674485091120005E-3   1.209112256765366E-2   2.720243763178587E-3   1.204016618430615E-2  -4.413281977176666E-1   8.931875824928284E-1  
 5.560000000000000E7    -8.111935853958130E-1  -5.809151530265808E-1   2.694989787414670E-3   1.076201442629099E-2   2.676082076504827E-3   1.071219705045223E-2  -4.280108213424683E-1   9.002522230148315E-1  
 5.590000000000000E7    -8.299847245216370E-1  -5.547887086868286E-1   2.583396853879094E-3   9.439088404178619E-3   2.588881645351648E-3   9.455063380300999E-3  -4.130236804485321E-1   9.070164561271668E-1  
 5.620000000000000E7    -8.477553725242615E-1  -5.251036882400513E-1   2.445238642394543E-3   8.172876201570034E-3   2.411741530522704E-3   8.130504749715328E-3  -3.997562527656555E-1   9.134024977684021E-1  
 5.650000000000000E7    -8.642601370811462E-1  -4.983799457550049E-1   2.220398280769587E-3   6.850366014987230E-3   2.213027793914080E-3   6.857884582132101E-3  -3.853418529033661E-1   9.191982150077820E-1  
 5.680000000000000E7    -8.806383013725281E-1  -4.689454436302185E-1   1.935708802193403E-3   5.580051802098751E-3   1.929822261445224E-3   5.549028981477022E-3  -3.706400990486145E-1   9.246691465377808E-1  
 5.710000000000000E7    -8.958643674850464E-1  -4.382651448249817E-1   1.589201739989221E-3   4.317271057516336E-3   1.585302758030593E-3   4.296881146728993E-3  -3.573514521121979E-1   9.305022358894348E-1  
 5.740000000000000E7    -9.108695387840271E-1  -4.083380699157715E-1   1.181015395559371E-3   3.048658603802323E-3   1.170030096545816E-3   3.045488148927689E-3  -3.427025079727173E-1   9.355812072753906E-1  
 5.770000000000000E7    -9.226449728012085E-1  -3.792623579502106E-1   6.978377932682633E-4   1.836287090554833E-3   7.283714949153364E-4   1.803671708330512E-3  -3.300513923168182E-1   9.395316243171692E-1  
 5.800000000000000E7    -9.347165226936340E-1  -3.468509018421173E-1   1.777304714778438E-4   5.878437659703195E-4   1.359560701530427E-4   5.897840019315481E-4  -3.152353465557098E-1   9.463357925415039E-1  
 5.830000000000000E7    -9.455175399780273E-1  -3.155229091644287E-1  -4.138279764447361E-4  -6.144221988506615E-4  -4.414171853568405E-4  -6.395868840627372E-4  -3.024129569530487E-1   9.501257538795471E-1  
 5.860000000000000E7    -9.570130109786987E-1  -2.843340933322907E-1  -1.098842942155898E-3  -1.810813904739916E-3  -1.124125905334950E-3  -1.837665797211230E-3  -2.881819605827332E-1   9.542949795722961E-1  
 5.890000000000000E7    -9.649558067321777E-1  -2.522227764129639E-1  -1.821907004341483E-3  -2.963853534311056E-3  -1.799185294657946E-3  -2.995471935719252E-3  -2.751314640045166E-1   9.577649235725403E-1  
 5.920000000000000E7    -9.725474119186401E-1  -2.188884019851685E-1  -2.612583339214325E-3  -4.118092358112335E-3  -2.587060211226344E-3  -4.085937514901161E-3  -2.609875798225403E-1   9.627953767776489E-1  
 5.950000000000000E7    -9.791116714477539E-1  -1.867350190877914E-1  -3.477059304714203E-3  -5.218082107603550E-3  -3.454200457781553E-3  -5.189412739127874E-3  -2.467264235019684E-1   9.646575450897217E-1  
 5.980000000000000E7    -9.850777387619019E-1  -1.534793525934219E-1  -4.403331317007542E-3  -6.292744539678097E-3  -4.357427358627319E-3  -6.292399484664202E-3  -2.324705421924591E-1   9.687795042991638E-1  
 6.010000000000000E7    -9.886436462402344E-1  -1.217325329780579E-1  -5.301719997078180E-3  -7.368021178990603E-3  -5.302825011312962E-3  -7.331303786486387E-3  -2.199791073799133E-1   9.721345901489258E-1  
 6.040000000000000E7    -9.923700094223023E-1  -8.719381690025330E-2  -6.331801880151033E-3  -8.381553925573826E-3  -6.339757703244686E-3  -8.388609625399113E-3  -2.061564028263092E-1   9.758871793746948E-1  
 6.070000000000000E7    -9.961212277412415E-1  -5.541388690471649E-2  -7.437304593622685E-3  -9.381685405969620E-3  -7.405179087072611E-3  -9.357249364256859E-3  -1.929967701435089E-1   9.778532981872559E-1  
 6.100000000000000E7    -9.966819882392883E-1  -2.188707888126373E-2  -8.599286898970604E-3  -1.027142815291882E-2  -8.571688085794449E-3  -1.027822494506836E-2  -1.780102252960205E-1   9.809236526489258E-1  
 6.130000000000000E7    -9.969283342361450E-1   1.213711500167847E-2  -9.747278876602650E-3  -1.120725367218256E-2  -9.745711460709572E-3  -1.119683030992746E-2  -1.642820835113525E-1   9.838336110115051E-1  
 6.160000000000000E7    -9.955248236656189E-1   4.515835642814636E-2  -1.095954608172178E-2  -1.205868180841208E-2  -1.102799270302057E-2  -1.204472966492176E-2  -1.516219079494476E-1   9.846768379211426E-1  
 6.190000000000000E7    -9.934316277503967E-1   7.807396352291107E-2  -1.226858515292406E-2  -1.288623549044132E-2  -1.225388795137405E-2  -1.281358674168587E-2  -1.384409666061401E-1   9.860979318618774E-1  
 6.220000000000000E7    -9.907512664794922E-1   1.113376542925835E-1  -1.357977185398340E-2  -1.364236697554588E-2  -1.363891083747149E-2  -1.368921622633934E-2  -1.257324665784836E-1   9.888004660606384E-1  
 6.250000000000000E7    -9.863780736923218E-1   1.445369422435761E-1  -1.503418199717999E-2  -1.439729891717434E-2  -1.502096932381392E-2  -1.436565257608891E-2  -1.126432716846466E-1   9.905952215194702E-1  
 6.280000000000000E7    -9.800027012825012E-1   1.774668544530869E-1  -1.651537790894508E-2  -1.510325819253922E-2  -1.646949350833893E-2  -1.511500682681799E-2  -9.880885481834412E-2   9.922803640365601E-1  
 6.310000000000000E7    -9.732523560523987E-1   2.111635655164719E-1  -1.808750815689564E-2  -1.571174524724484E-2  -1.798852905631065E-2  -1.570701785385609E-2  -8.519876003265381E-2   9.934384226799011E-1  
 6.340000000000000E7    -9.657158255577087E-1   2.435286939144135E-1  -1.961582712829113E-2  -1.630200073122978E-2  -1.957290433347225E-2  -1.624297350645065E-2  -7.150791585445404E-2   9.949633479118347E-1  
 6.370000000000000E7    -9.574356079101563E-1   2.759176790714264E-1  -2.121272310614586E-2  -1.682568155229092E-2  -2.118040435016155E-2  -1.676969602704048E-2  -5.869384109973908E-2   9.946435689926148E-1  
 6.400000000000000E7    -9.464107751846314E-1   3.073634505271912E-1  -2.288107015192509E-2  -1.726126112043858E-2  -2.286126650869846E-2  -1.718983799219132E-2  -4.507493972778320E-2   9.963905811309815E-1  
 6.430000000000000E7    -9.356318712234497E-1   3.401469290256500E-1  -2.461396530270577E-2  -1.774640008807182E-2  -2.456294372677803E-2  -1.760070025920868E-2  -3.175102174282074E-2   9.962414503097534E-1  
 6.460000000000000E7    -9.240209460258484E-1   3.717073202133179E-1  -2.631750889122486E-2  -1.801752857863903E-2  -2.627581171691418E-2  -1.797056384384632E-2  -1.903611421585083E-2   9.956303238868713E-1  
 6.490000000000000E7    -9.118710756301880E-1   4.025208353996277E-1  -2.809879183769226E-2  -1.829630136489868E-2  -2.813477814197540E-2  -1.836498454213142E-2  -6.639942526817322E-3   9.967326521873474E-1  
 6.520000000000000E7    -8.966507911682129E-1   4.327648282051086E-1  -3.005856461822987E-2  -1.863638311624527E-2  -2.989769540727139E-2  -1.849397644400597E-2   7.154792547225952E-3   9.970632195472717E-1  
 6.550000000000000E7    -8.822385072708130E-1   4.620608687400818E-1  -3.185490518808365E-2  -1.863538473844528E-2  -3.178453817963600E-2  -1.868176087737083E-2   2.036185562610626E-2   9.950811266899109E-1  
 6.580000000000000E7    -8.654205799102783E-1   4.922643005847931E-1  -3.385407477617264E-2  -1.865599118173122E-2  -3.372363373637199E-2  -1.876737922430039E-2   3.334058821201325E-2   9.961782097816467E-1  
 6.610000000000000E7    -8.473677039146423E-1   5.210565328598023E-1  -3.576294332742691E-2  -1.868078857660294E-2  -3.559873253107071E-2  -1.858022995293140E-2   4.769900441169739E-2   9.943900108337402E-1  
 6.640000000000000E7    -8.306339383125305E-1   5.499773025512695E-1  -3.777255117893219E-2  -1.872121915221214E-2  -3.775511682033539E-2  -1.870660111308098E-2   6.057913601398468E-2   9.940325617790222E-1  
 6.670000000000000E7    -8.107901811599731E-1   5.774182677268982E-1  -3.975797444581986E-2  -1.852720789611340E-2  -3.973208740353584E-2  -1.859188079833984E-2   7.232737541198731E-2   9.935020804405212E-1  
 6.700000000000000E7    -7.903913259506226E-1   6.045301556587219E-1  -4.187778383493424E-2  -1.825369149446487E-2  -4.168871790170670E-2  -1.826156303286552E-2   8.567774295806885E-2   9.913511276245117E-1  
 6.730000000000000E7    -7.691347599029541E-1   6.310631036758423E-1  -4.379255697131157E-2  -1.804576441645622E-2  -4.388420656323433E-2  -1.789201796054840E-2   9.916025400161743E-2   9.915043711662293E-1  
 6.760000000000000E7    -7.476574182510376E-1   6.570950746536255E-1  -4.612315073609352E-2  -1.756169460713863E-2  -4.595281928777695E-2  -1.761782914400101E-2   1.121620684862137E-1   9.892825484275818E-1  
 6.790000000000000E7    -7.238397002220154E-1   6.820550560951233E-1  -4.814867675304413E-2  -1.709655486047268E-2  -4.812621325254440E-2  -1.709559932351112E-2   1.246895492076874E-1   9.871695041656494E-1  
 6.820000000000000E7    -7.005286812782288E-1   7.050488591194153E-1  -5.026732385158539E-2  -1.660130918025971E-2  -5.026679486036301E-2  -1.653447560966015E-2   1.370312273502350E-1   9.861363172531128E-1  
 6.850000000000000E7    -6.762290596961975E-1   7.300646305084229E-1  -5.259262025356293E-2  -1.600832864642143E-2  -5.250398814678192E-2  -1.597298681735992E-2   1.493190526962280E-1   9.841447472572327E-1  
 6.880000000000000E7    -6.503564715385437E-1   7.519337534904480E-1  -5.480644851922989E-2  -1.523105055093765E-2  -5.460299551486969E-2  -1.519310474395752E-2   1.629614531993866E-1   9.812567234039307E-1  
 6.910000000000000E7    -6.242709755897522E-1   7.742768526077271E-1  -5.715659633278847E-2  -1.443457789719105E-2  -5.694007501006126E-2  -1.445123832672834E-2   1.760034710168839E-1   9.796091318130493E-1  
 6.940000000000000E7    -5.976040959358215E-1   7.949707508087158E-1  -5.934932082891464E-2  -1.363158877938986E-2  -5.928544700145721E-2  -1.346164196729660E-2   1.879822611808777E-1   9.769329428672791E-1  
 6.970000000000000E7    -5.685861110687256E-1   8.149126768112183E-1  -6.154491007328033E-2  -1.250306051224470E-2  -6.145892292261124E-2  -1.229125075042248E-2   2.009956538677216E-1   9.740599989891052E-1  
 7.000000000000000E7    -5.401771068572998E-1   8.346465826034546E-1  -6.388125568628311E-2  -1.146349404007196E-2  -6.370612233877182E-2  -1.138305664062500E-2   2.135817855596542E-1   9.717518091201782E-1  
