#  HZ   S   RI   R     50.00 
! Rohde & Schwarz ZVT8 8Ports - Version 4.11 - 1300.0000k08 SN: 100242
! Date: 2026-07-31 14:43:27
! Measurements: S11 S21 S12 S22 
! 
 1.000000000000000E7    -4.075115323066711E-1   9.090142250061035E-1   5.089308694005013E-2   5.170860141515732E-2   5.080962553620338E-2   5.172351747751236E-2  -9.188528656959534E-1   3.854644000530243E-1  
 1.030000000000000E7    -3.748583793640137E-1   9.222644567489624E-1   5.422899127006531E-2   5.217755585908890E-2   5.383928492665291E-2   5.214611440896988E-2  -9.131660461425781E-1   3.983163535594940E-1  
 1.060000000000000E7    -3.396479189395905E-1   9.354184865951538E-1   5.747410655021668E-2   5.286961793899536E-2   5.737708136439323E-2   5.261264368891716E-2  -9.090515375137329E-1   4.100248217582703E-1  
 1.090000000000000E7    -3.083955645561218E-1   9.456542730331421E-1   6.080115213990212E-2   5.324133485555649E-2   6.035431474447250E-2   5.314822867512703E-2  -9.034779667854309E-1   4.216652214527130E-1  
 1.120000000000000E7    -2.730800509452820E-1   9.553750753402710E-1   6.418317556381226E-2   5.379828810691834E-2   6.372475624084473E-2   5.354164913296700E-2  -8.977625966072083E-1   4.337197244167328E-1  
 1.150000000000000E7    -2.381842285394669E-1   9.653181433677673E-1   6.746384501457214E-2   5.370482057332993E-2   6.720472872257233E-2   5.371017009019852E-2  -8.908266425132752E-1   4.430012404918671E-1  
 1.180000000000000E7    -2.039747089147568E-1   9.708801507949829E-1   7.085680961608887E-2   5.405056849122047E-2   7.077371329069138E-2   5.388396233320236E-2  -8.862338066101074E-1   4.534825086593628E-1  
 1.210000000000000E7    -1.699068993330002E-1   9.783249497413635E-1   7.493684440851212E-2   5.408884212374687E-2   7.468744367361069E-2   5.394235998392105E-2  -8.785021305084229E-1   4.664157032966614E-1  
 1.240000000000000E7    -1.345677226781845E-1   9.825267791748047E-1   7.846306264400482E-2   5.413668975234032E-2   7.854752987623215E-2   5.372790247201920E-2  -8.719267845153809E-1   4.763095080852509E-1  
 1.270000000000000E7    -9.963008761405945E-2   9.864175319671631E-1   8.279114961624146E-2   5.361266806721687E-2   8.236845582723618E-2   5.336679145693779E-2  -8.649509549140930E-1   4.904832839965820E-1  
 1.300000000000000E7    -6.487699598073959E-2   9.896203279495239E-1   8.633001893758774E-2   5.329069495201111E-2   8.621152490377426E-2   5.300792679190636E-2  -8.569670915603638E-1   5.011743307113648E-1  
 1.330000000000000E7    -2.903810702264309E-2   9.912496209144592E-1   9.076741337776184E-2   5.267883837223053E-2   9.069942682981491E-2   5.225202068686485E-2  -8.498518466949463E-1   5.131482481956482E-1  
 1.360000000000000E7     7.552206516265869E-3   9.912852644920349E-1   9.489794075489044E-2   5.217003449797630E-2   9.511893987655640E-2   5.175220966339111E-2  -8.429085612297058E-1   5.230646729469299E-1  
 1.390000000000000E7     4.203547537326813E-2   9.898524284362793E-1   9.939350932836533E-2   5.091016739606857E-2   9.907338768243790E-2   5.123646184802055E-2  -8.351205587387085E-1   5.348055362701416E-1  
 1.420000000000000E7     7.846888899803162E-2   9.875696897506714E-1   1.035585552453995E-1   5.040954798460007E-2   1.035093367099762E-1   5.038035660982132E-2  -8.284716010093689E-1   5.458300709724426E-1  
 1.450000000000000E7     1.138338744640350E-1   9.823716878890991E-1   1.081506833434105E-1   4.893429204821587E-2   1.079912856221199E-1   4.895624890923500E-2  -8.179451227188110E-1   5.577887296676636E-1  
 1.480000000000000E7     1.505320817232132E-1   9.777812361717224E-1   1.127765029668808E-1   4.753415286540985E-2   1.127594262361527E-1   4.789396002888680E-2  -8.105530738830566E-1   5.685907006263733E-1  
 1.510000000000000E7     1.854095757007599E-1   9.706022143363953E-1   1.174311488866806E-1   4.604936018586159E-2   1.171854585409164E-1   4.608601331710815E-2  -7.994140386581421E-1   5.803517699241638E-1  
 1.540000000000000E7     2.199351489543915E-1   9.630338549613953E-1   1.221255883574486E-1   4.518183693289757E-2   1.218354925513268E-1   4.464188218116760E-2  -7.937203049659729E-1   5.900614857673645E-1  
 1.570000000000000E7     2.559788227081299E-1   9.551122188568115E-1   1.270431131124497E-1   4.276379570364952E-2   1.269969791173935E-1   4.266079887747765E-2  -7.827048301696777E-1   6.029917001724243E-1  
 1.600000000000000E7     2.916156947612763E-1   9.427436590194702E-1   1.317463815212250E-1   4.046217724680901E-2   1.320122629404068E-1   4.023480042815208E-2  -7.743912339210510E-1   6.120605468750000E-1  
 1.630000000000000E7     3.255156278610230E-1   9.310982227325440E-1   1.375804245471954E-1   3.790184482932091E-2   1.370954215526581E-1   3.816010802984238E-2  -7.645413279533386E-1   6.249937415122986E-1  
 1.660000000000000E7     3.598788678646088E-1   9.166942238807678E-1   1.425827741622925E-1   3.537271171808243E-2   1.423098146915436E-1   3.494978696107864E-2  -7.531188726425171E-1   6.362930536270142E-1  
 1.690000000000000E7     3.932455480098724E-1   9.024810791015625E-1   1.479524970054627E-1   3.297826275229454E-2   1.476464420557022E-1   3.253725916147232E-2  -7.435255646705627E-1   6.463943719863892E-1  
 1.720000000000000E7     4.291534423828125E-1   8.865270018577576E-1   1.528340578079224E-1   2.912738919258118E-2   1.527658253908157E-1   2.963993698358536E-2  -7.326553463935852E-1   6.573223471641541E-1  
 1.750000000000000E7     4.575386047363281E-1   8.717112541198731E-1   1.589463055133820E-1   2.720529213547707E-2   1.590787619352341E-1   2.664745226502419E-2  -7.224224805831909E-1   6.697605252265930E-1  
 1.780000000000000E7     4.929646551609039E-1   8.490478396415710E-1   1.635769456624985E-1   2.279910445213318E-2   1.638597100973129E-1   2.316502481698990E-2  -7.104820013046265E-1   6.781499385833740E-1  
 1.810000000000000E7     5.231326818466187E-1   8.305303454399109E-1   1.702837944030762E-1   1.924998313188553E-2   1.694640219211578E-1   1.852494291961193E-2  -6.981768608093262E-1   6.923512816429138E-1  
 1.840000000000000E7     5.563528537750244E-1   8.093338608741760E-1   1.762082725763321E-1   1.390773802995682E-2   1.754904687404633E-1   1.426325645297766E-2  -6.852217912673950E-1   7.030475139617920E-1  
 1.870000000000000E7     5.845639705657959E-1   7.869818210601807E-1   1.818147152662277E-1   1.014434546232224E-2   1.811480373144150E-1   9.648872539401054E-3  -6.723587512969971E-1   7.129321098327637E-1  
 1.900000000000000E7     6.138994097709656E-1   7.633462548255920E-1   1.875783503055573E-1   5.407772958278656E-3   1.870071887969971E-1   4.921428859233856E-3  -6.587627530097961E-1   7.233651876449585E-1  
 1.930000000000000E7     6.430556774139404E-1   7.374250888824463E-1   1.931372880935669E-1  -8.262172341346741E-4   1.935352981090546E-1  -1.064650714397430E-4  -6.453672647476196E-1   7.357169389724731E-1  
 1.960000000000000E7     6.713703870773315E-1   7.100357413291931E-1   1.990986466407776E-1  -6.489112973213196E-3   1.992279589176178E-1  -5.849964916706085E-3  -6.332272291183472E-1   7.449503540992737E-1  
 1.990000000000000E7     6.958435773849487E-1   6.820530891418457E-1   2.051268815994263E-1  -1.261837873607874E-2   2.053342163562775E-1  -1.240687724202871E-2  -6.157073378562927E-1   7.575299739837647E-1  
 2.020000000000000E7     7.213896512985230E-1   6.532927751541138E-1   2.115858346223831E-1  -1.874948106706142E-2   2.109081149101257E-1  -1.856964454054833E-2  -6.021325588226318E-1   7.649435400962830E-1  
 2.050000000000000E7     7.480701208114624E-1   6.226239204406738E-1   2.175759077072144E-1  -2.557994797825813E-2   2.161729484796524E-1  -2.590603381395340E-2  -5.863554477691650E-1   7.754060029983521E-1  
 2.080000000000000E7     7.701855301856995E-1   5.896711349487305E-1   2.237312197685242E-1  -3.315863758325577E-2   2.236254066228867E-1  -3.289392590522766E-2  -5.703760981559753E-1   7.868471145629883E-1  
 2.110000000000000E7     7.930781841278076E-1   5.572044849395752E-1   2.301649153232575E-1  -4.193256795406342E-2   2.300410419702530E-1  -4.181465506553650E-2  -5.527892708778381E-1   7.972693443298340E-1  
 2.140000000000000E7     8.136558532714844E-1   5.237730741500855E-1   2.364503294229507E-1  -5.081601440906525E-2   2.355522364377976E-1  -4.990365356206894E-2  -5.357394218444824E-1   8.062254786491394E-1  
 2.170000000000000E7     8.314946889877319E-1   4.901538193225861E-1   2.424993067979813E-1  -5.946121364831924E-2   2.422083914279938E-1  -5.862676352262497E-2  -5.177413821220398E-1   8.158134222030640E-1  
 2.200000000000000E7     8.508858680725098E-1   4.522271454334259E-1   2.481892853975296E-1  -6.949369609355927E-2   2.480960637331009E-1  -6.918622553348541E-2  -4.974214434623718E-1   8.244317173957825E-1  
 2.230000000000000E7     8.658967018127441E-1   4.152221679687500E-1   2.541666924953461E-1  -7.985267043113709E-2   2.537287771701813E-1  -7.929462194442749E-2  -4.782336354255676E-1   8.330248594284058E-1  
 2.260000000000000E7     8.811624050140381E-1   3.772808909416199E-1   2.597431540489197E-1  -9.111058712005615E-2   2.610748708248138E-1  -9.072737395763397E-2  -4.586074352264404E-1   8.412120342254639E-1  
 2.290000000000000E7     8.939511179924011E-1   3.381769657135010E-1   2.655342221260071E-1  -1.028300225734711E-1   2.660635411739349E-1  -1.023655533790588E-1  -4.358130693435669E-1   8.488421440124512E-1  
 2.320000000000000E7     9.038375020027161E-1   2.982930243015289E-1   2.715951800346375E-1  -1.161540746688843E-1   2.709943056106567E-1  -1.164874881505966E-1  -4.145722389221191E-1   8.585356473922730E-1  
 2.350000000000000E7     9.132198691368103E-1   2.560326159000397E-1   2.767551243305206E-1  -1.307768821716309E-1   2.763845622539520E-1  -1.297187060117722E-1  -3.916134834289551E-1   8.652790188789368E-1  
 2.380000000000000E7     9.203586578369141E-1   2.153835445642471E-1   2.817252278327942E-1  -1.443062722682953E-1   2.815086543560028E-1  -1.439379751682282E-1  -3.681262731552124E-1   8.714198470115662E-1  
 2.410000000000000E7     9.256446361541748E-1   1.718899011611939E-1   2.859327495098114E-1  -1.604635119438171E-1   2.853303849697113E-1  -1.599078327417374E-1  -3.427153825759888E-1   8.771870732307434E-1  
 2.440000000000000E7     9.275164008140564E-1   1.295223236083984E-1   2.904934585094452E-1  -1.776314079761505E-1   2.905325293540955E-1  -1.775570660829544E-1  -3.178828358650208E-1   8.823073506355286E-1  
 2.470000000000000E7     9.277492761611939E-1   8.614356070756912E-2   2.938514649868012E-1  -1.957157999277115E-1   2.936510443687439E-1  -1.936459243297577E-1  -2.899165451526642E-1   8.853975534439087E-1  
 2.500000000000000E7     9.266801476478577E-1   4.172408953309059E-2   2.965731322765350E-1  -2.137959003448486E-1   2.962750494480133E-1  -2.144726663827896E-1  -2.613128423690796E-1   8.896641731262207E-1  
 2.530000000000000E7     9.221505522727966E-1  -2.837840467691422E-3   2.997163236141205E-1  -2.336129695177078E-1   2.995605766773224E-1  -2.332258224487305E-1  -2.325415015220642E-1   8.911616206169128E-1  
 2.560000000000000E7     9.149700999259949E-1  -4.647676646709442E-2   3.009144961833954E-1  -2.542850971221924E-1   3.017468154430389E-1  -2.544832527637482E-1  -2.029933184385300E-1   8.923652768135071E-1  
 2.590000000000000E7     9.040459990501404E-1  -9.001506119966507E-2   3.008611500263214E-1  -2.780424654483795E-1   3.014009296894074E-1  -2.782542109489441E-1  -1.711241602897644E-1   8.942350745201111E-1  
 2.620000000000000E7     8.908910155296326E-1  -1.349669992923737E-1   3.000510931015015E-1  -3.030900061130524E-1   2.998506426811218E-1  -3.017529845237732E-1  -1.366133391857147E-1   8.912298679351807E-1  
 2.650000000000000E7     8.749636411666870E-1  -1.777696311473846E-1   2.989192605018616E-1  -3.267973363399506E-1   2.984364926815033E-1  -3.276436924934387E-1  -1.038487404584885E-1   8.872226476669312E-1  
 2.680000000000000E7     8.549347519874573E-1  -2.199223041534424E-1   2.957156300544739E-1  -3.536323308944702E-1   2.950450778007507E-1  -3.547352552413940E-1  -6.911870837211609E-2   8.813706040382385E-1  
 2.710000000000000E7     8.323074579238892E-1  -2.626536190509796E-1   2.881965339183807E-1  -3.830732107162476E-1   2.878946065902710E-1  -3.824461698532105E-1  -3.311144560575485E-2   8.749736547470093E-1  
 2.740000000000000E7     8.064262270927429E-1  -3.035685122013092E-1   2.827153801918030E-1  -4.122649431228638E-1   2.812679111957550E-1  -4.128960967063904E-1   4.242366179823875E-3   8.618237972259522E-1  
 2.770000000000000E7     7.781821489334106E-1  -3.414054214954376E-1   2.711356580257416E-1  -4.437880516052246E-1   2.707745730876923E-1  -4.443940818309784E-1   4.279692098498344E-2   8.492751121520996E-1  
 2.800000000000000E7     7.467521429061890E-1  -3.783484697341919E-1   2.589328587055206E-1  -4.752994179725647E-1   2.600736320018768E-1  -4.755604565143585E-1   8.262784779071808E-2   8.317182064056397E-1  
 2.830000000000000E7     7.102057337760925E-1  -4.132834076881409E-1   2.429349571466446E-1  -5.077254772186279E-1   2.414987981319428E-1  -5.086178183555603E-1   1.194785535335541E-1   8.133776187896729E-1  
 2.860000000000000E7     6.708381772041321E-1  -4.440097808837891E-1   2.230120748281479E-1  -5.424649715423584E-1   2.210280001163483E-1  -5.432505607604981E-1   1.619208008050919E-1   7.880818247795105E-1  
 2.890000000000000E7     6.297869682312012E-1  -4.702070057392120E-1   1.980497986078262E-1  -5.779002308845520E-1   1.976766139268875E-1  -5.773797631263733E-1   2.008559405803680E-1   7.605345249176025E-1  
 2.920000000000000E7     5.847407579421997E-1  -4.955870807170868E-1   1.722517162561417E-1  -6.125887036323547E-1   1.700913310050964E-1  -6.117595434188843E-1   2.382218092679977E-1   7.283995747566223E-1  
 2.950000000000000E7     5.385277271270752E-1  -5.127370357513428E-1   1.374889463186264E-1  -6.486672759056091E-1   1.370312273502350E-1  -6.467790603637695E-1   2.775245308876038E-1   6.898009181022644E-1  
 2.980000000000000E7     4.894075095653534E-1  -5.276716351509094E-1   1.003798246383667E-1  -6.812734007835388E-1   9.914661198854446E-2  -6.822677850723267E-1   3.131511807441711E-1   6.470896005630493E-1  
 3.010000000000000E7     4.400193393230438E-1  -5.362395048141480E-1   5.540294945240021E-2  -7.132733464241028E-1   5.614883452653885E-2  -7.134608626365662E-1   3.463048040866852E-1   5.990288853645325E-1  
 3.040000000000000E7     3.886725604534149E-1  -5.378007292747498E-1   6.119534373283386E-3  -7.437354922294617E-1   4.935231059789658E-3  -7.436786293983460E-1   3.735136985778809E-1   5.443758964538574E-1  
 3.070000000000000E7     3.393774330615997E-1  -5.334932208061218E-1  -4.933137819170952E-2  -7.677991390228272E-1  -4.957016184926033E-2  -7.660719156265259E-1   3.991408050060272E-1   4.878835976123810E-1  
 3.100000000000000E7     2.917943596839905E-1  -5.214939117431641E-1  -1.112497523427010E-1  -7.885394692420960E-1  -1.105268895626068E-1  -7.866303324699402E-1   4.190902709960938E-1   4.251522421836853E-1  
 3.130000000000000E7     2.472335696220398E-1  -5.061221718788147E-1  -1.771481186151505E-1  -8.020920157432556E-1  -1.757666915655136E-1  -8.025068044662476E-1   4.286863207817078E-1   3.576599657535553E-1  
 3.160000000000000E7     2.068442404270172E-1  -4.804700016975403E-1  -2.478932738304138E-1  -8.094295263290405E-1  -2.473267167806625E-1  -8.097172975540161E-1   4.329736232757568E-1   2.892289161682129E-1  
 3.190000000000000E7     1.709648072719574E-1  -4.516547024250031E-1  -3.213215172290802E-1  -8.078771233558655E-1  -3.199074864387512E-1  -8.068238496780396E-1   4.292154312133789E-1   2.169718295335770E-1  
 3.220000000000000E7     1.406509280204773E-1  -4.193728566169739E-1  -3.965624570846558E-1  -7.995924353599548E-1  -3.953485786914825E-1  -7.977194190025330E-1   4.147729575634003E-1   1.463677436113358E-1  
 3.250000000000000E7     1.204445660114288E-1  -3.827164471149445E-1  -4.728403985500336E-1  -7.788349986076355E-1  -4.728006124496460E-1  -7.779365181922913E-1   3.915814757347107E-1   7.727029174566269E-2  
 3.280000000000000E7     1.082523837685585E-1  -3.444845676422119E-1  -5.482796430587769E-1  -7.478042244911194E-1  -5.455437302589417E-1  -7.480901479721069E-1   3.591662943363190E-1   8.631219156086445E-3  
 3.310000000000000E7     9.945086389780045E-2  -3.093917965888977E-1  -6.187973618507385E-1  -7.094191908836365E-1  -6.176317930221558E-1  -7.074061036109924E-1   3.161947131156921E-1  -5.227990448474884E-2  
 3.340000000000000E7     1.027853414416313E-1  -2.758310139179230E-1  -6.864083409309387E-1  -6.592237949371338E-1  -6.847713589668274E-1  -6.594323515892029E-1   2.686425745487213E-1  -1.082040220499039E-1  
 3.370000000000000E7     1.116936951875687E-1  -2.436847239732742E-1  -7.458646893501282E-1  -6.021044254302979E-1  -7.449221014976502E-1  -6.021535992622376E-1   2.103613764047623E-1  -1.557928472757340E-1  
 3.400000000000000E7     1.266494244337082E-1  -2.182949483394623E-1  -7.977033853530884E-1  -5.376898050308228E-1  -7.982293367385864E-1  -5.381239056587219E-1   1.510413438081741E-1  -1.933638155460358E-1  
 3.430000000000000E7     1.455376446247101E-1  -1.995302587747574E-1  -8.424695730209351E-1  -4.689855277538300E-1  -8.419157862663269E-1  -4.683973491191864E-1   8.924368768930435E-2  -2.252694964408875E-1  
 3.460000000000000E7     1.682219207286835E-1  -1.856050342321396E-1  -8.785598278045654E-1  -3.962276875972748E-1  -8.770888447761536E-1  -3.957200646400452E-1   2.603385224938393E-2  -2.436081767082214E-1  
 3.490000000000000E7     1.912975013256073E-1  -1.824105232954025E-1  -9.041817784309387E-1  -3.213914930820465E-1  -9.032397866249085E-1  -3.197965919971466E-1  -3.801240026950836E-2  -2.590949237346649E-1  
 3.520000000000000E7     2.178535312414169E-1  -1.813432872295380E-1  -9.224362969398499E-1  -2.448325753211975E-1  -9.208496809005737E-1  -2.454432845115662E-1  -1.008375585079193E-1  -2.623908221721649E-1  
 3.550000000000000E7     2.427396178245544E-1  -1.895179152488709E-1  -9.311724901199341E-1  -1.695254594087601E-1  -9.309725761413574E-1  -1.695225089788437E-1  -1.600146591663361E-1  -2.570743560791016E-1  
 3.580000000000000E7     2.626666426658630E-1  -2.022593766450882E-1  -9.338339567184448E-1  -9.542848169803619E-2  -9.332428574562073E-1  -9.642463922500610E-2  -2.161652147769928E-1  -2.486834079027176E-1  
 3.610000000000000E7     2.792742252349854E-1  -2.240400761365891E-1  -9.295046925544739E-1  -2.529454231262207E-2  -9.280760884284973E-1  -2.462011203169823E-2  -2.682341337203980E-1  -2.335422188043594E-1  
 3.640000000000000E7     2.937296628952026E-1  -2.468636333942413E-1  -9.177165031433106E-1   4.336677864193916E-2  -9.186619520187378E-1   4.291253909468651E-2  -3.152879178524017E-1  -2.120178788900375E-1  
 3.670000000000000E7     3.027012646198273E-1  -2.742239236831665E-1  -9.033440351486206E-1   1.086305826902390E-1  -9.011619091033936E-1   1.085611879825592E-1  -3.567241430282593E-1  -1.913603246212006E-1  
 3.700000000000000E7     3.041688799858093E-1  -3.034264147281647E-1  -8.823865056037903E-1   1.706545650959015E-1  -8.825478553771973E-1   1.700452715158463E-1  -3.946774303913117E-1  -1.646772325038910E-1  
 3.730000000000000E7     3.026835322380066E-1  -3.330429494380951E-1  -8.577057719230652E-1   2.305268496274948E-1  -8.585196733474731E-1   2.287090718746185E-1  -4.257989227771759E-1  -1.375310271978378E-1  
 3.760000000000000E7     2.915316522121429E-1  -3.650735318660736E-1  -8.322787880897522E-1   2.838727533817291E-1  -8.323249816894531E-1   2.840025424957275E-1  -4.541182518005371E-1  -1.091972663998604E-1  
 3.790000000000000E7     2.772233486175537E-1  -3.995646536350250E-1  -8.017197251319885E-1   3.352428972721100E-1  -8.018981814384460E-1   3.354021310806274E-1  -4.782772660255432E-1  -8.236198127269745E-2  
 3.820000000000000E7     2.551060020923615E-1  -4.309382736682892E-1  -7.715353369712830E-1   3.837138712406158E-1  -7.704539299011231E-1   3.845208585262299E-1  -4.962294101715088E-1  -5.218837037682533E-2  
 3.850000000000000E7     2.298927307128906E-1  -4.605211913585663E-1  -7.366071939468384E-1   4.289508461952210E-1  -7.352073788642883E-1   4.306502640247345E-1  -5.145787000656128E-1  -2.480849251151085E-2  
 3.880000000000000E7     1.971796452999115E-1  -4.847658276557922E-1  -7.014450430870056E-1   4.742732644081116E-1  -7.001293897628784E-1   4.718524813652039E-1  -5.275206565856934E-1   2.535969018936157E-3  
 3.910000000000000E7     1.610437333583832E-1  -5.106338262557983E-1  -6.629132628440857E-1   5.152659416198731E-1  -6.629142761230469E-1   5.156946778297424E-1  -5.365641713142395E-1   2.830876596271992E-2  
 3.940000000000000E7     1.166300997138023E-1  -5.303468704223633E-1  -6.238869428634644E-1   5.525348186492920E-1  -6.238563060760498E-1   5.525728464126587E-1  -5.426633954048157E-1   5.371340364217758E-2  
 3.970000000000000E7     6.993205100297928E-2  -5.465791821479797E-1  -5.829778909683228E-1   5.898880958557129E-1  -5.824249386787415E-1   5.910268425941467E-1  -5.444168448448181E-1   7.666742056608200E-2  
 4.000000000000000E7     1.758350431919098E-2  -5.542428493499756E-1  -5.395796895027161E-1   6.256912946701050E-1  -5.389460921287537E-1   6.255452632904053E-1  -5.474748015403748E-1   9.769976139068604E-2  
 4.030000000000000E7    -4.077719897031784E-2  -5.548371076583862E-1  -4.960411787033081E-1   6.591560840606690E-1  -4.938857853412628E-1   6.581709384918213E-1  -5.492333769798279E-1   1.164550632238388E-1  
 4.060000000000000E7    -1.001474559307098E-1  -5.506531000137329E-1  -4.476791620254517E-1   6.901848912239075E-1  -4.464288353919983E-1   6.909769773483276E-1  -5.449017286300659E-1   1.346058398485184E-1  
 4.090000000000000E7    -1.621105372905731E-1  -5.366765856742859E-1  -3.955327272415161E-1   7.196085453033447E-1  -3.948887288570404E-1   7.184784412384033E-1  -5.444563627243042E-1   1.489307731389999E-1  
 4.120000000000000E7    -2.296252250671387E-1  -5.138883590698242E-1  -3.410685956478119E-1   7.460634708404541E-1  -3.413975238800049E-1   7.477712035179138E-1  -5.377149581909180E-1   1.620877385139465E-1  
 4.150000000000000E7    -2.945027947425842E-1  -4.737996459007263E-1  -2.833118438720703E-1   7.730612754821777E-1  -2.838454544544220E-1   7.716482877731323E-1  -5.336008667945862E-1   1.703310310840607E-1  
 4.180000000000000E7    -3.580871224403381E-1  -4.247807562351227E-1  -2.207382172346115E-1   7.939445376396179E-1  -2.214587777853012E-1   7.917073369026184E-1  -5.315368175506592E-1   1.775678098201752E-1  
 4.210000000000000E7    -4.190427660942078E-1  -3.592191636562347E-1  -1.541925966739655E-1   8.101766109466553E-1  -1.546495705842972E-1   8.111936450004578E-1  -5.278720855712891E-1   1.804125756025314E-1  
 4.240000000000000E7    -4.731705188751221E-1  -2.801743447780609E-1  -8.357258886098862E-2   8.211570382118225E-1  -8.297996222972870E-2   8.217023611068726E-1  -5.261777639389038E-1   1.798654496669769E-1  
 4.270000000000000E7    -5.150473117828369E-1  -1.845808029174805E-1  -6.063865497708321E-3   8.267850875854492E-1  -5.757231265306473E-3   8.254926800727844E-1  -5.272125005722046E-1   1.785272508859634E-1  
 4.300000000000000E7    -5.428915023803711E-1  -7.448656857013702E-2   7.485132664442062E-2   8.216433525085449E-1   7.463970780372620E-2   8.208842277526856E-1  -5.301746726036072E-1   1.740912348031998E-1  
 4.330000000000000E7    -5.519656538963318E-1   4.679261893033981E-2   1.591524630784988E-1   8.048849105834961E-1   1.585781872272492E-1   8.060279488563538E-1  -5.368245244026184E-1   1.668349206447601E-1  
 4.360000000000000E7    -5.342051386833191E-1   1.807216405868530E-1   2.413249015808106E-1   7.765930891036987E-1   2.418060004711151E-1   7.777332663536072E-1  -5.490729212760925E-1   1.596795022487640E-1  
 4.390000000000000E7    -4.835886359214783E-1   3.141807913780212E-1   3.239225745201111E-1   7.335489392280579E-1   3.260166347026825E-1   7.314682602882385E-1  -5.689991116523743E-1   1.526221334934235E-1  
 4.420000000000000E7    -4.027458429336548E-1   4.408679902553558E-1   4.026667475700378E-1   6.755078434944153E-1   4.016169011592865E-1   6.736878752708435E-1  -5.912697315216065E-1   1.496164798736572E-1  
 4.450000000000000E7    -2.881862521171570E-1   5.542633533477783E-1   4.672939479351044E-1   6.044018268585205E-1   4.686739444732666E-1   6.032656431198120E-1  -6.187409162521362E-1   1.493914872407913E-1  
 4.480000000000000E7    -1.465599387884140E-1   6.407648921012878E-1   5.192766189575195E-1   5.206514000892639E-1   5.197853446006775E-1   5.201418399810791E-1  -6.506060361862183E-1   1.558330953121185E-1  
 4.510000000000000E7     1.527824252843857E-2   6.929083466529846E-1   5.539618730545044E-1   4.302172362804413E-1   5.540587902069092E-1   4.298031032085419E-1  -6.844780445098877E-1   1.700008213520050E-1  
 4.540000000000000E7     1.847568154335022E-1   7.050766348838806E-1   5.714931488037109E-1   3.380761742591858E-1   5.720486640930176E-1   3.387080430984497E-1  -7.160858511924744E-1   1.899724304676056E-1  
 4.570000000000000E7     3.532157838344574E-1   6.796747446060181E-1   5.706309080123901E-1   2.478559911251068E-1   5.689504146575928E-1   2.472434639930725E-1  -7.470547556877136E-1   2.177834659814835E-1  
 4.600000000000000E7     5.084490776062012E-1   6.202696561813355E-1   5.509689450263977E-1   1.669940948486328E-1   5.509475469589233E-1   1.666211634874344E-1  -7.722471356391907E-1   2.521247863769531E-1  
 4.630000000000000E7     6.414558887481690E-1   5.318931341171265E-1   5.226030349731445E-1   9.551530331373215E-2   5.218843817710877E-1   9.506586194038391E-2  -7.903690338134766E-1   2.882663011550903E-1  
 4.660000000000000E7     7.485836744308472E-1   4.232789278030396E-1   4.862573146820068E-1   3.466674685478210E-2   4.847597479820252E-1   3.524867817759514E-2  -8.048171997070313E-1   3.284035325050354E-1  
 4.690000000000000E7     8.313247561454773E-1   3.024237751960754E-1   4.431063830852509E-1  -1.275430060923100E-2   4.421319961547852E-1  -1.364558376371861E-2  -8.130015134811401E-1   3.673694133758545E-1  
 4.720000000000000E7     8.869903683662415E-1   1.768521815538406E-1   3.990792036056519E-1  -5.052890628576279E-2   3.992246687412262E-1  -5.017876997590065E-2  -8.151203393936157E-1   4.075734019279480E-1  
 4.750000000000000E7     9.193248152732849E-1   5.362227559089661E-2   3.560398519039154E-1  -7.719775289297104E-2   3.555208444595337E-1  -7.743388414382935E-2  -8.132230639457703E-1   4.454006552696228E-1  
 4.780000000000000E7     9.321141242980957E-1  -6.594814360141754E-2   3.146660327911377E-1  -9.704189002513886E-2   3.139773905277252E-1  -9.561678022146225E-2  -8.068590760231018E-1   4.815728962421417E-1  
 4.810000000000000E7     9.289832115173340E-1  -1.791177392005920E-1   2.761225998401642E-1  -1.080244109034538E-1   2.754224240779877E-1  -1.076985150575638E-1  -7.992582917213440E-1   5.145276188850403E-1  
 4.840000000000000E7     9.116398692131043E-1  -2.833791375160217E-1   2.413697689771652E-1  -1.149232760071755E-1   2.412367761135101E-1  -1.148969680070877E-1  -7.887461185455322E-1   5.458702445030212E-1  
 4.870000000000000E7     8.850178718566895E-1  -3.798920214176178E-1   2.102152109146118E-1  -1.185486614704132E-1   2.099599093198776E-1  -1.178145781159401E-1  -7.770435214042664E-1   5.751030445098877E-1  
 4.900000000000000E7     8.495844006538391E-1  -4.667589962482452E-1   1.822005361318588E-1  -1.183780133724213E-1   1.817079335451126E-1  -1.185093447566032E-1  -7.633433341979981E-1   6.016728878021240E-1  
 4.930000000000000E7     8.081348538398743E-1  -5.452415347099304E-1   1.570992767810822E-1  -1.163029596209526E-1   1.570277661085129E-1  -1.161201745271683E-1  -7.487946748733521E-1   6.275871396064758E-1  
 4.960000000000000E7     7.599233388900757E-1  -6.160667538642883E-1   1.350015103816986E-1  -1.128638759255409E-1   1.349625289440155E-1  -1.127918511629105E-1  -7.340734004974365E-1   6.502687335014343E-1  
 4.990000000000000E7     7.104310989379883E-1  -6.775077581405640E-1   1.160160824656487E-1  -1.080393120646477E-1   1.156906560063362E-1  -1.077085584402084E-1  -7.191918492317200E-1   6.711683273315430E-1  
 5.020000000000000E7     6.579192876815796E-1  -7.322042584419251E-1   9.917552769184113E-2  -1.021826267242432E-1   9.948636591434479E-2  -1.018812581896782E-1  -7.035314440727234E-1   6.913293004035950E-1  
 5.050000000000000E7     6.027293801307678E-1  -7.811170816421509E-1   8.470685034990311E-2  -9.638206660747528E-2   8.461108058691025E-2  -9.640374034643173E-2  -6.883993148803711E-1   7.105638980865479E-1  
 5.080000000000000E7     5.472441911697388E-1  -8.232501149177551E-1   7.195132970809937E-2  -8.989103138446808E-2   7.200400531291962E-2  -8.971750736236572E-2  -6.708434224128723E-1   7.263219356536865E-1  
 5.110000000000000E7     4.909160733222961E-1  -8.595118522644043E-1   6.089568138122559E-2  -8.373827487230301E-2   6.089401990175247E-2  -8.361092954874039E-2  -6.564438343048096E-1   7.424347400665283E-1  
 5.140000000000000E7     4.337105751037598E-1  -8.913365602493286E-1   5.135525017976761E-2  -7.745879143476486E-2   5.127021297812462E-2  -7.762218266725540E-2  -6.406988501548767E-1   7.593574523925781E-1  
 5.170000000000000E7     3.777064681053162E-1  -9.171870946884155E-1   4.297093302011490E-2  -7.147160917520523E-2   4.305048286914825E-2  -7.136222720146179E-2  -6.240916848182678E-1   7.721928954124451E-1  
 5.200000000000000E7     3.217367231845856E-1  -9.402771592140198E-1   3.583271428942680E-2  -6.543152779340744E-2   3.617595508694649E-2  -6.525877863168716E-2  -6.076681017875671E-1   7.847148180007935E-1  
 5.230000000000000E7     2.660509645938873E-1  -9.577940106391907E-1   2.991040423512459E-2  -5.963068082928658E-2   2.963656559586525E-2  -5.978332087397575E-2  -5.928596258163452E-1   7.980228066444397E-1  
 5.260000000000000E7     2.100484371185303E-1  -9.710714817047119E-1   2.459636516869068E-2  -5.438928306102753E-2   2.456428110599518E-2  -5.427778884768486E-2  -5.771028399467468E-1   8.102141022682190E-1  
 5.290000000000000E7     1.558883190155029E-1  -9.827792048454285E-1   1.992751471698284E-2  -4.906040802598000E-2   2.008767053484917E-2  -4.903020337224007E-2  -5.619847774505615E-1   8.207246065139771E-1  
 5.320000000000000E7     1.036437377333641E-1  -9.901936650276184E-1   1.633675210177898E-2  -4.420351237058640E-2   1.622851192951202E-2  -4.445121809840202E-2  -5.468549132347107E-1   8.321436643600464E-1  
 5.350000000000000E7     5.079496651887894E-2  -9.938242435455322E-1   1.296568755060434E-2  -3.961405903100967E-2   1.297101378440857E-2  -3.968026489019394E-2  -5.329284071922302E-1   8.413298130035400E-1  
 5.380000000000000E7     1.050233840942383E-4  -9.946460723876953E-1   1.033529452979565E-2  -3.525621816515923E-2   1.011891290545464E-2  -3.523651510477066E-2  -5.160312056541443E-1   8.508296608924866E-1  
 5.410000000000000E7    -5.136267095804215E-2  -9.957499504089356E-1   7.911522872745991E-3  -3.125708177685738E-2   7.848697714507580E-3  -3.134348616003990E-2  -5.018306374549866E-1   8.603600263595581E-1  
 5.440000000000000E7    -1.010449677705765E-1  -9.910904169082642E-1   6.003544665873051E-3  -2.758537046611309E-2   6.026838440448046E-3  -2.760327234864235E-2  -4.871725738048554E-1   8.683328628540039E-1  
 5.470000000000000E7    -1.474148929119110E-1  -9.850872159004211E-1   4.461364820599556E-3  -2.405218034982681E-2   4.446404986083508E-3  -2.412928082048893E-2  -4.717840254306793E-1   8.771514892578125E-1  
 5.500000000000000E7    -1.951013803482056E-1  -9.775481820106506E-1   3.213961143046618E-3  -2.093743160367012E-2   3.233559429645538E-3  -2.088339626789093E-2  -4.573647379875183E-1   8.858861923217773E-1  
 5.530000000000000E7    -2.406872659921646E-1  -9.674662351608276E-1   2.212958177551627E-3  -1.794115453958511E-2   2.141006523743272E-3  -1.791931875050068E-2  -4.426866769790649E-1   8.925768733024597E-1  
 5.560000000000000E7    -2.861186265945435E-1  -9.549019932746887E-1   1.367371995002031E-3  -1.519887987524271E-2   1.384505885653198E-3  -1.515017356723547E-2  -4.288569986820221E-1   8.994317650794983E-1  
 5.590000000000000E7    -3.284514248371124E-1  -9.420590400695801E-1   7.746484479866922E-4  -1.267031114548445E-2   7.710226927883923E-4  -1.268714200705290E-2  -4.136882722377777E-1   9.065565466880798E-1  
 5.620000000000000E7    -3.719320893287659E-1  -9.250124692916870E-1   3.481927560642362E-4  -1.036895439028740E-2   3.243446117267013E-4  -1.039291918277741E-2  -4.005210399627686E-1   9.130414128303528E-1  
 5.650000000000000E7    -4.111181199550629E-1  -9.084784388542175E-1   3.395389649085701E-5  -8.265681564807892E-3   4.997590440325439E-5  -8.251156657934189E-3  -3.860308825969696E-1   9.187596440315247E-1  
 5.680000000000000E7    -4.506535232067108E-1  -8.898906111717224E-1  -1.444901427021250E-4  -6.400681566447020E-3  -1.471319410484284E-4  -6.368157453835011E-3  -3.712903559207916E-1   9.245296120643616E-1  
 5.710000000000000E7    -4.898470342159271E-1  -8.688399791717529E-1  -2.491588529665023E-4  -4.648342262953520E-3  -2.348097768845037E-4  -4.700045101344585E-3  -3.577107191085815E-1   9.302213191986084E-1  
 5.740000000000000E7    -5.268235802650452E-1  -8.472020626068115E-1  -2.067366731353104E-4  -3.108495380729437E-3  -2.301617787452415E-4  -3.106215037405491E-3  -3.429435789585114E-1   9.355858564376831E-1  
 5.770000000000000E7    -5.607933402061462E-1  -8.242110610008240E-1  -1.171484473161399E-4  -1.764453947544098E-3  -1.114771657739766E-4  -1.723508350551128E-3  -3.300454616546631E-1   9.393597841262817E-1  
 5.800000000000000E7    -5.958504676818848E-1  -7.994030117988586E-1  -1.419112322764704E-5  -5.022700061090291E-4  -5.461140972329304E-6  -5.321526550687850E-4  -3.153145015239716E-1   9.463245868682861E-1  
 5.830000000000000E7    -6.282276511192322E-1  -7.736530900001526E-1   1.990300079341978E-4   5.659505841322243E-4   1.972986647160724E-4   5.755595630034804E-4  -3.022707998752594E-1   9.503764510154724E-1  
 5.860000000000000E7    -6.600843071937561E-1  -7.487156987190247E-1   4.056784964632243E-4   1.540537574328482E-3   3.965698124375194E-4   1.505342079326510E-3  -2.879575490951538E-1   9.543378949165344E-1  
 5.890000000000000E7    -6.899319291114807E-1  -7.199684381484985E-1   6.779439863748848E-4   2.324611414223909E-3   6.305815186351538E-4   2.328451257199049E-3  -2.747380733489990E-1   9.577997922897339E-1  
 5.920000000000000E7    -7.193686962127686E-1  -6.910488605499268E-1   8.968459442257881E-4   3.017531009390950E-3   8.925221045501530E-4   3.043884644284844E-3  -2.611062824726105E-1   9.625308513641357E-1  
 5.950000000000000E7    -7.454063296318054E-1  -6.612621545791626E-1   1.170533825643361E-3   3.636878682300448E-3   1.175433862954378E-3   3.608756931498647E-3  -2.467081844806671E-1   9.644749760627747E-1  
 5.980000000000000E7    -7.723057270050049E-1  -6.310661435127258E-1   1.429272699169815E-3   4.100147634744644E-3   1.415186212398112E-3   4.087032750248909E-3  -2.324357032775879E-1   9.685772061347961E-1  
 6.010000000000000E7    -7.947567105293274E-1  -5.999584197998047E-1   1.644752104766667E-3   4.481562878936529E-3   1.671512029133737E-3   4.474539309740067E-3  -2.200848460197449E-1   9.722492694854736E-1  
 6.040000000000000E7    -8.193374276161194E-1  -5.674095749855042E-1   1.923456788063049E-3   4.783994983881712E-3   1.918510533869267E-3   4.760445561259985E-3  -2.067275047302246E-1   9.759964346885681E-1  
 6.070000000000000E7    -8.408980965614319E-1  -5.369697809219360E-1   2.125118393450975E-3   5.001123994588852E-3   2.123645041137934E-3   4.979201592504978E-3  -1.933949887752533E-1   9.776943922042847E-1  
 6.100000000000000E7    -8.600973486900330E-1  -5.033665299415588E-1   2.393320435658097E-3   5.118238739669323E-3   2.370547037571669E-3   5.100925453007221E-3  -1.788875311613083E-1   9.810683727264404E-1  
 6.130000000000000E7    -8.804199099540710E-1  -4.693751335144043E-1   2.571478486061096E-3   5.189364310353994E-3   2.537336200475693E-3   5.150434561073780E-3  -1.652799993753433E-1   9.838726520538330E-1  
 6.160000000000000E7    -8.971424102783203E-1  -4.350501298904419E-1   2.665610285475850E-3   5.160430911928415E-3   2.679231343790889E-3   5.150787997990847E-3  -1.527219861745834E-1   9.844186902046204E-1  
 6.190000000000000E7    -9.127959609031677E-1  -4.000887274742127E-1   2.815130166709423E-3   5.089643876999617E-3   2.830591052770615E-3   5.046395584940910E-3  -1.396525204181671E-1   9.859287142753601E-1  
 6.220000000000000E7    -9.274912476539612E-1  -3.657566308975220E-1   2.898276783525944E-3   4.913423210382462E-3   2.923797816038132E-3   4.966188687831163E-3  -1.270874887704849E-1   9.888696074485779E-1  
 6.250000000000000E7    -9.408581256866455E-1  -3.297859132289887E-1   2.954504219815135E-3   4.763751290738583E-3   2.954229013994336E-3   4.784535616636276E-3  -1.139982491731644E-1   9.905325770378113E-1  
 6.280000000000000E7    -9.522806406021118E-1  -2.938317656517029E-1   2.966816071420908E-3   4.540263675153256E-3   2.931193914264441E-3   4.533194936811924E-3  -1.003879457712174E-1   9.923960566520691E-1  
 6.310000000000000E7    -9.630368947982788E-1  -2.566008269786835E-1   2.970608882606030E-3   4.268950782716274E-3   2.984158694744110E-3   4.261353053152561E-3  -8.717344701290131E-2   9.934515953063965E-1  
 6.340000000000000E7    -9.714905619621277E-1  -2.205329090356827E-1   2.882976783439517E-3   3.965648822486401E-3   2.898443723097444E-3   3.928137477487326E-3  -7.371883094310761E-2   9.950865507125855E-1  
 6.370000000000000E7    -9.792664647102356E-1  -1.843534559011459E-1   2.748169470578432E-3   3.609885694459081E-3   2.793014980852604E-3   3.614378860220313E-3  -6.056803464889526E-2   9.948997497558594E-1  
 6.400000000000000E7    -9.848200082778931E-1  -1.472851336002350E-1   2.622384577989578E-3   3.237899858504534E-3   2.622302854433656E-3   3.237948520109057E-3  -4.732279479503632E-2   9.962699413299561E-1  
 6.430000000000000E7    -9.901814460754395E-1  -1.095793098211289E-1   2.429727930575609E-3   2.872489858418703E-3   2.399977296590805E-3   2.821138128638268E-3  -3.413031995296478E-2   9.965536594390869E-1  
 6.460000000000000E7    -9.938883185386658E-1  -7.350283861160278E-2   2.138645155355334E-3   2.456919290125370E-3   2.152680652216077E-3   2.442436991259456E-3  -2.204747498035431E-2   9.962005615234375E-1  
 6.490000000000000E7    -9.965767860412598E-1  -3.761805593967438E-2   1.861719181761146E-3   2.025664318352938E-3   1.863324083387852E-3   2.029336057603359E-3  -9.599670767784119E-3   9.973487854003906E-1  
 6.520000000000000E7    -9.965999722480774E-1  -8.838623762130737E-4   1.509739202447236E-3   1.576335635036230E-3   1.504446379840374E-3   1.579788397066295E-3   3.911793231964111E-3   9.978967905044556E-1  
 6.550000000000000E7    -9.959698319435120E-1   3.508919477462769E-2   1.081258291378617E-3   1.125169103033841E-3   1.086893840692937E-3   1.112387748435140E-3   1.674665510654450E-2   9.960706830024719E-1  
 6.580000000000000E7    -9.938074350357056E-1   7.222136855125427E-2   6.310036405920982E-4   6.680113729089499E-4   6.387358880601823E-4   6.649807328358293E-4   2.974508702754974E-2   9.974076747894287E-1  
 6.610000000000000E7    -9.896162748336792E-1   1.089127361774445E-1   1.438154286006466E-4   2.005762944463641E-4   1.514664327260107E-4   2.049161848844960E-4   4.403947293758392E-2   9.956238865852356E-1  
 6.640000000000000E7    -9.866642951965332E-1   1.443639397621155E-1  -4.036205355077982E-4  -2.513394574634731E-4  -4.048013070132583E-4  -2.530558267608285E-4   5.675954371690750E-2   9.952487349510193E-1  
 6.670000000000000E7    -9.798477888107300E-1   1.804552227258682E-1  -1.028747763484716E-3  -6.938533042557538E-4  -9.989181999117136E-4  -7.110417354851961E-4   6.841705739498138E-2   9.950069189071655E-1  
 6.700000000000000E7    -9.723866581916809E-1   2.159021794795990E-1  -1.653471263125539E-3  -1.138768508099020E-3  -1.684508752077818E-3  -1.144874608144164E-3   8.140068501234055E-2   9.932049512863159E-1  
 6.730000000000000E7    -9.639056324958801E-1   2.515030205249786E-1  -2.375737298280001E-3  -1.565674901939929E-3  -2.361211460083723E-3  -1.555541995912790E-3   9.442114830017090E-2   9.931666851043701E-1  
 6.760000000000000E7    -9.546190500259399E-1   2.856629192829132E-1  -3.122584428638220E-3  -1.974455546587706E-3  -3.122541122138500E-3  -2.008403651416302E-3   1.077788323163986E-1   9.913417696952820E-1  
 6.790000000000000E7    -9.430078268051148E-1   3.203721344470978E-1  -3.912971355021000E-3  -2.368846908211708E-3  -3.929984755814076E-3  -2.358853351324797E-3   1.196713298559189E-1   9.891881942749023E-1  
 6.820000000000000E7    -9.307283759117127E-1   3.538526296615601E-1  -4.790346138179302E-3  -2.757969545200467E-3  -4.762626718729734E-3  -2.753103384748101E-3   1.319756656885147E-1   9.882407784461975E-1  
 6.850000000000000E7    -9.183266162872315E-1   3.878524303436279E-1  -5.680079571902752E-3  -3.099489491432905E-3  -5.692474078387022E-3  -3.118001390248537E-3   1.443991810083389E-1   9.865322113037109E-1  
 6.880000000000000E7    -9.032185077667236E-1   4.204130470752716E-1  -6.609782110899687E-3  -3.415386425331235E-3  -6.606717128306627E-3  -3.423627931624651E-3   1.577086448669434E-1   9.840353131294251E-1  
 6.910000000000000E7    -8.872922658920288E-1   4.522786140441895E-1  -7.648578379303217E-3  -3.733433317393065E-3  -7.630451116710901E-3  -3.709599142894149E-3   1.707830578088760E-1   9.826611876487732E-1  
 6.940000000000000E7    -8.712121248245239E-1   4.837339222431183E-1  -8.680955506861210E-3  -3.996263258159161E-3  -8.669951930642128E-3  -3.989723511040211E-3   1.822461932897568E-1   9.802470207214356E-1  
 6.970000000000000E7    -8.522289395332336E-1   5.152524709701538E-1  -9.780652821063995E-3  -4.226636141538620E-3  -9.800135158002377E-3  -4.204098600894213E-3   1.954096853733063E-1   9.775628447532654E-1  
 7.000000000000000E7    -8.338984847068787E-1   5.455134510993958E-1  -1.091788988560438E-2  -4.400298930704594E-3  -1.089193020015955E-2  -4.368259571492672E-3   2.076025307178497E-1   9.753457903862000E-1  
