#  HZ   S   RI   R     50.00 
! Rohde & Schwarz ZVT8 8Ports - Version 4.11 - 1300.0000k08 SN: 100242
! Date: 2026-07-31 14:45:05
! Measurements: S11 S21 S12 S22 
! 
 1.000000000000000E7    -4.021838903427124E-1   9.114922285079956E-1   5.260232836008072E-2   5.316701903939247E-2   5.248017981648445E-2   5.307850614190102E-2  -9.187731146812439E-1   3.864598870277405E-1  
 1.030000000000000E7    -3.695042431354523E-1   9.239095449447632E-1   5.613738298416138E-2   5.348556116223335E-2   5.571949109435082E-2   5.361582338809967E-2  -9.121658802032471E-1   3.987972140312195E-1  
 1.060000000000000E7    -3.332535028457642E-1   9.374420046806335E-1   5.950585752725601E-2   5.446847528219223E-2   5.939153581857681E-2   5.419746786355972E-2  -9.084812998771668E-1   4.107395112514496E-1  
 1.090000000000000E7    -3.013180196285248E-1   9.476554393768311E-1   6.309091299772263E-2   5.483266338706017E-2   6.293993443250656E-2   5.473463237285614E-2  -9.026511907577515E-1   4.228261411190033E-1  
 1.120000000000000E7    -2.651939988136292E-1   9.570349454879761E-1   6.703861057758331E-2   5.555083602666855E-2   6.650562584400177E-2   5.520700290799141E-2  -8.969628810882568E-1   4.344576597213745E-1  
 1.150000000000000E7    -2.298882901668549E-1   9.672879576683044E-1   7.059673219919205E-2   5.573719367384911E-2   7.051572203636169E-2   5.538912117481232E-2  -8.898738026618958E-1   4.440313875675201E-1  
 1.180000000000000E7    -1.944442242383957E-1   9.724035859107971E-1   7.430706173181534E-2   5.577080324292183E-2   7.430735230445862E-2   5.576081573963165E-2  -8.850464224815369E-1   4.551751613616943E-1  
 1.210000000000000E7    -1.593233644962311E-1   9.790056943893433E-1   7.862178236246109E-2   5.610166117548943E-2   7.844777405261993E-2   5.596366524696350E-2  -8.772626519203186E-1   4.676485061645508E-1  
 1.240000000000000E7    -1.235281229019165E-1   9.835176467895508E-1   8.278807997703552E-2   5.618531256914139E-2   8.271807432174683E-2   5.571576207876205E-2  -8.705926537513733E-1   4.778072237968445E-1  
 1.270000000000000E7    -8.718881011009216E-2   9.870605468750000E-1   8.748486638069153E-2   5.553168058395386E-2   8.703742176294327E-2   5.544329062104225E-2  -8.631932139396668E-1   4.920807480812073E-1  
 1.300000000000000E7    -5.134426802396774E-2   9.895897507667542E-1   9.174694120883942E-2   5.554966256022453E-2   9.164375066757202E-2   5.534786731004715E-2  -8.555778861045837E-1   5.029324293136597E-1  
 1.330000000000000E7    -1.414605788886547E-2   9.910302162170410E-1   9.660114347934723E-2   5.504569411277771E-2   9.644398838281632E-2   5.436145141720772E-2  -8.482814431190491E-1   5.148478150367737E-1  
 1.360000000000000E7     2.331819012761116E-2   9.904983043670654E-1   1.013362258672714E-1   5.462208762764931E-2   1.015810444951057E-1   5.384410545229912E-2  -8.408503532409668E-1   5.248578190803528E-1  
 1.390000000000000E7     5.929575860500336E-2   9.877733588218689E-1   1.064122542738915E-1   5.319787561893463E-2   1.059921756386757E-1   5.347310379147530E-2  -8.328812122344971E-1   5.365142226219177E-1  
 1.420000000000000E7     9.726111590862274E-2   9.851278066635132E-1   1.113913133740425E-1   5.265507847070694E-2   1.112248525023460E-1   5.253434181213379E-2  -8.257306814193726E-1   5.476350188255310E-1  
 1.450000000000000E7     1.341747641563416E-1   9.790458679199219E-1   1.168674975633621E-1   5.107783526182175E-2   1.166179180145264E-1   5.108010396361351E-2  -8.153889775276184E-1   5.603478550910950E-1  
 1.480000000000000E7     1.726044118404388E-1   9.726947546005249E-1   1.223160326480866E-1   4.951201751828194E-2   1.222213506698608E-1   4.996961355209351E-2  -8.080692291259766E-1   5.711529850959778E-1  
 1.510000000000000E7     2.091219723224640E-1   9.646049141883850E-1   1.277066320180893E-1   4.772065207362175E-2   1.274539828300476E-1   4.784678295254707E-2  -7.960036993026733E-1   5.826898813247681E-1  
 1.540000000000000E7     2.454588413238525E-1   9.551029801368713E-1   1.334290057420731E-1   4.698584601283073E-2   1.332101821899414E-1   4.624435305595398E-2  -7.896295785903931E-1   5.931553840637207E-1  
 1.570000000000000E7     2.831371128559113E-1   9.456600546836853E-1   1.394917070865631E-1   4.423399642109871E-2   1.393412798643112E-1   4.416729509830475E-2  -7.790058255195618E-1   6.062979698181152E-1  
 1.600000000000000E7     3.204136788845062E-1   9.318214654922485E-1   1.452486068010330E-1   4.180092364549637E-2   1.457594484090805E-1   4.156866297125816E-2  -7.701174020767212E-1   6.157705783843994E-1  
 1.630000000000000E7     3.564476668834686E-1   9.175601601600647E-1   1.523686945438385E-1   3.873482719063759E-2   1.517731845378876E-1   3.898058831691742E-2  -7.587179541587830E-1   6.284832358360291E-1  
 1.660000000000000E7     3.923679292201996E-1   9.005185365676880E-1   1.587184220552445E-1   3.570873290300369E-2   1.585427671670914E-1   3.523490577936173E-2  -7.471176981925964E-1   6.402526497840881E-1  
 1.690000000000000E7     4.281491041183472E-1   8.832565546035767E-1   1.656693369150162E-1   3.282129392027855E-2   1.651512384414673E-1   3.234873339533806E-2  -7.359528541564941E-1   6.503821015357971E-1  
 1.720000000000000E7     4.655379652976990E-1   8.641870617866516E-1   1.716157943010330E-1   2.823467366397381E-2   1.719932109117508E-1   2.873098850250244E-2  -7.247678041458130E-1   6.610769629478455E-1  
 1.750000000000000E7     4.955899119377136E-1   8.458064794540405E-1   1.796481013298035E-1   2.548892423510552E-2   1.797509640455246E-1   2.498719468712807E-2  -7.135797142982483E-1   6.740174293518066E-1  
 1.780000000000000E7     5.330226421356201E-1   8.194890022277832E-1   1.860035508871079E-1   2.008631825447083E-2   1.862492561340332E-1   2.060310542583466E-2  -7.005478739738464E-1   6.825041770935059E-1  
 1.810000000000000E7     5.652501583099365E-1   7.969110608100891E-1   1.949208676815033E-1   1.551809161901474E-2   1.934598088264465E-1   1.492535509169102E-2  -6.874998807907105E-1   6.964662075042725E-1  
 1.840000000000000E7     6.000952124595642E-1   7.705377340316773E-1   2.026344537734985E-1   8.762165904045105E-3   2.016777694225311E-1   9.151399135589600E-3  -6.734502911567688E-1   7.066094279289246E-1  
 1.870000000000000E7     6.300050616264343E-1   7.435110807418823E-1   2.102890908718109E-1   3.640575334429741E-3   2.096283584833145E-1   3.117550164461136E-3  -6.593979597091675E-1   7.174599170684815E-1  
 1.900000000000000E7     6.606724262237549E-1   7.140095233917236E-1   2.183420062065125E-1  -2.661602571606636E-3   2.180019915103912E-1  -3.334773704409599E-3  -6.449115276336670E-1   7.275580763816834E-1  
 1.930000000000000E7     6.912894248962402E-1   6.817595362663269E-1   2.263896465301514E-1  -1.132659055292606E-2   2.266015410423279E-1  -1.041590515524149E-2  -6.295707821846008E-1   7.394269108772278E-1  
 1.960000000000000E7     7.205708622932434E-1   6.470131874084473E-1   2.347882390022278E-1  -1.910470798611641E-2   2.349179536104202E-1  -1.839054375886917E-2  -6.157074570655823E-1   7.485402822494507E-1  
 1.990000000000000E7     7.459471225738525E-1   6.121950149536133E-1   2.434307336807251E-1  -2.786338701844215E-2   2.438031136989594E-1  -2.799273096024990E-2  -5.965458750724793E-1   7.608338594436646E-1  
 2.020000000000000E7     7.719517350196838E-1   5.748599767684937E-1   2.527646124362946E-1  -3.722069039940834E-2   2.519618272781372E-1  -3.704862296581268E-2  -5.805454850196838E-1   7.683922648429871E-1  
 2.050000000000000E7     7.980125546455383E-1   5.348495244979858E-1   2.614773511886597E-1  -4.747294634580612E-2   2.598219513893127E-1  -4.777814447879791E-2  -5.626173019409180E-1   7.784200906753540E-1  
 2.080000000000000E7     8.199808597564697E-1   4.923937916755676E-1   2.708697319030762E-1  -5.943642556667328E-2   2.708294689655304E-1  -5.917424708604813E-2  -5.440672636032105E-1   7.893486022949219E-1  
 2.110000000000000E7     8.412057757377625E-1   4.491534233093262E-1   2.802887856960297E-1  -7.291224598884583E-2   2.800624072551727E-1  -7.274116575717926E-2  -5.238530635833740E-1   7.983690500259399E-1  
 2.140000000000000E7     8.596654534339905E-1   4.039351344108582E-1   2.896955907344818E-1  -8.741994202136993E-2   2.884671688079834E-1  -8.618924766778946E-2  -5.031822323799133E-1   8.064165711402893E-1  
 2.170000000000000E7     8.749830126762390E-1   3.574957549571991E-1   2.988837659358978E-1  -1.020317226648331E-1   2.988198995590210E-1  -1.009589880704880E-1  -4.823459386825562E-1   8.145985603332520E-1  
 2.200000000000000E7     8.894908428192139E-1   3.057030439376831E-1   3.075200021266937E-1  -1.191388368606567E-1   3.077947795391083E-1  -1.187452822923660E-1  -4.583870470523834E-1   8.215674757957459E-1  
 2.230000000000000E7     8.989862799644470E-1   2.539667487144470E-1   3.167053461074829E-1  -1.377211809158325E-1   3.161654472351074E-1  -1.368724703788757E-1  -4.346039295196533E-1   8.276630640029907E-1  
 2.260000000000000E7     9.066807627677918E-1   1.999398171901703E-1   3.246698081493378E-1  -1.578852534294128E-1   3.265015482902527E-1  -1.578444689512253E-1  -4.103845655918121E-1   8.331429958343506E-1  
 2.290000000000000E7     9.103528857231140E-1   1.437181085348129E-1   3.330210447311401E-1  -1.800339818000794E-1   3.340676128864288E-1  -1.795324981212616E-1  -3.829414248466492E-1   8.371767997741699E-1  
 2.320000000000000E7     9.088769555091858E-1   8.648441731929779E-2   3.409824669361115E-1  -2.055443674325943E-1   3.401474058628082E-1  -2.054657638072968E-1  -3.564044237136841E-1   8.424679040908814E-1  
 2.350000000000000E7     9.030344486236572E-1   2.572415024042130E-2   3.471893966197968E-1  -2.335474491119385E-1   3.469525575637817E-1  -2.320927679538727E-1  -3.279248178005219E-1   8.442741036415100E-1  
 2.380000000000000E7     8.928664922714233E-1  -3.517256677150726E-2   3.524661958217621E-1  -2.619168460369110E-1   3.526697754859924E-1  -2.616828382015228E-1  -2.980398237705231E-1   8.443691730499268E-1  
 2.410000000000000E7     8.764457702636719E-1  -9.791140258312225E-2   3.552846014499664E-1  -2.948724627494812E-1   3.548038303852081E-1  -2.941680252552033E-1  -2.667208313941956E-1   8.419454097747803E-1  
 2.440000000000000E7     8.526588082313538E-1  -1.603249609470367E-1   3.567416369915009E-1  -3.313681781291962E-1   3.566657006740570E-1  -3.312294185161591E-1  -2.357248961925507E-1   8.372667431831360E-1  
 2.470000000000000E7     8.229343295097351E-1  -2.230346798896790E-1   3.551537394523621E-1  -3.707042932510376E-1   3.555926084518433E-1  -3.679514229297638E-1  -2.010920643806458E-1   8.294894695281982E-1  
 2.500000000000000E7     7.852013111114502E-1  -2.865417897701263E-1   3.497135937213898E-1  -4.112158119678497E-1   3.491944968700409E-1  -4.118668735027313E-1  -1.669931709766388E-1   8.202586174011231E-1  
 2.530000000000000E7     7.377047538757324E-1  -3.473225235939026E-1   3.417881727218628E-1  -4.566781818866730E-1   3.413822352886200E-1  -4.559834301471710E-1  -1.325069963932037E-1   8.054963350296021E-1  
 2.560000000000000E7     6.820613741874695E-1  -4.045817852020264E-1   3.271076381206513E-1  -5.038943886756897E-1   3.277257382869721E-1  -5.049483776092529E-1  -9.871568530797958E-2   7.871474623680115E-1  
 2.590000000000000E7     6.155225634574890E-1  -4.542955756187439E-1   3.044722378253937E-1  -5.558427572250366E-1   3.053689301013947E-1  -5.561176538467407E-1  -6.414873152971268E-2   7.664728760719299E-1  
 2.620000000000000E7     5.387276411056519E-1  -4.989610314369202E-1   2.752328813076019E-1  -6.097986698150635E-1   2.757948637008667E-1  -6.081092357635498E-1  -2.974649518728256E-2   7.380663156509399E-1  
 2.650000000000000E7     4.523253440856934E-1  -5.353540182113648E-1   2.386550903320313E-1  -6.623394489288330E-1   2.380330711603165E-1  -6.629898548126221E-1  -7.850839756429195E-4   7.040477395057678E-1  
 2.680000000000000E7     3.567498326301575E-1  -5.562282204627991E-1   1.908922642469406E-1  -7.156848311424255E-1   1.895682215690613E-1  -7.158331871032715E-1   2.444735169410706E-2   6.649566888809204E-1  
 2.710000000000000E7     2.563362717628479E-1  -5.620256662368774E-1   1.293295770883560E-1  -7.644765973091126E-1   1.295916289091110E-1  -7.639713287353516E-1   4.654159024357796E-2   6.240494847297669E-1  
 2.740000000000000E7     1.476424187421799E-1  -5.501002073287964E-1   6.009964644908905E-2  -8.096219301223755E-1   5.777547508478165E-2  -8.085483908653259E-1   5.810721963644028E-2   5.728975534439087E-1  
 2.770000000000000E7     4.441605880856514E-2  -5.171372294425964E-1  -2.350519411265850E-2  -8.438245654106140E-1  -2.436845935881138E-2  -8.436125516891480E-1   6.352082639932632E-2   5.234351754188538E-1  
 2.800000000000000E7    -5.720527470111847E-2  -4.646654129028320E-1  -1.153355240821838E-1  -8.673000931739807E-1  -1.148261502385140E-1  -8.678781986236572E-1   5.920026078820229E-2   4.682560861110687E-1  
 2.830000000000000E7    -1.469701230525971E-1  -3.900801539421082E-1  -2.129921168088913E-1  -8.742578029632568E-1  -2.135523557662964E-1  -8.731448054313660E-1   4.407192021608353E-2   4.225472211837769E-1  
 2.860000000000000E7    -2.187015861272812E-1  -2.949767112731934E-1  -3.155965507030487E-1  -8.647838234901428E-1  -3.177068233489990E-1  -8.632410168647766E-1   1.969685405492783E-2   3.754600286483765E-1  
 2.890000000000000E7    -2.674552500247955E-1  -1.891019195318222E-1  -4.178617596626282E-1  -8.368760347366333E-1  -4.171621501445770E-1  -8.352264165878296E-1  -1.429043523967266E-2   3.378949463367462E-1  
 2.920000000000000E7    -2.966647148132324E-1  -7.292211055755615E-2  -5.120040178298950E-1  -7.930583953857422E-1  -5.127167701721191E-1  -7.905043959617615E-1  -5.502823367714882E-2   3.091785013675690E-1  
 2.950000000000000E7    -2.951513826847076E-1   4.136860370635986E-2  -5.997971296310425E-1  -7.312607765197754E-1  -5.984402298927307E-1  -7.299607396125794E-1  -1.003671735525131E-1   2.921347320079804E-1  
 2.980000000000000E7    -2.748069763183594E-1   1.521662026643753E-1  -6.720643639564514E-1  -6.587375998497009E-1  -6.724342107772827E-1  -6.576783657073975E-1  -1.472933292388916E-1   2.872335910797119E-1  
 3.010000000000000E7    -2.317585200071335E-1   2.502255439758301E-1  -7.324186563491821E-1  -5.766311287879944E-1  -7.312114834785461E-1  -5.761248469352722E-1  -1.914976686239243E-1   2.919827997684479E-1  
 3.040000000000000E7    -1.702709197998047E-1   3.354709148406982E-1  -7.741802334785461E-1  -4.917640686035156E-1  -7.745608687400818E-1  -4.904769659042358E-1  -2.297649979591370E-1   3.092814087867737E-1  
 3.070000000000000E7    -1.011013165116310E-1   4.036221206188202E-1  -8.065635561943054E-1  -4.040815234184265E-1  -8.040416836738586E-1  -4.043736755847931E-1  -2.610872983932495E-1   3.300495743751526E-1  
 3.100000000000000E7    -2.275267615914345E-2   4.538587033748627E-1  -8.237364292144775E-1  -3.195236325263977E-1  -8.227340579032898E-1  -3.192324042320252E-1  -2.872800827026367E-1   3.577647507190704E-1  
 3.130000000000000E7     5.620439723134041E-2   4.887523949146271E-1  -8.292809128761292E-1  -2.366932332515717E-1  -8.278037309646606E-1  -2.373906075954437E-1  -3.053478598594666E-1   3.926203548908234E-1  
 3.160000000000000E7     1.382726281881332E-1   5.080459713935852E-1  -8.268247246742249E-1  -1.606393605470657E-1  -8.265832662582398E-1  -1.619862616062164E-1  -3.148967325687408E-1   4.274980723857880E-1  
 3.190000000000000E7     2.150347232818604E-1   5.160850882530212E-1  -8.170685768127441E-1  -8.873375505208969E-2  -8.153339028358460E-1  -8.898859471082687E-2  -3.182261586189270E-1   4.632010757923126E-1  
 3.220000000000000E7     2.897776961326599E-1   5.135737657546997E-1  -8.011762499809265E-1  -2.344899624586105E-2  -8.003975152969360E-1  -2.261136285960674E-2  -3.140023648738861E-1   4.995126426219940E-1  
 3.250000000000000E7     3.574544489383698E-1   4.998725056648254E-1  -7.822206020355225E-1   3.717336058616638E-2  -7.820671796798706E-1   3.778477013111115E-2  -3.021912276744843E-1   5.365999341011047E-1  
 3.280000000000000E7     4.201651215553284E-1   4.768350720405579E-1  -7.596144080162048E-1   9.380079805850983E-2  -7.574873566627502E-1   9.472654014825821E-2  -2.862561345100403E-1   5.709668397903442E-1  
 3.310000000000000E7     4.759790897369385E-1   4.535606801509857E-1  -7.331833243370056E-1   1.458326578140259E-1  -7.322105765342712E-1   1.461723744869232E-1  -2.606249749660492E-1   6.040238738059998E-1  
 3.340000000000000E7     5.251935124397278E-1   4.225793182849884E-1  -7.070980072021484E-1   1.952878534793854E-1  -7.050988078117371E-1   1.945537179708481E-1  -2.311689108610153E-1   6.328400969505310E-1  
 3.370000000000000E7     5.695199370384216E-1   3.876426219940186E-1  -6.770262718200684E-1   2.386992871761322E-1  -6.763845086097717E-1   2.378785610198975E-1  -1.969494223594666E-1   6.615334749221802E-1  
 3.400000000000000E7     6.074358224868774E-1   3.509043455123901E-1  -6.476483941078186E-1   2.808775901794434E-1  -6.476553082466126E-1   2.799836397171021E-1  -1.550941020250320E-1   6.834838986396790E-1  
 3.430000000000000E7     6.399462223052979E-1   3.132696747779846E-1  -6.164763569831848E-1   3.210221827030182E-1  -6.160453557968140E-1   3.204630911350250E-1  -1.102046221494675E-1   7.027491927146912E-1  
 3.460000000000000E7     6.677829027175903E-1   2.733318209648132E-1  -5.851995348930359E-1   3.586520552635193E-1  -5.859219431877136E-1   3.579921722412109E-1  -5.751797556877136E-2   7.176309227943420E-1  
 3.490000000000000E7     6.899305582046509E-1   2.346434891223908E-1  -5.499198436737061E-1   3.964141905307770E-1  -5.510704517364502E-1   3.948772847652435E-1  -3.052413463592529E-3   7.256969213485718E-1  
 3.520000000000000E7     7.089249491691589E-1   1.945034116506577E-1  -5.164821743965149E-1   4.301775097846985E-1  -5.170306563377380E-1   4.303130209445953E-1   6.178159266710281E-2   7.302779555320740E-1  
 3.550000000000000E7     7.216752171516419E-1   1.535773277282715E-1  -4.804078638553619E-1   4.639130830764771E-1  -4.806521534919739E-1   4.637197852134705E-1   1.302959322929382E-1   7.250016927719116E-1  
 3.580000000000000E7     7.330766916275024E-1   1.170308217406273E-1  -4.397571086883545E-1   4.970849752426148E-1  -4.400983750820160E-1   4.966093599796295E-1   2.040567249059677E-1   7.097788453102112E-1  
 3.610000000000000E7     7.393960356712341E-1   8.255042135715485E-2  -3.972647488117218E-1   5.310559272766113E-1  -3.961525559425354E-1   5.295963287353516E-1   2.848059237003326E-1   6.841151118278503E-1  
 3.640000000000000E7     7.439241409301758E-1   4.747880250215530E-2  -3.499841094017029E-1   5.607884526252747E-1  -3.503180444240570E-1   5.594250559806824E-1   3.683247566223145E-1   6.437734365463257E-1  
 3.670000000000000E7     7.460979223251343E-1   1.678061485290527E-2  -2.985405921936035E-1   5.900688171386719E-1  -2.971208095550537E-1   5.884148478507996E-1   4.535941481590271E-1   5.869552493095398E-1  
 3.700000000000000E7     7.470368742942810E-1  -1.139426231384277E-2  -2.386564612388611E-1   6.143548488616943E-1  -2.380405068397522E-1   6.132164001464844E-1   5.402159094810486E-1   5.081963539123535E-1  
 3.730000000000000E7     7.479152679443359E-1  -3.921645879745483E-2  -1.739130765199661E-1   6.328649520874023E-1  -1.740486025810242E-1   6.333164572715759E-1   6.190255284309387E-1   4.075819253921509E-1  
 3.760000000000000E7     7.496017217636108E-1  -5.966908484697342E-2  -1.012234389781952E-1   6.440814733505249E-1  -1.008660271763802E-1   6.456612348556519E-1   6.883913278579712E-1   2.800754308700562E-1  
 3.790000000000000E7     7.521163225173950E-1  -8.056058734655380E-2  -2.171855419874191E-2   6.464645266532898E-1  -2.197813242673874E-2   6.461820602416992E-1   7.349225282669067E-1   1.285735964775085E-1  
 3.820000000000000E7     7.595522403717041E-1  -1.000587642192841E-1   6.046948954463005E-2   6.338216066360474E-1   5.939873680472374E-2   6.344621181488037E-1   7.531850337982178E-1  -4.714575409889221E-2  
 3.850000000000000E7     7.685304880142212E-1  -1.209156289696693E-1   1.428069919347763E-1   6.055296063423157E-1   1.440834850072861E-1   6.041848659515381E-1   7.301108241081238E-1  -2.372709512710571E-1  
 3.880000000000000E7     7.833486795425415E-1  -1.439018398523331E-1   2.192044705152512E-1   5.562635064125061E-1   2.198053896427155E-1   5.556939244270325E-1   6.565784811973572E-1  -4.281766712665558E-1  
 3.910000000000000E7     7.989907264709473E-1  -1.712563186883926E-1   2.844804525375366E-1   4.942240715026856E-1   2.848677933216095E-1   4.932672083377838E-1   5.336237549781799E-1  -6.024634838104248E-1  
 3.940000000000000E7     8.153312802314758E-1  -2.034365683794022E-1   3.318371772766113E-1   4.169118106365204E-1   3.317208588123322E-1   4.173524975776672E-1   3.691914975643158E-1  -7.433419227600098E-1  
 3.970000000000000E7     8.303536772727966E-1  -2.432024776935577E-1   3.593984842300415E-1   3.367224037647247E-1   3.595010340213776E-1   3.376145660877228E-1   1.742817610502243E-1  -8.371268510818481E-1  
 4.000000000000000E7     8.404046297073364E-1  -2.887691259384155E-1   3.674011230468750E-1   2.581047713756561E-1   3.669658601284027E-1   2.574036717414856E-1  -2.858694642782211E-2  -8.788380026817322E-1  
 4.030000000000000E7     8.461698293685913E-1  -3.378984034061432E-1   3.572065532207489E-1   1.864107251167297E-1   3.588956296443939E-1   1.854655146598816E-1  -2.236171364784241E-1  -8.737202882766724E-1  
 4.060000000000000E7     8.438641428947449E-1  -3.883205354213715E-1   3.369179964065552E-1   1.251274645328522E-1   3.373949825763702E-1   1.247007846832275E-1  -4.005848467350006E-1  -8.303358554840088E-1  
 4.090000000000000E7     8.358368873596191E-1  -4.394373893737793E-1   3.098022639751434E-1   7.526743412017822E-2   3.094153404235840E-1   7.462521642446518E-2  -5.496386885643005E-1  -7.597578167915344E-1  
 4.120000000000000E7     8.229205012321472E-1  -4.887081980705261E-1   2.776538729667664E-1   3.655493631958962E-2   2.776421308517456E-1   3.730270639061928E-2  -6.741596460342407E-1  -6.718340516090393E-1  
 4.150000000000000E7     8.043819665908814E-1  -5.348294377326965E-1   2.455953210592270E-1   9.269008412957192E-3   2.453216612339020E-1   9.797992184758186E-3  -7.694671154022217E-1  -5.766626596450806E-1  
 4.180000000000000E7     7.817208766937256E-1  -5.803290009498596E-1   2.149302959442139E-1  -1.118981093168259E-2   2.141838073730469E-1  -1.120347063988447E-2  -8.414838314056397E-1  -4.797790944576263E-1  
 4.210000000000000E7     7.569967508316040E-1  -6.214523911476135E-1   1.861146539449692E-1  -2.444107644259930E-2   1.861049383878708E-1  -2.474295161664486E-2  -8.960374593734741E-1  -3.846013545989990E-1  
 4.240000000000000E7     7.289254665374756E-1  -6.594169139862061E-1   1.600893437862396E-1  -3.335988894104958E-2   1.602226346731186E-1  -3.340604901313782E-2  -9.347456693649292E-1  -2.948022484779358E-1  
 4.270000000000000E7     6.988928914070129E-1  -6.955567002296448E-1   1.376128941774368E-1  -3.886425867676735E-2   1.371872872114182E-1  -3.896467387676239E-2  -9.626629352569580E-1  -2.083626091480255E-1  
 4.300000000000000E7     6.679337024688721E-1  -7.301709651947022E-1   1.173255145549774E-1  -4.158673435449600E-2   1.168393418192864E-1  -4.142082110047340E-2  -9.794260263442993E-1  -1.283546090126038E-1  
 4.330000000000000E7     6.377115845680237E-1  -7.600487470626831E-1   9.933659434318543E-2  -4.203528910875320E-2   9.936116635799408E-2  -4.206781834363937E-2  -9.876127839088440E-1  -5.519542470574379E-2  
 4.360000000000000E7     6.030396223068237E-1  -7.887293100357056E-1   8.387696743011475E-2  -4.105035588145256E-2   8.379033207893372E-2  -4.106733575463295E-2  -9.916953444480896E-1   1.234043389558792E-2  
 4.390000000000000E7     5.689404010772705E-1  -8.162593841552734E-1   7.077052444219589E-2  -3.940444067120552E-2   7.086452841758728E-2  -3.950506821274757E-2  -9.885784983634949E-1   7.520121335983276E-2  
 4.420000000000000E7     5.341571569442749E-1  -8.391543626785278E-1   5.928818508982658E-2  -3.726787865161896E-2   5.917095765471458E-2  -3.712604194879532E-2  -9.834005236625671E-1   1.333697140216827E-1  
 4.450000000000000E7     4.989013373851776E-1  -8.611546158790588E-1   4.957451671361923E-2  -3.423207998275757E-2   4.938799887895584E-2  -3.434662893414497E-2  -9.768319129943848E-1   1.851649880409241E-1  
 4.480000000000000E7     4.634371101856232E-1  -8.814324140548706E-1   4.099519923329353E-2  -3.117470443248749E-2   4.103755578398705E-2  -3.129035979509354E-2  -9.662173986434937E-1   2.333173006772995E-1  
 4.510000000000000E7     4.287309944629669E-1  -9.003999233245850E-1   3.388620913028717E-2  -2.818626165390015E-2   3.390577808022499E-2  -2.808040753006935E-2  -9.557648897171021E-1   2.784482836723328E-1  
 4.540000000000000E7     3.919392526149750E-1  -9.162925481796265E-1   2.761430293321610E-2  -2.513590455055237E-2   2.757848240435123E-2  -2.494584955275059E-2  -9.432345628738403E-1   3.199403882026672E-1  
 4.570000000000000E7     3.549099564552307E-1  -9.319089055061340E-1   2.228950150310993E-2  -2.200649678707123E-2   2.234000712633133E-2  -2.189237996935844E-2  -9.292922019958496E-1   3.590896129608154E-1  
 4.600000000000000E7     3.204564452171326E-1  -9.441894292831421E-1   1.794051565229893E-2  -1.881688274443150E-2   1.791178248822689E-2  -1.892603188753128E-2  -9.150757789611816E-1   3.944084644317627E-1  
 4.630000000000000E7     2.813168168067932E-1  -9.569939374923706E-1   1.419009361416102E-2  -1.612041890621185E-2   1.414724346250296E-2  -1.598153822124004E-2  -8.999972343444824E-1   4.269885122776032E-1  
 4.660000000000000E7     2.443387806415558E-1  -9.682189822196960E-1   1.095649600028992E-2  -1.338196359574795E-2   1.092542149126530E-2  -1.331290509551764E-2  -8.849621415138245E-1   4.590198695659638E-1  
 4.690000000000000E7     2.079087346792221E-1  -9.756469130516052E-1   8.242330513894558E-3  -1.079670619219542E-2   8.213148452341557E-3  -1.072916947305203E-2  -8.694161772727966E-1   4.874820411205292E-1  
 4.720000000000000E7     1.703126579523087E-1  -9.825263619422913E-1   5.933572538197041E-3  -8.413152769207954E-3   5.938983988016844E-3  -8.450957946479321E-3  -8.534107208251953E-1   5.156896710395813E-1  
 4.750000000000000E7     1.339825987815857E-1  -9.890118837356567E-1   4.166015423834324E-3  -6.154049653559923E-3   4.154197871685028E-3  -6.145190913230181E-3  -8.371282219886780E-1   5.410860180854797E-1  
 4.780000000000000E7     9.766361117362976E-2  -9.930839538574219E-1   2.589535433799028E-3  -4.171251785010099E-3   2.591532422229648E-3  -4.084054846316576E-3  -8.203711509704590E-1   5.652199387550354E-1  
 4.810000000000000E7     6.037919968366623E-2  -9.959144592285156E-1   1.417551189661026E-3  -2.217651810497046E-3   1.386545482091606E-3  -2.254936844110489E-3  -8.052030801773071E-1   5.869561433792114E-1  
 4.840000000000000E7     2.379720658063889E-2  -9.978268742561340E-1   4.085304681211710E-4  -4.942900850437582E-4   4.498139896895737E-4  -5.373199237510562E-4  -7.891485095024109E-1   6.081106662750244E-1  
 4.870000000000000E7    -1.317715644836426E-2  -9.982210993766785E-1  -3.373426734469831E-4   1.005011377856135E-3  -3.275084891356528E-4   9.586440864950419E-4  -7.733995914459229E-1   6.284384131431580E-1  
 4.900000000000000E7    -4.981883615255356E-2  -9.978978633880615E-1  -8.906392613425851E-4   2.432194538414478E-3  -8.824580581858754E-4   2.390413312241435E-3  -7.573528885841370E-1   6.475684642791748E-1  
 4.930000000000000E7    -8.637480437755585E-2  -9.951073527336121E-1  -1.368818688206375E-3   3.755104960873723E-3  -1.332761486992240E-3   3.683103946968913E-3  -7.416720390319824E-1   6.664476990699768E-1  
 4.960000000000000E7    -1.218949779868126E-1  -9.890739917755127E-1  -1.575415953993797E-3   4.801948554813862E-3  -1.673707272857428E-3   4.769506398588419E-3  -7.257292866706848E-1   6.830343008041382E-1  
 4.990000000000000E7    -1.569104492664337E-1  -9.846771955490112E-1  -1.805661479011178E-3   5.780737847089768E-3  -1.856281654909253E-3   5.743635352700949E-3  -7.104147672653198E-1   6.988872289657593E-1  
 5.020000000000000E7    -1.915347576141357E-1  -9.798576831817627E-1  -1.887600636109710E-3   6.604622583836317E-3  -1.931002247147262E-3   6.586573552340269E-3  -6.950019598007202E-1   7.146930694580078E-1  
 5.050000000000000E7    -2.268727123737335E-1  -9.718273878097534E-1  -1.930128317326307E-3   7.314206566661596E-3  -1.899180468171835E-3   7.285585626959801E-3  -6.801967024803162E-1   7.302727699279785E-1  
 5.080000000000000E7    -2.607393860816956E-1  -9.637141823768616E-1  -1.820683828555048E-3   7.911373861134052E-3  -1.858735573478043E-3   7.863423787057400E-3  -6.631469726562500E-1   7.430440187454224E-1  
 5.110000000000000E7    -2.955741882324219E-1  -9.531814455986023E-1  -1.723148394376040E-3   8.398096077144146E-3  -1.727901631966233E-3   8.338721469044685E-3  -6.491947770118713E-1   7.564936876296997E-1  
 5.140000000000000E7    -3.288296461105347E-1  -9.416993856430054E-1  -1.543609309010208E-3   8.753064088523388E-3  -1.554454443976283E-3   8.745884522795677E-3  -6.344112753868103E-1   7.713354229927063E-1  
 5.170000000000000E7    -3.613511621952057E-1  -9.295656085014343E-1  -1.326529309153557E-3   9.030045941472054E-3  -1.383182010613382E-3   9.026385843753815E-3  -6.176723241806030E-1   7.817699909210205E-1  
 5.200000000000000E7    -3.944050073623657E-1  -9.178941249847412E-1  -1.137466286309063E-3   9.201630018651485E-3  -1.150372205302119E-3   9.249571710824966E-3  -6.017857193946838E-1   7.928457856178284E-1  
 5.230000000000000E7    -4.260937869548798E-1  -9.022790789604187E-1  -9.143913630396128E-4   9.310049936175346E-3  -8.728178218007088E-4   9.309862740337849E-3  -5.880411863327026E-1   8.047416806221008E-1  
 5.260000000000000E7    -4.567608833312988E-1  -8.856742382049561E-1  -6.795556400902569E-4   9.299596771597862E-3  -6.142547936178744E-4   9.307486005127430E-3  -5.726785063743591E-1   8.157235980033875E-1  
 5.290000000000000E7    -4.884191155433655E-1  -8.695982694625855E-1  -3.549454850144684E-4   9.250396862626076E-3  -4.115198389627039E-4   9.226547554135323E-3  -5.581362247467041E-1   8.254336118698120E-1  
 5.320000000000000E7    -5.180831551551819E-1  -8.534383177757263E-1  -1.590153551660478E-4   9.117957204580307E-3  -1.458656624890864E-4   9.105041623115540E-3  -5.435583591461182E-1   8.354191780090332E-1  
 5.350000000000000E7    -5.462549328804016E-1  -8.343386650085449E-1   7.664482109248638E-5   8.883695118129253E-3   7.668812759220600E-5   8.881359361112118E-3  -5.300183892250061E-1   8.441616296768189E-1  
 5.380000000000000E7    -5.740984678268433E-1  -8.148965239524841E-1   2.561405999585986E-4   8.633493445813656E-3   2.569576026871800E-4   8.596302010118961E-3  -5.136216878890991E-1   8.534979820251465E-1  
 5.410000000000000E7    -6.046717762947083E-1  -7.950990200042725E-1   4.498573252931237E-4   8.287307806313038E-3   4.866422968916595E-4   8.295989595353603E-3  -4.998459219932556E-1   8.623714447021484E-1  
 5.440000000000000E7    -6.308364272117615E-1  -7.727693915367127E-1   6.649818387813866E-4   7.896858267486095E-3   6.580521585419774E-4   7.910207845270634E-3  -4.855201840400696E-1   8.701140284538269E-1  
 5.470000000000000E7    -6.558029651641846E-1  -7.516484856605530E-1   8.163334568962455E-4   7.488334085792303E-3   8.153968374244869E-4   7.481266744434834E-3  -4.702356457710266E-1   8.781687021255493E-1  
 5.500000000000000E7    -6.824149489402771E-1  -7.283169031143189E-1   9.645696263760328E-4   7.018337026238442E-3   9.636525064706802E-4   7.012314163148403E-3  -4.560030996799469E-1   8.867399096488953E-1  
 5.530000000000000E7    -7.067979574203491E-1  -7.044280767440796E-1   1.047067809849978E-3   6.490046158432961E-3   1.032611122354865E-3   6.498511414974928E-3  -4.419645071029663E-1   8.931967020034790E-1  
 5.560000000000000E7    -7.312133908271790E-1  -6.791538596153259E-1   1.064169686287642E-3   5.916604772210121E-3   1.072156475856900E-3   5.907237995415926E-3  -4.283740818500519E-1   8.997374176979065E-1  
 5.590000000000000E7    -7.538559436798096E-1  -6.548818945884705E-1   1.107806572690606E-3   5.293028429150581E-3   1.122125075198710E-3   5.283099133521318E-3  -4.130935072898865E-1   9.069135785102844E-1  
 5.620000000000000E7    -7.756559848785400E-1  -6.268514394760132E-1   1.081050722859800E-3   4.696134477853775E-3   1.060173497535288E-3   4.656586796045303E-3  -3.999201059341431E-1   9.134214520454407E-1  
 5.650000000000000E7    -7.958008050918579E-1  -6.014338135719299E-1   1.016022055409849E-3   4.041225183755159E-3   1.024699653498828E-3   4.012651741504669E-3  -3.852826356887817E-1   9.191291928291321E-1  
 5.680000000000000E7    -8.160865306854248E-1  -5.737685561180115E-1   9.316539508290589E-4   3.345296951010823E-3   9.243458043783903E-4   3.314024070277810E-3  -3.708878159523010E-1   9.246721267700195E-1  
 5.710000000000000E7    -8.360400199890137E-1  -5.443350076675415E-1   8.249622769653797E-4   2.589506795629859E-3   7.882058271206915E-4   2.626674482598901E-3  -3.573427796363831E-1   9.304589033126831E-1  
 5.740000000000000E7    -8.546518087387085E-1  -5.159148573875427E-1   6.111928960308433E-4   1.881870441138744E-3   5.866856663487852E-4   1.858513336628676E-3  -3.430460095405579E-1   9.355970025062561E-1  
 5.770000000000000E7    -8.700515627861023E-1  -4.875978231430054E-1   3.350758051965386E-4   1.111668650992215E-3   3.769299655687064E-4   1.106785377487540E-3  -3.303037881851196E-1   9.394693970680237E-1  
 5.800000000000000E7    -8.865057229995728E-1  -4.563669264316559E-1   6.974682764848694E-5   3.895107365678996E-4   7.542498497059569E-5   3.779589023906738E-4  -3.154125809669495E-1   9.463685750961304E-1  
 5.830000000000000E7    -9.016510844230652E-1  -4.258878231048584E-1  -2.265809598611668E-4  -3.746999427676201E-4  -2.494603104423732E-4  -3.884594771079719E-4  -3.025267124176025E-1   9.503374099731445E-1  
 5.860000000000000E7    -9.166005849838257E-1  -3.958880901336670E-1  -6.198453484103084E-4  -1.143119297921658E-3  -6.428294000215828E-4  -1.160624902695417E-3  -2.878187894821167E-1   9.541410803794861E-1  
 5.890000000000000E7    -9.282686114311218E-1  -3.639241755008698E-1  -1.058720517903566E-3  -1.974329818040133E-3  -1.018200884573162E-3  -1.970530254766345E-3  -2.750792503356934E-1   9.578757286071777E-1  
 5.920000000000000E7    -9.403707385063171E-1  -3.315542638301849E-1  -1.541716163046658E-3  -2.710112137719989E-3  -1.528759021311998E-3  -2.750659594312310E-3  -2.610039710998535E-1   9.627631306648254E-1  
 5.950000000000000E7    -9.510371685028076E-1  -2.991430163383484E-1  -2.084850799292326E-3  -3.522772109135985E-3  -2.058316953480244E-3  -3.538963850587606E-3  -2.466391921043396E-1   9.647432565689087E-1  
 5.980000000000000E7    -9.610159397125244E-1  -2.665028870105743E-1  -2.662616316229105E-3  -4.285471048206091E-3  -2.623267471790314E-3  -4.301271401345730E-3  -2.326041609048843E-1   9.687671661376953E-1  
 6.010000000000000E7    -9.679834842681885E-1  -2.349935919046402E-1  -3.240199759602547E-3  -5.093727260828018E-3  -3.252349328249693E-3  -5.078176036477089E-3  -2.199476808309555E-1   9.721044898033142E-1  
 6.040000000000000E7    -9.762921333312988E-1  -2.004393488168716E-1  -3.918008878827095E-3  -5.874442867934704E-3  -3.928011748939753E-3  -5.850124638527632E-3  -2.062294185161591E-1   9.759420752525330E-1  
 6.070000000000000E7    -9.831112623214722E-1  -1.688658297061920E-1  -4.665066488087177E-3  -6.614692974835634E-3  -4.678537603467703E-3  -6.616348400712013E-3  -1.930831819772720E-1   9.775874018669128E-1  
 6.100000000000000E7    -9.880176186561585E-1  -1.353341490030289E-1  -5.469026044011116E-3  -7.338537368923426E-3  -5.437348037958145E-3  -7.371737156063318E-3  -1.785424053668976E-1   9.809792041778565E-1  
 6.130000000000000E7    -9.923248887062073E-1  -1.008989959955216E-1  -6.264647468924522E-3  -8.069735020399094E-3  -6.272403057664633E-3  -8.077125996351242E-3  -1.646312922239304E-1   9.837337732315064E-1  
 6.160000000000000E7    -9.947061538696289E-1  -6.777894496917725E-2  -7.157231681048870E-3  -8.812578395009041E-3  -7.140476256608963E-3  -8.763382211327553E-3  -1.520421952009201E-1   9.846481084823608E-1  
 6.190000000000000E7    -9.960170388221741E-1  -3.399728238582611E-2  -8.053526282310486E-3  -9.482667781412602E-3  -8.061371743679047E-3  -9.420911781489849E-3  -1.386758536100388E-1   9.858037829399109E-1  
 6.220000000000000E7    -9.972212910652161E-1  -2.765655517578125E-4  -9.047402068972588E-3  -1.011852081865072E-2  -9.046354331076145E-3  -1.015701703727245E-2  -1.259296387434006E-1   9.889643192291260E-1  
 6.250000000000000E7    -9.966621994972229E-1   3.386989235877991E-2  -1.005849055945873E-2  -1.079568825662136E-2  -1.008591055870056E-2  -1.076776161789894E-2  -1.127399802207947E-1   9.905592799186707E-1  
 6.280000000000000E7    -9.942220449447632E-1   6.752587854862213E-2  -1.116800867021084E-2  -1.140337437391281E-2  -1.112470868974924E-2  -1.140694133937359E-2  -9.901601076126099E-2   9.922936558723450E-1  
 6.310000000000000E7    -9.908550381660461E-1   1.022343561053276E-1  -1.230903901159763E-2  -1.200299244374037E-2  -1.228278316557407E-2  -1.199399027973414E-2  -8.547857403755188E-2   9.936009645462036E-1  
 6.340000000000000E7    -9.870678782463074E-1   1.353665590286255E-1  -1.346883364021778E-2  -1.256148144602776E-2  -1.345650106668472E-2  -1.252492051571608E-2  -7.199048995971680E-2   9.949581623077393E-1  
 6.370000000000000E7    -9.820222258567810E-1   1.686854809522629E-1  -1.474871486425400E-2  -1.303773559629917E-2  -1.473053544759750E-2  -1.302243024110794E-2  -5.910395085811615E-2   9.947484135627747E-1  
 6.400000000000000E7    -9.746678471565247E-1   2.015477865934372E-1  -1.602219231426716E-2  -1.349134743213654E-2  -1.593056507408619E-2  -1.346675772219896E-2  -4.583306610584259E-2   9.962920546531677E-1  
 6.430000000000000E7    -9.673357605934143E-1   2.357869744300842E-1  -1.731937751173973E-2  -1.397757418453693E-2  -1.729533635079861E-2  -1.390375196933746E-2  -3.238533437252045E-2   9.963941574096680E-1  
 6.460000000000000E7    -9.594078063964844E-1   2.686331868171692E-1  -1.867304742336273E-2  -1.433329097926617E-2  -1.862427592277527E-2  -1.432143989950419E-2  -2.000457048416138E-2   9.956892132759094E-1  
 6.490000000000000E7    -9.509488940238953E-1   3.005100786685944E-1  -2.005876041948795E-2  -1.470936182886362E-2  -2.009850367903709E-2  -1.472885999828577E-2  -7.330074906349182E-3   9.969598054885864E-1  
 6.520000000000000E7    -9.390022158622742E-1   3.320379853248596E-1  -2.154396474361420E-2  -1.508664526045322E-2  -2.147960849106312E-2  -1.494517363607884E-2   6.371304392814636E-3   9.975049495697022E-1  
 6.550000000000000E7    -9.276953339576721E-1   3.635991215705872E-1  -2.305148169398308E-2  -1.528994739055634E-2  -2.299476787447929E-2  -1.527206599712372E-2   1.952114701271057E-2   9.954788088798523E-1  
 6.580000000000000E7    -9.140863418579102E-1   3.953870534896851E-1  -2.467014454305172E-2  -1.543127465993166E-2  -2.454144321382046E-2  -1.548085361719132E-2   3.246286511421204E-2   9.966611862182617E-1  
 6.610000000000000E7    -8.991765975952148E-1   4.262251853942871E-1  -2.620398998260498E-2  -1.559987105429173E-2  -2.611629664897919E-2  -1.545088365674019E-2   4.710422456264496E-2   9.950405955314636E-1  
 6.640000000000000E7    -8.858365416526794E-1   4.569016695022583E-1  -2.784547396004200E-2  -1.574181392788887E-2  -2.780593931674957E-2  -1.576019264757633E-2   5.986468493938446E-2   9.945377111434937E-1  
 6.670000000000000E7    -8.690073490142822E-1   4.865249991416931E-1  -2.950100228190422E-2  -1.575986854732037E-2  -2.941011823713779E-2  -1.578529179096222E-2   7.147276401519775E-2   9.943910241127014E-1  
 6.700000000000000E7    -8.515071272850037E-1   5.159298181533814E-1  -3.119074553251267E-2  -1.573172211647034E-2  -3.108046017587185E-2  -1.570702716708183E-2   8.477275073528290E-2   9.921081662178040E-1  
 6.730000000000000E7    -8.331739306449890E-1   5.444279313087463E-1  -3.282146155834198E-2  -1.569654233753681E-2  -3.289267048239708E-2  -1.555863581597805E-2   9.814208745956421E-2   9.922940135002136E-1  
 6.760000000000000E7    -8.144695758819580E-1   5.728862881660461E-1  -3.479127958416939E-2  -1.539205014705658E-2  -3.463755175471306E-2  -1.547614298760891E-2   1.111297681927681E-1   9.899354577064514E-1  
 6.790000000000000E7    -7.940315604209900E-1   6.005264520645142E-1  -3.647244349122047E-2  -1.525962725281715E-2  -3.648131713271141E-2  -1.524970866739750E-2   1.233591437339783E-1   9.875637888908386E-1  
 6.820000000000000E7    -7.728132605552673E-1   6.261937022209168E-1  -3.830989077687264E-2  -1.499767042696476E-2  -3.822554275393486E-2  -1.498708501458168E-2   1.357948333024979E-1   9.866278767585754E-1  
 6.850000000000000E7    -7.512596845626831E-1   6.535990834236145E-1  -4.032371565699577E-2  -1.472894009202719E-2  -4.017858207225800E-2  -1.466952171176672E-2   1.481162905693054E-1   9.848709702491760E-1  
 6.880000000000000E7    -7.282080054283142E-1   6.781908273696899E-1  -4.213472455739975E-2  -1.418508496135473E-2  -4.194088280200958E-2  -1.416009664535523E-2   1.617378890514374E-1   9.820938110351563E-1  
 6.910000000000000E7    -7.044660449028015E-1   7.031432986259460E-1  -4.408164694905281E-2  -1.370543055236340E-2  -4.401244968175888E-2  -1.370443589985371E-2   1.748407632112503E-1   9.804808497428894E-1  
 6.940000000000000E7    -6.803454160690308E-1   7.270380854606628E-1  -4.605295881628990E-2  -1.321260258555412E-2  -4.601397737860680E-2  -1.317907869815826E-2   1.865569204092026E-1   9.781596660614014E-1  
 6.970000000000000E7    -6.538301110267639E-1   7.496545910835266E-1  -4.791260510683060E-2  -1.249616686254740E-2  -4.800248146057129E-2  -1.228663790971041E-2   1.999640017747879E-1   9.750963449478149E-1  
 7.000000000000000E7    -6.275663971900940E-1   7.724038958549500E-1  -5.007129535079002E-2  -1.170691009610891E-2  -4.984856769442558E-2  -1.164821442216635E-2   2.119306921958923E-1   9.732079505920410E-1  
