#  HZ   S   RI   R     50.00 
! Rohde & Schwarz ZVT8 8Ports - Version 4.11 - 1300.0000k08 SN: 100242
! Date: 2026-07-31 14:44:01
! Measurements: S11 S21 S12 S22 
! 
 1.000000000000000E7    -4.055950343608856E-1   9.100041389465332E-1   5.136739835143089E-2   5.210732668638229E-2   5.127283930778503E-2   5.220824852585793E-2  -9.190325140953064E-1   3.861776888370514E-1  
 1.030000000000000E7    -3.734837174415588E-1   9.229162335395813E-1   5.472252145409584E-2   5.250875651836395E-2   5.447617918252945E-2   5.261083319783211E-2  -9.130059480667114E-1   3.988371491432190E-1  
 1.060000000000000E7    -3.378060460090637E-1   9.358357191085815E-1   5.801466852426529E-2   5.344727262854576E-2   5.795827135443687E-2   5.327997356653214E-2  -9.092524051666260E-1   4.101825952529907E-1  
 1.090000000000000E7    -3.057841658592224E-1   9.461882710456848E-1   6.138889864087105E-2   5.362978205084801E-2   6.129842624068260E-2   5.365262180566788E-2  -9.033203721046448E-1   4.223016500473023E-1  
 1.120000000000000E7    -2.709394991397858E-1   9.558668732643127E-1   6.505209207534790E-2   5.458150804042816E-2   6.463364511728287E-2   5.413949489593506E-2  -8.975609540939331E-1   4.337348043918610E-1  
 1.150000000000000E7    -2.357752323150635E-1   9.662398695945740E-1   6.845229864120483E-2   5.433205887675285E-2   6.826739013195038E-2   5.436443910002708E-2  -8.905400633811951E-1   4.433136284351349E-1  
 1.180000000000000E7    -2.011654376983643E-1   9.716274738311768E-1   7.199343293905258E-2   5.460538342595100E-2   7.203135639429092E-2   5.456346645951271E-2  -8.857784271240234E-1   4.543222188949585E-1  
 1.210000000000000E7    -1.667202413082123E-1   9.785333275794983E-1   7.612543553113937E-2   5.482091009616852E-2   7.591352611780167E-2   5.446372926235199E-2  -8.778844475746155E-1   4.668190777301788E-1  
 1.240000000000000E7    -1.309329718351364E-1   9.827697277069092E-1   7.983100414276123E-2   5.482430383563042E-2   7.988788932561874E-2   5.448004975914955E-2  -8.713623285293579E-1   4.766795337200165E-1  
 1.270000000000000E7    -9.558859467506409E-2   9.862767457962036E-1   8.429263532161713E-2   5.419275537133217E-2   8.379152417182922E-2   5.409049987792969E-2  -8.642513751983643E-1   4.910264611244202E-1  
 1.300000000000000E7    -6.075852364301682E-2   9.894697070121765E-1   8.802890777587891E-2   5.398306250572205E-2   8.794771879911423E-2   5.390451848506928E-2  -8.567507266998291E-1   5.017821192741394E-1  
 1.330000000000000E7    -2.449013851583004E-2   9.912383556365967E-1   9.256611764431000E-2   5.344907194375992E-2   9.239520877599716E-2   5.300514400005341E-2  -8.492290377616882E-1   5.139786601066589E-1  
 1.360000000000000E7     1.275553181767464E-2   9.913192987442017E-1   9.676849097013474E-2   5.295811593532562E-2   9.700694680213928E-2   5.230548977851868E-2  -8.423179388046265E-1   5.234606266021729E-1  
 1.390000000000000E7     4.713013768196106E-2   9.892658591270447E-1   1.014500707387924E-1   5.176960676908493E-2   1.012352705001831E-1   5.177889391779900E-2  -8.339300751686096E-1   5.359100699424744E-1  
 1.420000000000000E7     8.449580520391464E-2   9.865868091583252E-1   1.060754507780075E-1   5.093520134687424E-2   1.058100387454033E-1   5.097524449229240E-2  -8.276595473289490E-1   5.461133122444153E-1  
 1.450000000000000E7     1.197170913219452E-1   9.813938736915588E-1   1.107465773820877E-1   4.977356269955635E-2   1.105604022741318E-1   4.939536005258560E-2  -8.168769478797913E-1   5.582527518272400E-1  
 1.480000000000000E7     1.573583036661148E-1   9.763252735137940E-1   1.155558228492737E-1   4.819107428193092E-2   1.157615706324577E-1   4.871910065412521E-2  -8.101341128349304E-1   5.693905949592590E-1  
 1.510000000000000E7     1.924842447042465E-1   9.687775969505310E-1   1.204235330224037E-1   4.659095779061317E-2   1.201956719160080E-1   4.673864692449570E-2  -7.987671494483948E-1   5.809705257415772E-1  
 1.540000000000000E7     2.276041507720947E-1   9.606406092643738E-1   1.253620088100433E-1   4.577672109007835E-2   1.254772692918778E-1   4.513235017657280E-2  -7.923878431320190E-1   5.910001993179321E-1  
 1.570000000000000E7     2.641817629337311E-1   9.519349336624146E-1   1.307056546211243E-1   4.316885769367218E-2   1.306877583265305E-1   4.321499168872833E-2  -7.822040319442749E-1   6.039245724678040E-1  
 1.600000000000000E7     3.004297316074371E-1   9.396637678146362E-1   1.358227729797363E-1   4.096614569425583E-2   1.361558884382248E-1   4.071936011314392E-2  -7.732256650924683E-1   6.133632063865662E-1  
 1.630000000000000E7     3.347821235656738E-1   9.271908402442932E-1   1.419501006603241E-1   3.829859569668770E-2   1.413735747337341E-1   3.838915750384331E-2  -7.629821896553040E-1   6.259728074073792E-1  
 1.660000000000000E7     3.695678114891052E-1   9.120293855667114E-1   1.474828124046326E-1   3.546726703643799E-2   1.470558047294617E-1   3.517146036028862E-2  -7.511071562767029E-1   6.378087997436523E-1  
 1.690000000000000E7     4.036862850189209E-1   8.971639275550842E-1   1.532386392354965E-1   3.309328481554985E-2   1.528894305229187E-1   3.266312927007675E-2  -7.418801784515381E-1   6.479107737541199E-1  
 1.720000000000000E7     4.397895038127899E-1   8.801301717758179E-1   1.582709252834320E-1   2.898028865456581E-2   1.584704667329788E-1   2.939832583069801E-2  -7.303779721260071E-1   6.585608124732971E-1  
 1.750000000000000E7     4.688795804977417E-1   8.641656041145325E-1   1.649377942085266E-1   2.670542150735855E-2   1.650989651679993E-1   2.619943395256996E-2  -7.199786901473999E-1   6.712806224822998E-1  
 1.780000000000000E7     5.047237873077393E-1   8.408430814743042E-1   1.701649278402329E-1   2.192458137869835E-2   1.705755144357681E-1   2.250460907816887E-2  -7.076105475425720E-1   6.796958446502686E-1  
 1.810000000000000E7     5.356270074844360E-1   8.210057616233826E-1   1.774814277887344E-1   1.829510182142258E-2   1.762971282005310E-1   1.762444898486137E-2  -6.948328018188477E-1   6.935866475105286E-1  
 1.840000000000000E7     5.689210891723633E-1   7.983223199844360E-1   1.837109327316284E-1   1.262564025819302E-2   1.829180419445038E-1   1.304936781525612E-2  -6.818597316741943E-1   7.035747766494751E-1  
 1.870000000000000E7     5.976251363754273E-1   7.749399542808533E-1   1.899571120738983E-1   8.454982191324234E-3   1.891717314720154E-1   8.019730448722839E-3  -6.683724522590637E-1   7.142547369003296E-1  
 1.900000000000000E7     6.274302005767822E-1   7.497180104255676E-1   1.963438391685486E-1   3.364894539117813E-3   1.958822309970856E-1   2.812026068568230E-3  -6.545094251632690E-1   7.247907519340515E-1  
 1.930000000000000E7     6.570599675178528E-1   7.223872542381287E-1   2.026193141937256E-1  -3.434900194406509E-3   2.029313892126083E-1  -2.671284601092339E-3  -6.410073637962341E-1   7.371838688850403E-1  
 1.960000000000000E7     6.855701208114624E-1   6.932632923126221E-1   2.091060727834702E-1  -9.475004859268665E-3   2.091974169015884E-1  -9.006107226014137E-3  -6.280588507652283E-1   7.458399534225464E-1  
 1.990000000000000E7     7.104028463363648E-1   6.635947823524475E-1   2.158224284648895E-1  -1.643260940909386E-2   2.162448614835739E-1  -1.622312888503075E-2  -6.105166077613831E-1   7.586823701858521E-1  
 2.020000000000000E7     7.362226843833923E-1   6.323537826538086E-1   2.230093479156494E-1  -2.325840666890144E-2   2.223892807960510E-1  -2.322046644985676E-2  -5.963384509086609E-1   7.658755779266357E-1  
 2.050000000000000E7     7.623027563095093E-1   5.996628999710083E-1   2.297395020723343E-1  -3.088856860995293E-2   2.282419800758362E-1  -3.130524605512619E-2  -5.800858139991760E-1   7.765203118324280E-1  
 2.080000000000000E7     7.851541638374329E-1   5.643686652183533E-1   2.368897348642349E-1  -3.957287222146988E-2   2.366087436676025E-1  -3.938440605998039E-2  -5.635347962379456E-1   7.880941629409790E-1  
 2.110000000000000E7     8.074048161506653E-1   5.294437408447266E-1   2.439369857311249E-1  -4.941633343696594E-2   2.437671571969986E-1  -4.926646500825882E-2  -5.449936389923096E-1   7.976810932159424E-1  
 2.140000000000000E7     8.274986147880554E-1   4.931344091892242E-1   2.510105073451996E-1  -5.960538238286972E-2   2.499107420444489E-1  -5.861628055572510E-2  -5.271689295768738E-1   8.066149353981018E-1  
 2.170000000000000E7     8.448381423950195E-1   4.564929008483887E-1   2.577857673168182E-1  -6.929828971624374E-2   2.575752437114716E-1  -6.856872141361237E-2  -5.088846087455750E-1   8.156393766403198E-1  
 2.200000000000000E7     8.634093999862671E-1   4.154442846775055E-1   2.643035948276520E-1  -8.112700283527374E-2   2.644174993038178E-1  -8.078643679618835E-2  -4.874526262283325E-1   8.246123790740967E-1  
 2.230000000000000E7     8.773519992828369E-1   3.753710389137268E-1   2.711736559867859E-1  -9.327013790607452E-2   2.707275152206421E-1  -9.273800253868103E-2  -4.670865535736084E-1   8.327188491821289E-1  
 2.260000000000000E7     8.912684917449951E-1   3.334870934486389E-1   2.773419916629791E-1  -1.064876988530159E-1   2.790178358554840E-1  -1.060566455125809E-1  -4.463352560997009E-1   8.403784632682800E-1  
 2.290000000000000E7     9.026418328285217E-1   2.907386720180512E-1   2.839723825454712E-1  -1.203347742557526E-1   2.847606837749481E-1  -1.196267008781433E-1  -4.227011501789093E-1   8.472813963890076E-1  
 2.320000000000000E7     9.105174541473389E-1   2.469023615121841E-1   2.906450331211090E-1  -1.362270861864090E-1   2.899889647960663E-1  -1.363023966550827E-1  -4.000115990638733E-1   8.562015891075134E-1  
 2.350000000000000E7     9.170793294906616E-1   2.009062767028809E-1   2.965450584888458E-1  -1.532560884952545E-1   2.958670258522034E-1  -1.522298902273178E-1  -3.758063912391663E-1   8.615831136703491E-1  
 2.380000000000000E7     9.210558533668518E-1   1.556728035211563E-1   3.017745614051819E-1  -1.697149574756622E-1   3.019514977931976E-1  -1.695334315299988E-1  -3.508999645709992E-1   8.674336671829224E-1  
 2.410000000000000E7     9.231233000755310E-1   1.076165661215782E-1   3.063824474811554E-1  -1.894005537033081E-1   3.058114051818848E-1  -1.887984573841095E-1  -3.239561915397644E-1   8.713932633399963E-1  
 2.440000000000000E7     9.210512638092041E-1   6.094830483198166E-2   3.112277388572693E-1  -2.102367579936981E-1   3.109494149684906E-1  -2.102868556976318E-1  -2.973724603652954E-1   8.749856352806091E-1  
 2.470000000000000E7     9.161650538444519E-1   1.297915726900101E-2   3.143137693405151E-1  -2.324174642562866E-1   3.141775727272034E-1  -2.302442491054535E-1  -2.679698467254639E-1   8.763778209686279E-1  
 2.500000000000000E7     9.094618558883667E-1  -3.657294437289238E-2   3.163617551326752E-1  -2.549625933170319E-1   3.162146210670471E-1  -2.555869221687317E-1  -2.376649677753449E-1   8.782927393913269E-1  
 2.530000000000000E7     8.983122706413269E-1  -8.563695847988129E-2   3.188660442829132E-1  -2.798315286636353E-1   3.187936544418335E-1  -2.793044447898865E-1  -2.073696404695511E-1   8.771724700927734E-1  
 2.560000000000000E7     8.838096261024475E-1  -1.335487663745880E-1   3.190048336982727E-1  -3.056848049163818E-1   3.197341263294220E-1  -3.059562742710114E-1  -1.757920384407044E-1   8.753232359886169E-1  
 2.590000000000000E7     8.639307022094727E-1  -1.811529844999313E-1   3.165314793586731E-1  -3.353767096996307E-1   3.172799646854401E-1  -3.355463147163391E-1  -1.422400474548340E-1   8.734183907508850E-1  
 2.620000000000000E7     8.409709930419922E-1  -2.297337055206299E-1   3.129542469978333E-1  -3.668081164360046E-1   3.132626116275787E-1  -3.653925657272339E-1  -1.059263274073601E-1   8.668052554130554E-1  
 2.650000000000000E7     8.145175576210022E-1  -2.760711610317230E-1   3.086331784725189E-1  -3.971484303474426E-1   3.081307709217072E-1  -3.980112969875336E-1  -7.163829356431961E-2   8.574368953704834E-1  
 2.680000000000000E7     7.821936011314392E-1  -3.206375837326050E-1   3.009808957576752E-1  -4.315454661846161E-1   3.000071644783020E-1  -4.321864843368530E-1  -3.571112826466560E-2   8.458783626556397E-1  
 2.710000000000000E7     7.460133433341980E-1  -3.639070987701416E-1   2.872577905654907E-1  -4.678812921047211E-1   2.869414389133453E-1  -4.669746160507202E-1   1.406533643603325E-3   8.333154916763306E-1  
 2.740000000000000E7     7.046822905540466E-1  -4.048941433429718E-1   2.746440768241882E-1  -5.049448013305664E-1   2.729825377464294E-1  -5.053383708000183E-1   3.856671601533890E-2   8.126530051231384E-1  
 2.770000000000000E7     6.606914997100830E-1  -4.407511949539185E-1   2.543525695800781E-1  -5.435355901718140E-1   2.535722851753235E-1  -5.443399548530579E-1   7.630341500043869E-2   7.916079759597778E-1  
 2.800000000000000E7     6.119489073753357E-1  -4.743402302265167E-1   2.313252985477448E-1  -5.830110311508179E-1   2.324825674295425E-1  -5.832568407058716E-1   1.146519482135773E-1   7.642263174057007E-1  
 2.830000000000000E7     5.568982958793640E-1  -5.023254752159119E-1   2.027953714132309E-1  -6.215283274650574E-1   2.010669708251953E-1  -6.222457885742188E-1   1.485030353069305E-1   7.361996173858643E-1  
 2.860000000000000E7     4.986672103404999E-1  -5.236362218856812E-1   1.676056683063507E-1  -6.623500585556030E-1   1.651673018932343E-1  -6.627894639968872E-1   1.860384196043015E-1   6.995589137077332E-1  
 2.890000000000000E7     4.390285909175873E-1  -5.370615124702454E-1   1.250651031732559E-1  -7.016270160675049E-1   1.250278949737549E-1  -7.008531093597412E-1   2.179179489612579E-1   6.600759625434876E-1  
 2.920000000000000E7     3.748035132884979E-1  -5.457756519317627E-1   8.022827655076981E-2  -7.388041019439697E-1   7.756969332695007E-2  -7.373000979423523E-1   2.465603500604630E-1   6.154401302337647E-1  
 2.950000000000000E7     3.118284940719605E-1  -5.428372025489807E-1   2.278709411621094E-2  -7.737267017364502E-1   2.297720313072205E-2  -7.713205814361572E-1   2.722246646881104E-1   5.645959377288818E-1  
 2.980000000000000E7     2.470305860042572E-1  -5.333234071731567E-1  -3.737185895442963E-2  -8.022233247756958E-1  -3.878224641084671E-2  -8.026576638221741E-1   2.912706434726715E-1   5.103644728660584E-1  
 3.010000000000000E7     1.859304457902908E-1  -5.138871669769287E-1  -1.070403754711151E-1  -8.252892494201660E-1  -1.060671061277390E-1  -8.255087137222290E-1   3.045813143253326E-1   4.519324004650116E-1  
 3.040000000000000E7     1.270176172256470E-1  -4.825026988983154E-1  -1.812586635351181E-1  -8.413068056106567E-1  -1.824614405632019E-1  -8.412951827049255E-1   3.078087270259857E-1   3.910377621650696E-1  
 3.070000000000000E7     7.563676685094833E-2  -4.455879628658295E-1  -2.604680955410004E-1  -8.475769162178040E-1  -2.595063745975494E-1  -8.454681634902954E-1   3.072066307067871E-1   3.307076096534729E-1  
 3.100000000000000E7     3.265350684523583E-2  -3.982791006565094E-1  -3.436800837516785E-1  -8.433490395545960E-1  -3.423601388931274E-1  -8.422251343727112E-1   2.974302470684052E-1   2.684984505176544E-1  
 3.130000000000000E7    -2.313526347279549E-3  -3.481912314891815E-1  -4.272715449333191E-1  -8.279709815979004E-1  -4.261123836040497E-1  -8.283022642135620E-1   2.745315432548523E-1   2.082691341638565E-1  
 3.160000000000000E7    -2.460907027125359E-2  -2.895932495594025E-1  -5.108295679092407E-1  -8.013955354690552E-1  -5.102880597114563E-1  -8.016740083694458E-1   2.467761635780335E-1   1.537946760654450E-1  
 3.190000000000000E7    -3.776814416050911E-2  -2.314916104078293E-1  -5.913376808166504E-1  -7.634833455085754E-1  -5.895304083824158E-1  -7.629966139793396E-1   2.114401608705521E-1   1.018053218722343E-1  
 3.220000000000000E7    -4.035750031471252E-2  -1.732282638549805E-1  -6.669007539749146E-1  -7.167542576789856E-1  -6.656571030616760E-1  -7.153132557868958E-1   1.684004366397858E-1   5.847226083278656E-2  
 3.250000000000000E7    -2.884396910667419E-2  -1.191974952816963E-1  -7.355480194091797E-1  -6.580113768577576E-1  -7.355777025222778E-1  -6.572579145431519E-1   1.210959032177925E-1   2.430230006575584E-2  
 3.280000000000000E7    -7.285218685865402E-3  -7.038696110248566E-2  -7.967275977134705E-1  -5.913012027740479E-1  -7.949280738830566E-1  -5.916421413421631E-1   6.942153722047806E-2  -5.233570933341980E-3  
 3.310000000000000E7     1.595795340836048E-2  -2.811247669160366E-2  -8.477256894111633E-1  -5.199204087257385E-1  -8.465264439582825E-1  -5.184907913208008E-1   1.667241752147675E-2  -2.142002992331982E-2  
 3.340000000000000E7     5.009017512202263E-2   3.926505334675312E-3  -8.905286192893982E-1  -4.421749114990234E-1  -8.892390131950378E-1  -4.426394999027252E-1  -3.407886624336243E-2  -3.198721632361412E-2  
 3.370000000000000E7     8.784176409244537E-2   2.983538247644901E-2  -9.212379455566406E-1  -3.624861538410187E-1  -9.203788042068481E-1  -3.630600869655609E-1  -8.655147999525070E-2  -3.212068229913712E-2  
 3.400000000000000E7     1.269499361515045E-1   4.477889835834503E-2  -9.439030885696411E-1  -2.825965583324432E-1  -9.434977769851685E-1  -2.826938927173615E-1  -1.312400549650192E-1  -2.561215311288834E-2  
 3.430000000000000E7     1.654043346643448E-1   5.158761888742447E-2  -9.582882523536682E-1  -2.022558897733688E-1  -9.572489857673645E-1  -2.023340612649918E-1  -1.736130863428116E-1  -1.638226769864559E-2  
 3.460000000000000E7     2.040284276008606E-1   5.119182169437408E-2  -9.655140638351440E-1  -1.240426301956177E-1  -9.635430574417114E-1  -1.245508864521980E-1  -2.088346779346466E-1   1.974253216758370E-3  
 3.490000000000000E7     2.367568761110306E-1   4.116696491837502E-2  -9.642133116722107E-1  -4.687992855906487E-2  -9.620645046234131E-1  -4.673314094543457E-2  -2.429147213697434E-1   1.898884959518910E-2  
 3.520000000000000E7     2.712861895561218E-1   2.705959603190422E-2  -9.565661549568176E-1   2.742361836135387E-2  -9.558947682380676E-1   2.599185705184937E-2  -2.698682248592377E-1   4.370936378836632E-2  
 3.550000000000000E7     2.996573746204376E-1   4.955867305397987E-3  -9.440872669219971E-1   9.741313755512238E-2  -9.435297846794128E-1   9.743383526802063E-2  -2.897709906101227E-1   7.039821147918701E-2  
 3.580000000000000E7     3.208708763122559E-1  -1.792869344353676E-2  -9.268850088119507E-1   1.667636632919312E-1  -9.265330433845520E-1   1.658470183610916E-1  -3.061765730381012E-1   9.567153453826904E-2  
 3.610000000000000E7     3.347496390342712E-1  -4.745486378669739E-2  -9.076337218284607E-1   2.319241911172867E-1  -9.058377742767334E-1   2.322611063718796E-1  -3.169728219509125E-1   1.226563975214958E-1  
 3.640000000000000E7     3.463214933872223E-1  -7.733947038650513E-2  -8.823508024215698E-1   2.945090234279633E-1  -8.823041915893555E-1   2.945930957794190E-1  -3.208374977111816E-1   1.503461897373200E-1  
 3.670000000000000E7     3.504140675067902E-1  -1.085492745041847E-1  -8.558422327041626E-1   3.557553291320801E-1  -8.537769913673401E-1   3.555378913879395E-1  -3.215613961219788E-1   1.729067116975784E-1  
 3.700000000000000E7     3.466889262199402E-1  -1.387447714805603E-1  -8.241169452667236E-1   4.152940809726715E-1  -8.240757584571838E-1   4.150602817535400E-1  -3.161882758140564E-1   1.977273672819138E-1  
 3.730000000000000E7     3.404718339443207E-1  -1.680541485548019E-1  -7.892752289772034E-1   4.732232391834259E-1  -7.905989289283752E-1   4.722427725791931E-1  -3.062245845794678E-1   2.173706144094467E-1  
 3.760000000000000E7     3.226123750209808E-1  -1.940371096134186E-1  -7.536364197731018E-1   5.294849872589111E-1  -7.546303272247315E-1   5.295279622077942E-1  -2.924836575984955E-1   2.359991967678070E-1  
 3.790000000000000E7     3.000735640525818E-1  -2.209604531526566E-1  -7.136796116828919E-1   5.848850011825562E-1  -7.135729789733887E-1   5.845302939414978E-1  -2.762610614299774E-1   2.488874197006226E-1  
 3.820000000000000E7     2.713818252086639E-1  -2.399625927209854E-1  -6.705015301704407E-1   6.401728987693787E-1  -6.695631742477417E-1   6.394541859626770E-1  -2.521207928657532E-1   2.591877877712250E-1  
 3.850000000000000E7     2.391133904457092E-1  -2.560429275035858E-1  -6.219480037689209E-1   6.938509345054627E-1  -6.193211078643799E-1   6.948452591896057E-1  -2.295805811882019E-1   2.650302350521088E-1  
 3.880000000000000E7     2.019678950309753E-1  -2.599762380123138E-1  -5.654125213623047E-1   7.493074536323547E-1  -5.658050179481506E-1   7.474698424339294E-1  -2.014800459146500E-1   2.644782662391663E-1  
 3.910000000000000E7     1.603266298770905E-1  -2.610991895198822E-1  -5.032921433448792E-1   8.013022541999817E-1  -5.033624172210693E-1   8.016620874404907E-1  -1.708220541477203E-1   2.536016404628754E-1  
 3.940000000000000E7     1.135864853858948E-1  -2.472322136163712E-1  -4.332953095436096E-1   8.513317108154297E-1  -4.336392581462860E-1   8.513512611389160E-1  -1.379667222499847E-1   2.372762560844421E-1  
 3.970000000000000E7     6.924699991941452E-2  -2.235948145389557E-1  -3.529032766819000E-1   8.987463712692261E-1  -3.523376882076263E-1   8.986797928810120E-1  -1.054615452885628E-1   2.065150439739227E-1  
 4.000000000000000E7     2.814449556171894E-2  -1.832560002803803E-1  -2.609194219112396E-1   9.401276111602783E-1  -2.598140835762024E-1   9.395970702171326E-1  -7.762017846107483E-2   1.676296144723892E-1  
 4.030000000000000E7    -6.334007717669010E-3  -1.241560131311417E-1  -1.567304283380508E-1   9.722986817359924E-1  -1.570801436901093E-1   9.715784788131714E-1  -5.733186006546021E-2   1.178463920950890E-1  
 4.060000000000000E7    -2.864328585565090E-2  -5.500299483537674E-2  -4.013672843575478E-2   9.888431429862976E-1  -3.911748528480530E-2   9.894704818725586E-1  -4.249528422951698E-2   5.114570632576942E-2  
 4.090000000000000E7    -3.145263344049454E-2   2.717551961541176E-2   8.683136850595474E-2   9.867947101593018E-1   8.750870823860169E-2   9.859579801559448E-1  -4.786046221852303E-2  -2.051043324172497E-2  
 4.120000000000000E7    -1.091182976961136E-2   1.208282634615898E-1   2.202452868223190E-1   9.583699703216553E-1   2.208264470100403E-1   9.580549597740173E-1  -7.098968327045441E-2  -1.059333533048630E-1  
 4.150000000000000E7     4.861282929778099E-2   2.117554843425751E-1   3.511913716793060E-1   8.997318148612976E-1   3.489531874656677E-1   8.992645144462585E-1  -1.218461915850639E-1  -1.866650879383087E-1  
 4.180000000000000E7     1.337472200393677E-1   2.873216569423676E-1   4.673440158367157E-1   8.127224445343018E-1   4.667884707450867E-1   8.119125366210938E-1  -1.947316676378250E-1  -2.545329332351685E-1  
 4.210000000000000E7     2.472075670957565E-1   3.392611145973206E-1   5.592719912528992E-1   6.989358663558960E-1   5.603135824203491E-1   6.996027827262878E-1  -2.915907502174377E-1  -3.065819144248962E-1  
 4.240000000000000E7     3.740869462490082E-1   3.575662672519684E-1   6.205187439918518E-1   5.703930854797363E-1   6.205353736877441E-1   5.707013010978699E-1  -4.008902907371521E-1  -3.315675258636475E-1  
 4.270000000000000E7     5.012251734733582E-1   3.368637263774872E-1   6.488849520683289E-1   4.398292303085327E-1   6.486198902130127E-1   4.382401108741760E-1  -5.126829743385315E-1  -3.269320428371429E-1  
 4.300000000000000E7     6.196067333221436E-1   2.851777076721191E-1   6.460815072059631E-1   3.148466646671295E-1   6.452225446701050E-1   3.138679862022400E-1  -6.174410581588745E-1  -2.965076267719269E-1  
 4.330000000000000E7     7.160106301307678E-1   2.084923535585403E-1   6.175784468650818E-1   2.048634886741638E-1   6.179376840591431E-1   2.049593776464462E-1  -7.070660591125488E-1  -2.463107258081436E-1  
 4.360000000000000E7     7.923569679260254E-1   1.143085360527039E-1   5.733692646026611E-1   1.153020560741425E-1   5.744128227233887E-1   1.145433112978935E-1  -7.812649011611939E-1  -1.837172806262970E-1  
 4.390000000000000E7     8.424577116966248E-1   1.383077260106802E-2   5.231311321258545E-1   4.614817351102829E-2   5.224933624267578E-1   4.566033929586411E-2  -8.351792097091675E-1  -1.113780587911606E-1  
 4.420000000000000E7     8.696831464767456E-1  -8.775069564580917E-2   4.686367809772492E-1  -8.503092452883720E-3   4.678137302398682E-1  -7.800279185175896E-3  -8.747754693031311E-1  -3.951245546340942E-2  
 4.450000000000000E7     8.813573718070984E-1  -1.861455738544464E-1   4.149537384510040E-1  -4.559333622455597E-2   4.141168594360352E-1  -4.672993719577789E-2  -9.017918109893799E-1   2.994194068014622E-2  
 4.480000000000000E7     8.779839873313904E-1  -2.785145044326782E-1   3.643107712268829E-1  -7.256908714771271E-2   3.642084300518036E-1  -7.259478420019150E-2  -9.169540405273438E-1   9.676558524370194E-2  
 4.510000000000000E7     8.642680048942566E-1  -3.634504079818726E-1   3.182814419269562E-1  -8.982528001070023E-2   3.183181285858154E-1  -8.952705562114716E-2  -9.248371720314026E-1   1.595574468374252E-1  
 4.540000000000000E7     8.403758406639099E-1  -4.419933855533600E-1   2.774994969367981E-1  -1.011558696627617E-1   2.771061062812805E-1  -1.008680760860443E-1  -9.258900880813599E-1   2.170968800783157E-1  
 4.570000000000000E7     8.102913498878479E-1  -5.136470198631287E-1   2.407527118921280E-1  -1.070262789726257E-1   2.398846149444580E-1  -1.058882474899292E-1  -9.216383695602417E-1   2.710474133491516E-1  
 4.600000000000000E7     7.762784957885742E-1  -5.761938095092773E-1   2.081075608730316E-1  -1.076417118310928E-1   2.084681242704392E-1  -1.077600717544556E-1  -9.134541749954224E-1   3.193468451499939E-1  
 4.630000000000000E7     7.372478842735291E-1  -6.355589628219605E-1   1.801756471395493E-1  -1.075130477547646E-1   1.799644529819489E-1  -1.074292957782745E-1  -9.030116200447083E-1   3.623340725898743E-1  
 4.660000000000000E7     6.962903738021851E-1  -6.876366138458252E-1   1.557522416114807E-1  -1.056793183088303E-1   1.556807905435562E-1  -1.051146909594536E-1  -8.916335105895996E-1   4.042428135871887E-1  
 4.690000000000000E7     6.526324748992920E-1  -7.335034608840942E-1   1.340952068567276E-1  -1.010627970099449E-1   1.337292194366455E-1  -1.007215753197670E-1  -8.778795003890991E-1   4.411584138870239E-1  
 4.720000000000000E7     6.072747111320496E-1  -7.742868065834045E-1   1.151365637779236E-1  -9.663401544094086E-2   1.151514872908592E-1  -9.664834290742874E-2  -8.627402186393738E-1   4.756389260292053E-1  
 4.750000000000000E7     5.630294084548950E-1  -8.108767271041870E-1   9.914404153823853E-2  -9.143602848052979E-2   9.888440370559692E-2  -9.108792245388031E-2  -8.470957875251770E-1   5.075061917304993E-1  
 4.780000000000000E7     5.171671509742737E-1  -8.429631590843201E-1   8.493800461292267E-2  -8.619718253612518E-2   8.507303893566132E-2  -8.568193018436432E-2  -8.305098414421082E-1   5.365865826606751E-1  
 4.810000000000000E7     4.704561829566956E-1  -8.715635538101196E-1   7.292083650827408E-2  -8.014937490224838E-2   7.300201058387756E-2  -7.982163876295090E-2  -8.150370121002197E-1   5.625354051589966E-1  
 4.840000000000000E7     4.241672456264496E-1  -8.965582251548767E-1   6.247402355074883E-2  -7.459364831447601E-2   6.233762204647064E-2  -7.457570731639862E-2  -7.986437678337097E-1   5.878048539161682E-1  
 4.870000000000000E7     3.772633969783783E-1  -9.185001254081726E-1   5.334448069334030E-2  -6.932523846626282E-2   5.325346440076828E-2  -6.902316212654114E-2  -7.823907732963562E-1   6.109994053840637E-1  
 4.900000000000000E7     3.307015299797058E-1  -9.380258917808533E-1   4.551851004362106E-2  -6.390032917261124E-2   4.515653103590012E-2  -6.378691643476486E-2  -7.655769586563110E-1   6.326631307601929E-1  
 4.930000000000000E7     2.841875851154327E-1  -9.539880752563477E-1   3.843142837285996E-2  -5.870826914906502E-2   3.847638890147209E-2  -5.862259864807129E-2  -7.491876482963562E-1   6.537123322486877E-1  
 4.960000000000000E7     2.368233352899551E-1  -9.655199050903320E-1   3.224444016814232E-2  -5.385635048151016E-2   3.231864050030708E-2  -5.377363041043282E-2  -7.330316305160523E-1   6.725392937660217E-1  
 4.990000000000000E7     1.922208070755005E-1  -9.762709140777588E-1   2.728573232889175E-2  -4.921108856797218E-2   2.722833305597305E-2  -4.904886707663536E-2  -7.167028784751892E-1   6.897261142730713E-1  
 5.020000000000000E7     1.477343440055847E-1  -9.851822853088379E-1   2.288432605564594E-2  -4.480412602424622E-2   2.286343090236187E-2  -4.453300312161446E-2  -7.009317874908447E-1   7.072896361351013E-1  
 5.050000000000000E7     1.021250784397125E-1  -9.909159541130066E-1   1.900159381330013E-2  -4.051566123962402E-2   1.898370496928692E-2  -4.052690789103508E-2  -6.853121519088745E-1   7.237913012504578E-1  
 5.080000000000000E7     5.825343355536461E-2  -9.953326582908630E-1   1.570075936615467E-2  -3.663534298539162E-2   1.579025760293007E-2  -3.660431131720543E-2  -6.676493883132935E-1   7.375962138175964E-1  
 5.110000000000000E7     1.381846517324448E-2  -9.964831471443176E-1   1.288054790347815E-2  -3.315310180187225E-2   1.288270950317383E-2  -3.296039998531342E-2  -6.533387303352356E-1   7.517268657684326E-1  
 5.140000000000000E7    -2.989628911018372E-2  -9.959387183189392E-1   1.048485748469830E-2  -2.962762117385864E-2   1.055015996098518E-2  -2.969651110470295E-2  -6.377412080764771E-1   7.671637535095215E-1  
 5.170000000000000E7    -7.169091701507568E-2  -9.938045144081116E-1   8.379228413105011E-3  -2.650997042655945E-2   8.468575775623322E-3  -2.643757686018944E-2  -6.210482716560364E-1   7.786398530006409E-1  
 5.200000000000000E7    -1.138602718710899E-1  -9.914942979812622E-1   6.753802299499512E-3  -2.356096729636192E-2   6.829326972365379E-3  -2.354907989501953E-2  -6.045953631401062E-1   7.899466753005981E-1  
 5.230000000000000E7    -1.555496454238892E-1  -9.848968386650085E-1   5.329230334609747E-3  -2.087006531655788E-2   5.273016635328531E-3  -2.086322940886021E-2  -5.902473330497742E-1   8.021392226219177E-1  
 5.260000000000000E7    -1.957382559776306E-1  -9.767867922782898E-1   4.132897593080998E-3  -1.840845867991447E-2   4.104661755263805E-3  -1.836672797799110E-2  -5.751686692237854E-1   8.140184283256531E-1  
 5.290000000000000E7    -2.362596094608307E-1  -9.690123200416565E-1   3.072599647566676E-3  -1.609877496957779E-2   3.098373301327229E-3  -1.610180363059044E-2  -5.602316856384277E-1   8.236989378929138E-1  
 5.320000000000000E7    -2.744873762130737E-1  -9.594303965568543E-1   2.312783617526293E-3  -1.397658605128527E-2   2.277599647641182E-3  -1.406998839229345E-2  -5.452476143836975E-1   8.345435857772827E-1  
 5.350000000000000E7    -3.122127354145050E-1  -9.465458393096924E-1   1.627589110285044E-3  -1.212132535874844E-2   1.616689260117710E-3  -1.213238295167685E-2  -5.315809249877930E-1   8.434293866157532E-1  
 5.380000000000000E7    -3.485560715198517E-1  -9.331699013710022E-1   1.105423900298774E-3  -1.038230769336224E-2   1.129236188717187E-3  -1.038020942360163E-2  -5.147396922111511E-1   8.523345589637756E-1  
 5.410000000000000E7    -3.877133727073669E-1  -9.204858541488648E-1   7.039300398901105E-4  -8.870364166796207E-3   6.739470409229398E-4  -8.842766284942627E-3  -5.010348558425903E-1   8.615498542785645E-1  
 5.440000000000000E7    -4.227063953876495E-1  -9.033456444740295E-1   3.567121166270226E-4  -7.456061430275440E-3   3.800352569669485E-4  -7.439335808157921E-3  -4.863097667694092E-1   8.694026470184326E-1  
 5.470000000000000E7    -4.561175704002380E-1  -8.867793679237366E-1   1.364686177112162E-4  -6.193402223289013E-3   1.436918682884425E-4  -6.204334087669849E-3  -4.710689783096314E-1   8.778913021087647E-1  
 5.500000000000000E7    -4.909815192222595E-1  -8.686863183975220E-1  -4.290384822525084E-5  -5.061828065663576E-3  -1.650810008868575E-5  -5.102955736219883E-3  -4.568750262260437E-1   8.865741491317749E-1  
 5.530000000000000E7    -5.236805081367493E-1  -8.491514325141907E-1  -9.771232726052404E-5  -4.099398851394653E-3  -1.136173086706549E-4  -4.089489579200745E-3  -4.422111213207245E-1   8.928599953651428E-1  
 5.560000000000000E7    -5.564463734626770E-1  -8.281169533729553E-1  -1.982225076062605E-4  -3.234148724004626E-3  -1.976673956960440E-4  -3.239199519157410E-3  -4.289187788963318E-1   8.999001979827881E-1  
 5.590000000000000E7    -5.870063304901123E-1  -8.072351217269898E-1  -2.118961128871888E-4  -2.511656144633889E-3  -2.040325634879991E-4  -2.511288505047560E-3  -4.136369228363037E-1   9.069058299064636E-1  
 5.620000000000000E7    -6.172735691070557E-1  -7.829983234405518E-1  -1.913029263960198E-4  -1.868268242105842E-3  -1.585197751410306E-4  -1.850213389843702E-3  -3.999152779579163E-1   9.130154848098755E-1  
 5.650000000000000E7    -6.452608108520508E-1  -7.605148553848267E-1  -1.800692407414317E-4  -1.333485939539969E-3  -1.746599155012518E-4  -1.352553372271359E-3  -3.855431079864502E-1   9.189688563346863E-1  
 5.680000000000000E7    -6.735947132110596E-1  -7.358019351959229E-1  -1.394140417687595E-4  -9.398637339472771E-4  -1.298494316870347E-4  -9.374424116685987E-4  -3.708852231502533E-1   9.243571758270264E-1  
 5.710000000000000E7    -7.010673880577087E-1  -7.093638181686401E-1  -1.156114230980165E-4  -5.423222319222987E-4  -9.451231744606048E-5  -5.614738329313695E-4  -3.576590716838837E-1   9.303103685379028E-1  
 5.740000000000000E7    -7.276219129562378E-1  -6.832558512687683E-1  -6.343992572510615E-5  -3.160017367918044E-4  -7.515469769714400E-5  -3.270704764872789E-4  -3.429039716720581E-1   9.357257485389710E-1  
 5.770000000000000E7    -7.506231069564819E-1  -6.563600301742554E-1  -2.935889096988831E-5  -1.268622145289555E-4  -4.763111064676195E-5  -1.112216341425665E-4  -3.303315043449402E-1   9.394543766975403E-1  
 5.800000000000000E7    -7.749932408332825E-1  -6.274449229240418E-1  -4.192025517113507E-5  -2.669596869964153E-5  -1.737182174110785E-5  -2.368323657719884E-5  -3.155139088630676E-1   9.461082816123962E-1  
 5.830000000000000E7    -7.968010306358337E-1  -5.989094376564026E-1  -1.537525122330408E-6  -1.759025872161146E-5   9.015321666083764E-6  -5.173257704882417E-6  -3.023034036159515E-1   9.501079320907593E-1  
 5.860000000000000E7    -8.194081783294678E-1  -5.703515410423279E-1  -4.886868191533722E-5  -1.004579189611832E-6   3.248982238801546E-6  -4.924003951600753E-5  -2.878336906433106E-1   9.542066454887390E-1  
 5.890000000000000E7    -8.386909365653992E-1  -5.396366715431213E-1  -3.639002170530148E-5  -1.012037391774356E-4  -6.670496804872528E-5  -9.017199772642925E-5  -2.749594748020172E-1   9.580315351486206E-1  
 5.920000000000000E7    -8.582203984260559E-1  -5.081787705421448E-1  -9.227279224433005E-5  -1.921324146678671E-4  -9.543153282720596E-5  -2.207094948971644E-4  -2.608909606933594E-1   9.627615213394165E-1  
 5.950000000000000E7    -8.755261898040772E-1  -4.769024848937988E-1  -2.211882238043472E-4  -4.080987710040063E-4  -2.197632275056094E-4  -3.931229584850371E-4  -2.467723637819290E-1   9.646291732788086E-1  
 5.980000000000000E7    -8.927541971206665E-1  -4.448978006839752E-1  -3.535476862452924E-4  -6.334865465760231E-4  -3.259666555095464E-4  -6.716949865221977E-4  -2.327349483966827E-1   9.688428640365601E-1  
 6.010000000000000E7    -9.061260819435120E-1  -4.132927060127258E-1  -4.609758616425097E-4  -9.088985389098525E-4  -4.801641043741256E-4  -9.063143515959382E-4  -2.199788987636566E-1   9.722386598587036E-1  
 6.040000000000000E7    -9.218908548355103E-1  -3.792032003402710E-1  -6.502144969999790E-4  -1.221204060129821E-3  -6.491949316114187E-4  -1.192051917314529E-3  -2.060703337192535E-1   9.759440422058106E-1  
 6.070000000000000E7    -9.351540803909302E-1  -3.480286598205566E-1  -9.388477774336934E-4  -1.561211654916406E-3  -9.077188442461193E-4  -1.543122110888362E-3  -1.932690441608429E-1   9.778924584388733E-1  
 6.100000000000000E7    -9.464995265007019E-1  -3.141057491302490E-1  -1.151797594502568E-3  -1.902444404549897E-3  -1.197443809360266E-3  -1.931774429976940E-3  -1.784789860248566E-1   9.810841083526611E-1  
 6.130000000000000E7    -9.575468897819519E-1  -2.794569730758667E-1  -1.499842270277441E-3  -2.315000630915165E-3  -1.491227303631604E-3  -2.311126329004765E-3  -1.649205535650253E-1   9.840816855430603E-1  
 6.160000000000000E7    -9.662290811538696E-1  -2.456996738910675E-1  -1.821957528591156E-3  -2.692609094083309E-3  -1.842047786340118E-3  -2.707523293793201E-3  -1.521302014589310E-1   9.845978021621704E-1  
 6.190000000000000E7    -9.741790890693665E-1  -2.113184630870819E-1  -2.224418101832271E-3  -3.116966225206852E-3  -2.254289807751775E-3  -3.100122325122356E-3  -1.390105336904526E-1   9.858948588371277E-1  
 6.220000000000000E7    -9.813360571861267E-1  -1.769991815090179E-1  -2.626416273415089E-3  -3.559909993782640E-3  -2.675315830856562E-3  -3.557679709047079E-3  -1.266366839408875E-1   9.890580177307129E-1  
 6.250000000000000E7    -9.870929718017578E-1  -1.417039632797241E-1  -3.127543255686760E-3  -3.997574094682932E-3  -3.147083334624767E-3  -4.012505058199167E-3  -1.132897734642029E-1   9.907536506652832E-1  
 6.280000000000000E7    -9.905989170074463E-1  -1.070436984300613E-1  -3.695812309160829E-3  -4.466240294277668E-3  -3.656058805063367E-3  -4.439612850546837E-3  -9.971567988395691E-2   9.923464059829712E-1  
 6.310000000000000E7    -9.941178560256958E-1  -7.058559358119965E-2  -4.264239687472582E-3  -4.933013115078211E-3  -4.275714047253132E-3  -4.910046700388193E-3  -8.622655272483826E-2   9.937419891357422E-1  
 6.340000000000000E7    -9.956464171409607E-1  -3.593751788139343E-2  -4.877180326730013E-3  -5.366616416722536E-3  -4.870379809290171E-3  -5.358448717743158E-3  -7.290150225162506E-2   9.948889613151550E-1  
 6.370000000000000E7    -9.967068433761597E-1  -1.186728477478027E-3  -5.551653914153576E-3  -5.844150204211474E-3  -5.587138701230288E-3  -5.805081687867641E-3  -6.005766987800598E-2   9.949004054069519E-1  
 6.400000000000000E7    -9.951356649398804E-1   3.388100862503052E-2  -6.306482478976250E-3  -6.270038895308971E-3  -6.267361808568239E-3  -6.244697608053684E-3  -4.641048610210419E-2   9.965205192565918E-1  
 6.430000000000000E7    -9.934977889060974E-1   7.004193961620331E-2  -7.049401756376028E-3  -6.726210471242666E-3  -7.059399969875813E-3  -6.673088762909174E-3  -3.311023116111755E-2   9.966796040534973E-1  
 6.460000000000000E7    -9.909676313400269E-1   1.046552062034607E-1  -7.873188704252243E-3  -7.122076582163572E-3  -7.858254015445709E-3  -7.099900394678116E-3  -2.105464041233063E-2   9.961306452751160E-1  
 6.490000000000000E7    -9.877647757530212E-1   1.382052153348923E-1  -8.690538816154003E-3  -7.549316622316837E-3  -8.703249506652355E-3  -7.540480233728886E-3  -8.064687252044678E-3   9.973074197769165E-1  
 6.520000000000000E7    -9.811789393424988E-1   1.727306693792343E-1  -9.642899036407471E-3  -7.963987998664379E-3  -9.593467228114605E-3  -7.913632318377495E-3   5.322024226188660E-3   9.979191422462463E-1  
 6.550000000000000E7    -9.750627279281616E-1   2.063430845737457E-1  -1.058918423950672E-2  -8.317619562149048E-3  -1.055985782295466E-2  -8.308700285851955E-3   1.808792352676392E-2   9.960902333259583E-1  
 6.580000000000000E7    -9.668591022491455E-1   2.411881983280182E-1  -1.161790639162064E-2  -8.660094812512398E-3  -1.155063789337874E-2  -8.660902269184589E-3   3.115871548652649E-2   9.970262646675110E-1  
 6.610000000000000E7    -9.567337036132813E-1   2.747225761413574E-1  -1.264562550932169E-2  -8.984599262475967E-3  -1.261446624994278E-2  -8.903944864869118E-3   4.550021886825562E-2   9.952567219734192E-1  
 6.640000000000000E7    -9.484835267066956E-1   3.077079355716705E-1  -1.372387818992138E-2  -9.291679598391056E-3  -1.372698601335287E-2  -9.301239624619484E-3   5.834636092185974E-2   9.952221512794495E-1  
 6.670000000000000E7    -9.361681342124939E-1   3.405143618583679E-1  -1.491533964872360E-2  -9.501302614808083E-3  -1.485040318220854E-2  -9.553669020533562E-3   6.983510404825211E-2   9.950532913208008E-1  
 6.700000000000000E7    -9.233148097991943E-1   3.733758926391602E-1  -1.602865569293499E-2  -9.766580536961556E-3  -1.597652398049831E-2  -9.736567735671997E-3   8.298081904649735E-2   9.927685856819153E-1  
 6.730000000000000E7    -9.096914529800415E-1   4.052273035049439E-1  -1.721995510160923E-2  -9.972904808819294E-3  -1.723219081759453E-2  -9.906803257763386E-3   9.619466215372086E-2   9.927899837493897E-1  
 6.760000000000000E7    -8.956300020217896E-1   4.366116523742676E-1  -1.855776645243168E-2  -1.007031183689833E-2  -1.850141584873200E-2  -1.006804592907429E-2   1.095112413167954E-1   9.906393289566040E-1  
 6.790000000000000E7    -8.793403506278992E-1   4.676082432270050E-1  -1.982543990015984E-2  -1.021682843565941E-2  -1.981681771576405E-2  -1.016358472406864E-2   1.215231567621231E-1   9.888274073600769E-1  
 6.820000000000000E7    -8.622008562088013E-1   4.972917139530182E-1  -2.118181250989437E-2  -1.022107899188995E-2  -2.110979519784451E-2  -1.025524269789457E-2   1.342438459396362E-1   9.876098632812500E-1  
 6.850000000000000E7    -8.450443744659424E-1   5.281409621238709E-1  -2.257417701184750E-2  -1.035874057561159E-2  -2.255176380276680E-2  -1.029064599424601E-2   1.463471949100494E-1   9.857330322265625E-1  
 6.880000000000000E7    -8.258607983589172E-1   5.566991567611694E-1  -2.402184344828129E-2  -1.028221845626831E-2  -2.392455376684666E-2  -1.021946035325527E-2   1.597295403480530E-1   9.833726286888123E-1  
 6.910000000000000E7    -8.056375980377197E-1   5.852811932563782E-1  -2.552008628845215E-2  -1.017665117979050E-2  -2.544811554253101E-2  -1.015868876129389E-2   1.729635894298554E-1   9.817892909049988E-1  
 6.940000000000000E7    -7.855641841888428E-1   6.127439737319946E-1  -2.700292319059372E-2  -1.008970011025667E-2  -2.697861753404141E-2  -1.003681961447001E-2   1.845296174287796E-1   9.794468283653259E-1  
 6.970000000000000E7    -7.624329328536987E-1   6.401088237762451E-1  -2.852291055023670E-2  -9.874426759779453E-3  -2.853866294026375E-2  -9.776419959962368E-3   1.977861523628235E-1   9.764430522918701E-1  
 7.000000000000000E7    -7.397649884223938E-1   6.668502092361450E-1  -3.010732494294643E-2  -9.612332098186016E-3  -3.003562428057194E-2  -9.575356729328632E-3   2.099886983633041E-1   9.746500849723816E-1  
