#  HZ   S   RI   R     50.00 
! Rohde & Schwarz ZVT8 8Ports - Version 4.11 - 1300.0000k08 SN: 100242
! Date: 2026-07-31 14:38:51
! Measurements: S11 S21 S12 S22 
! 
 1.000000000000000E7    -4.017495512962341E-1   9.114257693290710E-1   5.313526093959808E-2   5.350939184427261E-2   5.305235460400581E-2   5.353079363703728E-2  -9.176511764526367E-1   3.877794444561005E-1  
 1.030000000000000E7    -3.693405091762543E-1   9.242237806320190E-1   5.690245330333710E-2   5.396671965718269E-2   5.640457570552826E-2   5.384532734751701E-2  -9.112650156021118E-1   4.010982811450958E-1  
 1.060000000000000E7    -3.329518735408783E-1   9.375734329223633E-1   6.023598462343216E-2   5.504694208502770E-2   6.025747954845429E-2   5.486213415861130E-2  -9.079901576042175E-1   4.130388200283051E-1  
 1.090000000000000E7    -3.007269203662872E-1   9.478055834770203E-1   6.398932635784149E-2   5.527003481984139E-2   6.370412558317184E-2   5.531998351216316E-2  -9.017782807350159E-1   4.250093400478363E-1  
 1.120000000000000E7    -2.646400332450867E-1   9.571434855461121E-1   6.801252067089081E-2   5.618201196193695E-2   6.744019687175751E-2   5.598248168826103E-2  -8.959632515907288E-1   4.373515546321869E-1  
 1.150000000000000E7    -2.293373942375183E-1   9.675883054733276E-1   7.175555825233460E-2   5.623863637447357E-2   7.140199840068817E-2   5.613977462053299E-2  -8.882850408554077E-1   4.466401040554047E-1  
 1.180000000000000E7    -1.938084959983826E-1   9.724078178405762E-1   7.559304684400559E-2   5.656364560127258E-2   7.548110932111740E-2   5.650921165943146E-2  -8.834285736083984E-1   4.580199122428894E-1  
 1.210000000000000E7    -1.586652249097824E-1   9.793180823326111E-1   8.014880120754242E-2   5.688585713505745E-2   7.987170666456223E-2   5.671479925513268E-2  -8.756634593009949E-1   4.708429872989655E-1  
 1.240000000000000E7    -1.225512027740479E-1   9.833089709281921E-1   8.427334576845169E-2   5.692210793495178E-2   8.412724733352661E-2   5.643281340599060E-2  -8.683512210845947E-1   4.811974465847015E-1  
 1.270000000000000E7    -8.638606220483780E-2   9.866871833801270E-1   8.919873833656311E-2   5.649947375059128E-2   8.864220976829529E-2   5.624687671661377E-2  -8.608338832855225E-1   4.958586096763611E-1  
 1.300000000000000E7    -5.041779950261116E-2   9.894426465034485E-1   9.359396994113922E-2   5.614312365651131E-2   9.341180324554443E-2   5.605798959732056E-2  -8.531762957572937E-1   5.067237615585327E-1  
 1.330000000000000E7    -1.323458924889565E-2   9.908087253570557E-1   9.865219891071320E-2   5.579406768083572E-2   9.858130663633347E-2   5.511680990457535E-2  -8.451700806617737E-1   5.192673802375794E-1  
 1.360000000000000E7     2.481615543365479E-2   9.901641011238098E-1   1.036199331283569E-1   5.526886880397797E-2   1.037513092160225E-1   5.473401024937630E-2  -8.373781442642212E-1   5.297539830207825E-1  
 1.390000000000000E7     6.014664471149445E-2   9.878638982772827E-1   1.091380640864372E-1   5.418080091476440E-2   1.087824702262878E-1   5.419694259762764E-2  -8.293252587318420E-1   5.417898893356323E-1  
 1.420000000000000E7     9.861107915639877E-2   9.846084117889404E-1   1.141678020358086E-1   5.325467139482498E-2   1.141828000545502E-1   5.317825078964233E-2  -8.220244050025940E-1   5.529755949974060E-1  
 1.450000000000000E7     1.353046000003815E-1   9.784830808639526E-1   1.197073236107826E-1   5.165600031614304E-2   1.197358816862106E-1   5.165920779109001E-2  -8.111242651939392E-1   5.660707354545593E-1  
 1.480000000000000E7     1.739491671323776E-1   9.721353650093079E-1   1.257243305444717E-1   5.022612214088440E-2   1.255798488855362E-1   5.068661272525787E-2  -8.026660680770874E-1   5.771679282188416E-1  
 1.510000000000000E7     2.103639990091324E-1   9.636070132255554E-1   1.315669268369675E-1   4.854520410299301E-2   1.312681436538696E-1   4.854328930377960E-2  -7.910581827163696E-1   5.897716879844666E-1  
 1.540000000000000E7     2.470155954360962E-1   9.543005228042603E-1   1.373694390058518E-1   4.743573069572449E-2   1.374474465847015E-1   4.680417105555534E-2  -7.838603258132935E-1   6.003081202507019E-1  
 1.570000000000000E7     2.847631871700287E-1   9.440812468528748E-1   1.438908874988556E-1   4.465444386005402E-2   1.438891291618347E-1   4.466398432850838E-2  -7.724644541740418E-1   6.134210824966431E-1  
 1.600000000000000E7     3.222188353538513E-1   9.302595853805542E-1   1.502452790737152E-1   4.215531051158905E-2   1.506014019250870E-1   4.194470494985580E-2  -7.620891332626343E-1   6.235974431037903E-1  
 1.630000000000000E7     3.585663437843323E-1   9.157292842864990E-1   1.576415747404099E-1   3.885684162378311E-2   1.572222262620926E-1   3.921064734458923E-2  -7.508081793785095E-1   6.369049549102783E-1  
 1.660000000000000E7     3.946336805820465E-1   8.986232280731201E-1   1.648153811693192E-1   3.550031408667564E-2   1.643854677677155E-1   3.518498316407204E-2  -7.377368807792664E-1   6.490461230278015E-1  
 1.690000000000000E7     4.300859272480011E-1   8.810613155364990E-1   1.719756126403809E-1   3.262908011674881E-2   1.715753078460693E-1   3.230270743370056E-2  -7.263626456260681E-1   6.598771810531616E-1  
 1.720000000000000E7     4.678231477737427E-1   8.619226217269898E-1   1.789638847112656E-1   2.766461670398712E-2   1.787162572145462E-1   2.815531007945538E-2  -7.139434218406677E-1   6.710485816001892E-1  
 1.750000000000000E7     4.981076121330261E-1   8.429477810859680E-1   1.872819811105728E-1   2.458359487354755E-2   1.874862462282181E-1   2.401272021234036E-2  -7.011941671371460E-1   6.842161417007446E-1  
 1.780000000000000E7     5.354367494583130E-1   8.160853385925293E-1   1.942948251962662E-1   1.875520125031471E-2   1.947969645261765E-1   1.930791884660721E-2  -6.872826814651489E-1   6.937087774276733E-1  
 1.810000000000000E7     5.675371885299683E-1   7.928916811943054E-1   2.039655447006226E-1   1.381202414631844E-2   2.026269137859345E-1   1.314282789826393E-2  -6.728681325912476E-1   7.080179452896118E-1  
 1.840000000000000E7     6.021017432212830E-1   7.660735845565796E-1   2.124251127243042E-1   6.511032581329346E-3   2.114392220973969E-1   6.888199597597122E-3  -6.572729349136353E-1   7.190868854522705E-1  
 1.870000000000000E7     6.320571303367615E-1   7.383590936660767E-1   2.210391312837601E-1   7.420089095830917E-4   2.200326174497604E-1   3.210604190826416E-4  -6.414053440093994E-1   7.298880219459534E-1  
 1.900000000000000E7     6.629801988601685E-1   7.084712386131287E-1   2.298355847597122E-1  -6.391139701008797E-3   2.295924872159958E-1  -7.065869867801666E-3  -6.250138878822327E-1   7.408446073532105E-1  
 1.930000000000000E7     6.931686401367188E-1   6.749516129493713E-1   2.388749122619629E-1  -1.585916988551617E-2   2.393042594194412E-1  -1.489628944545984E-2  -6.078498363494873E-1   7.537671327590942E-1  
 1.960000000000000E7     7.221983075141907E-1   6.401265859603882E-1   2.482537329196930E-1  -2.467910572886467E-2   2.484656423330307E-1  -2.413738891482353E-2  -5.914657711982727E-1   7.642906308174133E-1  
 1.990000000000000E7     7.474867105484009E-1   6.041156053543091E-1   2.580110132694244E-1  -3.478699177503586E-2   2.582892179489136E-1  -3.473681956529617E-2  -5.699990391731262E-1   7.762154936790466E-1  
 2.020000000000000E7     7.730878591537476E-1   5.656800866127014E-1   2.683431506156921E-1  -4.550641030073166E-2   2.674784660339356E-1  -4.523937776684761E-2  -5.513620376586914E-1   7.840562462806702E-1  
 2.050000000000000E7     7.987285852432251E-1   5.242761373519898E-1   2.782187461853027E-1  -5.736067891120911E-2   2.763574123382568E-1  -5.756417289376259E-2  -5.304985046386719E-1   7.945289611816406E-1  
 2.080000000000000E7     8.196647763252258E-1   4.804811179637909E-1   2.886504530906677E-1  -7.104043662548065E-2   2.887192368507385E-1  -7.086475938558579E-2  -5.084303617477417E-1   8.057760596275330E-1  
 2.110000000000000E7     8.400437235832214E-1   4.360417127609253E-1   2.992437183856964E-1  -8.687792718410492E-2   2.991785705089569E-1  -8.667544275522232E-2  -4.845398664474487E-1   8.143296241760254E-1  
 2.140000000000000E7     8.576204776763916E-1   3.895654678344727E-1   3.097147345542908E-1  -1.039025932550430E-1   3.084505200386047E-1  -1.025078967213631E-1  -4.602403342723846E-1   8.225696086883545E-1  
 2.170000000000000E7     8.713976144790649E-1   3.415342569351196E-1   3.201481103897095E-1  -1.213541626930237E-1   3.198451995849609E-1  -1.203313022851944E-1  -4.342604577541351E-1   8.301535248756409E-1  
 2.200000000000000E7     8.841389417648315E-1   2.881132960319519E-1   3.298805952072144E-1  -1.418553292751312E-1   3.296939134597778E-1  -1.416253000497818E-1  -4.054281115531921E-1   8.366261720657349E-1  
 2.230000000000000E7     8.916091918945313E-1   2.348017096519470E-1   3.395453393459320E-1  -1.642817854881287E-1   3.391233682632446E-1  -1.632868349552155E-1  -3.770831227302551E-1   8.419483900070190E-1  
 2.260000000000000E7     8.963914513587952E-1   1.789093464612961E-1   3.481531739234924E-1  -1.887285560369492E-1   3.500192463397980E-1  -1.890316903591156E-1  -3.467578887939453E-1   8.454173803329468E-1  
 2.290000000000000E7     8.966535329818726E-1   1.210565343499184E-1   3.568908870220184E-1  -2.160325497388840E-1   3.579903841018677E-1  -2.155467718839645E-1  -3.133064210414887E-1   8.476026654243469E-1  
 2.320000000000000E7     8.907831907272339E-1   6.218721717596054E-2   3.643437623977661E-1  -2.473706603050232E-1   3.635822236537933E-1  -2.472831308841705E-1  -2.796253859996796E-1   8.498160243034363E-1  
 2.350000000000000E7     8.805346488952637E-1   3.869980573654175E-4   3.698702454566956E-1  -2.819911837577820E-1   3.694257736206055E-1  -2.804710268974304E-1  -2.439855486154556E-1   8.477699160575867E-1  
 2.380000000000000E7     8.643662929534912E-1  -6.100798398256302E-2   3.735808134078980E-1  -3.174295723438263E-1   3.736273050308228E-1  -3.173255920410156E-1  -2.063938528299332E-1   8.428954482078552E-1  
 2.410000000000000E7     8.408867716789246E-1  -1.245152875781059E-1   3.731684684753418E-1  -3.589023947715759E-1   3.729129135608673E-1  -3.577045202255249E-1  -1.672731935977936E-1   8.342213034629822E-1  
 2.440000000000000E7     8.093099594116211E-1  -1.851701438426971E-1   3.705403804779053E-1  -4.038628637790680E-1   3.703765273094177E-1  -4.037829935550690E-1  -1.282672584056854E-1   8.220097422599793E-1  
 2.470000000000000E7     7.701897025108337E-1  -2.453386932611466E-1   3.623776435852051E-1  -4.524059593677521E-1   3.634750843048096E-1  -4.499495923519135E-1  -8.531489223241806E-2   8.046296834945679E-1  
 2.500000000000000E7     7.222320437431335E-1  -3.050785362720490E-1   3.491500020027161E-1  -5.030567646026611E-1   3.486310839653015E-1  -5.037493705749512E-1  -4.375669360160828E-2   7.835373878479004E-1  
 2.530000000000000E7     6.633024215698242E-1  -3.587778806686401E-1   3.302602171897888E-1  -5.588018894195557E-1   3.300086259841919E-1  -5.578355789184570E-1  -2.331610303372145E-3   7.546464800834656E-1  
 2.560000000000000E7     5.959497690200806E-1  -4.060049057006836E-1   3.017823994159699E-1  -6.152523159980774E-1   3.016988039016724E-1  -6.159208416938782E-1   3.701857477426529E-2   7.193354368209839E-1  
 2.590000000000000E7     5.191423296928406E-1  -4.410636126995087E-1   2.610841393470764E-1  -6.745074987411499E-1   2.616673409938812E-1  -6.750267148017883E-1   7.520812749862671E-2   6.800507903099060E-1  
 2.620000000000000E7     4.323493540287018E-1  -4.660924077033997E-1   2.100054472684860E-1  -7.333607673645020E-1   2.107757031917572E-1  -7.317436933517456E-1   1.091214790940285E-1   6.300830245018005E-1  
 2.650000000000000E7     3.393773734569550E-1  -4.781411588191986E-1   1.490743905305862E-1  -7.874645590782166E-1   1.480672210454941E-1  -7.882033586502075E-1   1.337284743785858E-1   5.735536813735962E-1  
 2.680000000000000E7     2.430883049964905E-1  -4.701672792434692E-1   7.343288511037827E-2  -8.368535637855530E-1   7.238789647817612E-2  -8.365150690078735E-1   1.492730081081390E-1   5.117694735527039E-1  
 2.710000000000000E7     1.500736474990845E-1  -4.441860020160675E-1  -1.559033989906311E-2  -8.734189271926880E-1  -1.541382819414139E-2  -8.732563853263855E-1   1.575092077255249E-1   4.485422670841217E-1  
 2.740000000000000E7     5.753295868635178E-2  -3.968373537063599E-1  -1.132253110408783E-1  -9.004099369049072E-1  -1.148220598697662E-1  -8.986540436744690E-1   1.476214826107025E-1   3.793651461601257E-1  
 2.770000000000000E7    -1.809490658342838E-2  -3.331038355827332E-1  -2.198386788368225E-1  -9.074813127517700E-1  -2.197883129119873E-1  -9.072694182395935E-1   1.284121423959732E-1   3.159159719944000E-1  
 2.800000000000000E7    -8.208790421485901E-2  -2.535682618618012E-1  -3.293514251708984E-1  -8.975104093551636E-1  -3.279698193073273E-1  -8.978143334388733E-1   9.490627050399780E-2   2.529020905494690E-1  
 2.830000000000000E7    -1.247761845588684E-1  -1.629874110221863E-1  -4.351069629192352E-1  -8.677256703376770E-1  -4.352482557296753E-1  -8.664149641990662E-1   5.367156118154526E-2   2.064573764801025E-1  
 2.860000000000000E7    -1.432740539312363E-1  -6.612572073936462E-2  -5.363685488700867E-1  -8.196980357170105E-1  -5.375429391860962E-1  -8.176971077919006E-1   1.737355487421155E-3   1.665396243333817E-1  
 2.890000000000000E7    -1.395729184150696E-1   2.665295824408531E-2  -6.273565292358398E-1  -7.559574246406555E-1  -6.266372203826904E-1  -7.543548941612244E-1  -5.426333472132683E-2   1.419407278299332E-1  
 2.920000000000000E7    -1.184695586562157E-1   1.173682361841202E-1  -7.041839957237244E-1  -6.810626983642578E-1  -7.042213082313538E-1  -6.784344315528870E-1  -1.115244925022125E-1   1.297505497932434E-1  
 2.950000000000000E7    -7.768072187900543E-2   1.918795257806778E-1  -7.670311331748962E-1  -5.960205197334290E-1  -7.657211422920227E-1  -5.952095389366150E-1  -1.670536100864410E-1   1.322196125984192E-1  
 2.980000000000000E7    -2.796409651637077E-2   2.566860914230347E-1  -8.136731386184692E-1  -5.078670978546143E-1  -8.136581778526306E-1  -5.071867704391480E-1  -2.172580808401108E-1   1.460287123918533E-1  
 3.010000000000000E7     3.090812824666500E-2   3.038398623466492E-1  -8.487821221351624E-1  -4.177867174148560E-1  -8.467012643814087E-1  -4.176854491233826E-1  -2.610208392143250E-1   1.675786823034287E-1  
 3.040000000000000E7     9.661478549242020E-2   3.374203145503998E-1  -8.683791160583496E-1  -3.308917582035065E-1  -8.683536052703857E-1  -3.303346335887909E-1  -2.933266162872315E-1   1.983069330453873E-1  
 3.070000000000000E7     1.597867906093597E-1   3.575218915939331E-1  -8.814558982849121E-1  -2.438463866710663E-1  -8.791480064392090E-1  -2.450304925441742E-1  -3.185291886329651E-1   2.292030155658722E-1  
 3.100000000000000E7     2.225645482540131E-1   3.634500205516815E-1  -8.840125203132629E-1  -1.635260879993439E-1  -8.826844692230225E-1  -1.629216223955154E-1  -3.357906043529511E-1   2.646979689598084E-1  
 3.130000000000000E7     2.799345254898071E-1   3.601790368556976E-1  -8.788253068923950E-1  -8.541217446327210E-2  -8.780078291893005E-1  -8.649986237287521E-2  -3.431558012962341E-1   3.042264580726624E-1  
 3.160000000000000E7     3.354113698005676E-1   3.462435305118561E-1  -8.696510195732117E-1  -1.342113874852657E-2  -8.700263500213623E-1  -1.403188146650791E-2  -3.421934247016907E-1   3.413010537624359E-1  
 3.190000000000000E7     3.828105032444000E-1   3.276655375957489E-1  -8.563088178634644E-1   5.624121055006981E-2  -8.544312715530396E-1   5.597465485334396E-2  -3.345320522785187E-1   3.776816427707672E-1  
 3.220000000000000E7     4.260624051094055E-1   3.030059933662415E-1  -8.389907479286194E-1   1.213786602020264E-1  -8.378844261169434E-1   1.217838898301125E-1  -3.186305761337280E-1   4.119370877742767E-1  
 3.250000000000000E7     4.601921439170837E-1   2.722537815570831E-1  -8.199054002761841E-1   1.851080209016800E-1  -8.193099498748779E-1   1.856899559497833E-1  -2.939910292625427E-1   4.451687932014465E-1  
 3.280000000000000E7     4.869866073131561E-1   2.368876039981842E-1  -7.971620559692383E-1   2.473123818635941E-1  -7.951645851135254E-1   2.480328232049942E-1  -2.639519274234772E-1   4.749384224414825E-1  
 3.310000000000000E7     5.087864398956299E-1   2.052975147962570E-1  -7.713285088539124E-1   3.095003068447113E-1  -7.705133557319641E-1   3.092788457870483E-1  -2.226009219884872E-1   4.991501271724701E-1  
 3.340000000000000E7     5.211951732635498E-1   1.703899800777435E-1  -7.439650893211365E-1   3.726701438426971E-1  -7.422459721565247E-1   3.713121414184570E-1  -1.757589429616928E-1   5.171357393264771E-1  
 3.370000000000000E7     5.278756022453308E-1   1.353093981742859E-1  -7.109196186065674E-1   4.332967698574066E-1  -7.106342315673828E-1   4.326460063457489E-1  -1.200002431869507E-1   5.304309129714966E-1  
 3.400000000000000E7     5.265507102012634E-1   1.031149178743362E-1  -6.742427349090576E-1   4.980992078781128E-1  -6.742082834243774E-1   4.969343543052673E-1  -5.554914847016335E-2   5.297738909721375E-1  
 3.430000000000000E7     5.188368558883667E-1   7.586513459682465E-2  -6.298260092735291E-1   5.640622973442078E-1  -6.297982335090637E-1   5.631931424140930E-1   1.441907137632370E-2   5.197598338127136E-1  
 3.460000000000000E7     5.045800805091858E-1   5.217962339520454E-2  -5.776691436767578E-1   6.326814889907837E-1  -5.779128670692444E-1   6.318591237068176E-1   9.449540823698044E-2   4.914619624614716E-1  
 3.490000000000000E7     4.849296212196350E-1   4.019651189446449E-2  -5.099777579307556E-1   7.010852694511414E-1  -5.114042162895203E-1   7.003448605537415E-1   1.752024292945862E-1   4.448888599872589E-1  
 3.520000000000000E7     4.611758887767792E-1   3.437938541173935E-2  -4.299635589122772E-1   7.679724097251892E-1  -4.301204681396484E-1   7.679702639579773E-1   2.618523538112640E-1   3.705216646194458E-1  
 3.550000000000000E7     4.353859126567841E-1   4.318002983927727E-2  -3.288730084896088E-1   8.289228677749634E-1  -3.292193412780762E-1   8.285769224166870E-1   3.384745121002197E-1   2.626523375511169E-1  
 3.580000000000000E7     4.193891882896423E-1   6.917309761047363E-2  -2.054134607315064E-1   8.737518191337585E-1  -2.059206962585449E-1   8.731160163879395E-1   3.941873013973236E-1   1.217159330844879E-1  
 3.610000000000000E7     4.160882830619812E-1   1.113198027014732E-1  -6.109938025474548E-2   8.936509490013123E-1  -6.101810932159424E-2   8.922771215438843E-1   4.125389754772186E-1  -5.252114683389664E-2  
 3.640000000000000E7     4.329120218753815E-1   1.591691672801971E-1   9.410057961940765E-2   8.738659024238586E-1   9.267185628414154E-2   8.734452128410339E-1   3.744609653949738E-1  -2.463445961475372E-1  
 3.670000000000000E7     4.774672091007233E-1   2.066430896520615E-1   2.437622845172882E-1   8.105192184448242E-1   2.429990619421005E-1   8.085685372352600E-1   2.689315676689148E-1  -4.294308125972748E-1  
 3.700000000000000E7     5.470945835113525E-1   2.366773933172226E-1   3.671451807022095E-1   7.035170793533325E-1   3.657872676849365E-1   7.031465172767639E-1   1.037840694189072E-1  -5.763618350028992E-1  
 3.730000000000000E7     6.301022768020630E-1   2.405497729778290E-1   4.499717056751251E-1   5.722357630729675E-1   4.483189880847931E-1   5.721793770790100E-1  -9.984754025936127E-2  -6.590298414230347E-1  
 3.760000000000000E7     7.158289551734924E-1   2.166220247745514E-1   4.843439757823944E-1   4.364627897739410E-1   4.846090078353882E-1   4.361651241779327E-1  -3.063959777355194E-1  -6.753003001213074E-1  
 3.790000000000000E7     7.926144003868103E-1   1.691123396158218E-1   4.828027784824371E-1   3.109749257564545E-1   4.835051298141480E-1   3.121236562728882E-1  -4.912835359573364E-1  -6.361102461814880E-1  
 3.820000000000000E7     8.522833585739136E-1   1.046524643898010E-1   4.553776979446411E-1   2.100051641464233E-1   4.560073018074036E-1   2.092005461454392E-1  -6.447853446006775E-1  -5.584850907325745E-1  
 3.850000000000000E7     8.944443464279175E-1   3.221183642745018E-2   4.151054918766022E-1   1.296332478523254E-1   4.152192175388336E-1   1.286039054393768E-1  -7.607405185699463E-1  -4.636785089969635E-1  
 3.880000000000000E7     9.200425744056702E-1  -4.118069633841515E-2   3.699995279312134E-1   7.125554978847504E-2   3.685027658939362E-1   7.067695260047913E-2  -8.438208103179932E-1  -3.623633980751038E-1  
 3.910000000000000E7     9.345726370811462E-1  -1.144731044769287E-1   3.237059116363525E-1   2.882895618677139E-2   3.239121139049530E-1   2.889024652540684E-2  -9.027951359748840E-1  -2.619421184062958E-1  
 3.940000000000000E7     9.367907643318176E-1  -1.837107241153717E-1   2.800423502922058E-1   6.121508777141571E-4   2.802001833915710E-1  -1.096352934837341E-5  -9.387813210487366E-1  -1.681877523660660E-1  
 3.970000000000000E7     9.334583282470703E-1  -2.492130994796753E-1   2.415766566991806E-1  -1.898359134793282E-2   2.418593913316727E-1  -1.932540535926819E-2  -9.608129262924194E-1  -7.976433634757996E-2  
 4.000000000000000E7     9.224824905395508E-1  -3.111761510372162E-1   2.078782021999359E-1  -3.200523927807808E-2   2.077261209487915E-1  -3.200045973062515E-2  -9.728764295578003E-1  -2.839516848325729E-3  
 4.030000000000000E7     9.078226685523987E-1  -3.684137463569641E-1   1.788190603256226E-1  -3.920795395970345E-2   1.782753318548203E-1  -3.979035094380379E-2  -9.763095974922180E-1   6.808191537857056E-2  
 4.060000000000000E7     8.887209296226502E-1  -4.216127395629883E-1   1.526007205247879E-1  -4.357567057013512E-2   1.523140966892242E-1  -4.388175904750824E-2  -9.738177061080933E-1   1.323570311069489E-1  
 4.090000000000000E7     8.670118451118469E-1  -4.725475907325745E-1   1.303280889987946E-1  -4.594735056161881E-2   1.301787644624710E-1  -4.595531150698662E-2  -9.677789807319641E-1   1.891856789588928E-1  
 4.120000000000000E7     8.435568809509277E-1  -5.186145901679993E-1   1.111442297697067E-1  -4.562369361519814E-2   1.111280769109726E-1  -4.566267505288124E-2  -9.584155678749085E-1   2.424256950616837E-1  
 4.150000000000000E7     8.175680041313171E-1  -5.611173510551453E-1   9.519408643245697E-2  -4.477135092020035E-2   9.490261971950531E-2  -4.442860558629036E-2  -9.472928047180176E-1   2.891929745674133E-1  
 4.180000000000000E7     7.895622849464417E-1  -6.026791930198669E-1   8.103966712951660E-2  -4.311324656009674E-2   8.077943325042725E-2  -4.291187226772308E-2  -9.353188872337341E-1   3.308037221431732E-1  
 4.210000000000000E7     7.610108256340027E-1  -6.401085853576660E-1   6.902701407670975E-2  -4.064980894327164E-2   6.892091035842896E-2  -4.058178514242172E-2  -9.216763973236084E-1   3.701286911964417E-1  
 4.240000000000000E7     7.306014299392700E-1  -6.745460629463196E-1   5.865570157766342E-2  -3.785907104611397E-2   5.857005715370178E-2  -3.790285810828209E-2  -9.083145260810852E-1   4.053917527198792E-1  
 4.270000000000000E7     6.989874839782715E-1  -7.079780697822571E-1   4.984288662672043E-2  -3.523032367229462E-2   4.957527294754982E-2  -3.514750301837921E-2  -8.933210372924805E-1   4.398649632930756E-1  
 4.300000000000000E7     6.667805314064026E-1  -7.397261857986450E-1   4.202041402459145E-2  -3.239636495709419E-2   4.191249608993530E-2  -3.212981298565865E-2  -8.781288862228394E-1   4.706885814666748E-1  
 4.330000000000000E7     6.360341906547546E-1  -7.679762840270996E-1   3.534442186355591E-2  -2.940735965967178E-2   3.543080016970635E-2  -2.940456382930279E-2  -8.625760078430176E-1   4.982925653457642E-1  
 4.360000000000000E7     6.012107133865356E-1  -7.947161793708801E-1   2.972297742962837E-2  -2.650433778762817E-2   2.960373833775520E-2  -2.644798159599304E-2  -8.480446934700012E-1   5.247624516487122E-1  
 4.390000000000000E7     5.670497417449951E-1  -8.212021589279175E-1   2.483705244958401E-2  -2.385548129677773E-2   2.486110292375088E-2  -2.382094040513039E-2  -8.314766287803650E-1   5.484369397163391E-1  
 4.420000000000000E7     5.320991277694702E-1  -8.426688909530640E-1   2.058815956115723E-2  -2.122422866523266E-2   2.068329788744450E-2  -2.126335166394711E-2  -8.152269721031189E-1   5.719333887100220E-1  
 4.450000000000000E7     4.970141947269440E-1  -8.636974096298218E-1   1.711354590952396E-2  -1.874038949608803E-2   1.701506227254868E-2  -1.881687343120575E-2  -8.012831211090088E-1   5.930705666542053E-1  
 4.480000000000000E7     4.618862271308899E-1  -8.835932016372681E-1   1.404663082212210E-2  -1.638129726052284E-2   1.397346798330545E-2  -1.644311845302582E-2  -7.857115268707275E-1   6.129503250122070E-1  
 4.510000000000000E7     4.272684156894684E-1  -9.017254114151001E-1   1.144485548138619E-2  -1.431801170110703E-2   1.146343350410461E-2  -1.420503389090300E-2  -7.714685797691345E-1   6.325962543487549E-1  
 4.540000000000000E7     3.908203840255737E-1  -9.174358844757080E-1   9.196151979267597E-3  -1.242751814424992E-2   9.238665923476219E-3  -1.229183096438646E-2  -7.558715939521790E-1   6.506623029708862E-1  
 4.570000000000000E7     3.540359437465668E-1  -9.326159954071045E-1   7.347928825765848E-3  -1.054903306066990E-2   7.352838292717934E-3  -1.038705557584763E-2  -7.405963540077210E-1   6.677113175392151E-1  
 4.600000000000000E7     3.198188245296478E-1  -9.447433352470398E-1   5.868358537554741E-3  -8.701691403985024E-3   5.738983396440744E-3  -8.791841566562653E-3  -7.264311313629150E-1   6.836347579956055E-1  
 4.630000000000000E7     2.807132303714752E-1  -9.574537277221680E-1   4.417569376528263E-3  -7.238483987748623E-3   4.434929229319096E-3  -7.191610988229513E-3  -7.117773294448853E-1   6.981601119041443E-1  
 4.660000000000000E7     2.435965090990067E-1  -9.685512781143189E-1   3.419799497351050E-3  -5.885372869670391E-3   3.349597100168467E-3  -5.836423020809889E-3  -6.968634724617004E-1   7.141670584678650E-1  
 4.690000000000000E7     2.070068717002869E-1  -9.760578274726868E-1   2.463300246745348E-3  -4.571835976094008E-3   2.521597081795335E-3  -4.565549083054066E-3  -6.828085184097290E-1   7.280033826828003E-1  
 4.720000000000000E7     1.698528677225113E-1  -9.826400279998779E-1   1.766541507095099E-3  -3.386422758921981E-3   1.766031607985497E-3  -3.400935558602214E-3  -6.674259901046753E-1   7.411630153656006E-1  
 4.750000000000000E7     1.336260735988617E-1  -9.891471862792969E-1   1.192249124869704E-3  -2.341456478461623E-3   1.155102276243269E-3  -2.474142238497734E-3  -6.532635092735291E-1   7.534143328666687E-1  
 4.780000000000000E7     9.756413102149963E-2  -9.931124448776245E-1   8.715323638170958E-4  -1.513747847639024E-3   7.604915881529450E-4  -1.625801436603069E-3  -6.379497051239014E-1   7.653053402900696E-1  
 4.810000000000000E7     6.006025522947311E-2  -9.960858225822449E-1   3.534296702127904E-4  -7.826473447494209E-4   3.053031396120787E-4  -8.258710149675608E-4  -6.252871155738831E-1   7.763703465461731E-1  
 4.840000000000000E7     2.343087270855904E-2  -9.982357025146484E-1   1.303268800256774E-4  -1.736286794766784E-4   1.323444448644295E-4  -1.729184587020427E-4  -6.112115383148193E-1   7.876870036125183E-1  
 4.870000000000000E7    -1.356213539838791E-2  -9.981112480163574E-1  -8.773933222983033E-5   3.497205616440624E-4  -3.231990558560938E-5   4.135553026571870E-4  -5.976389050483704E-1   7.982751131057739E-1  
 4.900000000000000E7    -5.045476555824280E-2  -9.975476861000061E-1  -3.016738628502935E-4   7.834175485186279E-4  -2.325615496374667E-4   8.144421735778451E-4  -5.834023356437683E-1   8.081002831459045E-1  
 4.930000000000000E7    -8.681824058294296E-2  -9.949949383735657E-1  -3.188026894349605E-4   1.177167519927025E-3  -2.883104025386274E-4   1.107831252738833E-3  -5.694006681442261E-1   8.184316158294678E-1  
 4.960000000000000E7    -1.220743954181671E-1  -9.891604781150818E-1  -3.325776488054544E-4   1.341481227427721E-3  -3.155293525196612E-4   1.367042073979974E-3  -5.560086369514465E-1   8.273734450340271E-1  
 4.990000000000000E7    -1.573431789875031E-1  -9.849154949188232E-1  -3.364558215253055E-4   1.589705701917410E-3  -3.317657974548638E-4   1.620868104510009E-3  -5.423955917358398E-1   8.363342285156250E-1  
 5.020000000000000E7    -1.919103860855103E-1  -9.796779751777649E-1  -2.806793199852109E-4   1.682681031525135E-3  -3.049418737646192E-4   1.672223792411387E-3  -5.292658209800720E-1   8.450955748558044E-1  
 5.050000000000000E7    -2.276351153850555E-1  -9.718047380447388E-1  -3.050572704523802E-4   1.686325762420893E-3  -2.536700339987874E-4   1.645180745981634E-3  -5.161203742027283E-1   8.545798063278198E-1  
 5.080000000000000E7    -2.612791061401367E-1  -9.634584784507752E-1  -2.176730049541220E-4   1.605751225724816E-3  -2.142130979336798E-4   1.584642799571157E-3  -5.018324851989746E-1   8.603776693344116E-1  
 5.110000000000000E7    -2.961051762104034E-1  -9.531953334808350E-1  -1.791543763829395E-4   1.473349169827998E-3  -1.778669247869402E-4   1.477911951951683E-3  -4.894701540470123E-1   8.686053156852722E-1  
 5.140000000000000E7    -3.295074105262756E-1  -9.415801763534546E-1  -1.314115797867999E-4   1.292219501920044E-3  -1.180885083158501E-4   1.277358853258193E-3  -4.760120809078217E-1   8.780362606048584E-1  
 5.170000000000000E7    -3.617063462734222E-1  -9.296565055847168E-1  -9.599519398761913E-5   1.038160640746355E-3  -7.747033669147641E-5   1.049728598445654E-3  -4.617310166358948E-1   8.833630084991455E-1  
 5.200000000000000E7    -3.951283395290375E-1  -9.176885485649109E-1  -4.443048601388000E-5   7.517985068261623E-4  -5.077859168522991E-5   7.321573211811483E-4  -4.480727910995483E-1   8.892279863357544E-1  
 5.230000000000000E7    -4.267987310886383E-1  -9.021781682968140E-1  -1.875345151347574E-5   3.680603404063731E-4  -2.332600888621528E-5   3.893786342814565E-4  -4.359070658683777E-1   8.965483307838440E-1  
 5.260000000000000E7    -4.576051831245422E-1  -8.855454325675964E-1  -2.882259832404088E-5  -1.315907957177842E-5  -7.023697980912402E-5  -4.593841367750429E-5  -4.226850271224976E-1   9.033557772636414E-1  
 5.290000000000000E7    -4.895652234554291E-1  -8.694840669631958E-1  -5.809743015561253E-5  -4.290571960154921E-4  -4.657679164665751E-5  -4.671253846026957E-4  -4.098775088787079E-1   9.084277749061585E-1  
 5.320000000000000E7    -5.188869833946228E-1  -8.531699180603027E-1  -1.244040904566646E-4  -9.447838529013097E-4  -1.172949632746168E-4  -9.687807178124785E-4  -3.965171873569489E-1   9.147871136665344E-1  
 5.350000000000000E7    -5.469720363616943E-1  -8.340663909912109E-1  -1.689366472419351E-4  -1.473295036703348E-3  -1.853897119872272E-4  -1.519872341305018E-3  -3.848410546779633E-1   9.201598167419434E-1  
 5.380000000000000E7    -5.748190283775330E-1  -8.146453499794006E-1  -2.939492696896195E-4  -2.047079149633646E-3  -2.629940863698721E-4  -2.040578750893474E-3  -3.699419796466827E-1   9.249070286750794E-1  
 5.410000000000000E7    -6.050554513931274E-1  -7.946465611457825E-1  -4.313708923291415E-4  -2.642626874148846E-3  -4.416988813318312E-4  -2.630004193633795E-3  -3.574948310852051E-1   9.306387901306152E-1  
 5.440000000000000E7    -6.317159533500671E-1  -7.721533775329590E-1  -5.780456122010946E-4  -3.240558551624417E-3  -5.922630080021918E-4  -3.263424383476377E-3  -3.450034856796265E-1   9.349857568740845E-1  
 5.470000000000000E7    -6.562911868095398E-1  -7.510144710540772E-1  -7.974887848831713E-4  -3.876475850120187E-3  -8.188706124201417E-4  -3.894538152962923E-3  -3.314219117164612E-1   9.394331574440002E-1  
 5.500000000000000E7    -6.831747293472290E-1  -7.275977134704590E-1  -1.077435445040464E-3  -4.561289213597775E-3  -1.065533608198166E-3  -4.583435133099556E-3  -3.183060288429260E-1   9.454506039619446E-1  
 5.530000000000000E7    -7.070605158805847E-1  -7.038505673408508E-1  -1.298266928642988E-3  -5.256325937807560E-3  -1.358819426968694E-3  -5.255082156509161E-3  -3.055013418197632E-1   9.484795928001404E-1  
 5.560000000000000E7    -7.316384911537170E-1  -6.782957315444946E-1  -1.670524827204645E-3  -5.974578205496073E-3  -1.649323850870132E-3  -5.959311034530401E-3  -2.934713363647461E-1   9.527190923690796E-1  
 5.590000000000000E7    -7.544853687286377E-1  -6.542052626609802E-1  -2.040231600403786E-3  -6.664269603788853E-3  -2.028591465204954E-3  -6.676889490336180E-3  -2.796581685543060E-1   9.568215608596802E-1  
 5.620000000000000E7    -7.765972018241882E-1  -6.256631016731262E-1  -2.416542265564203E-3  -7.415222469717264E-3  -2.409832552075386E-3  -7.368709892034531E-3  -2.679883539676666E-1   9.604232907295227E-1  
 5.650000000000000E7    -7.965661287307739E-1  -6.001552343368530E-1  -2.869946416467428E-3  -8.124808780848980E-3  -2.862979657948017E-3  -8.161958307027817E-3  -2.548750042915344E-1   9.635033607482910E-1  
 5.680000000000000E7    -8.170441985130310E-1  -5.727855563163757E-1  -3.357200883328915E-3  -8.873845450580120E-3  -3.404301125556231E-3  -8.853555656969547E-3  -2.414508610963821E-1   9.663661718368530E-1  
 5.710000000000000E7    -8.366783261299133E-1  -5.430414080619812E-1  -3.938695415854454E-3  -9.600216522812843E-3  -3.989221528172493E-3  -9.617902338504791E-3  -2.294269055128098E-1   9.699674844741821E-1  
 5.740000000000000E7    -8.552384972572327E-1  -5.146611332893372E-1  -4.540262278169394E-3  -1.037141121923924E-2  -4.533863160759211E-3  -1.034940592944622E-2  -2.159097790718079E-1   9.729373455047607E-1  
 5.770000000000000E7    -8.706129789352417E-1  -4.860838651657105E-1  -5.138854030519724E-3  -1.114334259182215E-2  -5.127835087478161E-3  -1.110135670751333E-2  -2.042741924524307E-1   9.746813178062439E-1  
 5.800000000000000E7    -8.868324756622315E-1  -4.549957215785980E-1  -5.859415046870709E-3  -1.186486240476370E-2  -5.845831707119942E-3  -1.181477028876543E-2  -1.904056221246719E-1   9.790880084037781E-1  
 5.830000000000000E7    -9.021667838096619E-1  -4.243776500225067E-1  -6.576708517968655E-3  -1.258661504834890E-2  -6.593049038201571E-3  -1.256308890879154E-2  -1.788550019264221E-1   9.811336398124695E-1  
 5.860000000000000E7    -9.169318675994873E-1  -3.941494524478912E-1  -7.345004007220268E-3  -1.332639995962381E-2  -7.341341581195593E-3  -1.332903653383255E-2  -1.654177308082581E-1   9.829077720642090E-1  
 5.890000000000000E7    -9.293414950370789E-1  -3.622090220451355E-1  -8.174904622137547E-3  -1.403999980539084E-2  -8.139850571751595E-3  -1.406255271285772E-2  -1.534788906574249E-1   9.846644997596741E-1  
 5.920000000000000E7    -9.410588741302490E-1  -3.293809592723846E-1  -9.050406515598297E-3  -1.472564879804850E-2  -9.101946838200092E-3  -1.464984845370054E-2  -1.404171586036682E-1   9.875726699829102E-1  
 5.950000000000000E7    -9.512880444526672E-1  -2.974599003791809E-1  -9.996885433793068E-3  -1.536861807107925E-2  -9.971953928470612E-3  -1.537122204899788E-2  -1.273636221885681E-1   9.874548912048340E-1  
 5.980000000000000E7    -9.613446593284607E-1  -2.645310759544373E-1  -1.101596746593714E-2  -1.604200899600983E-2  -1.092979032546282E-2  -1.601298339664936E-2  -1.144692152738571E-1   9.896400570869446E-1  
 6.010000000000000E7    -9.682130217552185E-1  -2.330815643072128E-1  -1.192929316312075E-2  -1.675515621900559E-2  -1.189247705042362E-2  -1.670409366488457E-2  -1.026869714260101E-1   9.914907813072205E-1  
 6.040000000000000E7    -9.762456417083740E-1  -1.983511447906494E-1  -1.302667520940304E-2  -1.733978278934956E-2  -1.303761359304190E-2  -1.734299771487713E-2  -8.953054249286652E-2   9.931316375732422E-1  
 6.070000000000000E7    -9.833385944366455E-1  -1.667261123657227E-1  -1.415135338902473E-2  -1.799866743385792E-2  -1.410160213708878E-2  -1.799548417329788E-2  -7.761813700199127E-2   9.935022592544556E-1  
 6.100000000000000E7    -9.877619743347168E-1  -1.333090513944626E-1  -1.533852983266115E-2  -1.851241290569305E-2  -1.530863717198372E-2  -1.848322339355946E-2  -6.346572935581207E-2   9.948834776878357E-1  
 6.130000000000000E7    -9.924491643905640E-1  -9.855860471725464E-2  -1.656472496688366E-2  -1.908463612198830E-2  -1.651576720178127E-2  -1.906903274357319E-2  -5.082455277442932E-2   9.959358572959900E-1  
 6.160000000000000E7    -9.945807456970215E-1  -6.529153883457184E-2  -1.774490624666214E-2  -1.957114040851593E-2  -1.777203753590584E-2  -1.956223696470261E-2  -3.931234776973724E-2   9.952932000160217E-1  
 6.190000000000000E7    -9.959448575973511E-1  -3.183102607727051E-2  -1.902534440159798E-2  -2.008870989084244E-2  -1.902138441801071E-2  -1.996352896094322E-2  -2.704173326492310E-2   9.951770901679993E-1  
 6.220000000000000E7    -9.965563416481018E-1   1.844391226768494E-3  -2.032686583697796E-2  -2.046772092580795E-2  -2.042254805564880E-2  -2.052568085491657E-2  -1.479808986186981E-2   9.966526031494141E-1  
 6.250000000000000E7    -9.959840774536133E-1   3.580579161643982E-2  -2.174086868762970E-2  -2.098539844155312E-2  -2.178763039410114E-2  -2.091211639344692E-2  -2.535566687583923E-3   9.968020319938660E-1  
 6.280000000000000E7    -9.934087991714478E-1   6.980514526367188E-2  -2.323804236948490E-2  -2.131860144436359E-2  -2.315553463995457E-2  -2.135734073817730E-2   1.027129590511322E-2   9.968504309654236E-1  
 6.310000000000000E7    -9.904187917709351E-1   1.043886989355087E-1  -2.476054802536964E-2  -2.164482697844505E-2  -2.469058893620968E-2  -2.160568907856941E-2   2.303084731101990E-2   9.967322945594788E-1  
 6.340000000000000E7    -9.862918257713318E-1   1.378842443227768E-1  -2.627976611256599E-2  -2.192969433963299E-2  -2.619362995028496E-2  -2.187106572091579E-2   3.556990623474121E-2   9.966741204261780E-1  
 6.370000000000000E7    -9.813736081123352E-1   1.711029559373856E-1  -2.782590128481388E-2  -2.213074639439583E-2  -2.780179865658283E-2  -2.210247144103050E-2   4.782307147979736E-2   9.948346018791199E-1  
 6.400000000000000E7    -9.738870263099670E-1   2.040747106075287E-1  -2.945599332451820E-2  -2.227422781288624E-2  -2.938834019005299E-2  -2.222623676061630E-2   6.072703003883362E-2   9.953927397727966E-1  
 6.430000000000000E7    -9.662474989891052E-1   2.382338196039200E-1  -3.108165226876736E-2  -2.251258492469788E-2  -3.101919777691364E-2  -2.235084027051926E-2   7.314507663249970E-2   9.937888383865356E-1  
 6.460000000000000E7    -9.583132266998291E-1   2.710351347923279E-1  -3.277703002095223E-2  -2.255728468298912E-2  -3.267617523670197E-2  -2.256177365779877E-2   8.438778668642044E-2   9.919968843460083E-1  
 6.490000000000000E7    -9.495738744735718E-1   3.031491935253143E-1  -3.447464853525162E-2  -2.252614125609398E-2  -3.451905399560928E-2  -2.265432104468346E-2   9.668851643800736E-2   9.916488528251648E-1  
 6.520000000000000E7    -9.375043511390686E-1   3.346325159072876E-1  -3.626690059900284E-2  -2.260730415582657E-2  -3.618026152253151E-2  -2.253922820091248E-2   1.093786209821701E-1   9.910092353820801E-1  
 6.550000000000000E7    -9.262006282806397E-1   3.659376502037048E-1  -3.813701122999191E-2  -2.256402000784874E-2  -3.799951821565628E-2  -2.247904427349567E-2   1.215856894850731E-1   9.875941872596741E-1  
 6.580000000000000E7    -9.123530387878418E-1   3.978906273841858E-1  -3.995137289166451E-2  -2.230731770396233E-2  -3.983215242624283E-2  -2.236127294600010E-2   1.342495977878571E-1   9.875094294548035E-1  
 6.610000000000000E7    -8.974259495735169E-1   4.286534190177918E-1  -4.182459041476250E-2  -2.206037193536758E-2  -4.164163768291473E-2  -2.188803441822529E-2   1.477338373661041E-1   9.842578768730164E-1  
 6.640000000000000E7    -8.839984536170960E-1   4.590419828891754E-1  -4.377293959259987E-2  -2.184939943253994E-2  -4.372426867485046E-2  -2.189894206821919E-2   1.597566753625870E-1   9.827586412429810E-1  
 6.670000000000000E7    -8.668510317802429E-1   4.887461662292481E-1  -4.562607407569885E-2  -2.136436104774475E-2  -4.563574865460396E-2  -2.153152227401733E-2   1.711027175188065E-1   9.813517928123474E-1  
 6.700000000000000E7    -8.490806818008423E-1   5.179856419563294E-1  -4.763649776577950E-2  -2.104918099939823E-2  -4.741086065769196E-2  -2.094295434653759E-2   1.832083761692047E-1   9.779925346374512E-1  
 6.730000000000000E7    -8.309981226921082E-1   5.466517806053162E-1  -4.943595454096794E-2  -2.066515013575554E-2  -4.947366565465927E-2  -2.041712962090969E-2   1.961051821708679E-1   9.765146970748901E-1  
 6.760000000000000E7    -8.120881319046021E-1   5.747712254524231E-1  -5.174458399415016E-2  -1.989272609353066E-2  -5.155983939766884E-2  -2.000978961586952E-2   2.086022198200226E-1   9.735034108161926E-1  
 6.790000000000000E7    -7.914215326309204E-1   6.025266051292419E-1  -5.363217741250992E-2  -1.943311840295792E-2  -5.366853624582291E-2  -1.929491944611073E-2   2.198383808135986E-1   9.701175093650818E-1  
 6.820000000000000E7    -7.701892852783203E-1   6.282277107238770E-1  -5.567520856857300E-2  -1.858168840408325E-2  -5.557099357247353E-2  -1.866816729307175E-2   2.319206297397614E-1   9.678731560707092E-1  
 6.850000000000000E7    -7.485491037368774E-1   6.554867029190064E-1  -5.794763192534447E-2  -1.798681169748306E-2  -5.775977298617363E-2  -1.787601225078106E-2   2.434618771076202E-1   9.650467038154602E-1  
 6.880000000000000E7    -7.248968482017517E-1   6.799305677413940E-1  -5.994137749075890E-2  -1.695452071726322E-2  -5.969663336873055E-2  -1.686779782176018E-2   2.564863562583923E-1   9.612721204757690E-1  
 6.910000000000000E7    -7.010737657546997E-1   7.047402858734131E-1  -6.221620365977287E-2  -1.600417122244835E-2  -6.202019378542900E-2  -1.597989536821842E-2   2.689290344715118E-1   9.581167101860046E-1  
 6.940000000000000E7    -6.770042777061462E-1   7.285035848617554E-1  -6.430293619632721E-2  -1.497686747461557E-2  -6.422317028045654E-2  -1.494213473051786E-2   2.799618840217590E-1   9.545390605926514E-1  
 6.970000000000000E7    -6.501371860504150E-1   7.511121034622192E-1  -6.633242219686508E-2  -1.384451799094677E-2  -6.635794043540955E-2  -1.363384164869785E-2   2.923944592475891E-1   9.505497813224793E-1  
 7.000000000000000E7    -6.240817308425903E-1   7.738248109817505E-1  -6.865902245044708E-2  -1.260663382709026E-2  -6.844113767147064E-2  -1.255511119961739E-2   3.041564822196960E-1   9.473033547401428E-1  
