#  HZ   S   RI   R     50.00 
! Rohde & Schwarz ZVT8 8Ports - Version 4.11 - 1300.0000k08 SN: 100242
! Date: 2026-07-31 14:45:42
! Measurements: S11 S21 S12 S22 
! 
 1.000000000000000E7    -4.001582562923431E-1   9.123731851577759E-1   5.316159129142761E-2   5.364740639925003E-2   5.313020944595337E-2   5.355855077505112E-2  -9.181366562843323E-1   3.866639435291290E-1  
 1.030000000000000E7    -3.674795627593994E-1   9.248145818710327E-1   5.677508562803268E-2   5.377200990915299E-2   5.628859996795654E-2   5.409904196858406E-2  -9.122837185859680E-1   3.995512127876282E-1  
 1.060000000000000E7    -3.310106992721558E-1   9.378396868705750E-1   6.011561676859856E-2   5.497018992900848E-2   6.040704995393753E-2   5.480761080980301E-2  -9.087184667587280E-1   4.113316833972931E-1  
 1.090000000000000E7    -2.984627485275269E-1   9.482393860816956E-1   6.392673403024674E-2   5.531275272369385E-2   6.381396204233170E-2   5.522869154810906E-2  -9.024136066436768E-1   4.232300519943237E-1  
 1.120000000000000E7    -2.627318799495697E-1   9.578430056571960E-1   6.793521344661713E-2   5.625649169087410E-2   6.747202575206757E-2   5.590096488595009E-2  -8.964589834213257E-1   4.346811771392822E-1  
 1.150000000000000E7    -2.265088260173798E-1   9.678832292556763E-1   7.166931033134460E-2   5.625573918223381E-2   7.131030410528183E-2   5.632701888680458E-2  -8.893573284149170E-1   4.444646239280701E-1  
 1.180000000000000E7    -1.908690631389618E-1   9.727507233619690E-1   7.554717361927033E-2   5.652744695544243E-2   7.537162303924561E-2   5.659949034452438E-2  -8.846334815025330E-1   4.556857943534851E-1  
 1.210000000000000E7    -1.554421037435532E-1   9.795221090316773E-1   8.007743209600449E-2   5.682827904820442E-2   7.998199760913849E-2   5.689501389861107E-2  -8.766872882843018E-1   4.681093394756317E-1  
 1.240000000000000E7    -1.190711706876755E-1   9.837743639945984E-1   8.433239161968231E-2   5.687270686030388E-2   8.437745273113251E-2   5.650721490383148E-2  -8.699656128883362E-1   4.782950282096863E-1  
 1.270000000000000E7    -8.244973421096802E-2   9.872493743896484E-1   8.939620107412338E-2   5.640460178256035E-2   8.880387991666794E-2   5.631618574261665E-2  -8.626278042793274E-1   4.923245608806610E-1  
 1.300000000000000E7    -4.597904533147812E-2   9.894990324974060E-1   9.374723583459854E-2   5.617575347423554E-2   9.367463737726212E-2   5.606112629175186E-2  -8.548871278762817E-1   5.033649802207947E-1  
 1.330000000000000E7    -8.923359215259552E-3   9.906561374664307E-1   9.883957356214523E-2   5.570657178759575E-2   9.858381003141403E-2   5.528829619288445E-2  -8.473387956619263E-1   5.156278610229492E-1  
 1.360000000000000E7     2.970692701637745E-2   9.898234605789185E-1   1.037877947092056E-1   5.543599650263786E-2   1.038770526647568E-1   5.470051988959312E-2  -8.398516178131104E-1   5.254920721054077E-1  
 1.390000000000000E7     6.598638743162155E-2   9.870237708091736E-1   1.091732233762741E-1   5.425275117158890E-2   1.089342534542084E-1   5.436099320650101E-2  -8.317159414291382E-1   5.376931428909302E-1  
 1.420000000000000E7     1.046264544129372E-1   9.839048981666565E-1   1.143550947308540E-1   5.335422232747078E-2   1.144445911049843E-1   5.331611633300781E-2  -8.249349594116211E-1   5.489302277565002E-1  
 1.450000000000000E7     1.416977792978287E-1   9.773333072662354E-1   1.201209500432015E-1   5.197514593601227E-2   1.199442446231842E-1   5.176701396703720E-2  -8.142746090888977E-1   5.609274506568909E-1  
 1.480000000000000E7     1.813726276159287E-1   9.705961942672730E-1   1.258367747068405E-1   5.020275712013245E-2   1.258705109357834E-1   5.079340562224388E-2  -8.064339756965637E-1   5.720938444137573E-1  
 1.510000000000000E7     2.185723930597305E-1   9.619519114494324E-1   1.317509859800339E-1   4.856785386800766E-2   1.315486878156662E-1   4.847335070371628E-2  -7.945670485496521E-1   5.842638015747070E-1  
 1.540000000000000E7     2.554306983947754E-1   9.521635174751282E-1   1.380063295364380E-1   4.765581339597702E-2   1.378666311502457E-1   4.688438400626183E-2  -7.882503867149353E-1   5.945010781288147E-1  
 1.570000000000000E7     2.939420044422150E-1   9.414139389991760E-1   1.444770246744156E-1   4.466327279806137E-2   1.445692181587219E-1   4.487920179963112E-2  -7.771427631378174E-1   6.070985794067383E-1  
 1.600000000000000E7     3.322867751121521E-1   9.266033768653870E-1   1.508155763149262E-1   4.207550361752510E-2   1.510518640279770E-1   4.176134988665581E-2  -7.672298550605774E-1   6.169747710227966E-1  
 1.630000000000000E7     3.688219487667084E-1   9.114599227905273E-1   1.585649251937866E-1   3.879717364907265E-2   1.578429788351059E-1   3.935460001230240E-2  -7.565669417381287E-1   6.297742724418640E-1  
 1.660000000000000E7     4.055737853050232E-1   8.929454684257507E-1   1.654105484485626E-1   3.562226518988609E-2   1.650908291339874E-1   3.510526195168495E-2  -7.438390254974365E-1   6.412969231605530E-1  
 1.690000000000000E7     4.421637952327728E-1   8.745548725128174E-1   1.729320585727692E-1   3.233450278639793E-2   1.726583689451218E-1   3.211800381541252E-2  -7.332727909088135E-1   6.516299247741699E-1  
 1.720000000000000E7     4.808931648731232E-1   8.542038202285767E-1   1.799468398094177E-1   2.746998891234398E-2   1.801318377256393E-1   2.808090299367905E-2  -7.210881710052490E-1   6.623882651329041E-1  
 1.750000000000000E7     5.122435092926025E-1   8.340943455696106E-1   1.885165423154831E-1   2.437435463070869E-2   1.886906325817108E-1   2.391905337572098E-2  -7.097978591918945E-1   6.751226782798767E-1  
 1.780000000000000E7     5.499358177185059E-1   8.058824539184570E-1   1.957549899816513E-1   1.849648542702198E-2   1.960823684930801E-1   1.903014071285725E-2  -6.964448690414429E-1   6.836535930633545E-1  
 1.810000000000000E7     5.830759406089783E-1   7.811036705970764E-1   2.056592106819153E-1   1.340739615261555E-2   2.041546702384949E-1   1.258351653814316E-2  -6.825900077819824E-1   6.978529095649719E-1  
 1.840000000000000E7     6.188082695007324E-1   7.520518898963928E-1   2.143444418907166E-1   5.849186331033707E-3   2.132705003023148E-1   6.442235782742500E-3  -6.681892275810242E-1   7.080352306365967E-1  
 1.870000000000000E7     6.496589779853821E-1   7.223832607269287E-1   2.231234610080719E-1  -2.341084182262421E-4   2.222083210945129E-1  -5.288235843181610E-4  -6.535025835037231E-1   7.185776233673096E-1  
 1.900000000000000E7     6.808670759201050E-1   6.899056434631348E-1   2.323697209358215E-1  -7.399346679449081E-3   2.319871187210083E-1  -8.081556297838688E-3  -6.381220221519470E-1   7.287850379943848E-1  
 1.930000000000000E7     7.120784521102905E-1   6.538723707199097E-1   2.415832579135895E-1  -1.727924495935440E-2   2.419649660587311E-1  -1.633295044302940E-2  -6.219767332077026E-1   7.407270073890686E-1  
 1.960000000000000E7     7.415679097175598E-1   6.159427762031555E-1   2.512101531028748E-1  -2.635809965431690E-2   2.513707876205444E-1  -2.582311816513538E-2  -6.068885922431946E-1   7.500951886177063E-1  
 1.990000000000000E7     7.675573825836182E-1   5.765246748924255E-1   2.613699734210968E-1  -3.701389953494072E-2   2.616598010063171E-1  -3.691365569829941E-2  -5.869070291519165E-1   7.620120644569397E-1  
 2.020000000000000E7     7.934662699699402E-1   5.340321660041809E-1   2.721391022205353E-1  -4.816185683012009E-2   2.714276611804962E-1  -4.801213741302490E-2  -5.698930621147156E-1   7.692889571189880E-1  
 2.050000000000000E7     8.193399906158447E-1   4.884324669837952E-1   2.824934124946594E-1  -6.077536940574646E-2   2.807228565216065E-1  -6.101388856768608E-2  -5.503687858581543E-1   7.790261507034302E-1  
 2.080000000000000E7     8.399414420127869E-1   4.400234818458557E-1   2.935506999492645E-1  -7.533727586269379E-2   2.935172617435455E-1  -7.509346306324005E-2  -5.304710268974304E-1   7.889970541000366E-1  
 2.110000000000000E7     8.599376678466797E-1   3.896303772926331E-1   3.045647442340851E-1  -9.203241020441055E-2   3.044334948062897E-1  -9.194783866405487E-2  -5.085425972938538E-1   7.972064018249512E-1  
 2.140000000000000E7     8.760676980018616E-1   3.368296027183533E-1   3.154007792472839E-1  -1.105244308710098E-1   3.144017457962036E-1  -1.088487654924393E-1  -4.860446453094482E-1   8.042635917663574E-1  
 2.170000000000000E7     8.883867263793945E-1   2.819350361824036E-1   3.263648152351379E-1  -1.295419484376907E-1   3.261844813823700E-1  -1.283844113349915E-1  -4.626393318176270E-1   8.110335469245911E-1  
 2.200000000000000E7     8.983756899833679E-1   2.211533784866333E-1   3.362693488597870E-1  -1.516991406679153E-1   3.365370035171509E-1  -1.512261927127838E-1  -4.364508688449860E-1   8.164625167846680E-1  
 2.230000000000000E7     9.024395346641541E-1   1.592939496040344E-1   3.464283645153046E-1  -1.763837486505508E-1   3.462582528591156E-1  -1.752759516239166E-1  -4.105592966079712E-1   8.206946849822998E-1  
 2.260000000000000E7     9.025560021400452E-1   9.438417851924896E-2   3.552667200565338E-1  -2.035726308822632E-1   3.570897579193115E-1  -2.037491947412491E-1  -3.834750056266785E-1   8.229763507843018E-1  
 2.290000000000000E7     8.961292505264282E-1   2.637535333633423E-2   3.635236024856567E-1  -2.339935451745987E-1   3.648990690708160E-1  -2.337149083614349E-1  -3.529561460018158E-1   8.237320184707642E-1  
 2.320000000000000E7     8.823816180229187E-1  -4.249427467584610E-2   3.708796799182892E-1  -2.690555751323700E-1   3.697686195373535E-1  -2.691353261470795E-1  -3.231321573257446E-1   8.250658512115479E-1  
 2.350000000000000E7     8.605998754501343E-1  -1.155046075582504E-1   3.748064041137695E-1  -3.081619739532471E-1   3.745409250259399E-1  -3.066003918647766E-1  -2.915420830249786E-1   8.211157321929932E-1  
 2.380000000000000E7     8.307290077209473E-1  -1.885340362787247E-1   3.763795495033264E-1  -3.488086163997650E-1   3.766324222087860E-1  -3.487971127033234E-1  -2.587101161479950E-1   8.143217563629150E-1  
 2.410000000000000E7     7.897811532020569E-1  -2.624997496604919E-1   3.727539777755737E-1  -3.959421515464783E-1   3.726148009300232E-1  -3.950205147266388E-1  -2.249062657356262E-1   8.039228916168213E-1  
 2.440000000000000E7     7.361081242561340E-1  -3.336073756217957E-1   3.647830784320831E-1  -4.477905333042145E-1   3.646179139614105E-1  -4.477412104606628E-1  -1.922031790018082E-1   7.889233231544495E-1  
 2.470000000000000E7     6.705304980278015E-1  -4.015302658081055E-1   3.497830331325531E-1  -5.032634139060974E-1   3.507432639598846E-1  -5.007460117340088E-1  -1.566007435321808E-1   7.683934569358826E-1  
 2.500000000000000E7     5.904861688613892E-1  -4.655365943908691E-1   3.261735737323761E-1  -5.607714056968689E-1   3.255158662796021E-1  -5.610721707344055E-1  -1.243983954191208E-1   7.448358535766602E-1  
 2.530000000000000E7     4.939863085746765E-1  -5.179427862167358E-1   2.935702204704285E-1  -6.224042773246765E-1   2.935254871845245E-1  -6.215725541114807E-1  -9.425275027751923E-2   7.128604054450989E-1  
 2.560000000000000E7     3.848472833633423E-1  -5.561739802360535E-1   2.476349025964737E-1  -6.832157969474793E-1   2.472603023052216E-1  -6.840756535530090E-1  -6.883174180984497E-2   6.752747893333435E-1  
 2.590000000000000E7     2.641699612140656E-1  -5.711107850074768E-1   1.854177266359329E-1  -7.428176999092102E-1   1.867539882659912E-1  -7.431947588920593E-1  -4.834049940109253E-2   6.351932287216187E-1  
 2.620000000000000E7     1.333400160074234E-1  -5.634103417396545E-1   1.097365543246269E-1  -7.961722612380981E-1   1.107640042901039E-1  -7.946971654891968E-1  -3.499010205268860E-2   5.867058038711548E-1  
 2.650000000000000E7    -1.046554651111364E-3  -5.283376574516296E-1   2.115804329514504E-2  -8.370125293731690E-1   2.005327492952347E-2  -8.376865983009338E-1  -3.522211685776711E-2   5.354680418968201E-1  
 2.680000000000000E7    -1.273916363716126E-1  -4.596049189567566E-1  -8.119578659534454E-2  -8.638197779655457E-1  -8.249045908451080E-2  -8.628900647163391E-1  -4.707616195082665E-2   4.854554235935211E-1  
 2.710000000000000E7    -2.352185547351837E-1  -3.630236983299255E-1  -1.922124922275543E-1  -8.682374358177185E-1  -1.914998590946198E-1  -8.679589033126831E-1  -6.717000901699066E-2   4.413470327854157E-1  
 2.740000000000000E7    -3.228843212127686E-1  -2.377069145441055E-1  -3.033707737922669E-1  -8.518688082695007E-1  -3.047303259372711E-1  -8.495628833770752E-1  -1.040855720639229E-1   4.018076360225678E-1  
 2.770000000000000E7    -3.738304376602173E-1  -9.962928295135498E-2  -4.116162359714508E-1  -8.114345073699951E-1  -4.115697741508484E-1  -8.109437227249146E-1  -1.451396644115448E-1   3.759202361106873E-1  
 2.800000000000000E7    -3.938131630420685E-1   4.694002494215965E-2  -5.089730024337769E-1  -7.506169080734253E-1  -5.078625679016113E-1  -7.509344220161438E-1  -1.935899555683136E-1   3.586618304252625E-1  
 2.830000000000000E7    -3.776078224182129E-1   1.878799498081207E-1  -5.882217288017273E-1  -6.758113503456116E-1  -5.880364775657654E-1  -6.756291985511780E-1  -2.375178188085556E-1   3.598599135875702E-1  
 2.860000000000000E7    -3.302032947540283E-1   3.167411684989929E-1  -6.501577496528626E-1  -5.906087160110474E-1  -6.516016125679016E-1  -5.889273285865784E-1  -2.813905477523804E-1   3.709017634391785E-1  
 2.890000000000000E7    -2.611313462257385E-1   4.242653548717499E-1  -6.955108642578125E-1  -5.012962222099304E-1  -6.940827965736389E-1  -4.999053776264191E-1  -3.185237646102905E-1   3.926352262496948E-1  
 2.920000000000000E7    -1.761181950569153E-1   5.144995450973511E-1  -7.212684750556946E-1  -4.124085307121277E-1  -7.213723063468933E-1  -4.101063013076782E-1  -3.487083315849304E-1   4.216235280036926E-1  
 2.950000000000000E7    -8.246008306741715E-2   5.768116712570190E-1  -7.342055439949036E-1  -3.260485231876373E-1  -7.331404685974121E-1  -3.252841532230377E-1  -3.696876764297485E-1   4.581235945224762E-1  
 2.980000000000000E7     1.316944882273674E-2   6.224924325942993E-1  -7.331842184066773E-1  -2.462896853685379E-1  -7.333517074584961E-1  -2.460856735706329E-1  -3.818608522415161E-1   4.972118139266968E-1  
 3.010000000000000E7     1.084574759006500E-1   6.475173234939575E-1  -7.255901098251343E-1  -1.722881495952606E-1  -7.239187359809876E-1  -1.726052910089493E-1  -3.865977823734283E-1   5.365235209465027E-1  
 3.040000000000000E7     2.010899484157562E-1   6.565673351287842E-1  -7.090349793434143E-1  -1.088282838463783E-1  -7.090669870376587E-1  -1.078260838985443E-1  -3.806471526622772E-1   5.763633847236633E-1  
 3.070000000000000E7     2.880235314369202E-1   6.537628769874573E-1  -6.899894475936890E-1  -4.709186404943466E-2  -6.891533732414246E-1  -4.808241873979569E-2  -3.702575564384460E-1   6.131211519241333E-1  
 3.100000000000000E7     3.671099841594696E-1   6.397808194160461E-1  -6.675308346748352E-1   4.451198503375053E-3  -6.663039326667786E-1   4.945082589983940E-3  -3.545298874378204E-1   6.493264436721802E-1  
 3.130000000000000E7     4.385082125663757E-1   6.180245280265808E-1  -6.409903168678284E-1   5.169134587049484E-2  -6.403435468673706E-1   5.041022598743439E-2  -3.316259980201721E-1   6.837431192398071E-1  
 3.160000000000000E7     5.054128766059876E-1   5.887365341186523E-1  -6.156303286552429E-1   9.291955083608627E-2  -6.158332824707031E-1   9.186529368162155E-2  -3.049960434436798E-1   7.157549858093262E-1  
 3.190000000000000E7     5.634959340095520E-1   5.562596321105957E-1  -5.882151722908020E-1   1.301042884588242E-1  -5.871940851211548E-1   1.299441754817963E-1  -2.731997966766357E-1   7.447527050971985E-1  
 3.220000000000000E7     6.170165538787842E-1   5.198120474815369E-1  -5.607292652130127E-1   1.623792648315430E-1  -5.600782632827759E-1   1.631882190704346E-1  -2.377965152263641E-1   7.704920172691345E-1  
 3.250000000000000E7     6.631585359573364E-1   4.802336394786835E-1  -5.342695116996765E-1   1.930007785558701E-1  -5.340406894683838E-1   1.935141086578369E-1  -1.970916986465454E-1   7.950786948204041E-1  
 3.280000000000000E7     7.027071118354797E-1   4.368919134140015E-1  -5.072156190872192E-1   2.208468317985535E-1  -5.046634078025818E-1   2.211445868015289E-1  -1.529745459556580E-1   8.151131272315979E-1  
 3.310000000000000E7     7.390128374099731E-1   3.957299292087555E-1  -4.786256253719330E-1   2.459924668073654E-1  -4.777714610099793E-1   2.463632673025131E-1  -1.023721545934677E-1   8.312436938285828E-1  
 3.340000000000000E7     7.696490883827210E-1   3.523632287979126E-1  -4.513474404811859E-1   2.710729539394379E-1  -4.503895044326782E-1   2.698445916175842E-1  -4.964321479201317E-2   8.430579304695129E-1  
 3.370000000000000E7     7.954708933830261E-1   3.077693581581116E-1  -4.233664572238922E-1   2.917314171791077E-1  -4.229212999343872E-1   2.911098003387451E-1   8.157305419445038E-3   8.525970578193665E-1  
 3.400000000000000E7     8.175191283226013E-1   2.639708518981934E-1  -3.956919610500336E-1   3.130017817020416E-1  -3.958194255828857E-1   3.121380805969238E-1   7.110788673162460E-2   8.537865281105042E-1  
 3.430000000000000E7     8.360888361930847E-1   2.205473482608795E-1  -3.666012883186340E-1   3.327939808368683E-1  -3.664048612117767E-1   3.321307897567749E-1   1.379611194133759E-1   8.507898449897766E-1  
 3.460000000000000E7     8.510872721672058E-1   1.764303147792816E-1  -3.378190398216248E-1   3.515696227550507E-1  -3.383333086967468E-1   3.512429893016815E-1   2.110020220279694E-1   8.403856754302979E-1  
 3.490000000000000E7     8.632653951644898E-1   1.343630254268646E-1  -3.053992390632629E-1   3.693625330924988E-1  -3.066917061805725E-1   3.689229190349579E-1   2.857506573200226E-1   8.204089403152466E-1  
 3.520000000000000E7     8.724768757820129E-1   9.239102900028229E-2  -2.749269008636475E-1   3.855378925800324E-1  -2.748959064483643E-1   3.857220411300659E-1   3.700182437896729E-1   7.910846471786499E-1  
 3.550000000000000E7     8.773047924041748E-1   5.014132708311081E-2  -2.416744530200958E-1   4.011693000793457E-1  -2.417582273483276E-1   4.010757803916931E-1   4.548471271991730E-1   7.489708662033081E-1  
 3.580000000000000E7     8.828472495079041E-1   1.068672537803650E-2  -2.047738283872604E-1   4.142356812953949E-1  -2.048847973346710E-1   4.141388833522797E-1   5.417969226837158E-1   6.901528835296631E-1  
 3.610000000000000E7     8.857381343841553E-1  -2.709218859672546E-2  -1.651042997837067E-1   4.268771111965179E-1  -1.649037748575211E-1   4.253920912742615E-1   6.311662197113037E-1   6.135665178298950E-1  
 3.640000000000000E7     8.864732384681702E-1  -6.528303027153015E-2  -1.233183518052101E-1   4.342744946479797E-1  -1.239647641777992E-1   4.334119260311127E-1   7.154376506805420E-1   5.172020196914673E-1  
 3.670000000000000E7     8.867735862731934E-1  -1.004781723022461E-1  -7.858276367187500E-2   4.388675391674042E-1  -7.797174155712128E-2   4.372439682483673E-1   7.917113304138184E-1   3.975366353988648E-1  
 3.700000000000000E7     8.862076997756958E-1  -1.357833445072174E-1  -3.009697422385216E-2   4.357477426528931E-1  -3.017144277691841E-2   4.344347119331360E-1   8.519942760467529E-1   2.516027092933655E-1  
 3.730000000000000E7     8.847810029983521E-1  -1.719839721918106E-1   1.887856796383858E-2   4.256708920001984E-1   1.900351420044899E-2   4.254738092422485E-1   8.883710503578186E-1   8.487030118703842E-2  
 3.760000000000000E7     8.836320042610169E-1  -2.041969299316406E-1   6.837062537670136E-2   4.059772491455078E-1   6.891734898090363E-2   4.068375527858734E-1   8.913431167602539E-1  -1.026577427983284E-1  
 3.790000000000000E7     8.823789358139038E-1  -2.392436563968658E-1   1.164737045764923E-1   3.781377971172333E-1   1.160560175776482E-1   3.780811131000519E-1   8.519997000694275E-1  -2.977551519870758E-1  
 3.820000000000000E7     8.818626999855042E-1  -2.760140299797058E-1   1.575394123792648E-1   3.409059047698975E-1   1.572644859552383E-1   3.419900238513947E-1   7.689583301544190E-1  -4.921770989894867E-1  
 3.850000000000000E7     8.784971833229065E-1  -3.138583898544312E-1   1.905591636896133E-1   2.965433299541473E-1   1.907307952642441E-1   2.957513928413391E-1   6.368526816368103E-1  -6.669802069664002E-1  
 3.880000000000000E7     8.742340803146362E-1  -3.520425260066986E-1   2.109543383121491E-1   2.466036677360535E-1   2.111722826957703E-1   2.459514141082764E-1   4.660519659519196E-1  -8.056744933128357E-1  
 3.910000000000000E7     8.681988716125488E-1  -3.926729261875153E-1   2.217581868171692E-1   1.969574391841888E-1   2.215936779975891E-1   1.963774859905243E-1   2.713592648506165E-1  -9.019021391868591E-1  
 3.940000000000000E7     8.577265739440918E-1  -4.317969679832459E-1   2.199074178934097E-1   1.484668701887131E-1   2.199749350547791E-1   1.487707346677780E-1   6.765224039554596E-2  -9.490572214126587E-1  
 3.970000000000000E7     8.458960056304932E-1  -4.727426171302795E-1   2.104284167289734E-1   1.067246943712235E-1   2.106966078281403E-1   1.070370301604271E-1  -1.326236575841904E-1  -9.508904218673706E-1  
 4.000000000000000E7     8.289451599121094E-1  -5.133097171783447E-1   1.947423219680786E-1   7.158902287483215E-2   1.942879706621170E-1   7.138670980930328E-2  -3.132167458534241E-1  -9.152244925498962E-1  
 4.030000000000000E7     8.109666705131531E-1  -5.518904328346252E-1   1.747040897607803E-1   4.385438188910484E-2   1.750899702310562E-1   4.309063404798508E-2  -4.713711142539978E-1  -8.520182371139526E-1  
 4.060000000000000E7     7.893372774124146E-1  -5.890244841575623E-1   1.540659517049789E-1   2.224893309175968E-2   1.541136205196381E-1   2.203243412077427E-2  -6.039863824844360E-1  -7.705367207527161E-1  
 4.090000000000000E7     7.656975984573364E-1  -6.254726052284241E-1   1.336282193660736E-1   6.400777027010918E-3   1.333356201648712E-1   6.214799359440804E-3  -7.105715870857239E-1  -6.790380477905273E-1  
 4.120000000000000E7     7.406038045883179E-1  -6.590319871902466E-1   1.135846003890038E-1  -4.559504799544811E-3   1.136914640665054E-1  -4.218811169266701E-3  -7.965256571769714E-1  -5.824640989303589E-1  
 4.150000000000000E7     7.138998508453369E-1  -6.894491314888001E-1   9.576008468866348E-2  -1.105363573879004E-2   9.569051861763001E-2  -1.092130318284035E-2  -8.602104187011719E-1  -4.870479702949524E-1  
 4.180000000000000E7     6.855196952819824E-1  -7.208296656608582E-1   7.979763299226761E-2  -1.536978501826525E-2   7.940052449703217E-2  -1.530108414590359E-2  -9.075179100036621E-1  -3.949985802173615E-1  
 4.210000000000000E7     6.567485928535461E-1  -7.484247684478760E-1   6.557098776102066E-2  -1.708833500742912E-2   6.550054997205734E-2  -1.714905723929405E-2  -9.428168535232544E-1  -3.072621822357178E-1  
 4.240000000000000E7     6.262720227241516E-1  -7.737646102905273E-1   5.313046276569367E-2  -1.743016950786114E-2   5.308302119374275E-2  -1.744067482650280E-2  -9.670098423957825E-1  -2.255928814411163E-1  
 4.270000000000000E7     5.948395729064941E-1  -7.986383438110352E-1   4.267946630716324E-2  -1.683757081627846E-2   4.248189181089401E-2  -1.684287749230862E-2  -9.841431379318237E-1  -1.473694741725922E-1  
 4.300000000000000E7     5.630233883857727E-1  -8.227698206901550E-1   3.350708633661270E-2  -1.549788936972618E-2   3.338695690035820E-2  -1.542559545487166E-2  -9.924738407135010E-1  -7.488013803958893E-2  
 4.330000000000000E7     5.332652926445007E-1  -8.438709378242493E-1   2.568312734365463E-2  -1.346227899193764E-2   2.562220953404903E-2  -1.353201922029257E-2  -9.950363636016846E-1  -9.049203246831894E-3  
 4.360000000000000E7     4.991089105606079E-1  -8.632341623306274E-1   1.901446469128132E-2  -1.115704141557217E-2   1.906770467758179E-2  -1.115443743765354E-2  -9.947656393051148E-1   5.218788236379623E-2  
 4.390000000000000E7     4.655247628688812E-1  -8.832493424415588E-1   1.350789610296488E-2  -8.860921487212181E-3   1.362050510942936E-2  -8.781779557466507E-3  -9.889955520629883E-1   1.095385178923607E-1  
 4.420000000000000E7     4.320811927318573E-1  -8.987967371940613E-1   8.939163759350777E-3  -6.409804336726666E-3   9.010978043079376E-3  -6.378223653882742E-3  -9.819448590278626E-1   1.627410203218460E-1  
 4.450000000000000E7     3.979998528957367E-1  -9.145906567573547E-1   5.214005708694458E-3  -3.893580287694931E-3   5.122093018144369E-3  -3.751464886590838E-3  -9.734666347503662E-1   2.099160999059677E-1  
 4.480000000000000E7     3.642705976963043E-1  -9.287930130958557E-1   2.097604330629110E-3  -1.509151537902653E-3   2.006083028391004E-3  -1.489436835981906E-3  -9.623556137084961E-1   2.550113201141357E-1  
 4.510000000000000E7     3.304521739482880E-1  -9.421728253364563E-1  -4.918165504932404E-4   7.848594686947763E-4  -4.523171228356659E-4   8.211557869799435E-4  -9.510572552680969E-1   2.970262467861176E-1  
 4.540000000000000E7     2.954550683498383E-1  -9.527505636215210E-1  -2.499217633157969E-3   2.954222029075027E-3  -2.515272703021765E-3   2.951114205643535E-3  -9.386414289474487E-1   3.361825048923492E-1  
 4.570000000000000E7     2.602826058864594E-1  -9.633160233497620E-1  -4.271863494068384E-3   4.914984572678804E-3  -4.184646997600794E-3   4.913201555609703E-3  -9.246693253517151E-1   3.727006018161774E-1  
 4.600000000000000E7     2.277323901653290E-1  -9.715151190757752E-1  -5.466416012495756E-3   6.781406700611115E-3  -5.524712614715099E-3   6.854322738945484E-3  -9.102886319160461E-1   4.061860740184784E-1  
 4.630000000000000E7     1.898404955863953E-1  -9.797332882881165E-1  -6.378993391990662E-3   8.566680364310741E-3  -6.409177090972662E-3   8.536143228411675E-3  -8.952791094779968E-1   4.367901682853699E-1  
 4.660000000000000E7     1.541981250047684E-1  -9.867740869522095E-1  -7.072684820741415E-3   1.016838289797306E-2  -7.144004572182894E-3   1.014992408454418E-2  -8.807825446128845E-1   4.678734540939331E-1  
 4.690000000000000E7     1.197149753570557E-1  -9.908062219619751E-1  -7.577021140605211E-3   1.152519974857569E-2  -7.478436920791864E-3   1.143755856901407E-2  -8.652364015579224E-1   4.953287243843079E-1  
 4.720000000000000E7     8.401207625865936E-2  -9.937337636947632E-1  -7.701454684138298E-3   1.278414204716682E-2  -7.713803090155125E-3   1.280106045305729E-2  -8.496573567390442E-1   5.217657089233398E-1  
 4.750000000000000E7     4.957180097699165E-2  -9.967747330665588E-1  -7.811945863068104E-3   1.397650223225355E-2  -7.921481505036354E-3   1.384911313652992E-2  -8.333257436752319E-1   5.463267564773560E-1  
 4.780000000000000E7     1.486317813396454E-2  -9.978711605072022E-1  -7.734381128102541E-3   1.489322818815708E-2  -7.832119241356850E-3   1.477871183305979E-2  -8.171938657760620E-1   5.693991780281067E-1  
 4.810000000000000E7    -2.075235545635223E-2  -9.976038336753845E-1  -7.604384794831276E-3   1.555388141423464E-2  -7.662705611437559E-3   1.562438067048788E-2  -8.020742535591126E-1   5.907425880432129E-1  
 4.840000000000000E7    -5.589161068201065E-2  -9.968254566192627E-1  -7.448280230164528E-3   1.643916778266430E-2  -7.412526756525040E-3   1.640709303319454E-2  -7.864967584609985E-1   6.114608645439148E-1  
 4.870000000000000E7    -9.105326235294342E-2  -9.940226674079895E-1  -7.094134110957384E-3   1.703594438731670E-2  -7.026489358395338E-3   1.692145504057407E-2  -7.707438468933106E-1   6.312755942344666E-1  
 4.900000000000000E7    -1.260363906621933E-1  -9.911028146743774E-1  -6.706281565129757E-3   1.754036173224449E-2  -6.664096377789974E-3   1.738190278410912E-2  -7.553049921989441E-1   6.497972011566162E-1  
 4.930000000000000E7    -1.606760472059250E-1  -9.855301380157471E-1  -6.178747396916151E-3   1.789547689259052E-2  -6.230329163372517E-3   1.775382831692696E-2  -7.393357157707214E-1   6.683501005172730E-1  
 4.960000000000000E7    -1.940851509571075E-1  -9.776075482368469E-1  -5.727444309741259E-3   1.804161630570889E-2  -5.695631261914969E-3   1.789415068924427E-2  -7.239548563957214E-1   6.850103139877319E-1  
 4.990000000000000E7    -2.275982797145844E-1  -9.708804488182068E-1  -5.159993190318346E-3   1.815545000135899E-2  -5.165689624845982E-3   1.804499886929989E-2  -7.085162997245789E-1   7.000306844711304E-1  
 5.020000000000000E7    -2.607238292694092E-1  -9.635803699493408E-1  -4.711551591753960E-3   1.815403439104557E-2  -4.741987213492394E-3   1.815881766378880E-2  -6.929698586463928E-1   7.161988019943237E-1  
 5.050000000000000E7    -2.945224940776825E-1  -9.537444710731506E-1  -4.160594660788775E-3   1.816509850323200E-2  -4.138079006224871E-3   1.811386458575726E-2  -6.789666414260864E-1   7.311152219772339E-1  
 5.080000000000000E7    -3.264325857162476E-1  -9.434616565704346E-1  -3.622950753197074E-3   1.799439825117588E-2  -3.677898086607456E-3   1.799211092293263E-2  -6.616160273551941E-1   7.437907457351685E-1  
 5.110000000000000E7    -3.592783212661743E-1  -9.310064315795898E-1  -3.077402245253325E-3   1.778644695878029E-2  -3.080791328102350E-3   1.777055300772190E-2  -6.478900909423828E-1   7.571786642074585E-1  
 5.140000000000000E7    -3.908352553844452E-1  -9.175477027893066E-1  -2.578610554337502E-3   1.747270487248898E-2  -2.535411622375250E-3   1.750505901873112E-2  -6.332007646560669E-1   7.717063426971436E-1  
 5.170000000000000E7    -4.217711389064789E-1  -9.038287997245789E-1  -2.018913393840194E-3   1.715192757546902E-2  -2.044332679361105E-3   1.710984297096729E-2  -6.169521808624268E-1   7.821568250656128E-1  
 5.200000000000000E7    -4.529571533203125E-1  -8.902479410171509E-1  -1.526814769022167E-3   1.671033352613449E-2  -1.551843713968992E-3   1.675226166844368E-2  -6.010311245918274E-1   7.931801080703735E-1  
 5.230000000000000E7    -4.827962219715118E-1  -8.731499314308167E-1  -1.084918272681534E-3   1.622406207025051E-2  -1.087027369067073E-3   1.621659658849239E-2  -5.873839259147644E-1   8.048486113548279E-1  
 5.260000000000000E7    -5.116406679153442E-1  -8.552815318107605E-1  -6.249705329537392E-4   1.574207842350006E-2  -6.232880987226963E-4   1.567802764475346E-2  -5.723040103912354E-1   8.160063624382019E-1  
 5.290000000000000E7    -5.413903594017029E-1  -8.374785184860230E-1  -2.074332442134619E-4   1.510374806821346E-2  -2.219590824097395E-4   1.507679931819439E-2  -5.576296448707581E-1   8.256331086158752E-1  
 5.320000000000000E7    -5.693412423133850E-1  -8.201208114624023E-1   1.636483939364553E-4   1.446962822228670E-2   1.912534935399890E-4   1.446941308677197E-2  -5.431618094444275E-1   8.357855081558228E-1  
 5.350000000000000E7    -5.957762598991394E-1  -7.997964620590210E-1   4.781184252351522E-4   1.377260591834784E-2   4.849730757996440E-4   1.378079038113356E-2  -5.299093127250671E-1   8.444727659225464E-1  
 5.380000000000000E7    -6.215319037437439E-1  -7.794063091278076E-1   7.773762336000800E-4   1.308880373835564E-2   8.098948746919632E-4   1.302894391119480E-2  -5.131719112396240E-1   8.534076213836670E-1  
 5.410000000000000E7    -6.501033306121826E-1  -7.576919198036194E-1   1.035332679748535E-3   1.234526187181473E-2   1.056206994690001E-3   1.229538768529892E-2  -4.997719228267670E-1   8.624920845031738E-1  
 5.440000000000000E7    -6.748621463775635E-1  -7.342690825462341E-1   1.279235817492008E-3   1.150492671877146E-2   1.305919722653925E-3   1.149309426546097E-2  -4.854750633239746E-1   8.702551126480103E-1  
 5.470000000000000E7    -6.979608535766602E-1  -7.124199867248535E-1   1.466202200390399E-3   1.070871856063604E-2   1.471006195060909E-3   1.067578047513962E-2  -4.702306389808655E-1   8.783862590789795E-1  
 5.500000000000000E7    -7.227562069892883E-1  -6.879927515983582E-1   1.596126006916165E-3   9.866770356893539E-3   1.580311800353229E-3   9.799432940781117E-3  -4.559386968612671E-1   8.870700001716614E-1  
 5.530000000000000E7    -7.455246448516846E-1  -6.635083556175232E-1   1.638439600355923E-3   8.992671966552734E-3   1.684676739387214E-3   8.948676288127899E-3  -4.415070116519928E-1   8.929746747016907E-1  
 5.560000000000000E7    -7.679451704025269E-1  -6.368431448936462E-1   1.742979628033936E-3   8.091015741229057E-3   1.705114846117795E-3   8.041721768677235E-3  -4.280895888805389E-1   8.999215960502625E-1  
 5.590000000000000E7    -7.889544963836670E-1  -6.118946671485901E-1   1.706295646727085E-3   7.149624638259411E-3   1.701886649243534E-3   7.157317362725735E-3  -4.129495322704315E-1   9.069575071334839E-1  
 5.620000000000000E7    -8.086900115013123E-1  -5.832130312919617E-1   1.623347867280245E-3   6.238133180886507E-3   1.622416661120951E-3   6.207497324794531E-3  -3.997718095779419E-1   9.133970737457275E-1  
 5.650000000000000E7    -8.273270130157471E-1  -5.571006536483765E-1   1.474977121688426E-3   5.277577787637711E-3   1.479976228438318E-3   5.269946996122599E-3  -3.851931095123291E-1   9.189279675483704E-1  
 5.680000000000000E7    -8.461114764213562E-1  -5.287989974021912E-1   1.329701393842697E-3   4.324767272919416E-3   1.328722340986133E-3   4.324850626289845E-3  -3.706228435039520E-1   9.245309829711914E-1  
 5.710000000000000E7    -8.635799288749695E-1  -4.986768364906311E-1   1.103518647141755E-3   3.366268472746015E-3   1.101481961086392E-3   3.365139244124293E-3  -3.574422597885132E-1   9.302347898483276E-1  
 5.740000000000000E7    -8.805072307586670E-1  -4.697638750076294E-1   8.328047697432339E-4   2.413228154182434E-3   8.172193774953485E-4   2.408914268016815E-3  -3.428446054458618E-1   9.356616139411926E-1  
 5.770000000000000E7    -8.944893479347229E-1  -4.410541057586670E-1   5.095123779028654E-4   1.452395576052368E-3   4.944491665810347E-4   1.443667453713715E-3  -3.299269080162048E-1   9.396476149559021E-1  
 5.800000000000000E7    -9.090894460678101E-1  -4.093767404556274E-1   1.309131475863978E-4   4.469237173907459E-4   1.232725044246763E-4   4.656485689338297E-4  -3.153661787509918E-1   9.460403919219971E-1  
 5.830000000000000E7    -9.223112463951111E-1  -3.783764243125916E-1  -3.268144209869206E-4  -4.862617061007768E-4  -3.514254349283874E-4  -5.185484187677503E-4  -3.025321364402771E-1   9.502484202384949E-1  
 5.860000000000000E7    -9.357682466506958E-1  -3.480913639068604E-1  -8.152236114256084E-4  -1.452570431865752E-3  -8.193638641387224E-4  -1.450208597816527E-3  -2.879760265350342E-1   9.540727138519287E-1  
 5.890000000000000E7    -9.459761381149292E-1  -3.160795569419861E-1  -1.385895768180490E-3  -2.405104460194707E-3  -1.401282846927643E-3  -2.442931756377220E-3  -2.748022377490997E-1   9.577529430389404E-1  
 5.920000000000000E7    -9.557779431343079E-1  -2.829721271991730E-1  -1.994092250242829E-3  -3.343252697959542E-3  -1.981603214517236E-3  -3.335015149787068E-3  -2.608853280544281E-1   9.627466201782227E-1  
 5.950000000000000E7    -9.647772312164307E-1  -2.507070302963257E-1  -2.632466377690435E-3  -4.294695332646370E-3  -2.625746186822653E-3  -4.299961496144533E-3  -2.466426938772202E-1   9.643775224685669E-1  
 5.980000000000000E7    -9.730250835418701E-1  -2.177597135305405E-1  -3.382503753527999E-3  -5.195705685764551E-3  -3.353041829541326E-3  -5.179395433515310E-3  -2.323788255453110E-1   9.686008691787720E-1  
 6.010000000000000E7    -9.785329103469849E-1  -1.863096356391907E-1  -4.115061834454536E-3  -6.098779849708080E-3  -4.109548404812813E-3  -6.084491498768330E-3  -2.199307680130005E-1   9.721180796623230E-1  
 6.040000000000000E7    -9.845529198646545E-1  -1.519549787044525E-1  -4.947424866259098E-3  -6.985399872064591E-3  -4.936689045280218E-3  -6.962073035538197E-3  -2.060091644525528E-1   9.759889841079712E-1  
 6.070000000000000E7    -9.904765486717224E-1  -1.202222108840942E-1  -5.799619946628809E-3  -7.874115370213985E-3  -5.801524035632610E-3  -7.830321788787842E-3  -1.929719001054764E-1   9.776659607887268E-1  
 6.100000000000000E7    -9.931194186210632E-1  -8.672378957271576E-2  -6.779079325497150E-3  -8.641622960567474E-3  -6.736841052770615E-3  -8.660671301186085E-3  -1.783299446105957E-1   9.810674786567688E-1  
 6.130000000000000E7    -9.960980415344238E-1  -5.214476585388184E-2  -7.753198035061359E-3  -9.492086246609688E-3  -7.736753672361374E-3  -9.453659877181053E-3  -1.645418703556061E-1   9.837439656257629E-1  
 6.160000000000000E7    -9.964059591293335E-1  -1.946105062961578E-2  -8.739885874092579E-3  -1.024446915835142E-2  -8.750235661864281E-3  -1.024567242711783E-2  -1.517476141452789E-1   9.845591187477112E-1  
 6.190000000000000E7    -9.964191317558289E-1   1.386836171150208E-2  -9.824262931942940E-3  -1.102278940379620E-2  -9.797058999538422E-3  -1.093229372054339E-2  -1.384560167789459E-1   9.856556057929993E-1  
 6.220000000000000E7    -9.960491657257080E-1   4.737314581871033E-2  -1.094700396060944E-2  -1.170925423502922E-2  -1.099528837949038E-2  -1.173187792301178E-2  -1.259027272462845E-1   9.888778328895569E-1  
 6.250000000000000E7    -9.936240315437317E-1   8.109052479267120E-2  -1.217413507401943E-2  -1.240924373269081E-2  -1.217166706919670E-2  -1.239792257547379E-2  -1.126217097043991E-1   9.907082319259644E-1  
 6.280000000000000E7    -9.897528290748596E-1   1.146286129951477E-1  -1.341480854898691E-2  -1.306926831603050E-2  -1.337732374668121E-2  -1.305419113487005E-2  -9.901274740695953E-2   9.921537041664124E-1  
 6.310000000000000E7    -9.850087761878967E-1   1.490091085433960E-1  -1.472196169197559E-2  -1.367557328194380E-2  -1.467865426093340E-2  -1.363660674542189E-2  -8.537054061889648E-2   9.935253262519836E-1  
 6.340000000000000E7    -9.793342351913452E-1   1.816935688257217E-1  -1.602592505514622E-2  -1.422763057053089E-2  -1.603357493877411E-2  -1.421606075018644E-2  -7.172217965126038E-2   9.950954318046570E-1  
 6.370000000000000E7    -9.728700518608093E-1   2.146480530500412E-1  -1.741715893149376E-2  -1.473336759954691E-2  -1.743000373244286E-2  -1.470234896987677E-2  -5.877782404422760E-2   9.946778416633606E-1  
 6.400000000000000E7    -9.642848372459412E-1   2.469491511583328E-1  -1.888879388570786E-2  -1.516893878579140E-2  -1.883685775101185E-2  -1.513488776981831E-2  -4.534938931465149E-2   9.964609742164612E-1  
 6.430000000000000E7    -9.549506902694702E-1   2.806528210639954E-1  -2.035183832049370E-2  -1.563662476837635E-2  -2.034131437540054E-2  -1.558756455779076E-2  -3.214347362518311E-2   9.965079426765442E-1  
 6.460000000000000E7    -9.459270834922791E-1   3.126517832279205E-1  -2.184986509382725E-2  -1.600537635385990E-2  -2.182857878506184E-2  -1.601084694266319E-2  -1.958689093589783E-2   9.957724809646606E-1  
 6.490000000000000E7    -9.357845783233643E-1   3.441659212112427E-1  -2.341630309820175E-2  -1.634039729833603E-2  -2.344998158514500E-2  -1.638444885611534E-2  -7.077082991600037E-3   9.968573451042175E-1  
 6.520000000000000E7    -9.223893880844116E-1   3.753583729267120E-1  -2.508136443793774E-2  -1.669460907578468E-2  -2.502742968499661E-2  -1.659722998738289E-2   6.738632917404175E-3   9.975802898406982E-1  
 6.550000000000000E7    -9.096416831016541E-1   4.061895012855530E-1  -2.675740793347359E-2  -1.683687791228294E-2  -2.669076249003410E-2  -1.685054600238800E-2   1.995882391929627E-2   9.953763484954834E-1  
 6.580000000000000E7    -8.948287367820740E-1   4.370923936367035E-1  -2.849669195711613E-2  -1.694932766258717E-2  -2.838567644357681E-2  -1.696749031543732E-2   3.294065594673157E-2   9.966631531715393E-1  
 6.610000000000000E7    -8.785237669944763E-1   4.665794968605042E-1  -3.018338233232498E-2  -1.703011989593506E-2  -3.006741218268871E-2  -1.690566726028919E-2   4.739096760749817E-2   9.944985508918762E-1  
 6.640000000000000E7    -8.637773394584656E-1   4.968258142471314E-1  -3.202377259731293E-2  -1.713980734348297E-2  -3.197015821933746E-2  -1.712931320071220E-2   6.013218313455582E-2   9.942859411239624E-1  
 6.670000000000000E7    -8.457400202751160E-1   5.255084633827210E-1  -3.383931890130043E-2  -1.700791157782078E-2  -3.374459594488144E-2  -1.708189584314823E-2   7.193816453218460E-2   9.940672516822815E-1  
 6.700000000000000E7    -8.268679380416870E-1   5.540602803230286E-1  -3.559647873044014E-2  -1.690213009715080E-2  -3.549312427639961E-2  -1.692661270499229E-2   8.481907844543457E-2   9.916903376579285E-1  
 6.730000000000000E7    -8.073615431785584E-1   5.819573402404785E-1  -3.738465905189514E-2  -1.688834093511105E-2  -3.745158016681671E-2  -1.669335179030895E-2   9.850282967090607E-2   9.915574193000794E-1  
 6.760000000000000E7    -7.877518534660339E-1   6.091075539588928E-1  -3.943948820233345E-2  -1.646168157458305E-2  -3.938364610075951E-2  -1.651211827993393E-2   1.116886734962463E-1   9.899985194206238E-1  
 6.790000000000000E7    -7.658024430274963E-1   6.355228424072266E-1  -4.132919386029244E-2  -1.624504849314690E-2  -4.134932160377502E-2  -1.620474644005299E-2   1.236383989453316E-1   9.873983263969421E-1  
 6.820000000000000E7    -7.436001300811768E-1   6.604525446891785E-1  -4.329013079404831E-2  -1.582862436771393E-2  -4.316509887576103E-2  -1.582106947898865E-2   1.362969577312470E-1   9.863375425338745E-1  
 6.850000000000000E7    -7.208028435707092E-1   6.864456534385681E-1  -4.541431367397308E-2  -1.537940930575132E-2  -4.524887353181839E-2  -1.540616713464260E-2   1.486470550298691E-1   9.846035242080689E-1  
 6.880000000000000E7    -6.965377926826477E-1   7.102464437484741E-1  -4.740481078624725E-2  -1.479025464504957E-2  -4.722365736961365E-2  -1.478932611644268E-2   1.621676236391068E-1   9.821285605430603E-1  
 6.910000000000000E7    -6.717080473899841E-1   7.337179780006409E-1  -4.953920096158981E-2  -1.414737477898598E-2  -4.939425364136696E-2  -1.416908018290997E-2   1.752992421388626E-1   9.801819324493408E-1  
 6.940000000000000E7    -6.466096639633179E-1   7.564844489097595E-1  -5.158412456512451E-2  -1.345377694815397E-2  -5.162952840328217E-2  -1.349817495793104E-2   1.869639307260513E-1   9.778591990470886E-1  
 6.970000000000000E7    -6.189311742782593E-1   7.778019309043884E-1  -5.365592241287231E-2  -1.275083702057600E-2  -5.364946275949478E-2  -1.247901376336813E-2   2.005959898233414E-1   9.748414754867554E-1  
 7.000000000000000E7    -5.919558405876160E-1   7.994754910469055E-1  -5.592776089906693E-2  -1.174785755574703E-2  -5.561638250946999E-2  -1.177582889795303E-2   2.129178047180176E-1   9.727972149848938E-1  
