#  HZ   S   RI   R     50.00 
! Rohde & Schwarz ZVT8 8Ports - Version 4.11 - 1300.0000k08 SN: 100242
! Date: 2026-07-31 14:35:51
! Measurements: S11 S21 S12 S22 
! 
 1.000000000000000E7    -3.961948156356812E-1   9.139679670333862E-1   5.511195957660675E-2   5.510800704360008E-2   5.504285544157028E-2   5.519006773829460E-2  -9.172809123992920E-1   3.886006772518158E-1  
 1.030000000000000E7    -3.627983927726746E-1   9.260818958282471E-1   5.877346172928810E-2   5.565707385540009E-2   5.864453688263893E-2   5.581877008080483E-2  -9.117389321327210E-1   4.020289778709412E-1  
 1.060000000000000E7    -3.257522881031036E-1   9.397427439689636E-1   6.283237040042877E-2   5.670994147658348E-2   6.268317252397537E-2   5.640105903148651E-2  -9.066280722618103E-1   4.138648509979248E-1  
 1.090000000000000E7    -2.926876842975617E-1   9.499129056930542E-1   6.667335331439972E-2   5.723429098725319E-2   6.644822657108307E-2   5.714019387960434E-2  -9.004842638969421E-1   4.260922968387604E-1  
 1.120000000000000E7    -2.560986876487732E-1   9.592991471290588E-1   7.112468034029007E-2   5.831694975495338E-2   7.075569778680801E-2   5.788620933890343E-2  -8.949799537658691E-1   4.381606578826904E-1  
 1.150000000000000E7    -2.195256054401398E-1   9.689158797264099E-1   7.525018602609634E-2   5.827189981937408E-2   7.514500617980957E-2   5.833627656102181E-2  -8.867848515510559E-1   4.476976394653320E-1  
 1.180000000000000E7    -1.831031143665314E-1   9.740722775459290E-1   7.963023334741592E-2   5.870089307427406E-2   7.967213541269302E-2   5.862821638584137E-2  -8.822311758995056E-1   4.596737325191498E-1  
 1.210000000000000E7    -1.467188000679016E-1   9.802175164222717E-1   8.461183309555054E-2   5.900389701128006E-2   8.440101146697998E-2   5.896181985735893E-2  -8.740574717521668E-1   4.722859561443329E-1  
 1.240000000000000E7    -1.090531796216965E-1   9.840163588523865E-1   8.938888460397720E-2   5.930390954017639E-2   8.941703289747238E-2   5.884606018662453E-2  -8.667171597480774E-1   4.828911125659943E-1  
 1.270000000000000E7    -7.152563333511353E-2   9.874053001403809E-1   9.501940757036209E-2   5.896420404314995E-2   9.455400705337524E-2   5.878473445773125E-2  -8.592362403869629E-1   4.973064661026001E-1  
 1.300000000000000E7    -3.384609892964363E-2   9.893267154693604E-1   1.002086773514748E-1   5.874642729759216E-2   1.001148819923401E-1   5.864428728818893E-2  -8.512970805168152E-1   5.090877413749695E-1  
 1.330000000000000E7     4.854090511798859E-3   9.901426434516907E-1   1.059247404336929E-1   5.837388709187508E-2   1.057832688093185E-1   5.789140984416008E-2  -8.427239060401917E-1   5.214744806289673E-1  
 1.360000000000000E7     4.483631253242493E-2   9.883731603622437E-1   1.118713617324829E-1   5.793429166078568E-2   1.119253188371658E-1   5.721409618854523E-2  -8.350149393081665E-1   5.318672657012940E-1  
 1.390000000000000E7     8.254134654998779E-2   9.848060607910156E-1   1.180826202034950E-1   5.665199086070061E-2   1.176756098866463E-1   5.682536959648132E-2  -8.262757062911987E-1   5.443747639656067E-1  
 1.420000000000000E7     1.227740794420242E-1   9.804776906967163E-1   1.242053359746933E-1   5.592581629753113E-2   1.244296953082085E-1   5.573132261633873E-2  -8.185447454452515E-1   5.558971166610718E-1  
 1.450000000000000E7     1.619701683521271E-1   9.727330803871155E-1   1.312430500984192E-1   5.424744635820389E-2   1.311889737844467E-1   5.414966121315956E-2  -8.066258430480957E-1   5.691754817962647E-1  
 1.480000000000000E7     2.027042806148529E-1   9.644848108291626E-1   1.384996473789215E-1   5.237121880054474E-2   1.384228318929672E-1   5.291989818215370E-2  -7.978631258010864E-1   5.804975032806397E-1  
 1.510000000000000E7     2.420548200607300E-1   9.541643857955933E-1   1.456646323204041E-1   5.053811520338059E-2   1.455491632223129E-1   5.048077926039696E-2  -7.853565812110901E-1   5.932255983352661E-1  
 1.540000000000000E7     2.813738584518433E-1   9.421108365058899E-1   1.532457470893860E-1   4.909570142626762E-2   1.532798111438751E-1   4.851813614368439E-2  -7.774899005889893E-1   6.041898727416992E-1  
 1.570000000000000E7     3.217525482177734E-1   9.296566247940064E-1   1.614563614130020E-1   4.586002975702286E-2   1.614697724580765E-1   4.569252207875252E-2  -7.653396725654602E-1   6.176898479461670E-1  
 1.600000000000000E7     3.621273934841156E-1   9.116764068603516E-1   1.697260439395905E-1   4.267990961670876E-2   1.703086346387863E-1   4.234562441706657E-2  -7.544528841972351E-1   6.276289224624634E-1  
 1.630000000000000E7     4.013215005397797E-1   8.933056592941284E-1   1.796173751354218E-1   3.850623220205307E-2   1.790829151868820E-1   3.903690725564957E-2  -7.420789003372192E-1   6.415954828262329E-1  
 1.660000000000000E7     4.404911398887634E-1   8.715803027153015E-1   1.889329403638840E-1   3.442551195621491E-2   1.883427649736404E-1   3.398469462990761E-2  -7.278234362602234E-1   6.532557010650635E-1  
 1.690000000000000E7     4.793840348720551E-1   8.491780757904053E-1   1.988750100135803E-1   3.030692040920258E-2   1.985483765602112E-1   2.982771210372448E-2  -7.150645852088928E-1   6.645900011062622E-1  
 1.720000000000000E7     5.202140212059021E-1   8.239449858665466E-1   2.084424197673798E-1   2.389623783528805E-2   2.087649703025818E-1   2.440161816775799E-2  -7.012714147567749E-1   6.759658455848694E-1  
 1.750000000000000E7     5.549149513244629E-1   7.983852028846741E-1   2.204806059598923E-1   1.895313709974289E-2   2.205280661582947E-1   1.853963360190392E-2  -6.871677637100220E-1   6.891562938690186E-1  
 1.780000000000000E7     5.947749018669128E-1   7.634921669960022E-1   2.308182865381241E-1   1.102367788553238E-2   2.311823517084122E-1   1.152124814689159E-2  -6.707494854927063E-1   6.984717249870300E-1  
 1.810000000000000E7     6.304948925971985E-1   7.311436533927918E-1   2.443477660417557E-1   3.096293658018112E-3   2.428159862756729E-1   2.380300313234329E-3  -6.538297533988953E-1   7.137205600738525E-1  
 1.840000000000000E7     6.680120229721069E-1   6.936228275299072E-1   2.571189403533936E-1  -7.820654660463333E-3   2.560608386993408E-1  -7.053513079881668E-3  -6.357929706573486E-1   7.242886424064636E-1  
 1.870000000000000E7     7.010736465454102E-1   6.541505455970764E-1   2.703513801097870E-1  -1.768137887120247E-2   2.692546844482422E-1  -1.821726001799107E-2  -6.167640686035156E-1   7.346395850181580E-1  
 1.900000000000000E7     7.341172695159912E-1   6.103714704513550E-1   2.843064069747925E-1  -2.977923676371574E-2   2.835695445537567E-1  -3.030079230666161E-2  -5.968015789985657E-1   7.450397610664368E-1  
 1.930000000000000E7     7.656673192977905E-1   5.609523653984070E-1   2.982093393802643E-1  -4.555804282426834E-2   2.989074587821960E-1  -4.434247314929962E-2  -5.756081342697144E-1   7.564019560813904E-1  
 1.960000000000000E7     7.945924997329712E-1   5.079075694084168E-1   3.130883872509003E-1  -6.173077598214150E-2   3.135610222816467E-1  -6.099493056535721E-2  -5.543047785758972E-1   7.653221487998962E-1  
 1.990000000000000E7     8.193150758743286E-1   4.518242180347443E-1   3.290029466152191E-1  -8.091142773628235E-2   3.291668593883514E-1  -8.099634200334549E-2  -5.272142887115479E-1   7.755973935127258E-1  
 2.020000000000000E7     8.410878181457520E-1   3.890177309513092E-1   3.453336358070374E-1  -1.027405560016632E-1   3.446772992610931E-1  -1.020891442894936E-1  -5.030007958412170E-1   7.809103727340698E-1  
 2.050000000000000E7     8.608230948448181E-1   3.205437362194061E-1   3.615994751453400E-1  -1.277382075786591E-1   3.594445586204529E-1  -1.271673440933228E-1  -4.750435650348663E-1   7.877125144004822E-1  
 2.080000000000000E7     8.715247511863709E-1   2.470327615737915E-1   3.777667880058289E-1  -1.577866822481155E-1   3.780063688755035E-1  -1.577302515506744E-1  -4.446654319763184E-1   7.934099435806274E-1  
 2.110000000000000E7     8.768855929374695E-1   1.680375933647156E-1   3.932099640369415E-1  -1.937507390975952E-1   3.927639722824097E-1  -1.934421360492706E-1  -4.122469425201416E-1   7.948271036148071E-1  
 2.140000000000000E7     8.722997307777405E-1   8.373453468084335E-2   4.066179990768433E-1  -2.348617911338806E-1   4.060280323028565E-1  -2.323858737945557E-1  -3.783503770828247E-1   7.942014932632446E-1  
 2.170000000000000E7     8.570214509963989E-1  -6.138280034065247E-3   4.184729158878326E-1  -2.809401750564575E-1   4.187246561050415E-1  -2.796421945095062E-1  -3.418282568454742E-1   7.891734242439270E-1  
 2.200000000000000E7     8.270035386085510E-1  -1.029914468526840E-1   4.246065318584442E-1  -3.352213501930237E-1   4.249968230724335E-1  -3.347754776477814E-1  -3.029528260231018E-1   7.791205644607544E-1  
 2.230000000000000E7     7.786597609519959E-1  -2.002101689577103E-1   4.252162277698517E-1  -3.973114788532257E-1   4.255329370498657E-1  -3.963657915592194E-1  -2.641201019287109E-1   7.630828022956848E-1  
 2.260000000000000E7     7.098833322525024E-1  -2.986886203289032E-1   4.159183502197266E-1  -4.671840071678162E-1   4.173639416694641E-1  -4.685332775115967E-1  -2.262945622205734E-1   7.389072775840759E-1  
 2.290000000000000E7     6.151921153068543E-1  -3.906452059745789E-1   3.944612443447113E-1  -5.452644824981690E-1   3.957403600215912E-1  -5.461960434913635E-1  -1.877660602331162E-1   7.062720060348511E-1  
 2.320000000000000E7     4.931755661964417E-1  -4.660298526287079E-1   3.544963598251343E-1  -6.291643977165222E-1   3.540484011173248E-1  -6.284474134445190E-1  -1.557683050632477E-1   6.678782701492310E-1  
 2.350000000000000E7     3.439393937587738E-1  -5.177790522575378E-1   2.917689681053162E-1  -7.126271724700928E-1   2.925903797149658E-1  -7.110957503318787E-1  -1.323018968105316E-1   6.162609457969666E-1  
 2.380000000000000E7     1.729980856180191E-1  -5.349149703979492E-1   2.062764912843704E-1  -7.874414324760437E-1   2.066593021154404E-1  -7.877853512763977E-1  -1.218022331595421E-1   5.570614933967590E-1  
 2.410000000000000E7    -6.739227566868067E-3  -5.020862221717835E-1   9.491321444511414E-2  -8.457368612289429E-1   9.533158689737320E-2  -8.454653024673462E-1  -1.279353797435761E-1   4.967919588088989E-1  
 2.440000000000000E7    -1.766831576824188E-1  -4.137722551822662E-1  -3.536739572882652E-2  -8.767941594123840E-1  -3.505103662610054E-2  -8.766592741012573E-1  -1.557623744010925E-1   4.398982822895050E-1  
 2.470000000000000E7    -3.178353011608124E-1  -2.797172665596008E-1  -1.739833950996399E-1  -8.753114342689514E-1  -1.724794507026672E-1  -8.740773200988770E-1  -1.971666663885117E-1   3.902343511581421E-1  
 2.500000000000000E7    -4.146661162376404E-1  -1.090699136257172E-1  -3.061357438564301E-1  -8.351895213127136E-1  -3.064635097980499E-1  -8.355724215507507E-1  -2.510901391506195E-1   3.641284406185150E-1  
 2.530000000000000E7    -4.541500508785248E-1   7.820835709571838E-2  -4.208266437053680E-1  -7.672957777976990E-1  -4.196086525917053E-1  -7.664670348167419E-1  -3.112801909446716E-1   3.543191850185394E-1  
 2.560000000000000E7    -4.414977431297302E-1   2.552935481071472E-1  -5.097516179084778E-1  -6.774247288703919E-1  -5.093553066253662E-1  -6.766363978385925E-1  -3.691873550415039E-1   3.657048642635346E-1  
 2.590000000000000E7    -3.840173184871674E-1   4.091520905494690E-1  -5.731840133666992E-1  -5.802713632583618E-1  -5.730551481246948E-1  -5.814784169197083E-1  -4.143100380897522E-1   3.909045457839966E-1  
 2.620000000000000E7    -2.997793853282929E-1   5.366610884666443E-1  -6.120380163192749E-1  -4.820652902126312E-1  -6.107800602912903E-1  -4.820343255996704E-1  -4.497725665569305E-1   4.270787835121155E-1  
 2.650000000000000E7    -1.996114552021027E-1   6.319831013679504E-1  -6.262831091880798E-1  -3.889106810092926E-1  -6.278747916221619E-1  -3.883998990058899E-1  -4.742787182331085E-1   4.702970385551453E-1  
 2.680000000000000E7    -9.263341128826141E-2   6.979252696037293E-1  -6.289139389991760E-1  -3.053614199161530E-1  -6.287033557891846E-1  -3.054198622703552E-1  -4.866264462471008E-1   5.162217617034912E-1  
 2.710000000000000E7     1.155865937471390E-2   7.400098443031311E-1  -6.220610737800598E-1  -2.308066487312317E-1  -6.224160790443420E-1  -2.299934923648834E-1  -4.887716770172119E-1   5.605199337005615E-1  
 2.740000000000000E7     1.138015165925026E-1   7.623865008354187E-1  -6.049677133560181E-1  -1.675806045532227E-1  -6.048203706741333E-1  -1.667665541172028E-1  -4.809238910675049E-1   6.052196025848389E-1  
 2.770000000000000E7     2.077003121376038E-1   7.680169343948364E-1  -5.855910181999207E-1  -1.104929745197296E-1  -5.866950154304504E-1  -1.108721420168877E-1  -4.670160710811615E-1   6.477352380752564E-1  
 2.800000000000000E7     2.947114706039429E-1   7.627218961715698E-1  -5.623440146446228E-1  -6.150456517934799E-2  -5.619660615921021E-1  -6.299660354852676E-2  -4.477641582489014E-1   6.868715286254883E-1  
 2.830000000000000E7     3.746650218963623E-1   7.467839121818543E-1  -5.389199256896973E-1  -1.952455565333366E-2  -5.403250455856323E-1  -1.976915448904038E-2  -4.234309792518616E-1   7.220101356506348E-1  
 2.860000000000000E7     4.463365972042084E-1   7.253599762916565E-1  -5.158770084381104E-1   1.654645428061485E-2  -5.159766077995300E-1   1.804844476282597E-2  -3.910675942897797E-1   7.572255134582520E-1  
 2.890000000000000E7     5.100366473197937E-1   6.975591182708740E-1  -4.928784668445587E-1   5.001556873321533E-2  -4.919261634349823E-1   4.962631687521935E-2  -3.566622138023377E-1   7.875769138336182E-1  
 2.920000000000000E7     5.693767666816711E-1   6.654456853866577E-1  -4.688389599323273E-1   7.720395177602768E-2  -4.681699275970459E-1   7.856771349906921E-2  -3.184995651245117E-1   8.147329092025757E-1  
 2.950000000000000E7     6.185697913169861E-1   6.312822699546814E-1  -4.465511143207550E-1   1.033861413598061E-1  -4.457781016826630E-1   1.039179414510727E-1  -2.737337350845337E-1   8.419861197471619E-1  
 2.980000000000000E7     6.654597520828247E-1   5.946125388145447E-1  -4.234770834445953E-1   1.261523813009262E-1  -4.241323769092560E-1   1.265291720628738E-1  -2.256066352128983E-1   8.639200329780579E-1  
 3.010000000000000E7     7.070167064666748E-1   5.562349557876587E-1  -4.018101990222931E-1   1.486926376819611E-1  -4.014191031455994E-1   1.476716250181198E-1  -1.729260683059692E-1   8.828560709953308E-1  
 3.040000000000000E7     7.436714172363281E-1   5.168098211288452E-1  -3.813047409057617E-1   1.674786061048508E-1  -3.809916079044342E-1   1.677229404449463E-1  -1.135160028934479E-1   8.965838551521301E-1  
 3.070000000000000E7     7.765413522720337E-1   4.743737578392029E-1  -3.586501479148865E-1   1.878048032522202E-1  -3.585925102233887E-1   1.875511109828949E-1  -4.993038624525070E-2   9.074774980545044E-1  
 3.100000000000000E7     8.050339818000794E-1   4.340454936027527E-1  -3.377435803413391E-1   2.062830328941345E-1  -3.367199897766113E-1   2.060129344463348E-1   2.023530006408691E-2   9.128468036651611E-1  
 3.130000000000000E7     8.294674158096314E-1   3.936293125152588E-1  -3.149613142013550E-1   2.232819199562073E-1  -3.154680430889130E-1   2.224239557981491E-1   9.626831114292145E-2   9.101356267929077E-1  
 3.160000000000000E7     8.515004515647888E-1   3.519674241542816E-1  -2.930721640586853E-1   2.408321499824524E-1  -2.936311066150665E-1   2.405300736427307E-1   1.798373460769653E-1   9.012923836708069E-1  
 3.190000000000000E7     8.699832558631897E-1   3.117471933364868E-1  -2.692241668701172E-1   2.573140263557434E-1  -2.685530483722687E-1   2.565824091434479E-1   2.707334160804749E-1   8.800624608993530E-1  
 3.220000000000000E7     8.873135447502136E-1   2.714722156524658E-1  -2.446996271610260E-1   2.725950181484222E-1  -2.436898499727249E-1   2.724539041519165E-1   3.665007650852203E-1   8.460646271705627E-1  
 3.250000000000000E7     9.007791876792908E-1   2.317976951599121E-1  -2.170060276985169E-1   2.884315848350525E-1  -2.165653109550476E-1   2.883556187152863E-1   4.717589914798737E-1   7.963544130325317E-1  
 3.280000000000000E7     9.109232425689697E-1   1.914838403463364E-1  -1.859344840049744E-1   3.027742505073547E-1  -1.855348050594330E-1   3.011300861835480E-1   5.783206224441528E-1   7.228161096572876E-1  
 3.310000000000000E7     9.210159778594971E-1   1.538409143686295E-1  -1.528573334217072E-1   3.134668767452240E-1  -1.522607505321503E-1   3.128733932971954E-1   6.863902807235718E-1   6.227108240127564E-1  
 3.340000000000000E7     9.301422238349915E-1   1.167423874139786E-1  -1.147130355238915E-1   3.222616612911224E-1  -1.150092184543610E-1   3.212755322456360E-1   7.871705889701843E-1   4.922525882720947E-1  
 3.370000000000000E7     9.355034828186035E-1   7.940012216567993E-2  -7.380275428295136E-2   3.248623907566071E-1  -7.399159669876099E-2   3.242454230785370E-1   8.712346553802490E-1   3.257340192794800E-1  
 3.400000000000000E7     9.421622157096863E-1   4.310476779937744E-2  -2.964294329285622E-2   3.210841715335846E-1  -3.025045618414879E-2   3.210077583789825E-1   9.239061474800110E-1   1.244932189583778E-1  
 3.430000000000000E7     9.483427405357361E-1   6.830707192420960E-3   1.483025029301643E-2   3.079488277435303E-1   1.507551968097687E-2   3.076452910900116E-1   9.305072426795960E-1  -1.041672825813294E-1  
 3.460000000000000E7     9.529385566711426E-1  -3.014735877513886E-2   5.718602985143662E-2   2.854497432708740E-1   5.745043233036995E-2   2.849656939506531E-1   8.751571774482727E-1  -3.451533913612366E-1  
 3.490000000000000E7     9.579295516014099E-1  -6.800103187561035E-2   9.293026477098465E-2   2.516838908195496E-1   9.430411458015442E-2   2.518022358417511E-1   7.527111768722534E-1  -5.746809840202332E-1  
 3.520000000000000E7     9.615960121154785E-1  -1.062336936593056E-1   1.199639961123467E-1   2.124493271112442E-1   1.198659390211105E-1   2.118951678276062E-1   5.685300827026367E-1  -7.650824785232544E-1  
 3.550000000000000E7     9.614904522895813E-1  -1.472815871238709E-1   1.346199065446854E-1   1.692267656326294E-1   1.346586346626282E-1   1.693645417690277E-1   3.421889245510101E-1  -8.977229595184326E-1  
 3.580000000000000E7     9.608429074287415E-1  -1.883279383182526E-1   1.378217786550522E-1   1.281824260950089E-1   1.376318037509918E-1   1.280803531408310E-1   1.019746959209442E-1  -9.625880718231201E-1  
 3.610000000000000E7     9.574788808822632E-1  -2.299965769052506E-1   1.315340250730515E-1   9.188158810138702E-2   1.313839107751846E-1   9.159839898347855E-2  -1.317332983016968E-1  -9.649600982666016E-1  
 3.640000000000000E7     9.506534337997437E-1  -2.716812193393707E-1   1.194682717323303E-1   6.197409704327583E-2   1.192782223224640E-1   6.228644028306007E-2  -3.387576639652252E-1  -9.188685417175293E-1  
 3.670000000000000E7     9.417061805725098E-1  -3.109340369701386E-1   1.041458696126938E-1   3.946042060852051E-2   1.039450466632843E-1   3.935270756483078E-2  -5.122342109680176E-1  -8.387663960456848E-1  
 3.700000000000000E7     9.297226667404175E-1  -3.505884408950806E-1   8.787089586257935E-2   2.306260354816914E-2   8.774285018444061E-2   2.307366766035557E-2  -6.504467129707336E-1  -7.420281767845154E-1  
 3.730000000000000E7     9.157571196556091E-1  -3.894582092761993E-1   7.228352874517441E-2   1.141302380710840E-2   7.204616814851761E-2   1.164594013243914E-2  -7.582084536552429E-1  -6.350041031837463E-1  
 3.760000000000000E7     9.006500840187073E-1  -4.245693981647492E-1   5.782656744122505E-2   4.386041779071093E-3   5.760838091373444E-2   4.355614539235830E-3  -8.379032015800476E-1  -5.294043421745300E-1  
 3.790000000000000E7     8.833780288696289E-1  -4.610709846019745E-1   4.484401270747185E-2  -1.742353197187185E-4   4.483299702405930E-2  -2.057992387562990E-4  -8.957032561302185E-1  -4.277060329914093E-1  
 3.820000000000000E7     8.654931187629700E-1  -4.964647889137268E-1   3.377145528793335E-2  -2.427283907309175E-3   3.367746248841286E-2  -2.422895049676299E-3  -9.367070198059082E-1  -3.299832344055176E-1  
 3.850000000000000E7     8.449213504791260E-1  -5.303117036819458E-1   2.425478585064411E-2  -3.339521121233702E-3   2.422006055712700E-2  -3.396544372662902E-3  -9.648854136466980E-1  -2.407406270503998E-1  
 3.880000000000000E7     8.242571353912354E-1  -5.616543292999268E-1   1.632480695843697E-2  -3.232010174542666E-3   1.626555621623993E-2  -3.134383354336023E-3  -9.820854067802429E-1  -1.587106883525848E-1  
 3.910000000000000E7     8.028855323791504E-1  -5.934780240058899E-1   9.663937613368034E-3  -2.439519157633185E-3   9.720400907099247E-3  -2.382218372076750E-3  -9.936079978942871E-1  -8.295657485723496E-2  
 3.940000000000000E7     7.793212532997131E-1  -6.214958429336548E-1   4.095773678272963E-3  -1.080145244486630E-3   4.152651410549879E-3  -1.138754654675722E-3  -9.958111643791199E-1  -1.405320316553116E-2  
 3.970000000000000E7     7.569408416748047E-1  -6.509569287300110E-1  -3.862971207126975E-4   4.485690442379564E-4  -3.296037320978940E-4   4.149753367528319E-4  -9.943217635154724E-1   5.042627453804016E-2  
 4.000000000000000E7     7.315626144409180E-1  -6.779722571372986E-1  -3.971260972321034E-3   2.110331784933806E-3  -3.961270675063133E-3   1.895523048005998E-3  -9.906662106513977E-1   1.072658300399780E-1  
 4.030000000000000E7     7.070755958557129E-1  -7.047866582870483E-1  -6.874364335089922E-3   3.704815637320280E-3  -6.858129519969225E-3   3.764629131183028E-3  -9.835518598556519E-1   1.602354347705841E-1  
 4.060000000000000E7     6.809684038162231E-1  -7.294715642929077E-1  -9.186994284391403E-3   5.376342684030533E-3  -9.202511049807072E-3   5.390202160924673E-3  -9.739019274711609E-1   2.097343355417252E-1  
 4.090000000000000E7     6.536247730255127E-1  -7.541562914848328E-1  -1.106961630284786E-2   7.053759414702654E-3  -1.098544709384441E-2   6.983945146203041E-3  -9.638349413871765E-1   2.531256973743439E-1  
 4.120000000000000E7     6.264925003051758E-1  -7.774038314819336E-1  -1.223863288760185E-2   8.561733178794384E-3  -1.240142714232206E-2   8.680129423737526E-3  -9.512977600097656E-1   2.961641252040863E-1  
 4.150000000000000E7     5.988627672195435E-1  -7.983703017234802E-1  -1.338005997240543E-2   9.971431456506252E-3  -1.329963933676481E-2   9.870651178061962E-3  -9.388871788978577E-1   3.342553079128265E-1  
 4.180000000000000E7     5.693732500076294E-1  -8.199071884155273E-1  -1.402748469263315E-2   1.123216841369867E-2  -1.396378688514233E-2   1.120686344802380E-2  -9.256388545036316E-1   3.682161271572113E-1  
 4.210000000000000E7     5.402594804763794E-1  -8.393467068672180E-1  -1.436964422464371E-2   1.238113455474377E-2  -1.439597178250551E-2   1.235061511397362E-2  -9.120042324066162E-1   4.017443656921387E-1  
 4.240000000000000E7     5.105307102203369E-1  -8.563646674156189E-1  -1.458877418190241E-2   1.339477673172951E-2  -1.460657734423876E-2   1.330029498785734E-2  -8.988602757453919E-1   4.317544698715210E-1  
 4.270000000000000E7     4.795040488243103E-1  -8.743221759796143E-1  -1.459495350718498E-2   1.440175063908100E-2  -1.447836495935917E-2   1.423769071698189E-2  -8.842815756797791E-1   4.619760513305664E-1  
 4.300000000000000E7     4.478121995925903E-1  -8.912822604179382E-1  -1.439375802874565E-2   1.514551043510437E-2  -1.431668270379305E-2   1.519196107983589E-2  -8.699874281883240E-1   4.892295002937317E-1  
 4.330000000000000E7     4.186388850212097E-1  -9.069974422454834E-1  -1.417921017855406E-2   1.581752113997936E-2  -1.408600900322199E-2   1.580410078167915E-2  -8.544788956642151E-1   5.139538049697876E-1  
 4.360000000000000E7     3.855847418308258E-1  -9.201257228851318E-1  -1.374195236712694E-2   1.634739339351654E-2  -1.367472391575575E-2   1.630225777626038E-2  -8.406023383140564E-1   5.374975800514221E-1  
 4.390000000000000E7     3.529858589172363E-1  -9.339623451232910E-1  -1.320707425475121E-2   1.677602715790272E-2  -1.330674719065428E-2   1.682003028690815E-2  -8.246521949768066E-1   5.594931840896606E-1  
 4.420000000000000E7     3.205268681049347E-1  -9.444728493690491E-1  -1.264145970344544E-2   1.712187193334103E-2  -1.267592515796423E-2   1.708081178367138E-2  -8.093444705009460E-1   5.809098482131958E-1  
 4.450000000000000E7     2.874038815498352E-1  -9.551640152931213E-1  -1.207370683550835E-2   1.737557724118233E-2  -1.200424693524838E-2   1.730712689459324E-2  -7.955439686775208E-1   6.007061004638672E-1  
 4.480000000000000E7     2.542921900749207E-1  -9.647974371910095E-1  -1.140529010444880E-2   1.746006309986115E-2  -1.131602749228478E-2   1.748220622539520E-2  -7.809771895408630E-1   6.193250417709351E-1  
 4.510000000000000E7     2.220492511987686E-1  -9.729877114295960E-1  -1.085951272398233E-2   1.749834977090359E-2  -1.088983751833439E-2   1.743653044104576E-2  -7.667494416236877E-1   6.378376483917236E-1  
 4.540000000000000E7     1.881359070539475E-1  -9.796367883682251E-1  -1.006941683590412E-2   1.743156835436821E-2  -1.003773882985115E-2   1.743469201028347E-2  -7.523627281188965E-1   6.550140380859375E-1  
 4.570000000000000E7     1.540515422821045E-1  -9.860328435897827E-1  -9.319350123405457E-3   1.736508682370186E-2  -9.415797889232636E-3   1.730559393763542E-2  -7.371123433113098E-1   6.720239520072937E-1  
 4.600000000000000E7     1.229543611407280E-1  -9.902226924896240E-1  -8.743084967136383E-3   1.706221885979176E-2  -8.696058765053749E-3   1.720398105680943E-2  -7.232407927513123E-1   6.867923140525818E-1  
 4.630000000000000E7     8.663058280944824E-2  -9.943471550941467E-1  -7.948370650410652E-3   1.692357286810875E-2  -7.889936678111553E-3   1.683533377945423E-2  -7.092372179031372E-1   7.006680965423584E-1  
 4.660000000000000E7     5.216573551297188E-2  -9.975407123565674E-1  -7.216690573841333E-3   1.656825095415115E-2  -7.181525230407715E-3   1.646726764738560E-2  -6.941877007484436E-1   7.163733839988709E-1  
 4.690000000000000E7     1.923425309360027E-2  -9.976688623428345E-1  -6.532800849527121E-3   1.602447777986527E-2  -6.568345241248608E-3   1.592924632132053E-2  -6.804965138435364E-1   7.294353842735291E-1  
 4.720000000000000E7    -1.510664448142052E-2  -9.971747398376465E-1  -5.875688046216965E-3   1.552887447178364E-2  -5.805285181850195E-3   1.555918157100678E-2  -6.657335162162781E-1   7.424284219741821E-1  
 4.750000000000000E7    -4.844945296645165E-2  -9.970762729644775E-1  -5.267829168587923E-3   1.504681538790464E-2  -5.151632707566023E-3   1.496600452810526E-2  -6.518961191177368E-1   7.550083994865418E-1  
 4.780000000000000E7    -8.146443963050842E-2  -9.948413372039795E-1  -4.555047024041414E-3   1.449760422110558E-2  -4.531108774244785E-3   1.437923964112997E-2  -6.369343996047974E-1   7.665179967880249E-1  
 4.810000000000000E7    -1.154945641756058E-1  -9.910625815391541E-1  -3.958077169954777E-3   1.385105587542057E-2  -3.898923983797431E-3   1.372710615396500E-2  -6.242738962173462E-1   7.772337794303894E-1  
 4.840000000000000E7    -1.487869471311569E-1  -9.874230027198792E-1  -3.456138307228684E-3   1.306635234504938E-2  -3.390658646821976E-3   1.307426951825619E-2  -6.101173162460327E-1   7.884726524353027E-1  
 4.870000000000000E7    -1.823248565196991E-1  -9.817653298377991E-1  -2.996119204908609E-3   1.236808858811855E-2  -2.914708806201816E-3   1.234340202063322E-2  -5.965592265129089E-1   7.990766763687134E-1  
 4.900000000000000E7    -2.161044180393219E-1  -9.754471778869629E-1  -2.445568097755313E-3   1.158843841403723E-2  -2.436075825244188E-3   1.151507906615734E-2  -5.830020904541016E-1   8.086030483245850E-1  
 4.930000000000000E7    -2.488473653793335E-1  -9.672322869300842E-1  -1.993839628994465E-3   1.076267659664154E-2  -2.052115276455879E-3   1.081049256026745E-2  -5.691063404083252E-1   8.190484046936035E-1  
 4.960000000000000E7    -2.802199125289917E-1  -9.565733075141907E-1  -1.619430724531412E-3   9.773994795978069E-3  -1.545835752040148E-3   9.915458969771862E-3  -5.557097792625427E-1   8.280217051506043E-1  
 4.990000000000000E7    -3.119681477546692E-1  -9.471440315246582E-1  -1.227572560310364E-3   9.012592025101185E-3  -1.262643258087337E-3   9.006313979625702E-3  -5.420446395874023E-1   8.362213373184204E-1  
 5.020000000000000E7    -3.433452844619751E-1  -9.374595284461975E-1  -9.081738535314798E-4   8.066573180258274E-3  -8.997601107694209E-4   8.060987107455730E-3  -5.288930535316467E-1   8.453625440597534E-1  
 5.050000000000000E7    -3.752045631408691E-1  -9.251216053962708E-1  -6.483178585767746E-4   7.121162954717875E-3  -6.282858084887266E-4   7.089596707373858E-3  -5.159495472908020E-1   8.545355200767517E-1  
 5.080000000000000E7    -4.054116010665894E-1  -9.127659201622009E-1  -4.297159612178803E-4   6.142124999314547E-3  -4.433021822478622E-4   6.161717697978020E-3  -5.013044476509094E-1   8.607227206230164E-1  
 5.110000000000000E7    -4.364336133003235E-1  -8.975963592529297E-1  -2.093425428029150E-4   5.161993205547333E-3  -2.264386566821486E-4   5.176167003810406E-3  -4.895604550838471E-1   8.686117529869080E-1  
 5.140000000000000E7    -4.658322930335999E-1  -8.819516301155090E-1  -1.015353191178292E-4   4.158058203756809E-3  -9.665012476034463E-5   4.142045974731445E-3  -4.758910238742828E-1   8.777664303779602E-1  
 5.170000000000000E7    -4.947173595428467E-1  -8.664473295211792E-1   1.082607195712626E-5   3.110030200332403E-3  -1.487400732003152E-5   3.092962782830000E-3  -4.617083370685577E-1   8.834041953086853E-1  
 5.200000000000000E7    -5.241441726684570E-1  -8.506810069084168E-1   5.178211722522974E-6   2.083332743495703E-3   2.657734148669988E-5   2.072115894407034E-3  -4.480223059654236E-1   8.892598152160645E-1  
 5.230000000000000E7    -5.521714687347412E-1  -8.313098549842835E-1  -2.299977495567873E-5   1.048516714945436E-3  -5.068213795311749E-6   1.046428456902504E-3  -4.357126057147980E-1   8.963922858238220E-1  
 5.260000000000000E7    -5.785831212997437E-1  -8.114317655563355E-1  -1.144187117461115E-4  -8.633849574835040E-6  -1.233702059835196E-4  -4.288398122298531E-5  -4.222380220890045E-1   9.030988812446594E-1  
 5.290000000000000E7    -6.065676212310791E-1  -7.918627858161926E-1  -2.213277039118111E-4  -1.134866732172668E-3  -2.108254411723465E-4  -1.133556477725506E-3  -4.099940359592438E-1   9.083465337753296E-1  
 5.320000000000000E7    -6.323971748352051E-1  -7.729213833808899E-1  -3.998399188276380E-4  -2.177097834646702E-3  -4.025619709864259E-4  -2.173834946006537E-3  -3.964436650276184E-1   9.145430922508240E-1  
 5.350000000000000E7    -6.567007303237915E-1  -7.508149147033691E-1  -6.423082668334246E-4  -3.266918240115047E-3  -6.262097740545869E-4  -3.291920060291886E-3  -3.848796486854553E-1   9.202343821525574E-1  
 5.380000000000000E7    -6.806500554084778E-1  -7.285851240158081E-1  -8.809880237095058E-4  -4.374107811599970E-3  -9.077703580260277E-4  -4.382508341223002E-3  -3.699779510498047E-1   9.250710606575012E-1  
 5.410000000000000E7    -7.068365812301636E-1  -7.054403424263001E-1  -1.260446850210428E-3  -5.482486449182034E-3  -1.240286510437727E-3  -5.479643121361733E-3  -3.579131960868835E-1   9.306160807609558E-1  
 5.440000000000000E7    -7.289823293685913E-1  -6.805968880653381E-1  -1.643401104956865E-3  -6.519401911646128E-3  -1.629237085580826E-3  -6.510714534670115E-3  -3.451878428459168E-1   9.349316358566284E-1  
 5.470000000000000E7    -7.501214146614075E-1  -6.571692824363709E-1  -2.105977386236191E-3  -7.573211565613747E-3  -2.116497140377760E-3  -7.640953175723553E-3  -3.311002552509308E-1   9.396718740463257E-1  
 5.500000000000000E7    -7.724300026893616E-1  -6.313237547874451E-1  -2.595212310552597E-3  -8.702993392944336E-3  -2.569801872596145E-3  -8.668952621519566E-3  -3.182477951049805E-1   9.451143145561218E-1  
 5.530000000000000E7    -7.931187152862549E-1  -6.058505177497864E-1  -3.165271366015077E-3  -9.799606166779995E-3  -3.181247971951962E-3  -9.747177362442017E-3  -3.054329454898834E-1   9.486511945724487E-1  
 5.560000000000000E7    -8.131275773048401E-1  -5.778348445892334E-1  -3.773822681978345E-3  -1.081253681331873E-2  -3.737884107977152E-3  -1.080250088125467E-2  -2.931242883205414E-1   9.526699185371399E-1  
 5.590000000000000E7    -8.319539427757263E-1  -5.514273047447205E-1  -4.430898930877447E-3  -1.184462942183018E-2  -4.433103371411562E-3  -1.186597906053066E-2  -2.794506251811981E-1   9.567243456840515E-1  
 5.620000000000000E7    -8.497761487960815E-1  -5.216905474662781E-1  -5.185169167816639E-3  -1.294504757970572E-2  -5.125097930431366E-3  -1.286031492054462E-2  -2.675126492977142E-1   9.606546759605408E-1  
 5.650000000000000E7    -8.659286499023438E-1  -4.950557351112366E-1  -5.935165565460920E-3  -1.389595959335566E-2  -5.905156023800373E-3  -1.388666871935129E-2  -2.544095516204834E-1   9.635352492332459E-1  
 5.680000000000000E7    -8.822275996208191E-1  -4.655298590660095E-1  -6.777376402169466E-3  -1.489951927214861E-2  -6.797131150960922E-3  -1.489375345408917E-2  -2.410198450088501E-1   9.665061235427856E-1  
 5.710000000000000E7    -8.973004221916199E-1  -4.349109828472138E-1  -7.674669846892357E-3  -1.587407663464546E-2  -7.671825122088194E-3  -1.588002778589726E-2  -2.287442684173584E-1   9.701859951019287E-1  
 5.740000000000000E7    -9.122097492218018E-1  -4.049490690231323E-1  -8.634949102997780E-3  -1.679970510303974E-2  -8.601051755249500E-3  -1.680018194019795E-2  -2.151076644659042E-1   9.727956056594849E-1  
 5.770000000000000E7    -9.236503243446350E-1  -3.755534887313843E-1  -9.577492251992226E-3  -1.777518168091774E-2  -9.501727297902107E-3  -1.775891520082951E-2  -2.041161954402924E-1   9.747248291969299E-1  
 5.800000000000000E7    -9.358599781990051E-1  -3.430567383766174E-1  -1.067418791353703E-2  -1.866927556693554E-2  -1.067356485873461E-2  -1.857320219278336E-2  -1.897458434104919E-1   9.790861606597900E-1  
 5.830000000000000E7    -9.468121528625488E-1  -3.119301497936249E-1  -1.171670015901327E-2  -1.954059116542339E-2  -1.174002327024937E-2  -1.953253708779812E-2  -1.783210039138794E-1   9.809377789497376E-1  
 5.860000000000000E7    -9.579297304153442E-1  -2.804279327392578E-1  -1.291879266500473E-2  -2.034531161189079E-2  -1.291164569556713E-2  -2.036475390195847E-2  -1.648204922676086E-1   9.827203750610352E-1  
 5.890000000000000E7    -9.657258391380310E-1  -2.486209422349930E-1  -1.405888702720404E-2  -2.120160311460495E-2  -1.403351128101349E-2  -2.120961062610149E-2  -1.527768224477768E-1   9.845315814018250E-1  
 5.920000000000000E7    -9.732407331466675E-1  -2.152146846055985E-1  -1.540524326264858E-2  -2.196122519671917E-2  -1.539065036922693E-2  -2.189092338085175E-2  -1.395955681800842E-1   9.873009920120239E-1  
 5.950000000000000E7    -9.796921014785767E-1  -1.828121989965439E-1  -1.663843169808388E-2  -2.267764881253243E-2  -1.661295816302300E-2  -2.261424437165260E-2  -1.266556233167648E-1   9.872269630432129E-1  
 5.980000000000000E7    -9.853330850601196E-1  -1.493920683860779E-1  -1.811419613659382E-2  -2.332670800387859E-2  -1.799708418548107E-2  -2.336015366017819E-2  -1.133359223604202E-1   9.895464777946472E-1  
 6.010000000000000E7    -9.886158704757690E-1  -1.179771721363068E-1  -1.941083930432797E-2  -2.415867894887924E-2  -1.936591044068337E-2  -2.406908757984638E-2  -1.017087548971176E-1   9.915471076965332E-1  
 6.040000000000000E7    -9.923113584518433E-1  -8.311752974987030E-2  -2.091713435947895E-2  -2.468532323837280E-2  -2.087338641285896E-2  -2.470066398382187E-2  -8.868579566478729E-2   9.931456446647644E-1  
 6.070000000000000E7    -9.957117438316345E-1  -5.142940580844879E-2  -2.239609695971012E-2  -2.532320842146874E-2  -2.234498597681522E-2  -2.534576319158077E-2  -7.668927311897278E-2   9.934206008911133E-1  
 6.100000000000000E7    -9.964236021041870E-1  -1.780730485916138E-2  -2.406223304569721E-2  -2.578443661332130E-2  -2.401405572891235E-2  -2.579438500106335E-2  -6.258405745029450E-2   9.946596622467041E-1  
 6.130000000000000E7    -9.965063929557800E-1   1.660472154617310E-2  -2.566831745207310E-2  -2.632629498839378E-2  -2.561860717833042E-2  -2.631680294871330E-2  -4.964081943035126E-2   9.958075881004334E-1  
 6.160000000000000E7    -9.948539137840271E-1   4.889708757400513E-2  -2.718156576156616E-2  -2.674712799489498E-2  -2.722302824258804E-2  -2.669221907854080E-2  -3.797559440135956E-2   9.950003027915955E-1  
 6.190000000000000E7    -9.926096796989441E-1   8.202131837606430E-2  -2.883661910891533E-2  -2.718106471002102E-2  -2.882588468492031E-2  -2.700396068394184E-2  -2.570785582065582E-2   9.945460557937622E-1  
 6.220000000000000E7    -9.895831346511841E-1   1.154660880565643E-1  -3.054543957114220E-2  -2.743461355566979E-2  -3.067576326429844E-2  -2.751398459076881E-2  -1.383781433105469E-2   9.961344003677368E-1  
 6.250000000000000E7    -9.849311113357544E-1   1.486484557390213E-1  -3.238827735185623E-2  -2.778809517621994E-2  -3.244064003229141E-2  -2.775481715798378E-2  -1.496672630310059E-3   9.962268471717835E-1  
 6.280000000000000E7    -9.788475632667542E-1   1.817902028560638E-1  -3.435864299535751E-2  -2.797004580497742E-2  -3.414464369416237E-2  -2.808936312794685E-2   1.170606911182404E-2   9.962979555130005E-1  
 6.310000000000000E7    -9.718132019042969E-1   2.154119312763214E-1  -3.629737347364426E-2  -2.836783416569233E-2  -3.610713779926300E-2  -2.821155451238155E-2   2.418085932731628E-2   9.958469867706299E-1  
 6.340000000000000E7    -9.639486670494080E-1   2.475097477436066E-1  -3.812255710363388E-2  -2.835380472242832E-2  -3.799397125840187E-2  -2.825950644910336E-2   3.731478750705719E-2   9.956592321395874E-1  
 6.370000000000000E7    -9.551928043365479E-1   2.801311612129211E-1  -4.003967344760895E-2  -2.830635383725166E-2  -4.001231119036675E-2  -2.826159447431564E-2   4.918138682842255E-2   9.940441250801086E-1  
 6.400000000000000E7    -9.441679120063782E-1   3.112258911132813E-1  -4.197730496525765E-2  -2.824573218822479E-2  -4.194218292832375E-2  -2.809592150151730E-2   6.222862005233765E-2   9.942573904991150E-1  
 6.430000000000000E7    -9.329343438148499E-1   3.442462682723999E-1  -4.413365200161934E-2  -2.825373597443104E-2  -4.403676837682724E-2  -2.801453880965710E-2   7.452562451362610E-2   9.930738210678101E-1  
 6.460000000000000E7    -9.213237166404724E-1   3.755982816219330E-1  -4.606273770332336E-2  -2.803770452737808E-2  -4.603201150894165E-2  -2.794127538800240E-2   8.601789176464081E-2   9.911546111106873E-1  
 6.490000000000000E7    -9.091218113899231E-1   4.063183665275574E-1  -4.812639951705933E-2  -2.778637781739235E-2  -4.827763140201569E-2  -2.786737680435181E-2   9.832406789064407E-2   9.909451007843018E-1  
 6.520000000000000E7    -8.936483263969421E-1   4.362263083457947E-1  -5.049651116132736E-2  -2.763619273900986E-2  -5.028593540191650E-2  -2.751949056982994E-2   1.110470294952393E-1   9.901215434074402E-1  
 6.550000000000000E7    -8.793011903762817E-1   4.659768342971802E-1  -5.259187519550324E-2  -2.718429267406464E-2  -5.246575176715851E-2  -2.712591178715229E-2   1.235803365707398E-1   9.866036772727966E-1  
 6.580000000000000E7    -8.620618581771851E-1   4.955460429191589E-1  -5.481553077697754E-2  -2.657701820135117E-2  -5.456294864416122E-2  -2.671159803867340E-2   1.361850053071976E-1   9.864801764488220E-1  
 6.610000000000000E7    -8.436290025711060E-1   5.242823958396912E-1  -5.698770657181740E-2  -2.613239362835884E-2  -5.666774883866310E-2  -2.587302774190903E-2   1.495883464813232E-1   9.830567240715027E-1  
 6.640000000000000E7    -8.267641663551331E-1   5.533157587051392E-1  -5.925916135311127E-2  -2.558456175029278E-2  -5.927137657999992E-2  -2.557871490716934E-2   1.617748439311981E-1   9.814571738243103E-1  
 6.670000000000000E7    -8.070136308670044E-1   5.805530548095703E-1  -6.154302135109901E-2  -2.478163503110409E-2  -6.141403317451477E-2  -2.493564411997795E-2   1.728859245777130E-1   9.800610542297363E-1  
 6.700000000000000E7    -7.864038944244385E-1   6.076253056526184E-1  -6.387720257043839E-2  -2.404354698956013E-2  -6.354522705078125E-2  -2.397730946540833E-2   1.851787269115448E-1   9.766913056373596E-1  
 6.730000000000000E7    -7.649933695793152E-1   6.339420676231384E-1  -6.598792970180512E-2  -2.330451831221581E-2  -6.597041338682175E-2  -2.301488816738129E-2   1.982667446136475E-1   9.752634167671204E-1  
 6.760000000000000E7    -7.433482408523560E-1   6.596300005912781E-1  -6.852972507476807E-2  -2.198389731347561E-2  -6.828092038631439E-2  -2.215026691555977E-2   2.107694596052170E-1   9.718751311302185E-1  
 6.790000000000000E7    -7.195561528205872E-1   6.847653985023499E-1  -7.074615359306335E-2  -2.119849808514118E-2  -7.073327898979187E-2  -2.106077596545219E-2   2.219645977020264E-1   9.684236049652100E-1  
 6.820000000000000E7    -6.957013010978699E-1   7.079097628593445E-1  -7.302852720022202E-2  -1.991554349660873E-2  -7.298405468463898E-2  -2.003459446132183E-2   2.342776656150818E-1   9.661403298377991E-1  
 6.850000000000000E7    -6.713033914566040E-1   7.323588132858276E-1  -7.560562342405319E-2  -1.896039955317974E-2  -7.543316483497620E-2  -1.881930977106094E-2   2.457992732524872E-1   9.632531404495239E-1  
 6.880000000000000E7    -6.453343033790588E-1   7.543039917945862E-1  -7.790104299783707E-2  -1.745507679879665E-2  -7.761726528406143E-2  -1.735857129096985E-2   2.586297392845154E-1   9.590222835540772E-1  
 6.910000000000000E7    -6.191055774688721E-1   7.764015197753906E-1  -8.046776801347733E-2  -1.591740921139717E-2  -8.022812753915787E-2  -1.586764305830002E-2   2.714527547359467E-1   9.560822844505310E-1  
 6.940000000000000E7    -5.920913815498352E-1   7.970552444458008E-1  -8.276845514774323E-2  -1.452596206218004E-2  -8.277274668216705E-2  -1.452226378023624E-2   2.823397815227509E-1   9.526988267898560E-1  
 6.970000000000000E7    -5.630565285682678E-1   8.168039917945862E-1  -8.515070378780365E-2  -1.287960633635521E-2  -8.502828329801559E-2  -1.253712177276611E-2   2.948700785636902E-1   9.482086896896362E-1  
 7.000000000000000E7    -5.345775485038757E-1   8.360399007797241E-1  -8.756835758686066E-2  -1.110999472439289E-2  -8.738709241151810E-2  -1.098410598933697E-2   3.066706061363220E-1   9.449289441108704E-1  
