#  HZ   S   RI   R     50.00 
! Rohde & Schwarz ZVT8 8Ports - Version 4.11 - 1300.0000k08 SN: 100242
! Date: 2026-07-31 14:42:55
! Measurements: S11 S21 S12 S22 
! 
 1.000000000000000E7    -4.088791012763977E-1   9.089025855064392E-1   5.047997832298279E-2   5.130074918270111E-2   5.016475170850754E-2   5.131286382675171E-2  -9.194793701171875E-1   3.853083550930023E-1  
 1.030000000000000E7    -3.764643669128418E-1   9.210878610610962E-1   5.339419096708298E-2   5.162138864398003E-2   5.329885706305504E-2   5.173523724079132E-2  -9.130452871322632E-1   3.980060219764710E-1  
 1.060000000000000E7    -3.413905501365662E-1   9.346424937248230E-1   5.668076127767563E-2   5.242357775568962E-2   5.654596164822578E-2   5.229914933443070E-2  -9.097955226898193E-1   4.096058905124664E-1  
 1.090000000000000E7    -3.100306689739227E-1   9.450025558471680E-1   5.983387306332588E-2   5.262618139386177E-2   5.978915095329285E-2   5.259836465120316E-2  -9.033573269844055E-1   4.216007292270660E-1  
 1.120000000000000E7    -2.754032909870148E-1   9.545191526412964E-1   6.328284740447998E-2   5.326074361801148E-2   6.294699013233185E-2   5.305297300219536E-2  -8.979946374893189E-1   4.333886504173279E-1  
 1.150000000000000E7    -2.409219294786453E-1   9.649889469146729E-1   6.658996641635895E-2   5.302374064922333E-2   6.649351119995117E-2   5.312206223607063E-2  -8.909674882888794E-1   4.425304234027863E-1  
 1.180000000000000E7    -2.066388130187988E-1   9.704792499542236E-1   6.990563869476318E-2   5.335242673754692E-2   6.988731026649475E-2   5.325947701931000E-2  -8.865632414817810E-1   4.534401297569275E-1  
 1.210000000000000E7    -1.731757074594498E-1   9.776679277420044E-1   7.373178005218506E-2   5.359270796179771E-2   7.354863733053207E-2   5.338567122817040E-2  -8.787476420402527E-1   4.660660028457642E-1  
 1.240000000000000E7    -1.380010247230530E-1   9.821029901504517E-1   7.718266546726227E-2   5.334763228893280E-2   7.720388472080231E-2   5.311978980898857E-2  -8.722235560417175E-1   4.763128459453583E-1  
 1.270000000000000E7    -1.034956872463226E-1   9.861238002777100E-1   8.139020204544067E-2   5.288276448845863E-2   8.088066428899765E-2   5.282127112150192E-2  -8.652882575988770E-1   4.898874163627625E-1  
 1.300000000000000E7    -6.876806914806366E-2   9.896655082702637E-1   8.503594249486923E-2   5.258503556251526E-2   8.487757295370102E-2   5.241655930876732E-2  -8.577728867530823E-1   5.004989504814148E-1  
 1.330000000000000E7    -3.345641866326332E-2   9.916875362396240E-1   8.900954574346542E-2   5.199267342686653E-2   8.899912983179092E-2   5.164358392357826E-2  -8.505519628524780E-1   5.128031373023987E-1  
 1.360000000000000E7     3.011830151081085E-3   9.917435646057129E-1   9.301923215389252E-2   5.144025757908821E-2   9.310057759284973E-2   5.088146403431892E-2  -8.432175517082214E-1   5.224819779396057E-1  
 1.390000000000000E7     3.688766807317734E-2   9.903421401977539E-1   9.725642949342728E-2   5.037875473499298E-2   9.691626578569412E-2   5.053573474287987E-2  -8.356983065605164E-1   5.341534018516541E-1  
 1.420000000000000E7     7.297147065401077E-2   9.884909987449646E-1   1.012068316340447E-1   4.970972612500191E-2   1.013711392879486E-1   4.963073506951332E-2  -8.293763399124146E-1   5.447401404380798E-1  
 1.450000000000000E7     1.076816543936729E-1   9.836245775222778E-1   1.057036742568016E-1   4.843487963080406E-2   1.055893525481224E-1   4.833346232771874E-2  -8.186012506484985E-1   5.574051141738892E-1  
 1.480000000000000E7     1.443155258893967E-1   9.787448644638062E-1   1.101873815059662E-1   4.689567163586617E-2   1.100152656435967E-1   4.733247682452202E-2  -8.115239739418030E-1   5.680699348449707E-1  
 1.510000000000000E7     1.791505068540573E-1   9.724702239036560E-1   1.144323572516441E-1   4.538894817233086E-2   1.143804714083672E-1   4.536217823624611E-2  -8.009122014045715E-1   5.796607732772827E-1  
 1.540000000000000E7     2.130454927682877E-1   9.649906754493713E-1   1.188583299517632E-1   4.461745917797089E-2   1.187168508768082E-1   4.408380761742592E-2  -7.947122454643250E-1   5.895521044731140E-1  
 1.570000000000000E7     2.482046633958817E-1   9.575594663619995E-1   1.234803348779678E-1   4.227077960968018E-2   1.235494464635849E-1   4.228328913450241E-2  -7.845610380172730E-1   6.018457412719727E-1  
 1.600000000000000E7     2.836182713508606E-1   9.461029767990112E-1   1.281971037387848E-1   4.013900831341744E-2   1.284766495227814E-1   3.998348861932755E-2  -7.757026553153992E-1   6.113414764404297E-1  
 1.630000000000000E7     3.171479403972626E-1   9.345824122428894E-1   1.334213167428970E-1   3.776501119136810E-2   1.329841762781143E-1   3.787530958652496E-2  -7.658081650733948E-1   6.237616539001465E-1  
 1.660000000000000E7     3.508275151252747E-1   9.206088781356812E-1   1.383861303329468E-1   3.520658239722252E-2   1.380792558193207E-1   3.489720076322556E-2  -7.549476027488709E-1   6.357099413871765E-1  
 1.690000000000000E7     3.842447400093079E-1   9.070864319801331E-1   1.432011425495148E-1   3.300847485661507E-2   1.430653184652329E-1   3.260036185383797E-2  -7.451198101043701E-1   6.454879045486450E-1  
 1.720000000000000E7     4.191444814205170E-1   8.920404314994812E-1   1.477119028568268E-1   2.944640070199966E-2   1.477733850479126E-1   2.975035086274147E-2  -7.345001697540283E-1   6.559379100799561E-1  
 1.750000000000000E7     4.474991858005524E-1   8.779090046882629E-1   1.535602062940598E-1   2.724175900220871E-2   1.536316573619843E-1   2.692690119147301E-2  -7.247153520584106E-1   6.684761047363281E-1  
 1.780000000000000E7     4.824632704257965E-1   8.562555909156799E-1   1.579732596874237E-1   2.311909571290016E-2   1.579961329698563E-1   2.358972281217575E-2  -7.126547694206238E-1   6.769379377365112E-1  
 1.810000000000000E7     5.121456980705261E-1   8.386869430541992E-1   1.641562432050705E-1   1.986428722739220E-2   1.631236374378204E-1   1.927640102803707E-2  -7.009933590888977E-1   6.914250254631043E-1  
 1.840000000000000E7     5.447469353675842E-1   8.185477256774902E-1   1.695463359355927E-1   1.492013502866030E-2   1.688668578863144E-1   1.535471901297569E-2  -6.885690689086914E-1   7.011834979057312E-1  
 1.870000000000000E7     5.729897618293762E-1   7.969941496849060E-1   1.745856106281281E-1   1.145494729280472E-2   1.739537417888641E-1   1.114539243280888E-2  -6.754565834999085E-1   7.116504907608032E-1  
 1.900000000000000E7     6.016153097152710E-1   7.747941613197327E-1   1.799517124891281E-1   6.993865594267845E-3   1.795683503150940E-1   6.592012941837311E-3  -6.624838709831238E-1   7.222936153411865E-1  
 1.930000000000000E7     6.308252811431885E-1   7.501897215843201E-1   1.851802319288254E-1   1.120094209909439E-3   1.852432787418366E-1   2.076478675007820E-3  -6.492766141891480E-1   7.344264984130859E-1  
 1.960000000000000E7     6.585284471511841E-1   7.243458628654480E-1   1.905997842550278E-1  -3.911985084414482E-3   1.904896795749664E-1  -3.345973789691925E-3  -6.370517611503601E-1   7.437876462936401E-1  
 1.990000000000000E7     6.829547882080078E-1   6.978719234466553E-1   1.959456354379654E-1  -9.508052840828896E-3   1.962409913539887E-1  -9.373786859214306E-3  -6.205614209175110E-1   7.563450336456299E-1  
 2.020000000000000E7     7.088341712951660E-1   6.706342101097107E-1   2.017490267753601E-1  -1.504245027899742E-2   2.011829763650894E-1  -1.498158555477858E-2  -6.069024205207825E-1   7.637810707092285E-1  
 2.050000000000000E7     7.348066568374634E-1   6.415277719497681E-1   2.069369554519653E-1  -2.126105129718781E-2   2.057584822177887E-1  -2.167418971657753E-2  -5.915728807449341E-1   7.744185328483582E-1  
 2.080000000000000E7     7.575582265853882E-1   6.106371879577637E-1   2.128395587205887E-1  -2.820286713540554E-2   2.127549946308136E-1  -2.797043509781361E-2  -5.766100287437439E-1   7.863179445266724E-1  
 2.110000000000000E7     7.802728414535523E-1   5.807005763053894E-1   2.184710353612900E-1  -3.587725013494492E-2   2.185297310352325E-1  -3.580052033066750E-2  -5.592310428619385E-1   7.963314056396484E-1  
 2.140000000000000E7     8.014538884162903E-1   5.490667223930359E-1   2.242222279310226E-1  -4.410149529576302E-2   2.230379730463028E-1  -4.310765862464905E-2  -5.425450801849365E-1   8.052920103073120E-1  
 2.170000000000000E7     8.193163871765137E-1   5.173066854476929E-1   2.294638007879257E-1  -5.174838006496429E-2   2.290919721126556E-1  -5.092298984527588E-2  -5.252893567085266E-1   8.150379657745361E-1  
 2.200000000000000E7     8.394385576248169E-1   4.821619987487793E-1   2.346476912498474E-1  -6.065327674150467E-2   2.345054596662521E-1  -6.034034490585327E-2  -5.055567026138306E-1   8.240936398506165E-1  
 2.230000000000000E7     8.549970984458923E-1   4.475124180316925E-1   2.400100827217102E-1  -6.979018449783325E-2   2.394872754812241E-1  -6.923858076334000E-2  -4.872577190399170E-1   8.330295085906982E-1  
 2.260000000000000E7     8.710700273513794E-1   4.116405844688416E-1   2.448511421680450E-1  -7.963462918996811E-2   2.461320012807846E-1  -7.914561033248901E-2  -4.682535827159882E-1   8.415994048118591E-1  
 2.290000000000000E7     8.850103020668030E-1   3.756369948387146E-1   2.500781714916229E-1  -8.976711332798004E-2   2.504357695579529E-1  -8.919478207826614E-2  -4.463661909103394E-1   8.494079113006592E-1  
 2.320000000000000E7     8.962873816490173E-1   3.384390473365784E-1   2.554134428501129E-1  -1.014450341463089E-1   2.549742460250855E-1  -1.016855984926224E-1  -4.258407354354858E-1   8.595244884490967E-1  
 2.350000000000000E7     9.073222875595093E-1   2.993925809860230E-1   2.602997720241547E-1  -1.138763427734375E-1   2.597438097000122E-1  -1.130555123090744E-1  -4.043995738029480E-1   8.670215010643005E-1  
 2.380000000000000E7     9.159359335899353E-1   2.612745761871338E-1   2.644332349300385E-1  -1.255396902561188E-1   2.645984888076782E-1  -1.253458857536316E-1  -3.816384375095367E-1   8.743697404861450E-1  
 2.410000000000000E7     9.242379665374756E-1   2.210734188556671E-1   2.685714364051819E-1  -1.395249366760254E-1   2.679000496864319E-1  -1.389886438846588E-1  -3.572025299072266E-1   8.801572918891907E-1  
 2.440000000000000E7     9.285320043563843E-1   1.819537431001663E-1   2.728275954723358E-1  -1.540276408195496E-1   2.728013992309570E-1  -1.540182977914810E-1  -3.337422609329224E-1   8.864567875862122E-1  
 2.470000000000000E7     9.318077564239502E-1   1.418374478816986E-1   2.761391699314117E-1  -1.693732738494873E-1   2.757656574249268E-1  -1.673204600811005E-1  -3.072655200958252E-1   8.906232714653015E-1  
 2.500000000000000E7     9.342801570892334E-1   1.006477922201157E-1   2.786698937416077E-1  -1.846481561660767E-1   2.786641418933868E-1  -1.850442737340927E-1  -2.800159752368927E-1   8.964089751243591E-1  
 2.530000000000000E7     9.337989091873169E-1   5.982516705989838E-2   2.821577191352844E-1  -2.011237144470215E-1   2.820062637329102E-1  -2.004914730787277E-1  -2.528860569000244E-1   8.993021249771118E-1  
 2.560000000000000E7     9.305270314216614E-1   1.979663968086243E-2   2.836995720863342E-1  -2.181101888418198E-1   2.844284772872925E-1  -2.180581986904144E-1  -2.243734151124954E-1   9.022931456565857E-1  
 2.590000000000000E7     9.248104691505432E-1  -2.092061378061771E-2   2.845358848571777E-1  -2.380525320768356E-1   2.850715816020966E-1  -2.381150573492050E-1  -1.942145228385925E-1   9.063193798065186E-1  
 2.620000000000000E7     9.174154996871948E-1  -6.279814243316650E-2   2.848396003246307E-1  -2.588589787483215E-1   2.847509384155273E-1  -2.576691210269928E-1  -1.607729345560074E-1   9.061696529388428E-1  
 2.650000000000000E7     9.079917073249817E-1  -1.029357910156250E-1   2.850539982318878E-1  -2.782527208328247E-1   2.847763299942017E-1  -2.789779007434845E-1  -1.295870095491409E-1   9.050024151802063E-1  
 2.680000000000000E7     8.952406644821167E-1  -1.427992135286331E-1   2.838900089263916E-1  -3.004782795906067E-1   2.835301756858826E-1  -3.011170029640198E-1  -9.644897282123566E-2   9.024025797843933E-1  
 2.710000000000000E7     8.805551528930664E-1  -1.832673549652100E-1   2.795132696628571E-1  -3.246155083179474E-1   2.790387272834778E-1  -3.241788744926453E-1  -6.131407618522644E-2   8.997692465782166E-1  
 2.740000000000000E7     8.633628487586975E-1  -2.228118330240250E-1   2.769235372543335E-1  -3.484770655632019E-1   2.758681476116180E-1  -3.490972816944122E-1  -2.476477436721325E-2   8.911193609237671E-1  
 2.770000000000000E7     8.440333008766174E-1  -2.594507932662964E-1   2.699774503707886E-1  -3.744634389877319E-1   2.695732414722443E-1  -3.751448392868042E-1   1.279990654438734E-2   8.832577466964722E-1  
 2.800000000000000E7     8.230778574943543E-1  -2.961345911026001E-1   2.627094984054565E-1  -4.003782272338867E-1   2.637391984462738E-1  -4.004335105419159E-1   5.186307430267334E-2   8.716474175453186E-1  
 2.830000000000000E7     7.968635559082031E-1  -3.325838744640350E-1   2.524271309375763E-1  -4.272590279579163E-1   2.513540089130402E-1  -4.284973144531250E-1   8.928652107715607E-2   8.593168258666992E-1  
 2.860000000000000E7     7.695176005363464E-1  -3.661448657512665E-1   2.401256710290909E-1  -4.566979408264160E-1   2.385473251342773E-1  -4.577224254608154E-1   1.327064633369446E-1   8.416653871536255E-1  
 2.890000000000000E7     7.400847077369690E-1  -3.961531817913055E-1   2.238551080226898E-1  -4.871436357498169E-1   2.237787097692490E-1  -4.867269992828369E-1   1.729357391595841E-1   8.217350244522095E-1  
 2.920000000000000E7     7.079055905342102E-1  -4.262026548385620E-1   2.079265564680100E-1  -5.166824460029602E-1   2.055546045303345E-1  -5.162646174430847E-1   2.134173065423966E-1   7.976610660552979E-1  
 2.950000000000000E7     6.742817759513855E-1  -4.512885212898254E-1   1.851569116115570E-1  -5.493032932281494E-1   1.844590008258820E-1  -5.476948618888855E-1   2.572551965713501E-1   7.688579559326172E-1  
 2.980000000000000E7     6.372949481010437E-1  -4.754584729671478E-1   1.604631096124649E-1  -5.791376233100891E-1   1.596601456403732E-1  -5.802617669105530E-1   2.988577783107758E-1   7.357317209243774E-1  
 3.010000000000000E7     6.003508567810059E-1  -4.953205883502960E-1   1.303105503320694E-1  -6.103580594062805E-1   1.311106234788895E-1  -6.101028323173523E-1   3.398289084434509E-1   6.978052258491516E-1  
 3.040000000000000E7     5.593953132629395E-1  -5.111621022224426E-1   9.674383699893951E-2  -6.413982510566711E-1   9.619181603193283E-2  -6.417614221572876E-1   3.780897259712219E-1   6.526771783828735E-1  
 3.070000000000000E7     5.190576314926148E-1  -5.224775671958923E-1   5.790399760007858E-2  -6.687234044075012E-1   5.756600946187973E-2  -6.676399111747742E-1   4.159262776374817E-1   6.049210429191589E-1  
 3.100000000000000E7     4.783222079277039E-1  -5.285179018974304E-1   1.337743178009987E-2  -6.957614421844482E-1   1.358017697930336E-2  -6.939673423767090E-1   4.514894485473633E-1   5.502018928527832E-1  
 3.130000000000000E7     4.390951097011566E-1  -5.324189066886902E-1  -3.479717671871185E-2  -7.185512781143189E-1  -3.368375450372696E-2  -7.188316583633423E-1   4.799152016639710E-1   4.886908829212189E-1  
 3.160000000000000E7     3.996212184429169E-1  -5.279199481010437E-1  -8.887600898742676E-2  -7.386974096298218E-1  -8.819233626127243E-2  -7.390734553337097E-1   5.053414702415466E-1   4.235489070415497E-1  
 3.190000000000000E7     3.619900345802307E-1  -5.204938650131226E-1  -1.469592154026032E-1  -7.533574700355530E-1  -1.455882191658020E-1  -7.520585656166077E-1   5.245482921600342E-1   3.516610264778137E-1  
 3.220000000000000E7     3.268105089664459E-1  -5.100515484809876E-1  -2.080265283584595E-1  -7.638253569602966E-1  -2.077117562294006E-1  -7.619327306747437E-1   5.350545048713684E-1   2.766410112380981E-1  
 3.250000000000000E7     2.973585724830627E-1  -4.929525852203369E-1  -2.740925252437592E-1  -7.657387852668762E-1  -2.748964428901672E-1  -7.648088335990906E-1   5.378624200820923E-1   1.979600042104721E-1  
 3.280000000000000E7     2.718658149242401E-1  -4.723979830741882E-1  -3.434435725212097E-1  -7.589621543884277E-1  -3.404743075370789E-1  -7.581638693809509E-1   5.308985710144043E-1   1.156496256589890E-1  
 3.310000000000000E7     2.495546191930771E-1  -4.530909955501556E-1  -4.108824133872986E-1  -7.456701993942261E-1  -4.106628894805908E-1  -7.438719868659973E-1   5.115649104118347E-1   3.372038155794144E-2  
 3.340000000000000E7     2.358383834362030E-1  -4.311977624893189E-1  -4.813173413276672E-1  -7.213711142539978E-1  -4.797692298889160E-1  -7.213553786277771E-1   4.842931032180786E-1  -4.708744958043098E-2  
 3.370000000000000E7     2.262037247419357E-1  -4.073272943496704E-1  -5.476933121681213E-1  -6.886538863182068E-1  -5.466876626014710E-1  -6.890600919723511E-1   4.428295195102692E-1  -1.252275109291077E-1  
 3.400000000000000E7     2.235737144947052E-1  -3.862225115299225E-1  -6.105276346206665E-1  -6.470619440078735E-1  -6.109846234321594E-1  -6.475757360458374E-1   3.929934501647949E-1  -1.963195204734802E-1  
 3.430000000000000E7     2.257063686847687E-1  -3.688816726207733E-1  -6.693613529205322E-1  -5.979640483856201E-1  -6.688547134399414E-1  -5.970427393913269E-1   3.361186385154724E-1  -2.626625299453735E-1  
 3.460000000000000E7     2.325234115123749E-1  -3.528332412242889E-1  -7.214039564132690E-1  -5.415140986442566E-1  -7.207071185112000E-1  -5.403099060058594E-1   2.697792947292328E-1  -3.169810473918915E-1  
 3.490000000000000E7     2.435599416494370E-1  -3.453606963157654E-1  -7.639269828796387E-1  -4.785277545452118E-1  -7.648406624794006E-1  -4.768349230289459E-1   1.981238126754761E-1  -3.664590418338776E-1  
 3.520000000000000E7     2.582131326198578E-1  -3.381346166133881E-1  -8.011821508407593E-1  -4.114464521408081E-1  -7.997264266014099E-1  -4.112570583820343E-1   1.210642680525780E-1  -4.027442038059235E-1  
 3.550000000000000E7     2.745355665683746E-1  -3.380331993103027E-1  -8.279656767845154E-1  -3.412200510501862E-1  -8.276472091674805E-1  -3.410365879535675E-1   4.179318994283676E-2  -4.270814061164856E-1  
 3.580000000000000E7     2.886347770690918E-1  -3.439673185348511E-1  -8.463022112846375E-1  -2.703961133956909E-1  -8.455145359039307E-1  -2.711469829082489E-1  -3.667688742280006E-2  -4.438948035240173E-1  
 3.610000000000000E7     3.031636476516724E-1  -3.584648072719574E-1  -8.560258150100708E-1  -2.003453224897385E-1  -8.550593256950378E-1  -2.001103460788727E-1  -1.150314360857010E-1  -4.501257538795471E-1  
 3.640000000000000E7     3.157888948917389E-1  -3.742599487304688E-1  -8.572416305541992E-1  -1.308117806911469E-1  -8.581669330596924E-1  -1.319731175899506E-1  -1.907456815242767E-1  -4.451442360877991E-1  
 3.670000000000000E7     3.257711529731751E-1  -3.955127596855164E-1  -8.532323837280273E-1  -6.444190442562103E-2  -8.516784310340881E-1  -6.443091481924057E-2  -2.609726786613464E-1  -4.356873035430908E-1  
 3.700000000000000E7     3.293703794479370E-1  -4.205684959888458E-1  -8.414514660835266E-1  -6.670951843261719E-4  -8.413140177726746E-1  -1.984469592571259E-3  -3.285044431686401E-1  -4.172032773494721E-1  
 3.730000000000000E7     3.306732475757599E-1  -4.465008676052094E-1  -8.246912956237793E-1   6.015820056200028E-2  -8.243096470832825E-1   5.833953991532326E-2  -3.892133831977844E-1  -3.926514685153961E-1  
 3.760000000000000E7     3.251502513885498E-1  -4.769179522991180E-1  -8.038241863250732E-1   1.132146269083023E-1  -8.038993477821350E-1   1.133411377668381E-1  -4.453149437904358E-1  -3.647539019584656E-1  
 3.790000000000000E7     3.176966011524200E-1  -5.099365115165710E-1  -7.775822877883911E-1   1.644754409790039E-1  -7.781286835670471E-1   1.641680598258972E-1  -4.956928789615631E-1  -3.352215588092804E-1  
 3.820000000000000E7     3.026428520679474E-1  -5.420341491699219E-1  -7.510181665420532E-1   2.101703584194183E-1  -7.509644627571106E-1   2.119106501340866E-1  -5.403777360916138E-1  -2.989738583564758E-1  
 3.850000000000000E7     2.854072451591492E-1  -5.733872652053833E-1  -7.207306027412415E-1   2.533785104751587E-1  -7.194536328315735E-1   2.551825940608978E-1  -5.822392702102661E-1  -2.642211914062500E-1  
 3.880000000000000E7     2.611838281154633E-1  -6.017757058143616E-1  -6.898629665374756E-1   2.929782271385193E-1  -6.877801418304443E-1   2.911590039730072E-1  -6.173524260520935E-1  -2.276159226894379E-1  
 3.910000000000000E7     2.351418882608414E-1  -6.321692466735840E-1  -6.556409001350403E-1   3.287992179393768E-1  -6.560212373733521E-1   3.283146023750305E-1  -6.479893326759338E-1  -1.905532926321030E-1  
 3.940000000000000E7     2.030789107084274E-1  -6.595477461814880E-1  -6.218184232711792E-1   3.578255772590637E-1  -6.217911839485169E-1   3.580874800682068E-1  -6.737473607063294E-1  -1.519148647785187E-1  
 3.970000000000000E7     1.688140481710434E-1  -6.859890222549439E-1  -5.881187319755554E-1   3.866330087184906E-1  -5.880134701728821E-1   3.878221213817596E-1  -6.947992444038391E-1  -1.134380325675011E-1  
 4.000000000000000E7     1.291758716106415E-1  -7.067378163337708E-1  -5.536034107208252E-1   4.123142957687378E-1  -5.528210401535034E-1   4.120670855045319E-1  -7.144170999526978E-1  -7.729414105415344E-2  
 4.030000000000000E7     8.534041047096252E-2  -7.257397770881653E-1  -5.208423137664795E-1   4.337838888168335E-1  -5.178300738334656E-1   4.339296817779541E-1  -7.309380173683167E-1  -4.183478653430939E-2  
 4.060000000000000E7     4.102858528494835E-2  -7.418965697288513E-1  -4.853897094726563E-1   4.530036449432373E-1  -4.845474958419800E-1   4.540528059005737E-1  -7.427188158035278E-1  -4.828371107578278E-3  
 4.090000000000000E7    -6.457820534706116E-3  -7.539013624191284E-1  -4.495770335197449E-1   4.711455106735230E-1  -4.486917555332184E-1   4.700466096401215E-1  -7.543319463729858E-1   2.829497121274471E-2  
 4.120000000000000E7    -5.789829790592194E-2  -7.639416456222534E-1  -4.147658646106720E-1   4.850353896617889E-1  -4.161103665828705E-1   4.862058758735657E-1  -7.612057328224182E-1   6.386008858680725E-2  
 4.150000000000000E7    -1.109793633222580E-1  -7.650125026702881E-1  -3.822501599788666E-1   4.995594322681427E-1  -3.825997114181519E-1   4.985099434852600E-1  -7.668674588203430E-1   9.532946348190308E-2  
 4.180000000000000E7    -1.655515432357788E-1  -7.639170885086060E-1  -3.478764891624451E-1   5.108695030212402E-1  -3.476644754409790E-1   5.085949897766113E-1  -7.723098993301392E-1   1.253400295972824E-1  
 4.210000000000000E7    -2.224730551242828E-1  -7.572563290596008E-1  -3.150219917297363E-1   5.195580720901489E-1  -3.151456117630005E-1   5.196782946586609E-1  -7.749893069267273E-1   1.550330370664597E-1  
 4.240000000000000E7    -2.796500921249390E-1  -7.457107901573181E-1  -2.821637690067291E-1   5.265498757362366E-1  -2.821169793605804E-1   5.271431207656860E-1  -7.766978740692139E-1   1.826538741588593E-1  
 4.270000000000000E7    -3.385171890258789E-1  -7.271949052810669E-1  -2.488298565149307E-1   5.344680547714233E-1  -2.478879988193512E-1   5.332458019256592E-1  -7.773815989494324E-1   2.111773788928986E-1  
 4.300000000000000E7    -3.968372046947479E-1  -7.035679221153259E-1  -2.152555137872696E-1   5.384920239448547E-1  -2.155620455741882E-1   5.376634597778320E-1  -7.761455178260803E-1   2.378936260938644E-1  
 4.330000000000000E7    -4.558653831481934E-1  -6.772829890251160E-1  -1.823142170906067E-1   5.413771271705627E-1  -1.830852627754211E-1   5.412959456443787E-1  -7.735630869865418E-1   2.625704109668732E-1  
 4.360000000000000E7    -5.141148567199707E-1  -6.403545141220093E-1  -1.510955691337585E-1   5.414031744003296E-1  -1.511725336313248E-1   5.416434407234192E-1  -7.717497944831848E-1   2.870251834392548E-1  
 4.390000000000000E7    -5.708972215652466E-1  -5.963696837425232E-1  -1.180401369929314E-1   5.421904325485230E-1  -1.161318719387054E-1   5.428533554077148E-1  -7.677096724510193E-1   3.082806169986725E-1  
 4.420000000000000E7    -6.238988041877747E-1  -5.476636886596680E-1  -8.426940441131592E-2   5.408911108970642E-1  -8.362317085266113E-2   5.400458574295044E-1  -7.634840607643127E-1   3.312515318393707E-1  
 4.450000000000000E7    -6.757420897483826E-1  -4.899785518646240E-1  -5.317820981144905E-2   5.373060107231140E-1  -5.221390351653099E-2   5.369294881820679E-1  -7.601357698440552E-1   3.523999154567719E-1  
 4.480000000000000E7    -7.233078479766846E-1  -4.249901771545410E-1  -2.010517939925194E-2   5.316720008850098E-1  -1.970478519797325E-2   5.320447683334351E-1  -7.560436129570007E-1   3.717801868915558E-1  
 4.510000000000000E7    -7.659614086151123E-1  -3.531341254711151E-1   1.234290748834610E-2   5.250173211097717E-1   1.281699538230896E-2   5.251711010932922E-1  -7.512189149856567E-1   3.917600810527802E-1  
 4.540000000000000E7    -8.007634878158569E-1  -2.739193439483643E-1   4.533984512090683E-2   5.166534185409546E-1   4.386084526777268E-2   5.171494483947754E-1  -7.463163137435913E-1   4.106266498565674E-1  
 4.570000000000000E7    -8.298561573028565E-1  -1.872422099113464E-1   7.793054729700089E-2   5.057000517845154E-1   7.734952867031097E-2   5.060127377510071E-1  -7.406516671180725E-1   4.281948208808899E-1  
 4.600000000000000E7    -8.508821129798889E-1  -9.408019483089447E-2   1.073306053876877E-1   4.919999539852142E-1   1.094253584742546E-1   4.916080832481384E-1  -7.359768152236939E-1   4.449675381183624E-1  
 4.630000000000000E7    -8.585989475250244E-1   6.769806146621704E-3   1.390428543090820E-1   4.757561087608337E-1   1.397245824337006E-1   4.747661352157593E-1  -7.311550974845886E-1   4.613334536552429E-1  
 4.660000000000000E7    -8.549665808677673E-1   1.122466027736664E-1   1.714168488979340E-1   4.575726389884949E-1   1.709111034870148E-1   4.567686617374420E-1  -7.262001633644104E-1   4.782045185565949E-1  
 4.690000000000000E7    -8.388661742210388E-1   2.202851027250290E-1   1.986702978610992E-1   4.363640546798706E-1   1.997509002685547E-1   4.366706609725952E-1  -7.205474376678467E-1   4.941462278366089E-1  
 4.720000000000000E7    -8.069861531257629E-1   3.309206366539002E-1   2.270254194736481E-1   4.120343327522278E-1   2.266503572463989E-1   4.110211730003357E-1  -7.155970335006714E-1   5.104751586914063E-1  
 4.750000000000000E7    -7.576275467872620E-1   4.412261545658112E-1   2.530361413955689E-1   3.848151564598084E-1   2.522092461585999E-1   3.855660557746887E-1  -7.103923559188843E-1   5.257067084312439E-1  
 4.780000000000000E7    -6.923288106918335E-1   5.476602911949158E-1   2.773412168025971E-1   3.547834157943726E-1   2.755059897899628E-1   3.542366623878479E-1  -7.056287527084351E-1   5.408993959426880E-1  
 4.810000000000000E7    -6.068338155746460E-1   6.472906470298767E-1   2.956530749797821E-1   3.221867978572846E-1   2.956225574016571E-1   3.216692209243774E-1  -7.016103267669678E-1   5.559991598129273E-1  
 4.840000000000000E7    -5.047048926353455E-1   7.362050414085388E-1   3.122669458389282E-1   2.875012159347534E-1   3.113255202770233E-1   2.866493165493012E-1  -6.970494985580444E-1   5.720335245132446E-1  
 4.870000000000000E7    -3.883532881736755E-1   8.112999200820923E-1   3.249287605285645E-1   2.513930797576904E-1   3.234197795391083E-1   2.506246268749237E-1  -6.920375227928162E-1   5.881664156913757E-1  
 4.900000000000000E7    -2.573774456977844E-1   8.677864074707031E-1   3.320440053939819E-1   2.138257175683975E-1   3.314512073993683E-1   2.133860737085342E-1  -6.872320175170898E-1   6.040790081024170E-1  
 4.930000000000000E7    -1.166718006134033E-1   9.042146205902100E-1   3.343490660190582E-1   1.755804717540741E-1   3.346658349037170E-1   1.747207492589951E-1  -6.818245053291321E-1   6.212076544761658E-1  
 4.960000000000000E7     3.050882741808891E-2   9.196245670318604E-1   3.333824276924133E-1   1.385508775711060E-1   3.322393596172333E-1   1.389078050851822E-1  -6.754083633422852E-1   6.378629207611084E-1  
 4.990000000000000E7     1.789982467889786E-1   9.089778661727905E-1   3.268492817878723E-1   1.026748493313789E-1   3.263429105281830E-1   1.026927009224892E-1  -6.689771413803101E-1   6.542612314224243E-1  
 5.020000000000000E7     3.255390822887421E-1   8.742743134498596E-1   3.153934180736542E-1   6.874186545610428E-2   3.148071169853210E-1   6.865765154361725E-2  -6.619061231613159E-1   6.719114184379578E-1  
 5.050000000000000E7     4.628187417984009E-1   8.178538084030151E-1   3.010740876197815E-1   3.823833167552948E-2   3.006282150745392E-1   3.871640935540199E-2  -6.539880633354187E-1   6.892578005790710E-1  
 5.080000000000000E7     5.895245075225830E-1   7.400720119476318E-1   2.826646566390991E-1   1.106915716081858E-2   2.819175422191620E-1   1.057558320462704E-2  -6.434656977653503E-1   7.052307128906250E-1  
 5.110000000000000E7     6.979881525039673E-1   6.461838483810425E-1   2.622868716716766E-1  -1.213866472244263E-2   2.623593211174011E-1  -1.184143871068955E-2  -6.343756318092346E-1   7.220786213874817E-1  
 5.140000000000000E7     7.924278378486633E-1   5.399989485740662E-1   2.411540299654007E-1  -3.135489672422409E-2   2.411402016878128E-1  -3.159351646900177E-2  -6.237510442733765E-1   7.402491569519043E-1  
 5.170000000000000E7     8.652161359786987E-1   4.218592345714569E-1   2.182777971029282E-1  -4.733023792505264E-2   2.186077088117600E-1  -4.714506864547730E-2  -6.112875342369080E-1   7.543686628341675E-1  
 5.200000000000000E7     9.198433756828308E-1   2.992056608200073E-1   1.956642568111420E-1  -5.860441923141480E-2   1.951992511749268E-1  -5.813544988632202E-2  -5.978115200996399E-1   7.691914439201355E-1  
 5.230000000000000E7     9.559884071350098E-1   1.759863793849945E-1   1.741079837083817E-1  -6.641505658626556E-2   1.742386370897293E-1  -6.671290099620819E-2  -5.858509540557861E-1   7.837468385696411E-1  
 5.260000000000000E7     9.740045070648193E-1   5.256085097789764E-2   1.534200310707092E-1  -7.203324139118195E-2   1.530641317367554E-1  -7.180052250623703E-2  -5.723924040794373E-1   7.980750799179077E-1  
 5.290000000000000E7     9.763993024826050E-1  -6.643130630254746E-2   1.333214342594147E-1  -7.448486983776093E-2   1.332417875528336E-1  -7.455478608608246E-2  -5.590261220932007E-1   8.102207779884338E-1  
 5.320000000000000E7     9.639964699745178E-1  -1.809977591037750E-1   1.151677072048187E-1  -7.490863651037216E-2   1.154159903526306E-1  -7.486774027347565E-2  -5.449841618537903E-1   8.230360746383667E-1  
 5.350000000000000E7     9.398064017295837E-1  -2.886842489242554E-1   9.865500032901764E-2  -7.351347804069519E-2   9.890992939472199E-2  -7.368244975805283E-2  -5.316882133483887E-1   8.338280320167542E-1  
 5.380000000000000E7     9.044167995452881E-1  -3.896090090274811E-1   8.358088880777359E-2  -7.097797840833664E-2   8.324635028839111E-2  -7.114371657371521E-2  -5.156933069229126E-1   8.449932336807251E-1  
 5.410000000000000E7     8.631379008293152E-1  -4.809763431549072E-1   7.030320912599564E-2  -6.735590845346451E-2   7.029702514410019E-2  -6.748135387897492E-2  -5.020914673805237E-1   8.554533123970032E-1  
 5.440000000000000E7     8.116844892501831E-1  -5.649960637092590E-1   5.839860066771507E-2  -6.280390173196793E-2   5.830793082714081E-2  -6.283243745565414E-2  -4.874007701873779E-1   8.646695017814636E-1  
 5.470000000000000E7     7.560493350028992E-1  -6.386463046073914E-1   4.786399751901627E-2  -5.769871175289154E-2   4.796137660741806E-2  -5.770149081945419E-2  -4.719740152359009E-1   8.737828135490418E-1  
 5.500000000000000E7     6.963139176368713E-1  -7.050113677978516E-1   3.903428465127945E-2  -5.240564048290253E-2   3.894721716642380E-2  -5.242493376135826E-2  -4.577057957649231E-1   8.834735155105591E-1  
 5.530000000000000E7     6.325130462646484E-1  -7.637887001037598E-1   3.135258331894875E-2  -4.674677550792694E-2   3.128451108932495E-2  -4.683074355125427E-2  -4.429577291011810E-1   8.903793692588806E-1  
 5.560000000000000E7     5.668238401412964E-1  -8.151075839996338E-1   2.465862780809403E-2  -4.112819582223892E-2   2.464664354920387E-2  -4.102690890431404E-2  -4.292531907558441E-1   8.981070518493652E-1  
 5.590000000000000E7     5.000424385070801E-1  -8.582409024238586E-1   1.895699091255665E-2  -3.551715612411499E-2   1.905154623091221E-2  -3.542884439229965E-2  -4.139870107173920E-1   9.055978059768677E-1  
 5.620000000000000E7     4.310572147369385E-1  -8.953294157981873E-1   1.435207016766071E-2  -2.990388311445713E-2   1.429807860404253E-2  -2.987278811633587E-2  -4.004932045936585E-1   9.123232960700989E-1  
 5.650000000000000E7     3.636863231658936E-1  -9.252107739448547E-1   1.049443613737822E-2  -2.464590221643448E-2   1.054192613810301E-2  -2.454126439988613E-2  -3.861064016819000E-1   9.182495474815369E-1  
 5.680000000000000E7     2.961096167564392E-1  -9.498074650764465E-1   7.441331632435322E-3  -1.946811750531197E-2   7.413302548229694E-3  -1.945701800286770E-2  -3.711715936660767E-1   9.240969419479370E-1  
 5.710000000000000E7     2.280767560005188E-1  -9.684895277023315E-1   4.898487124592066E-3  -1.461648102849722E-2   4.977309610694647E-3  -1.463577058166266E-2  -3.576011955738068E-1   9.298257231712341E-1  
 5.740000000000000E7     1.614202857017517E-1  -9.826551675796509E-1   3.017613431438804E-3  -1.001869607716799E-2   3.021877491846681E-3  -1.001465134322643E-2  -3.429313898086548E-1   9.355207681655884E-1  
 5.770000000000000E7     9.699672460556030E-2  -9.902533888816834E-1   1.613949658349156E-3  -5.675549618899822E-3   1.619863091036677E-3  -5.670288577675819E-3  -3.301487863063812E-1   9.391418695449829E-1  
 5.800000000000000E7     3.194505348801613E-2  -9.949164986610413E-1   6.197861512191594E-4  -1.638182788155973E-3   6.209276616573334E-4  -1.658888999372721E-3  -3.154677748680115E-1   9.462294578552246E-1  
 5.830000000000000E7    -2.932671085000038E-2  -9.951022267341614E-1  -9.820741979638115E-6   2.098061377182603E-3   2.851850877050310E-5   2.082241699099541E-3  -3.021579682826996E-1   9.501109123229981E-1  
 5.860000000000000E7    -8.978135883808136E-2  -9.929701089859009E-1  -3.157124738208950E-4   5.586827639490366E-3  -3.015279071405530E-4   5.568250548094511E-3  -2.880434393882752E-1   9.540927410125732E-1  
 5.890000000000000E7    -1.490564495325089E-1  -9.849710464477539E-1  -3.020427539013326E-4   8.773637935519218E-3  -3.169852716382593E-4   8.759917691349983E-3  -2.747886478900909E-1   9.576219916343689E-1  
 5.920000000000000E7    -2.064329385757446E-1  -9.754130244255066E-1  -8.602569141658023E-5   1.169937476515770E-2  -1.099590881494805E-4   1.168959122151136E-2  -2.610419094562531E-1   9.626231193542481E-1  
 5.950000000000000E7    -2.611558139324188E-1  -9.608796238899231E-1   3.193747252225876E-4   1.433326210826635E-2   3.300872631371021E-4   1.430212520062923E-2  -2.469416558742523E-1   9.646130800247192E-1  
 5.980000000000000E7    -3.148737847805023E-1  -9.456391930580139E-1   9.606606326997280E-4   1.671935617923737E-2   9.252353338524699E-4   1.670731045305729E-2  -2.329342365264893E-1   9.686391353607178E-1  
 6.010000000000000E7    -3.642998337745667E-1  -9.256365299224854E-1   1.564969774335623E-3   1.888926699757576E-2   1.589800813235343E-3   1.882630400359631E-2  -2.206318527460098E-1   9.721024632453919E-1  
 6.040000000000000E7    -4.148985743522644E-1  -9.055855274200440E-1   2.467493526637554E-3   2.083699218928814E-2   2.440222539007664E-3   2.080878987908363E-2  -2.067026495933533E-1   9.756531119346619E-1  
 6.070000000000000E7    -4.605653584003449E-1  -8.839787840843201E-1   3.379538655281067E-3   2.252330817282200E-2   3.321736818179488E-3   2.248071506619453E-2  -1.941605508327484E-1   9.773178696632385E-1  
 6.100000000000000E7    -5.048653483390808E-1  -8.580337762832642E-1   4.431892186403275E-3   2.397032827138901E-2   4.399609286338091E-3   2.394885011017323E-2  -1.794030964374542E-1   9.806531071662903E-1  
 6.130000000000000E7    -5.489885807037354E-1  -8.322000503540039E-1   5.459111183881760E-3   2.532182075083256E-2   5.409919191151857E-3   2.526398375630379E-2  -1.660285890102387E-1   9.831232428550720E-1  
 6.160000000000000E7    -5.893372893333435E-1  -8.034148216247559E-1   6.524693220853806E-3   2.637100219726563E-2   6.525826174765825E-3   2.635285817086697E-2  -1.533898860216141E-1   9.840729832649231E-1  
 6.190000000000000E7    -6.279003620147705E-1  -7.729181051254273E-1   7.629374507814646E-3   2.727114036679268E-2   7.696994580328465E-3   2.720308303833008E-2  -1.405569314956665E-1   9.853323698043823E-1  
 6.220000000000000E7    -6.639948487281799E-1  -7.421426773071289E-1   8.714828640222549E-3   2.798592299222946E-2   8.800530806183815E-3   2.804565615952015E-2  -1.282697618007660E-1   9.883746504783630E-1  
 6.250000000000000E7    -6.992198824882507E-1  -7.093641757965088E-1   9.858613833785057E-3   2.860882692039013E-2   9.960440918803215E-3   2.861052006483078E-2  -1.151738986372948E-1   9.899793267250061E-1  
 6.280000000000000E7    -7.315073609352112E-1  -6.755130290985107E-1   1.106433384120464E-2   2.910724654793739E-2   1.102037355303764E-2   2.903538756072521E-2  -1.017140895128250E-1   9.916012287139893E-1  
 6.310000000000000E7    -7.635422348976135E-1  -6.398015022277832E-1   1.221804600208998E-2   2.947176620364189E-2   1.213581208139658E-2   2.934214659035206E-2  -8.843738585710526E-2   9.928420186042786E-1  
 6.340000000000000E7    -7.912073135375977E-1  -6.040485501289368E-1   1.327608618885279E-2   2.961265854537487E-2   1.327339466661215E-2   2.948487177491188E-2  -7.528883218765259E-2   9.942603111267090E-1  
 6.370000000000000E7    -8.177287578582764E-1  -5.677963495254517E-1   1.435081847012043E-2   2.960848622024059E-2   1.437796838581562E-2   2.956751361489296E-2  -6.252686679363251E-2   9.942134618759155E-1  
 6.400000000000000E7    -8.424897789955139E-1  -5.294171571731567E-1   1.550255715847015E-2   2.955219149589539E-2   1.545084826648235E-2   2.945868112146854E-2  -4.947447776794434E-2   9.959571957588196E-1  
 6.430000000000000E7    -8.659325242042542E-1  -4.910343885421753E-1   1.641372404992580E-2   2.948059886693955E-2   1.639691367745400E-2   2.929933555424213E-2  -3.649114072322846E-2   9.960349798202515E-1  
 6.460000000000000E7    -8.870883584022522E-1  -4.530406296253204E-1   1.734885200858116E-2   2.915664948523045E-2   1.729941926896572E-2   2.911345846951008E-2  -2.432599663734436E-2   9.955146312713623E-1  
 6.490000000000000E7    -9.056160449981690E-1  -4.148103594779968E-1   1.817576773464680E-2   2.879129350185394E-2   1.817834377288818E-2   2.881535515189171E-2  -1.190111041069031E-2   9.968726634979248E-1  
 6.520000000000000E7    -9.224365353584290E-1  -3.749711513519287E-1   1.911108940839768E-2   2.846998907625675E-2   1.909955032169819E-2   2.833825349807739E-2   1.195445656776428E-3   9.975279569625855E-1  
 6.550000000000000E7    -9.370804429054260E-1  -3.355754017829895E-1   1.990644633769989E-2   2.786934748291969E-2   1.985013671219349E-2   2.783510461449623E-2   1.417793333530426E-2   9.954730272293091E-1  
 6.580000000000000E7    -9.510546326637268E-1  -2.948688566684723E-1   2.073013037443161E-2   2.727624773979187E-2   2.061580866575241E-2   2.724926173686981E-2   2.701896429061890E-2   9.966669082641602E-1  
 6.610000000000000E7    -9.620130062103272E-1  -2.533594965934753E-1   2.139892615377903E-2   2.664246596395969E-2   2.135329321026802E-2   2.644617855548859E-2   4.096355289220810E-2   9.950817823410034E-1  
 6.640000000000000E7    -9.727489948272705E-1  -2.145964205265045E-1   2.201136946678162E-2   2.600644156336784E-2   2.189026214182377E-2   2.596168033778667E-2   5.377581715583801E-2   9.948948025703430E-1  
 6.670000000000000E7    -9.806483983993530E-1  -1.732324063777924E-1   2.258141711354256E-2   2.520529553294182E-2   2.244314923882484E-2   2.518999390304089E-2   6.503041833639145E-2   9.946247935295105E-1  
 6.700000000000000E7    -9.865524172782898E-1  -1.319809705018997E-1   2.305352874100208E-2   2.440728060901165E-2   2.296417951583862E-2   2.429767139256001E-2   7.763722538948059E-2   9.928327202796936E-1  
 6.730000000000000E7    -9.913214445114136E-1  -9.135192632675171E-2   2.338466420769692E-2   2.357545308768749E-2   2.347686141729355E-2   2.344849705696106E-2   9.065337479114533E-2   9.929690957069397E-1  
 6.760000000000000E7    -9.940758943557739E-1  -5.162411928176880E-2   2.389467321336269E-2   2.265141531825066E-2   2.380003221333027E-2   2.263215184211731E-2   1.038541495800018E-1   9.912006258964539E-1  
 6.790000000000000E7    -9.955672025680542E-1  -1.078579574823380E-2   2.411422878503799E-2   2.178457006812096E-2   2.409412153065205E-2   2.172536961734295E-2   1.156273931264877E-1   9.892175197601318E-1  
 6.820000000000000E7    -9.949400424957275E-1   2.939633280038834E-2   2.434337884187698E-2   2.080236002802849E-2   2.427995763719082E-2   2.082888409495354E-2   1.280392110347748E-1   9.881887435913086E-1  
 6.850000000000000E7    -9.936938881874085E-1   6.940510869026184E-2   2.450142800807953E-2   1.996430009603500E-2   2.447805553674698E-2   1.988536305725575E-2   1.397922933101654E-1   9.866523742675781E-1  
 6.880000000000000E7    -9.897345900535584E-1   1.086615994572640E-1   2.462981641292572E-2   1.893394812941551E-2   2.455645054578781E-2   1.885346323251724E-2   1.531355082988739E-1   9.844910502433777E-1  
 6.910000000000000E7    -9.841207861900330E-1   1.478982567787170E-1   2.467285282909870E-2   1.794516667723656E-2   2.460964955389500E-2   1.790527999401093E-2   1.660273075103760E-1   9.828259944915772E-1  
 6.940000000000000E7    -9.786286354064941E-1   1.862292438745499E-1   2.459521777927876E-2   1.701011508703232E-2   2.457392960786820E-2   1.697183400392532E-2   1.773848235607147E-1   9.804680943489075E-1  
 6.970000000000000E7    -9.697599411010742E-1   2.251957356929779E-1   2.445786818861961E-2   1.598395965993404E-2   2.451375313103199E-2   1.594354584813118E-2   1.902462989091873E-1   9.779431223869324E-1  
 7.000000000000000E7    -9.606177806854248E-1   2.635070681571960E-1   2.433674223721027E-2   1.501832995563746E-2   2.428277768194675E-2   1.492613833397627E-2   2.024155110120773E-1   9.762903451919556E-1  
