#  HZ   S   RI   R     50.00 
! Rohde & Schwarz ZVT8 8Ports - Version 4.11 - 1300.0000k08 SN: 100242
! Date: 2026-07-31 14:39:29
! Measurements: S11 S21 S12 S22 
! 
 1.000000000000000E7    -4.038963019847870E-1   9.108925461769104E-1   5.265323445200920E-2   5.314140394330025E-2   5.246708914637566E-2   5.318601801991463E-2  -9.178905487060547E-1   3.873584270477295E-1  
 1.030000000000000E7    -3.711439073085785E-1   9.234948158264160E-1   5.584938079118729E-2   5.349700897932053E-2   5.565013363957405E-2   5.360106006264687E-2  -9.115472435951233E-1   4.007694125175476E-1  
 1.060000000000000E7    -3.350650668144226E-1   9.367121458053589E-1   5.958946049213409E-2   5.456375330686569E-2   5.954555422067642E-2   5.420479550957680E-2  -9.076883196830750E-1   4.125466644763947E-1  
 1.090000000000000E7    -3.028770089149475E-1   9.471271634101868E-1   6.308704614639282E-2   5.478815734386444E-2   6.297986954450607E-2   5.471595004200935E-2  -9.017874002456665E-1   4.246797561645508E-1  
 1.120000000000000E7    -2.676113843917847E-1   9.564842581748962E-1   6.689456850290299E-2   5.561102926731110E-2   6.645001471042633E-2   5.537699162960053E-2  -8.959763050079346E-1   4.367252588272095E-1  
 1.150000000000000E7    -2.322295904159546E-1   9.668602347373962E-1   7.056853920221329E-2   5.562589690089226E-2   7.047157734632492E-2   5.551441013813019E-2  -8.882504701614380E-1   4.462574720382690E-1  
 1.180000000000000E7    -1.973957419395447E-1   9.721879363059998E-1   7.428034394979477E-2   5.602115765213966E-2   7.417590171098709E-2   5.575835704803467E-2  -8.836721181869507E-1   4.571843445301056E-1  
 1.210000000000000E7    -1.626910567283630E-1   9.792937636375427E-1   7.866282016038895E-2   5.598670616745949E-2   7.848551869392395E-2   5.591430142521858E-2  -8.757106065750122E-1   4.705029129981995E-1  
 1.240000000000000E7    -1.269582211971283E-1   9.829548001289368E-1   8.254894614219666E-2   5.608056485652924E-2   8.267387747764587E-2   5.572437867522240E-2  -8.688850402832031E-1   4.806692302227020E-1  
 1.270000000000000E7    -9.080345928668976E-2   9.864256381988525E-1   8.750617504119873E-2   5.570274963974953E-2   8.694224059581757E-2   5.542146787047386E-2  -8.618392944335938E-1   4.950570464134216E-1  
 1.300000000000000E7    -5.548638105392456E-2   9.893474578857422E-1   9.149570763111115E-2   5.539157241582871E-2   9.140948206186295E-2   5.518069490790367E-2  -8.534117341041565E-1   5.061868429183960E-1  
 1.330000000000000E7    -1.883291453123093E-2   9.911276102066040E-1   9.645509719848633E-2   5.501448363065720E-2   9.648033231496811E-2   5.449145659804344E-2  -8.460379838943481E-1   5.184344649314880E-1  
 1.360000000000000E7     1.866176351904869E-2   9.906266927719116E-1   1.011296287178993E-1   5.451364442706108E-2   1.014770716428757E-1   5.384951457381249E-2  -8.381840586662293E-1   5.286030769348145E-1  
 1.390000000000000E7     5.394344776868820E-2   9.878911375999451E-1   1.063312888145447E-1   5.323884636163712E-2   1.059319302439690E-1   5.351543799042702E-2  -8.298237323760986E-1   5.409666895866394E-1  
 1.420000000000000E7     9.169672429561615E-2   9.857044219970703E-1   1.112326532602310E-1   5.268114805221558E-2   1.112869307398796E-1   5.249166116118431E-2  -8.230980038642883E-1   5.523809194564819E-1  
 1.450000000000000E7     1.280099451541901E-1   9.796084165573120E-1   1.166776493191719E-1   5.112359672784805E-2   1.164964139461517E-1   5.107626691460609E-2  -8.119813799858093E-1   5.650991797447205E-1  
 1.480000000000000E7     1.659545898437500E-1   9.740082621574402E-1   1.219596937298775E-1   4.944146424531937E-2   1.219366937875748E-1   4.979090020060539E-2  -8.040705919265747E-1   5.761972665786743E-1  
 1.510000000000000E7     2.020124644041061E-1   9.660238027572632E-1   1.276670694351196E-1   4.793985188007355E-2   1.273102015256882E-1   4.794014990329742E-2  -7.924782037734985E-1   5.886024236679077E-1  
 1.540000000000000E7     2.376789599657059E-1   9.572507739067078E-1   1.330669820308685E-1   4.682901501655579E-2   1.332012116909027E-1   4.630610346794128E-2  -7.854427099227905E-1   5.990568399429321E-1  
 1.570000000000000E7     2.748237550258637E-1   9.481871128082275E-1   1.390742510557175E-1   4.429949074983597E-2   1.392978727817535E-1   4.408888891339302E-2  -7.742642164230347E-1   6.120731234550476E-1  
 1.600000000000000E7     3.115520179271698E-1   9.349665045738220E-1   1.450323611497879E-1   4.182016849517822E-2   1.452532708644867E-1   4.156177118420601E-2  -7.641243934631348E-1   6.221002936363220E-1  
 1.630000000000000E7     3.468566834926605E-1   9.211374521255493E-1   1.519436687231064E-1   3.883196413516998E-2   1.513717323541641E-1   3.911790624260902E-2  -7.529351115226746E-1   6.354209184646606E-1  
 1.660000000000000E7     3.820351362228394E-1   9.048796892166138E-1   1.584219783544540E-1   3.558381274342537E-2   1.578501015901566E-1   3.521291166543961E-2  -7.405927181243897E-1   6.472650766372681E-1  
 1.690000000000000E7     4.171449840068817E-1   8.886907100677490E-1   1.650523841381073E-1   3.283050283789635E-2   1.646141856908798E-1   3.254941850900650E-2  -7.293384075164795E-1   6.586115360260010E-1  
 1.720000000000000E7     4.538972377777100E-1   8.705191612243652E-1   1.711647659540176E-1   2.841079607605934E-2   1.713893264532089E-1   2.877882495522499E-2  -7.169925570487976E-1   6.695351004600525E-1  
 1.750000000000000E7     4.836649894714356E-1   8.534565567970276E-1   1.791241616010666E-1   2.578159794211388E-2   1.791229546070099E-1   2.513510547578335E-2  -7.049151659011841E-1   6.826761960983276E-1  
 1.780000000000000E7     5.199483633041382E-1   8.281255364418030E-1   1.853496134281158E-1   2.035562321543694E-2   1.857774406671524E-1   2.067713439464569E-2  -6.911685466766357E-1   6.920624971389771E-1  
 1.810000000000000E7     5.516153573989868E-1   8.068243265151978E-1   1.941707730293274E-1   1.564433239400387E-2   1.928790211677551E-1   1.494281366467476E-2  -6.771793961524963E-1   7.069066166877747E-1  
 1.840000000000000E7     5.855176448822022E-1   7.819032073020935E-1   2.018535733222961E-1   8.971383795142174E-3   2.010427415370941E-1   9.369689971208572E-3  -6.626322269439697E-1   7.178789973258972E-1  
 1.870000000000000E7     6.149471998214722E-1   7.564354538917542E-1   2.094939947128296E-1   3.936419263482094E-3   2.085496336221695E-1   3.464542329311371E-3  -6.470972299575806E-1   7.283819913864136E-1  
 1.900000000000000E7     6.452518701553345E-1   7.285193800926209E-1   2.172645032405853E-1  -2.475479617714882E-3   2.169030159711838E-1  -2.976896241307259E-3  -6.314024329185486E-1   7.397229671478272E-1  
 1.930000000000000E7     6.749423146247864E-1   6.984572410583496E-1   2.250690907239914E-1  -1.073945127427578E-2   2.254078686237335E-1  -9.948791004717350E-3  -6.147443056106567E-1   7.520321607589722E-1  
 1.960000000000000E7     7.036927938461304E-1   6.659765243530273E-1   2.333437055349350E-1  -1.852729544043541E-2   2.333917915821075E-1  -1.776298321783543E-2  -5.994160175323486E-1   7.621215581893921E-1  
 1.990000000000000E7     7.286868095397949E-1   6.338582038879395E-1   2.419297844171524E-1  -2.716040238738060E-2   2.421664148569107E-1  -2.704802714288235E-2  -5.786077380180359E-1   7.750889658927918E-1  
 2.020000000000000E7     7.542519569396973E-1   5.989699363708496E-1   2.511438131332398E-1  -3.626101091504097E-2   2.502651512622833E-1  -3.613053262233734E-2  -5.609958767890930E-1   7.832874059677124E-1  
 2.050000000000000E7     7.800455689430237E-1   5.623953342437744E-1   2.598095834255219E-1  -4.611265659332275E-2   2.580510377883911E-1  -4.656134545803070E-2  -5.414116382598877E-1   7.939432263374329E-1  
 2.080000000000000E7     8.018712997436523E-1   5.226801633834839E-1   2.688668966293335E-1  -5.796044319868088E-2   2.686180770397186E-1  -5.761143565177918E-2  -5.208608508110046E-1   8.053113818168640E-1  
 2.110000000000000E7     8.232114911079407E-1   4.834216833114624E-1   2.780924737453461E-1  -7.109181582927704E-2   2.778962850570679E-1  -7.083894312381744E-2  -4.982872009277344E-1   8.151155114173889E-1  
 2.140000000000000E7     8.420463204383850E-1   4.420647323131561E-1   2.871627807617188E-1  -8.511671423912048E-2   2.859486341476440E-1  -8.375868201255798E-2  -4.757509827613831E-1   8.236295580863953E-1  
 2.170000000000000E7     8.577395081520081E-1   4.003152847290039E-1   2.962366938591003E-1  -9.924194216728210E-2   2.959173321723938E-1  -9.824316203594208E-2  -4.514254927635193E-1   8.327085971832275E-1  
 2.200000000000000E7     8.734353184700012E-1   3.536418676376343E-1   3.047128319740295E-1  -1.157223582267761E-1   3.047563135623932E-1  -1.152927950024605E-1  -4.249952137470245E-1   8.406448364257813E-1  
 2.230000000000000E7     8.844448924064636E-1   3.072451353073120E-1   3.134743869304657E-1  -1.334831714630127E-1   3.130206465721130E-1  -1.327007412910461E-1  -3.984883129596710E-1   8.474265933036804E-1  
 2.260000000000000E7     8.941726088523865E-1   2.591090202331543E-1   3.214815258979797E-1  -1.527588665485382E-1   3.231822252273560E-1  -1.528291702270508E-1  -3.707601130008698E-1   8.533064723014832E-1  
 2.290000000000000E7     9.005549550056458E-1   2.092942893505096E-1   3.297788798809052E-1  -1.739438325166702E-1   3.306418061256409E-1  -1.733690947294235E-1  -3.397022485733032E-1   8.581033349037170E-1  
 2.320000000000000E7     9.023882150650024E-1   1.588570624589920E-1   3.375980257987976E-1  -1.981144994497299E-1   3.366133868694305E-1  -1.982590258121491E-1  -3.086722493171692E-1   8.638715744018555E-1  
 2.350000000000000E7     9.013714194297791E-1   1.055470108985901E-1   3.438697457313538E-1  -2.247351855039597E-1   3.433406949043274E-1  -2.232843786478043E-1  -2.761249244213104E-1   8.656786084175110E-1  
 2.380000000000000E7     8.964470624923706E-1   5.262557417154312E-2   3.493688404560089E-1  -2.511296868324280E-1   3.493132591247559E-1  -2.511006593704224E-1  -2.413169145584106E-1   8.663522601127625E-1  
 2.410000000000000E7     8.874881863594055E-1  -2.527985721826553E-3   3.527245521545410E-1  -2.826163172721863E-1   3.521701693534851E-1  -2.819122672080994E-1  -2.045357525348663E-1   8.641353249549866E-1  
 2.440000000000000E7     8.727418184280396E-1  -5.623627454042435E-2   3.549825251102448E-1  -3.166379034519196E-1   3.551425933837891E-1  -3.167437613010407E-1  -1.677070856094360E-1   8.597633242607117E-1  
 2.470000000000000E7     8.536517620086670E-1  -1.105715632438660E-1   3.544700443744659E-1  -3.532989621162415E-1   3.550347089767456E-1  -3.506502211093903E-1  -1.268447339534760E-1   8.513128757476807E-1  
 2.500000000000000E7     8.293458819389343E-1  -1.657115817070007E-1   3.511495292186737E-1  -3.911463916301727E-1   3.506640791893005E-1  -3.919661045074463E-1  -8.521168678998947E-2   8.413936495780945E-1  
 2.530000000000000E7     7.981461286544800E-1  -2.191667407751083E-1   3.459780812263489E-1  -4.338147044181824E-1   3.455687463283539E-1  -4.329622089862824E-1  -4.264121502637863E-2   8.256613612174988E-1  
 2.560000000000000E7     7.607748508453369E-1  -2.695675492286682E-1   3.349148929119110E-1  -4.776719510555267E-1   3.353985249996185E-1  -4.784120321273804E-1   2.003898844122887E-4   8.059477806091309E-1  
 2.590000000000000E7     7.163292169570923E-1  -3.153811693191528E-1   3.169646263122559E-1  -5.266745090484619E-1   3.176613748073578E-1  -5.267844796180725E-1   4.482965171337128E-2   7.830461859703064E-1  
 2.620000000000000E7     6.647222042083740E-1  -3.585900664329529E-1   2.936775982379913E-1  -5.777829885482788E-1   2.941560149192810E-1  -5.759612917900085E-1   9.028861671686173E-2   7.510302066802979E-1  
 2.650000000000000E7     6.066942811012268E-1  -3.962973952293396E-1   2.652844488620758E-1  -6.279988288879395E-1   2.646526694297791E-1  -6.287840008735657E-1   1.317783147096634E-1   7.132353186607361E-1  
 2.680000000000000E7     5.419609546661377E-1  -4.249973595142365E-1   2.269405871629715E-1  -6.808757185935974E-1   2.260537445545197E-1  -6.809802651405335E-1   1.709952056407929E-1   6.683220863342285E-1  
 2.710000000000000E7     4.734857976436615E-1  -4.445293843746185E-1   1.767089366912842E-1  -7.307366132736206E-1   1.765756011009216E-1  -7.301845550537109E-1   2.079483866691589E-1   6.189579367637634E-1  
 2.740000000000000E7     3.980046808719635E-1  -4.540534615516663E-1   1.200583577156067E-1  -7.805652022361755E-1   1.185611635446549E-1  -7.796252369880676E-1   2.360099852085114E-1   5.572751760482788E-1  
 2.770000000000000E7     3.256434798240662E-1  -4.496423006057739E-1   5.012125521898270E-2  -8.224753141403198E-1   4.941215366125107E-2  -8.222620487213135E-1   2.584687769412994E-1   4.929203987121582E-1  
 2.800000000000000E7     2.511963248252869E-1  -4.343597888946533E-1  -2.849868498742580E-2  -8.581734299659729E-1  -2.697394415736198E-2  -8.583374619483948E-1   2.720609009265900E-1   4.195116460323334E-1  
 2.830000000000000E7     1.809274107217789E-1  -4.043190479278565E-1  -1.149121224880219E-1  -8.820944428443909E-1  -1.165088489651680E-1  -8.807727694511414E-1   2.734182775020599E-1   3.501454591751099E-1  
 2.860000000000000E7     1.196125000715256E-1  -3.593803048133850E-1  -2.109151482582092E-1  -8.938090801239014E-1  -2.127894908189774E-1  -8.921824097633362E-1   2.632554471492767E-1   2.737385630607605E-1  
 2.890000000000000E7     7.097604870796204E-2  -3.049538731575012E-1  -3.114046752452850E-1  -8.901505470275879E-1  -3.112377822399139E-1  -8.884149193763733E-1   2.397283613681793E-1   2.020462900400162E-1  
 2.920000000000000E7     3.146687150001526E-2  -2.410089224576950E-1  -4.103344380855560E-1  -8.724890351295471E-1  -4.112764894962311E-1  -8.696144819259644E-1   2.042137533426285E-1   1.352572739124298E-1  
 2.950000000000000E7     1.267719827592373E-2  -1.737045794725418E-1  -5.094681382179260E-1  -8.355593681335449E-1  -5.079763531684876E-1  -8.340306282043457E-1   1.563117802143097E-1   7.675667107105255E-2  
 2.980000000000000E7     5.103833042085171E-3  -1.052559390664101E-1  -5.997420549392700E-1  -7.854853868484497E-1  -6.002655029296875E-1  -7.847902774810791E-1   9.981107711791992E-2   2.948319539427757E-2  
 3.010000000000000E7     1.480794046074152E-2  -4.232747107744217E-2  -6.828781366348267E-1  -7.220217585563660E-1  -6.816807389259338E-1  -7.211015820503235E-1   3.829904273152351E-2  -6.808590143918991E-3  
 3.040000000000000E7     3.971344232559204E-2   1.688821613788605E-2  -7.523083686828613E-1  -6.476913094520569E-1  -7.523595094680786E-1  -6.474980115890503E-1  -2.522605843842030E-2  -2.652872353792191E-2  
 3.070000000000000E7     7.175587862730026E-2   6.389838457107544E-2  -8.117904067039490E-1  -5.670833587646484E-1  -8.088726997375488E-1  -5.667051672935486E-1  -8.531580865383148E-2  -3.912440314888954E-2  
 3.100000000000000E7     1.144383996725082E-1   9.959152340888977E-2  -8.568712472915649E-1  -4.823773801326752E-1  -8.551384210586548E-1  -4.818377494812012E-1  -1.448857933282852E-1  -4.010323062539101E-2  
 3.130000000000000E7     1.583487987518311E-1   1.240278333425522E-1  -8.897265195846558E-1  -3.952932953834534E-1  -8.884482979774475E-1  -3.960148096084595E-1  -2.006029635667801E-1  -2.768179215490818E-2  
 3.160000000000000E7     2.082266658544540E-1   1.364913284778595E-1  -9.116539359092712E-1  -3.099180161952972E-1  -9.114061594009399E-1  -3.105309605598450E-1  -2.469994872808456E-1  -9.899397380650044E-3  
 3.190000000000000E7     2.536155283451080E-1   1.396321803331375E-1  -9.245579242706299E-1  -2.252694070339203E-1  -9.228191375732422E-1  -2.255071997642517E-1  -2.890097200870514E-1   1.254773139953613E-2  
 3.220000000000000E7     2.985918223857880E-1   1.337549388408661E-1  -9.294661879539490E-1  -1.441115438938141E-1  -9.282491207122803E-1  -1.441747397184372E-1  -3.224740624427795E-1   4.011261835694313E-2  
 3.250000000000000E7     3.379617929458618E-1   1.163043901324272E-1  -9.271305203437805E-1  -6.658461689949036E-2  -9.272119402885437E-1  -6.590130180120468E-2  -3.475155234336853E-1   7.201385498046875E-2  
 3.280000000000000E7     3.720323741436005E-1   9.078888595104218E-2  -9.183900952339172E-1   8.425550535321236E-3  -9.179242253303528E-1   9.351606480777264E-3  -3.686900436878204E-1   1.042109355330467E-1  
 3.310000000000000E7     3.983537554740906E-1   6.561487168073654E-2  -9.064496159553528E-1   8.139031380414963E-2  -9.059720635414124E-1   8.105375617742539E-2  -3.781344592571259E-1   1.376228034496307E-1  
 3.340000000000000E7     4.174798429012299E-1   3.133700788021088E-2  -8.914482593536377E-1   1.515610665082932E-1  -8.893125057220459E-1   1.511123031377792E-1  -3.829624354839325E-1   1.687572002410889E-1  
 3.370000000000000E7     4.308010935783386E-1  -5.091553088277578E-3  -8.698706626892090E-1   2.183406203985214E-1  -8.696595430374146E-1   2.170985192060471E-1  -3.812111616134644E-1   2.016387730836868E-1  
 3.400000000000000E7     4.344805777072907E-1  -4.350749403238297E-2  -8.474606871604919E-1   2.844544053077698E-1  -8.473653793334961E-1   2.837139964103699E-1  -3.709367811679840E-1   2.282895594835281E-1  
 3.430000000000000E7     4.303596019744873E-1  -8.123558759689331E-2  -8.219803571701050E-1   3.505481183528900E-1  -8.208531737327576E-1   3.493674397468567E-1  -3.582597970962524E-1   2.527786493301392E-1  
 3.460000000000000E7     4.179132580757141E-1  -1.197484880685806E-1  -7.932417988777161E-1   4.161695539951325E-1  -7.928758859634399E-1   4.150060415267944E-1  -3.362475037574768E-1   2.729358673095703E-1  
 3.490000000000000E7     3.942975699901581E-1  -1.534242480993271E-1  -7.591978907585144E-1   4.834663569927216E-1  -7.576565742492676E-1   4.808447957038879E-1  -3.133513629436493E-1   2.882437109947205E-1  
 3.520000000000000E7     3.646469712257385E-1  -1.871062517166138E-1  -7.203167080879211E-1   5.499024987220764E-1  -7.209153175354004E-1   5.480366945266724E-1  -2.810050547122955E-1   2.991643548011780E-1  
 3.550000000000000E7     3.220624029636383E-1  -2.141009122133255E-1  -6.757177114486694E-1   6.183009743690491E-1  -6.753846406936646E-1   6.182017922401428E-1  -2.433544099330902E-1   2.998998761177063E-1  
 3.580000000000000E7     2.726772725582123E-1  -2.282553464174271E-1  -6.201847195625305E-1   6.899076700210571E-1  -6.207367777824402E-1   6.887320876121521E-1  -2.031309306621552E-1   2.916241884231567E-1  
 3.610000000000000E7     2.117717266082764E-1  -2.287166118621826E-1  -5.554424524307251E-1   7.631259560585022E-1  -5.538698434829712E-1   7.616226673126221E-1  -1.597924083471298E-1   2.712962031364441E-1  
 3.640000000000000E7     1.464263051748276E-1  -2.149629592895508E-1  -4.731271862983704E-1   8.331209421157837E-1  -4.734053909778595E-1   8.328757882118225E-1  -1.141136214137077E-1   2.336188256740570E-1  
 3.670000000000000E7     7.901142537593842E-2  -1.768458634614945E-1  -3.728114366531372E-1   9.001125693321228E-1  -3.716556131839752E-1   8.976590633392334E-1  -7.760272175073624E-2   1.792954653501511E-1  
 3.700000000000000E7     1.799505949020386E-2  -1.108842715620995E-1  -2.484566122293472E-1   9.532521963119507E-1  -2.486495822668076E-1   9.526194334030151E-1  -4.739879444241524E-2   1.043262556195259E-1  
 3.730000000000000E7    -2.532140538096428E-2  -2.015410922467709E-2  -1.027511358261108E-1   9.842863678932190E-1  -1.039312109351158E-1   9.835365414619446E-1  -4.176657646894455E-2   9.925207123160362E-3  
 3.760000000000000E7    -3.599052131175995E-2   1.006932556629181E-1   5.798026546835899E-2   9.812034964561462E-1   5.811649188399315E-2   9.814820885658264E-1  -6.460166722536087E-2  -9.560272097587585E-2  
 3.790000000000000E7    -4.622753243893385E-3   2.329012900590897E-1   2.234251648187637E-1   9.344058632850647E-1   2.214853167533875E-1   9.348201751708984E-1  -1.249331533908844E-1  -1.982700079679489E-1  
 3.820000000000000E7     8.064500987529755E-2   3.532471954822540E-1   3.711703121662140E-1   8.411639928817749E-1   3.719134032726288E-1   8.406429886817932E-1  -2.254350334405899E-1  -2.879749238491058E-1  
 3.850000000000000E7     2.061063796281815E-1   4.417836368083954E-1   4.854700565338135E-1   7.113475203514099E-1   4.867724776268005E-1   7.096285820007324E-1  -3.506407141685486E-1  -3.397032022476196E-1  
 3.880000000000000E7     3.566416800022125E-1   4.788706302642822E-1   5.527418851852417E-1   5.629627704620361E-1   5.521597862243652E-1   5.614029765129089E-1  -4.860011339187622E-1  -3.506360948085785E-1  
 3.910000000000000E7     5.074943304061890E-1   4.703666567802429E-1   5.732982754707336E-1   4.157499670982361E-1   5.732691287994385E-1   4.166767001152039E-1  -6.153464913368225E-1  -3.209922015666962E-1  
 3.940000000000000E7     6.422952413558960E-1   4.185787737369537E-1   5.557798147201538E-1   2.874807417392731E-1   5.571883320808411E-1   2.873121500015259E-1  -7.221658229827881E-1  -2.640778124332428E-1  
 3.970000000000000E7     7.507669329643250E-1   3.409761190414429E-1   5.176287293434143E-1   1.836374402046204E-1   5.182515978813171E-1   1.835819780826569E-1  -8.048291206359863E-1  -1.878300011157990E-1  
 4.000000000000000E7     8.313758373260498E-1   2.485890239477158E-1   4.691209495067596E-1   1.044009700417519E-1   4.684031009674072E-1   1.044424697756767E-1  -8.629536628723145E-1  -1.089888662099838E-1  
 4.030000000000000E7     8.872653841972351E-1   1.507606804370880E-1   4.165028929710388E-1   4.753755033016205E-2   4.163155853748322E-1   4.613368958234787E-2  -9.012336730957031E-1  -2.929462492465973E-2  
 4.060000000000000E7     9.227876663208008E-1   5.398779362440109E-2   3.643968999385834E-1   5.735334940254688E-3   3.637391328811646E-1   5.072440952062607E-3  -9.243909716606140E-1   4.679146036505699E-2  
 4.090000000000000E7     9.416175484657288E-1  -3.946473449468613E-2   3.165623247623444E-1  -2.360046841204166E-2   3.163786828517914E-1  -2.372485771775246E-2  -9.357390403747559E-1   1.157197952270508E-1  
 4.120000000000000E7     9.475480318069458E-1  -1.265373378992081E-1   2.732131183147430E-1  -4.163397848606110E-2   2.731989324092865E-1  -4.183603823184967E-2  -9.391059279441834E-1   1.806720644235611E-1  
 4.150000000000000E7     9.418274164199829E-1  -2.068207114934921E-1   2.362860888242722E-1  -5.346271395683289E-2   2.356266081333160E-1  -5.291118100285530E-2  -9.362285137176514E-1   2.372478395700455E-1  
 4.180000000000000E7     9.307798147201538E-1  -2.826955318450928E-1   2.034745216369629E-1  -6.060685962438583E-2   2.028229385614395E-1  -6.046102568507195E-2  -9.292622804641724E-1   2.873876690864563E-1  
 4.210000000000000E7     9.128510355949402E-1  -3.514084517955780E-1   1.750149279832840E-1  -6.386511772871018E-2   1.748760640621185E-1  -6.377732753753662E-2  -9.198039174079895E-1   3.345322608947754E-1  
 4.240000000000000E7     8.899422883987427E-1  -4.141605794429779E-1   1.502861380577087E-1  -6.444080919027329E-2   1.503870189189911E-1  -6.436871737241745E-2  -9.088166952133179E-1   3.754785060882568E-1  
 4.270000000000000E7     8.636899590492249E-1  -4.726362526416779E-1   1.294292211532593E-1  -6.402509659528732E-2   1.290733963251114E-1  -6.393191218376160E-2  -8.956336379051209E-1   4.151091277599335E-1  
 4.300000000000000E7     8.355103135108948E-1  -5.275397896766663E-1   1.109864413738251E-1  -6.217207759618759E-2   1.106569021940231E-1  -6.189984083175659E-2  -8.811347484588623E-1   4.505636692047119E-1  
 4.330000000000000E7     8.060357570648193E-1  -5.754292011260986E-1   9.499764442443848E-2  -5.898458883166313E-2   9.512573480606079E-2  -5.907973274588585E-2  -8.659548163414002E-1   4.811977446079254E-1  
 4.360000000000000E7     7.719677686691284E-1  -6.218627691268921E-1   8.153759688138962E-2  -5.568871647119522E-2   8.115868270397186E-2  -5.568628385663033E-2  -8.514944314956665E-1   5.104617476463318E-1  
 4.390000000000000E7     7.384328246116638E-1  -6.652311682701111E-1   6.990872323513031E-2  -5.237931758165360E-2   6.983123719692230E-2  -5.224618688225746E-2  -8.347079157829285E-1   5.367997288703919E-1  
 4.420000000000000E7     7.021039724349976E-1  -7.025814652442932E-1   5.949385464191437E-2  -4.877850413322449E-2   5.952674150466919E-2  -4.860807582736015E-2  -8.189058303833008E-1   5.622525811195374E-1  
 4.450000000000000E7     6.657049059867859E-1  -7.381154298782349E-1   5.091143772006035E-2  -4.491265118122101E-2   5.064054206013680E-2  -4.501825943589211E-2  -8.044132590293884E-1   5.850763916969299E-1  
 4.480000000000000E7     6.291599273681641E-1  -7.708820104598999E-1   4.331741482019424E-2  -4.126529023051262E-2   4.325745627284050E-2  -4.128693789243698E-2  -7.891818881034851E-1   6.061117053031921E-1  
 4.510000000000000E7     5.924802422523499E-1  -8.008916974067688E-1   3.684977814555168E-2  -3.781804069876671E-2   3.679664805531502E-2  -3.784437850117683E-2  -7.743107676506043E-1   6.268956065177918E-1  
 4.540000000000000E7     5.532448291778565E-1  -8.279989957809448E-1   3.115827776491642E-2  -3.457335382699966E-2   3.122959658503532E-2  -3.445092216134071E-2  -7.586057782173157E-1   6.460261940956116E-1  
 4.570000000000000E7     5.145111680030823E-1  -8.533394336700440E-1   2.631374634802342E-2  -3.137521445751190E-2   2.627237513661385E-2  -3.104556724429131E-2  -7.428621053695679E-1   6.640873551368713E-1  
 4.600000000000000E7     4.769972562789917E-1  -8.746979832649231E-1   2.218015119433403E-2  -2.802762202918530E-2   2.222488075494766E-2  -2.807781286537647E-2  -7.282825112342835E-1   6.802582740783691E-1  
 4.630000000000000E7     4.358063042163849E-1  -8.968136310577393E-1   1.854341477155685E-2  -2.517058700323105E-2   1.862996071577072E-2  -2.523194253444672E-2  -7.136236429214478E-1   6.956894397735596E-1  
 4.660000000000000E7     3.960642814636231E-1  -9.159384965896606E-1   1.540641020983458E-2  -2.266303449869156E-2   1.549629494547844E-2  -2.252829261124134E-2  -6.982075572013855E-1   7.120859622955322E-1  
 4.690000000000000E7     3.563399910926819E-1  -9.312933087348938E-1   1.281753182411194E-2  -1.992251537740231E-2   1.284866128116846E-2  -1.987893320620060E-2  -6.839388012886047E-1   7.261301279067993E-1  
 4.720000000000000E7     3.157500326633453E-1  -9.453276991844177E-1   1.053948793560267E-2  -1.762679032981396E-2   1.050667464733124E-2  -1.758152432739735E-2  -6.684508919715881E-1   7.395350933074951E-1  
 4.750000000000000E7     2.767789959907532E-1  -9.584284424781799E-1   8.570129983127117E-3  -1.550695300102234E-2   8.567607030272484E-3  -1.536886114627123E-2  -6.544842123985291E-1   7.523639798164368E-1  
 4.780000000000000E7     2.375312447547913E-1  -9.688879251480103E-1   6.956568919122219E-3  -1.335575617849827E-2   7.076412905007601E-3  -1.348323095589876E-2  -6.389096379280090E-1   7.643976807594299E-1  
 4.810000000000000E7     1.969694197177887E-1  -9.780411124229431E-1   5.586070008575916E-3  -1.156739518046379E-2   5.653760861605406E-3  -1.149228774011135E-2  -6.261199712753296E-1   7.759159803390503E-1  
 4.840000000000000E7     1.576597392559052E-1  -9.854266643524170E-1   4.469875246286392E-3  -1.001935824751854E-2   4.442518576979637E-3  -9.983032010495663E-3  -6.119874715805054E-1   7.871090173721314E-1  
 4.870000000000000E7     1.175108179450035E-1  -9.909816980361939E-1   3.474503057077527E-3  -8.437023498117924E-3   3.510611131787300E-3  -8.380829356610775E-3  -5.978242754936218E-1   7.978239059448242E-1  
 4.900000000000000E7     7.785971462726593E-2  -9.957787394523621E-1   2.669226611033082E-3  -7.151841185986996E-3   2.710105618461967E-3  -7.006896194070578E-3  -5.838389396667481E-1   8.077870011329651E-1  
 4.930000000000000E7     3.815146535634995E-2  -9.978054761886597E-1   2.071451861411333E-3  -5.886160302907229E-3   2.014999976381660E-3  -5.835077259689570E-3  -5.695765018463135E-1   8.183699846267700E-1  
 4.960000000000000E7    -6.659626960754395E-4  -9.965962171554565E-1   1.541874837130308E-3  -4.737528506666422E-3   1.490712864324451E-3  -4.718736745417118E-3  -5.561375617980957E-1   8.270777463912964E-1  
 4.990000000000000E7    -3.877253085374832E-2  -9.963467121124268E-1   1.023759483359754E-3  -3.790629794821143E-3   1.189710805192590E-3  -3.778165671974421E-3  -5.429109334945679E-1   8.363002538681030E-1  
 5.020000000000000E7    -7.617231458425522E-2  -9.951365590095520E-1   8.116130484268069E-4  -2.941063838079572E-3   8.147389162331820E-4  -2.977233612909913E-3  -5.291161537170410E-1   8.448802828788757E-1  
 5.050000000000000E7    -1.151780858635902E-1  -9.911032915115356E-1   5.645206547342241E-4  -2.279332838952541E-3   5.396921187639237E-4  -2.280485117807984E-3  -5.161274075508118E-1   8.544731736183167E-1  
 5.080000000000000E7    -1.518144309520721E-1  -9.866424202919006E-1   3.640493087004870E-4  -1.673528342507780E-3   3.530969261191785E-4  -1.668532146140933E-3  -5.017431378364563E-1   8.605293631553650E-1  
 5.110000000000000E7    -1.896436512470245E-1  -9.796193838119507E-1   1.938958594109863E-4  -1.156148384325206E-3   2.222784241894260E-4  -1.155765261501074E-3  -4.896755814552307E-1   8.687258958816528E-1  
 5.140000000000000E7    -2.265075743198395E-1  -9.714351892471314E-1   1.167448499472812E-4  -7.494337041862309E-4   1.423730282112956E-4  -7.467648829333484E-4  -4.760539531707764E-1   8.779791593551636E-1  
 5.170000000000000E7    -2.620398402214050E-1  -9.625267982482910E-1   7.676566019654274E-5  -4.160727257840335E-4   4.711527071776800E-5  -4.300106375012547E-4  -4.619134068489075E-1   8.831412792205811E-1  
 5.200000000000000E7    -2.977977395057678E-1  -9.536354541778565E-1   3.306314465589821E-5  -2.003833214985207E-4   4.337033533374779E-5  -2.056828379863873E-4  -4.481933116912842E-1   8.888415694236755E-1  
 5.230000000000000E7    -3.329600691795349E-1  -9.407074451446533E-1  -1.097911899705650E-5  -9.333872003480792E-5   1.081463506125147E-5  -9.561998012941331E-5  -4.359076023101807E-1   8.964560031890869E-1  
 5.260000000000000E7    -3.667559325695038E-1  -9.267449975013733E-1   2.288215364387725E-5  -3.045220910280477E-5   1.318725298915524E-5  -1.788970439520199E-5  -4.226031899452210E-1   9.028297662734985E-1  
 5.290000000000000E7    -4.014883041381836E-1  -9.134805798530579E-1   1.538872129458468E-5   9.708836842037272E-6   2.779851274681278E-5   6.119907993706875E-6  -4.096026122570038E-1   9.085062146186829E-1  
 5.320000000000000E7    -4.337245821952820E-1  -8.991742730140686E-1  -1.558529402245767E-5  -1.037561014527455E-4   2.340129867661744E-9  -8.292654820252210E-5  -3.965354859828949E-1   9.146658778190613E-1  
 5.350000000000000E7    -4.651573598384857E-1  -8.822071552276611E-1  -3.151800046907738E-5  -1.981375535251573E-4  -2.255603430967312E-5  -2.002677356358618E-4  -3.849550187587738E-1   9.200547933578491E-1  
 5.380000000000000E7    -4.957081675529480E-1  -8.645479679107666E-1  -6.988698442000896E-5  -4.038009792566299E-4  -4.028397961519659E-5  -4.187993181403726E-4  -3.700464963912964E-1   9.249327778816223E-1  
 5.410000000000000E7    -5.291200280189514E-1  -8.470133543014526E-1  -6.426662730518729E-5  -6.514620617963374E-4  -9.996331937145442E-5  -6.402948638424277E-4  -3.576940894126892E-1   9.304899573326111E-1  
 5.440000000000000E7    -5.586461424827576E-1  -8.262365460395813E-1  -1.449708943255246E-4  -9.320805547758937E-4  -1.370103709632531E-4  -9.526443318463862E-4  -3.453189730644226E-1   9.345825910568237E-1  
 5.470000000000000E7    -5.863733291625977E-1  -8.066874146461487E-1  -2.279889304190874E-4  -1.277003902941942E-3  -2.336343168281019E-4  -1.313572865910828E-3  -3.312951922416687E-1   9.396334886550903E-1  
 5.500000000000000E7    -6.158362030982971E-1  -7.850321531295776E-1  -3.206427209079266E-4  -1.667426666244865E-3  -3.255024203099310E-4  -1.662024762481451E-3  -3.185128569602966E-1   9.452225565910339E-1  
 5.530000000000000E7    -6.429242491722107E-1  -7.630510926246643E-1  -4.539972578641027E-4  -2.097462303936482E-3  -4.500390496104956E-4  -2.104177605360746E-3  -3.055868148803711E-1   9.485226869583130E-1  
 5.560000000000000E7    -6.704255938529968E-1  -7.388189435005188E-1  -6.166587700136006E-4  -2.553590806201100E-3  -6.027919007465243E-4  -2.556998981162906E-3  -2.935568094253540E-1   9.525892138481140E-1  
 5.590000000000000E7    -6.961607933044434E-1  -7.157570719718933E-1  -8.128740591928363E-4  -3.068553283810616E-3  -8.145808824338019E-4  -3.052014159038663E-3  -2.800222933292389E-1   9.566069245338440E-1  
 5.620000000000000E7    -7.210985422134399E-1  -6.889734864234924E-1  -1.019555493257940E-3  -3.571311710402370E-3  -1.009338768199086E-3  -3.600474679842591E-3  -2.680920660495758E-1   9.607444405555725E-1  
 5.650000000000000E7    -7.440863847732544E-1  -6.642852425575256E-1  -1.269765780307353E-3  -4.123480990529060E-3  -1.270347740501165E-3  -4.139781929552555E-3  -2.551074028015137E-1   9.634347558021545E-1  
 5.680000000000000E7    -7.672287225723267E-1  -6.378317475318909E-1  -1.614024513401091E-3  -4.721595905721188E-3  -1.582771656103432E-3  -4.681946244090796E-3  -2.418607324361801E-1   9.663456082344055E-1  
 5.710000000000000E7    -7.896800041198731E-1  -6.093932390213013E-1  -1.935073873028159E-3  -5.314236972481012E-3  -1.938631525263190E-3  -5.318508483469486E-3  -2.295118868350983E-1   9.699792265892029E-1  
 5.740000000000000E7    -8.109959363937378E-1  -5.815472006797791E-1  -2.342175692319870E-3  -5.905394908040762E-3  -2.319311490282416E-3  -5.921943113207817E-3  -2.161744236946106E-1   9.730207920074463E-1  
 5.770000000000000E7    -8.294467329978943E-1  -5.536758899688721E-1  -2.712367335334420E-3  -6.542069371789694E-3  -2.701903693377972E-3  -6.524909753352404E-3  -2.048195600509644E-1   9.744831919670105E-1  
 5.800000000000000E7    -8.487984538078308E-1  -5.235614180564880E-1  -3.217387245967984E-3  -7.183785550296307E-3  -3.278710646554828E-3  -7.134661544114351E-3  -1.907389461994171E-1   9.792351126670837E-1  
 5.830000000000000E7    -8.661573529243469E-1  -4.935964047908783E-1  -3.727371338754892E-3  -7.757217157632113E-3  -3.702422603964806E-3  -7.789073977619410E-3  -1.791762858629227E-1   9.810149073600769E-1  
 5.860000000000000E7    -8.845193386077881E-1  -4.638687372207642E-1  -4.242569208145142E-3  -8.450307883322239E-3  -4.241679795086384E-3  -8.462836965918541E-3  -1.659455597400665E-1   9.827970266342163E-1  
 5.890000000000000E7    -8.988999724388123E-1  -4.323774278163910E-1  -4.839534405618906E-3  -9.090349078178406E-3  -4.840134643018246E-3  -9.105181321501732E-3  -1.539947688579559E-1   9.845514297485352E-1  
 5.920000000000000E7    -9.135291576385498E-1  -3.999951481819153E-1  -5.531770642846823E-3  -9.765227325260639E-3  -5.519763566553593E-3  -9.716063737869263E-3  -1.405653357505798E-1   9.876183271408081E-1  
 5.950000000000000E7    -9.266154170036316E-1  -3.685332536697388E-1  -6.174662150442600E-3  -1.034585107117891E-2  -6.187439430505037E-3  -1.035968028008938E-2  -1.278622150421143E-1   9.873359203338623E-1  
 5.980000000000000E7    -9.393602013587952E-1  -3.353136181831360E-1  -6.982345134019852E-3  -1.100732851773500E-2  -6.923599168658257E-3  -1.098391786217690E-2  -1.148325428366661E-1   9.895949959754944E-1  
 6.010000000000000E7    -9.482709765434265E-1  -3.041753768920898E-1  -7.704927586019039E-3  -1.166741922497749E-2  -7.664947770535946E-3  -1.163162849843502E-2  -1.032837927341461E-1   9.915134310722351E-1  
 6.040000000000000E7    -9.593425393104553E-1  -2.695796787738800E-1  -8.539892733097076E-3  -1.227686554193497E-2  -8.533293381333351E-3  -1.225782185792923E-2  -9.047445654869080E-2   9.932696819305420E-1  
 6.070000000000000E7    -9.690309762954712E-1  -2.377992272377014E-1  -9.433925151824951E-3  -1.290411967784166E-2  -9.382975287735462E-3  -1.288926973938942E-2  -7.803691923618317E-2   9.935877919197083E-1  
 6.100000000000000E7    -9.758226871490479E-1  -2.042064815759659E-1  -1.036719791591167E-2  -1.344517618417740E-2  -1.032734848558903E-2  -1.345895417034626E-2  -6.456489861011505E-2   9.951257109642029E-1  
 6.130000000000000E7    -9.829130172729492E-1  -1.696645468473434E-1  -1.135625317692757E-2  -1.405519433319569E-2  -1.131030265241861E-2  -1.402374356985092E-2  -5.147549510002136E-2   9.962564110755920E-1  
 6.160000000000000E7    -9.873768091201782E-1  -1.359340548515320E-1  -1.228914223611355E-2  -1.456960290670395E-2  -1.234170794487000E-2  -1.458571385592222E-2  -3.995737433433533E-2   9.953451156616211E-1  
 6.190000000000000E7    -9.913391470909119E-1  -1.021909564733505E-1  -1.336869224905968E-2  -1.517077535390854E-2  -1.335599087178707E-2  -1.505399122834206E-2  -2.772238850593567E-2   9.952895641326904E-1  
 6.220000000000000E7    -9.946737289428711E-1  -6.803251802921295E-2  -1.443152874708176E-2  -1.558551192283630E-2  -1.449701748788357E-2  -1.563912816345692E-2  -1.601152122020721E-2   9.969336390495300E-1  
 6.250000000000000E7    -9.962838292121887E-1  -3.378130495548248E-2  -1.561171654611826E-2  -1.611686125397682E-2  -1.564237102866173E-2  -1.607739552855492E-2  -3.313496708869934E-3   9.970859885215759E-1  
 6.280000000000000E7    -9.961848855018616E-1   3.689974546432495E-4  -1.686324924230576E-2  -1.660535857081413E-2  -1.679774373769760E-2  -1.658579893410206E-2   9.432658553123474E-3   9.972444176673889E-1  
 6.310000000000000E7    -9.955419898033142E-1   3.592084348201752E-2  -1.815575361251831E-2  -1.700929738581181E-2  -1.804261840879917E-2  -1.696675643324852E-2   2.203860878944397E-2   9.970894455909729E-1  
 6.340000000000000E7    -9.935636520385742E-1   6.965121626853943E-2  -1.940763369202614E-2  -1.738600060343742E-2  -1.938000693917275E-2  -1.733523979783058E-2   3.488124907016754E-2   9.969242811203003E-1  
 6.370000000000000E7    -9.908227324485779E-1   1.040222868323326E-1  -2.077190764248371E-2  -1.770578138530254E-2  -2.074250578880310E-2  -1.766888611018658E-2   4.675394296646118E-2   9.952063560485840E-1  
 6.400000000000000E7    -9.859793782234192E-1   1.376773416996002E-1  -2.218422666192055E-2  -1.795336417853832E-2  -2.207637764513493E-2  -1.793661899864674E-2   5.975469946861267E-2   9.956235885620117E-1  
 6.430000000000000E7    -9.806256294250488E-1   1.723983138799667E-1  -2.360936440527439E-2  -1.831932552158833E-2  -2.355707250535488E-2  -1.819222792983055E-2   7.218849658966065E-2   9.941114783287048E-1  
 6.460000000000000E7    -9.749166369438171E-1   2.058733105659485E-1  -2.503772452473640E-2  -1.849590614438057E-2  -2.495371177792549E-2  -1.849112659692764E-2   8.343239128589630E-2   9.925997853279114E-1  
 6.490000000000000E7    -9.680275917053223E-1   2.387057542800903E-1  -2.651462703943253E-2  -1.870783045887947E-2  -2.655423060059547E-2  -1.871494948863983E-2   9.537228196859360E-2   9.923022985458374E-1  
 6.520000000000000E7    -9.581954479217529E-1   2.717953920364380E-1  -2.813934907317162E-2  -1.889423839747906E-2  -2.805904485285282E-2  -1.876808516681194E-2   1.082754060626030E-1   9.915919303894043E-1  
 6.550000000000000E7    -9.486089944839478E-1   3.038691580295563E-1  -2.971212193369865E-2  -1.891311816871166E-2  -2.963460981845856E-2  -1.891972683370113E-2   1.205385327339172E-1   9.881358742713928E-1  
 6.580000000000000E7    -9.369823932647705E-1   3.367150723934174E-1  -3.138090297579765E-2  -1.889478415250778E-2  -3.127191588282585E-2  -1.895133778452873E-2   1.330436766147614E-1   9.884639978408814E-1  
 6.610000000000000E7    -9.239352941513062E-1   3.686827719211578E-1  -3.309394046664238E-2  -1.890738308429718E-2  -3.287317603826523E-2  -1.869894005358219E-2   1.463867872953415E-1   9.849263429641724E-1  
 6.640000000000000E7    -9.121500253677368E-1   4.002549052238464E-1  -3.473778814077377E-2  -1.887435093522072E-2  -3.471813350915909E-2  -1.885930635035038E-2   1.585937440395355E-1   9.832410812377930E-1  
 6.670000000000000E7    -8.972530961036682E-1   4.313418269157410E-1  -3.641917183995247E-2  -1.869601011276245E-2  -3.641709685325623E-2  -1.870393566787243E-2   1.697074472904205E-1   9.820364117622376E-1  
 6.700000000000000E7    -8.814856410026550E-1   4.620133042335510E-1  -3.821022063493729E-2  -1.849526911973953E-2  -3.809532523155212E-2  -1.839646138250828E-2   1.817689090967178E-1   9.786183834075928E-1  
 6.730000000000000E7    -8.651049733161926E-1   4.919495582580566E-1  -3.987266868352890E-2  -1.821729168295860E-2  -3.995436429977417E-2  -1.806156523525715E-2   1.948607563972473E-1   9.774739146232605E-1  
 6.760000000000000E7    -8.479940295219421E-1   5.213322639465332E-1  -4.190814495086670E-2  -1.776427961885929E-2  -4.179078340530396E-2  -1.781842857599258E-2   2.072607874870300E-1   9.741594195365906E-1  
 6.790000000000000E7    -8.292140960693359E-1   5.505086779594421E-1  -4.367290437221527E-2  -1.744337193667889E-2  -4.361778125166893E-2  -1.740616932511330E-2   2.186198830604553E-1   9.709540605545044E-1  
 6.820000000000000E7    -8.093527555465698E-1   5.778422355651856E-1  -4.557512700557709E-2  -1.682557724416256E-2  -4.548793286085129E-2  -1.686000265181065E-2   2.304614633321762E-1   9.686957597732544E-1  
 6.850000000000000E7    -7.896946668624878E-1   6.062743663787842E-1  -4.757068678736687E-2  -1.650993153452873E-2  -4.753371328115463E-2  -1.646840013563633E-2   2.420499920845032E-1   9.660725593566895E-1  
 6.880000000000000E7    -7.679058313369751E-1   6.325636506080627E-1  -4.951165616512299E-2  -1.573042199015617E-2  -4.939726740121841E-2  -1.566757261753082E-2   2.551753222942352E-1   9.619851708412170E-1  
 6.910000000000000E7    -7.451901435852051E-1   6.589171886444092E-1  -5.159109458327293E-2  -1.504972390830517E-2  -5.148458480834961E-2  -1.500721182674170E-2   2.675119042396545E-1   9.591108560562134E-1  
 6.940000000000000E7    -7.225235104560852E-1   6.841673254966736E-1  -5.349421501159668E-2  -1.440075691789389E-2  -5.357025563716888E-2  -1.430005859583616E-2   2.785015702247620E-1   9.557951688766480E-1  
 6.970000000000000E7    -6.972039341926575E-1   7.087174654006958E-1  -5.550358444452286E-2  -1.353570166975260E-2  -5.548703670501709E-2  -1.326267234981060E-2   2.911843955516815E-1   9.514777660369873E-1  
 7.000000000000000E7    -6.725319027900696E-1   7.331674098968506E-1  -5.758670344948769E-2  -1.250042114406824E-2  -5.746706947684288E-2  -1.242305617779493E-2   3.024905622005463E-1   9.485822319984436E-1  
