#  HZ   S   RI   R     50.00 
! Rohde & Schwarz ZVT8 8Ports - Version 4.11 - 1300.0000k08 SN: 100242
! Date: 2026-07-31 14:41:49
! Measurements: S11 S21 S12 S22 
! 
 1.000000000000000E7    -4.097931683063507E-1   9.084186553955078E-1   5.066123604774475E-2   5.158956348896027E-2   5.065513029694557E-2   5.160433053970337E-2  -9.184175729751587E-1   3.868362605571747E-1  
 1.030000000000000E7    -3.774987459182739E-1   9.210023880004883E-1   5.369431525468826E-2   5.180393531918526E-2   5.365932360291481E-2   5.191713571548462E-2  -9.126101136207581E-1   3.993546366691589E-1  
 1.060000000000000E7    -3.424404859542847E-1   9.342821836471558E-1   5.696027725934982E-2   5.280411243438721E-2   5.678242444992065E-2   5.242565646767616E-2  -9.088873863220215E-1   4.112078547477722E-1  
 1.090000000000000E7    -3.111349940299988E-1   9.447029232978821E-1   6.019524112343788E-2   5.304264277219772E-2   6.008960306644440E-2   5.289186164736748E-2  -9.027071595191956E-1   4.234742522239685E-1  
 1.120000000000000E7    -2.763483226299286E-1   9.540405869483948E-1   6.377029418945313E-2   5.356480181217194E-2   6.340283155441284E-2   5.328506976366043E-2  -8.969466090202332E-1   4.353756606578827E-1  
 1.150000000000000E7    -2.421330064535141E-1   9.648157358169556E-1   6.716784834861755E-2   5.352565273642540E-2   6.692992895841599E-2   5.335381254553795E-2  -8.897306919097900E-1   4.452017843723297E-1  
 1.180000000000000E7    -2.078239023685455E-1   9.701573252677918E-1   7.054550945758820E-2   5.371463298797607E-2   7.038940489292145E-2   5.363670736551285E-2  -8.850808739662170E-1   4.559591412544251E-1  
 1.210000000000000E7    -1.740707308053970E-1   9.773118495941162E-1   7.424538582563400E-2   5.376411229372025E-2   7.411129027605057E-2   5.375742912292481E-2  -8.771963715553284E-1   4.687673747539520E-1  
 1.240000000000000E7    -1.394417732954025E-1   9.818900823593140E-1   7.792478799819946E-2   5.379208922386169E-2   7.788193225860596E-2   5.340602993965149E-2  -8.706202507019043E-1   4.795655608177185E-1  
 1.270000000000000E7    -1.044895723462105E-1   9.857845306396484E-1   8.205383270978928E-2   5.327872559428215E-2   8.168175816535950E-2   5.296988040208817E-2  -8.632009625434876E-1   4.934445917606354E-1  
 1.300000000000000E7    -7.008598744869232E-2   9.894050955772400E-1   8.567985147237778E-2   5.295450612902641E-2   8.564554154872894E-2   5.283361673355103E-2  -8.561944365501404E-1   5.042253136634827E-1  
 1.330000000000000E7    -3.479288890957832E-2   9.913783073425293E-1   8.989860117435455E-2   5.229408293962479E-2   8.976566791534424E-2   5.195649713277817E-2  -8.481296896934509E-1   5.163455009460449E-1  
 1.360000000000000E7     9.630471467971802E-4   9.916616082191467E-1   9.412367641925812E-2   5.194310843944550E-2   9.406831115484238E-2   5.131531506776810E-2  -8.404213786125183E-1   5.266721248626709E-1  
 1.390000000000000E7     3.501775860786438E-2   9.901076555252075E-1   9.835183620452881E-2   5.062524601817131E-2   9.811343252658844E-2   5.084041878581047E-2  -8.325507640838623E-1   5.386140346527100E-1  
 1.420000000000000E7     7.092496007680893E-2   9.882491230964661E-1   1.023590639233589E-1   4.994477331638336E-2   1.023572534322739E-1   4.998449608683586E-2  -8.259514570236206E-1   5.492188930511475E-1  
 1.450000000000000E7     1.058726161718369E-1   9.837065935134888E-1   1.069797575473785E-1   4.863103851675987E-2   1.069304943084717E-1   4.853230342268944E-2  -8.149925470352173E-1   5.622661113739014E-1  
 1.480000000000000E7     1.422704011201859E-1   9.792029261589050E-1   1.116563007235527E-1   4.732677713036537E-2   1.114872023463249E-1   4.760001972317696E-2  -8.075592517852783E-1   5.731918811798096E-1  
 1.510000000000000E7     1.765167266130447E-1   9.725807309150696E-1   1.161417141556740E-1   4.586598277091980E-2   1.159657984972000E-1   4.590835794806480E-2  -7.961953282356262E-1   5.853378772735596E-1  
 1.540000000000000E7     2.104900330305100E-1   9.654453992843628E-1   1.207152307033539E-1   4.482069984078407E-2   1.205618977546692E-1   4.424842074513435E-2  -7.899306416511536E-1   5.957172513008118E-1  
 1.570000000000000E7     2.458207458257675E-1   9.580191969871521E-1   1.257285475730896E-1   4.246953874826431E-2   1.256089806556702E-1   4.242370650172234E-2  -7.791473269462585E-1   6.086501479148865E-1  
 1.600000000000000E7     2.806624770164490E-1   9.468457102775574E-1   1.303935945034027E-1   4.033624380826950E-2   1.306695789098740E-1   4.021154716610909E-2  -7.702800631523132E-1   6.181874871253967E-1  
 1.630000000000000E7     3.142386674880981E-1   9.354025721549988E-1   1.357975453138351E-1   3.784996271133423E-2   1.352758556604385E-1   3.805226832628250E-2  -7.593165636062622E-1   6.313839554786682E-1  
 1.660000000000000E7     3.480902314186096E-1   9.217081069946289E-1   1.408459991216660E-1   3.512658551335335E-2   1.406240165233612E-1   3.501629084348679E-2  -7.474377751350403E-1   6.434867382049561E-1  
 1.690000000000000E7     3.812170624732971E-1   9.080512523651123E-1   1.462206691503525E-1   3.286692127585411E-2   1.457813978195190E-1   3.255138546228409E-2  -7.370921969413757E-1   6.541228890419006E-1  
 1.720000000000000E7     4.154428243637085E-1   8.931865692138672E-1   1.508936882019043E-1   2.898805961012840E-2   1.509363502264023E-1   2.950198575854302E-2  -7.256549000740051E-1   6.653532385826111E-1  
 1.750000000000000E7     4.435697495937347E-1   8.791094422340393E-1   1.567453891038895E-1   2.721733227372170E-2   1.570548862218857E-1   2.680529281497002E-2  -7.149894237518311E-1   6.785145998001099E-1  
 1.780000000000000E7     4.785299599170685E-1   8.578469157218933E-1   1.614781767129898E-1   2.290524356067181E-2   1.616870313882828E-1   2.318431064486504E-2  -7.017527818679810E-1   6.875084638595581E-1  
 1.810000000000000E7     5.082275867462158E-1   8.406541347503662E-1   1.682924926280975E-1   1.943286508321762E-2   1.671406924724579E-1   1.873175986111164E-2  -6.889233589172363E-1   7.024735808372498E-1  
 1.840000000000000E7     5.407098531723023E-1   8.204633593559265E-1   1.738585680723190E-1   1.418722141534090E-2   1.730985641479492E-1   1.445094496011734E-2  -6.752228736877441E-1   7.131959199905396E-1  
 1.870000000000000E7     5.682013630867004E-1   7.993338704109192E-1   1.793180257081986E-1   1.042670384049416E-2   1.786214262247086E-1   1.001334376633167E-2  -6.613113880157471E-1   7.236882448196411E-1  
 1.900000000000000E7     5.972432494163513E-1   7.771427631378174E-1   1.848997622728348E-1   5.687180906534195E-3   1.848218739032745E-1   5.295980721712112E-3  -6.465459465980530E-1   7.347718477249146E-1  
 1.930000000000000E7     6.257972121238709E-1   7.528194785118103E-1   1.905926167964935E-1  -4.609003663063049E-4   1.907079368829727E-1   4.133842885494232E-4  -6.317210197448731E-1   7.478299736976624E-1  
 1.960000000000000E7     6.535918712615967E-1   7.269801497459412E-1   1.964689195156097E-1  -5.812594667077065E-3   1.963656097650528E-1  -5.186878144741058E-3  -6.180798411369324E-1   7.576429843902588E-1  
 1.990000000000000E7     6.780426502227783E-1   7.011469602584839E-1   2.022965550422669E-1  -1.181590557098389E-2   2.025951743125916E-1  -1.167975086718798E-2  -5.993697643280029E-1   7.709900736808777E-1  
 2.020000000000000E7     7.035723924636841E-1   6.738419532775879E-1   2.087180316448212E-1  -1.798917725682259E-2   2.079901248216629E-1  -1.779180951416493E-2  -5.842040777206421E-1   7.792188525199890E-1  
 2.050000000000000E7     7.292993664741516E-1   6.455385684967041E-1   2.145801782608032E-1  -2.461737580597401E-2   2.132665216922760E-1  -2.506869472563267E-2  -5.668441653251648E-1   7.906408309936523E-1  
 2.080000000000000E7     7.515404820442200E-1   6.145560145378113E-1   2.208323478698731E-1  -3.219060227274895E-2   2.207897305488586E-1  -3.198920935392380E-2  -5.491790771484375E-1   8.032231330871582E-1  
 2.110000000000000E7     7.745594978332520E-1   5.845011472702026E-1   2.271846383810043E-1  -4.080871120095253E-2   2.271710932254791E-1  -4.061292111873627E-2  -5.296297073364258E-1   8.136430382728577E-1  
 2.140000000000000E7     7.950446605682373E-1   5.533454418182373E-1   2.333306819200516E-1  -4.960333183407784E-2   2.322811484336853E-1  -4.876194894313812E-2  -5.099047422409058E-1   8.234093785285950E-1  
 2.170000000000000E7     8.130900263786316E-1   5.220702886581421E-1   2.394369840621948E-1  -5.808962881565094E-2   2.390705496072769E-1  -5.740430951118469E-2  -4.897134304046631E-1   8.337724208831787E-1  
 2.200000000000000E7     8.330667018890381E-1   4.872090518474579E-1   2.452061772346497E-1  -6.826643645763397E-2   2.450785338878632E-1  -6.783944368362427E-2  -4.665063917636871E-1   8.431696891784668E-1  
 2.230000000000000E7     8.481948375701904E-1   4.530094861984253E-1   2.511293590068817E-1  -7.858020067214966E-2   2.506762444972992E-1  -7.809787988662720E-2  -4.441835880279541E-1   8.526376485824585E-1  
 2.260000000000000E7     8.639528751373291E-1   4.174712300300598E-1   2.565615773200989E-1  -8.983495086431503E-2   2.581400275230408E-1  -8.929635584354401E-2  -4.214015305042267E-1   8.615824580192566E-1  
 2.290000000000000E7     8.776133060455322E-1   3.813780546188355E-1   2.624559998512268E-1  -1.015762835741043E-1   2.629359066486359E-1  -1.008543893694878E-1  -3.947431147098541E-1   8.694999217987061E-1  
 2.320000000000000E7     8.884026408195496E-1   3.448963463306427E-1   2.683759629726410E-1  -1.150469705462456E-1   2.678162455558777E-1  -1.151952445507050E-1  -3.693112730979919E-1   8.795845508575440E-1  
 2.350000000000000E7     8.989335298538208E-1   3.060978651046753E-1   2.737925946712494E-1  -1.296729296445847E-1   2.732363641262054E-1  -1.286106407642365E-1  -3.420396149158478E-1   8.867470622062683E-1  
 2.380000000000000E7     9.071152806282044E-1   2.687783241271973E-1   2.785920202732086E-1  -1.433425098657608E-1   2.787042260169983E-1  -1.431443095207214E-1  -3.135621249675751E-1   8.937253355979919E-1  
 2.410000000000000E7     9.144293069839478E-1   2.291179001331329E-1   2.830848097801209E-1  -1.599313616752625E-1   2.825386822223663E-1  -1.593603640794754E-1  -2.829283475875855E-1   8.989889621734619E-1  
 2.440000000000000E7     9.181133508682251E-1   1.904858946800232E-1   2.875688076019287E-1  -1.773348897695541E-1   2.877539992332459E-1  -1.772750765085220E-1  -2.524827122688294E-1   9.040136337280273E-1  
 2.470000000000000E7     9.206926226615906E-1   1.506715714931488E-1   2.908902466297150E-1  -1.960515081882477E-1   2.906009554862976E-1  -1.939506232738495E-1  -2.177648693323135E-1   9.061805009841919E-1  
 2.500000000000000E7     9.221346974372864E-1   1.105421259999275E-1   2.936164736747742E-1  -2.146429866552353E-1   2.933553457260132E-1  -2.154804021120071E-1  -1.817263364791870E-1   9.096780419349670E-1  
 2.530000000000000E7     9.207236170768738E-1   7.015046477317810E-2   2.967964112758637E-1  -2.355906069278717E-1   2.963961362838745E-1  -2.349236160516739E-1  -1.454865783452988E-1   9.095696210861206E-1  
 2.560000000000000E7     9.161087274551392E-1   3.103586658835411E-2   2.977596223354340E-1  -2.569421231746674E-1   2.984193265438080E-1  -2.571936249732971E-1  -1.072414964437485E-1   9.088661074638367E-1  
 2.590000000000000E7     9.089277386665344E-1  -8.523181080818176E-3   2.969469130039215E-1  -2.821502387523651E-1   2.975479960441589E-1  -2.821788191795349E-1  -6.566748023033142E-2   9.071713685989380E-1  
 2.620000000000000E7     8.997156620025635E-1  -4.849255830049515E-2   2.956106364727020E-1  -3.084552586078644E-1   2.953615784645081E-1  -3.072220385074616E-1  -2.078164555132389E-2   9.005141854286194E-1  
 2.650000000000000E7     8.879097104072571E-1  -8.752719312906265E-2   2.932499349117279E-1  -3.339703083038330E-1   2.929841279983521E-1  -3.344910144805908E-1   2.275580912828445E-2   8.912926316261292E-1  
 2.680000000000000E7     8.729091286659241E-1  -1.250078529119492E-1   2.888203859329224E-1  -3.631523251533508E-1   2.884320020675659E-1  -3.636732995510101E-1   6.963259726762772E-2   8.791239857673645E-1  
 2.710000000000000E7     8.555179834365845E-1  -1.626724600791931E-1   2.793869674205780E-1  -3.940013647079468E-1   2.788686454296112E-1  -3.937008976936340E-1   1.189539730548859E-1   8.640478849411011E-1  
 2.740000000000000E7     8.355494141578674E-1  -1.989341974258423E-1   2.714518010616303E-1  -4.264495670795441E-1   2.703301012516022E-1  -4.267017245292664E-1   1.691060811281204E-1   8.411200046539307E-1  
 2.770000000000000E7     8.136248588562012E-1  -2.312931865453720E-1   2.565798759460449E-1  -4.599384963512421E-1   2.561610341072083E-1  -4.607667326927185E-1   2.221269905567169E-1   8.151291012763977E-1  
 2.800000000000000E7     7.891498804092407E-1  -2.628890573978424E-1   2.401169687509537E-1  -4.942645132541657E-1   2.412561774253845E-1  -4.944551885128021E-1   2.761533856391907E-1   7.818384766578674E-1  
 2.830000000000000E7     7.603747844696045E-1  -2.931125164031982E-1   2.186318188905716E-1  -5.294207334518433E-1   2.169556468725205E-1  -5.302119851112366E-1   3.277934491634369E-1   7.447642087936401E-1  
 2.860000000000000E7     7.304490208625794E-1  -3.187370300292969E-1   1.916851997375488E-1  -5.667439699172974E-1   1.894356310367584E-1  -5.667155385017395E-1   3.833546042442322E-1   6.957867145538330E-1  
 2.890000000000000E7     6.988819837570190E-1  -3.392481505870819E-1   1.578920185565949E-1  -6.029993295669556E-1   1.575934290885925E-1  -6.024604439735413E-1   4.349001348018646E-1   6.410098075866699E-1  
 2.920000000000000E7     6.645384430885315E-1  -3.581614494323731E-1   1.217444762587547E-1  -6.386144161224365E-1   1.192791163921356E-1  -6.373796463012695E-1   4.830248057842255E-1   5.775514245033264E-1  
 2.950000000000000E7     6.317517757415772E-1  -3.698574900627136E-1   7.399381697177887E-2  -6.728178262710571E-1   7.414765655994415E-2  -6.705995202064514E-1   5.279529094696045E-1   5.018401145935059E-1  
 2.980000000000000E7     5.969724655151367E-1  -3.788159191608429E-1   2.324964478611946E-2  -7.022709250450134E-1   2.189533784985542E-2  -7.025231719017029E-1   5.659434795379639E-1   4.174542129039764E-1  
 3.010000000000000E7     5.650309920310974E-1  -3.820691704750061E-1  -3.671744465827942E-2  -7.266587615013123E-1  -3.606567531824112E-2  -7.264651060104370E-1   5.941735506057739E-1   3.241801261901856E-1  
 3.040000000000000E7     5.336622595787048E-1  -3.786314427852631E-1  -1.029737219214439E-1  -7.453902959823608E-1  -1.031264439225197E-1  -7.454680204391480E-1   6.081651449203491E-1   2.217174023389816E-1  
 3.070000000000000E7     5.060757398605347E-1  -3.723046779632568E-1  -1.745389699935913E-1  -7.536811828613281E-1  -1.738734096288681E-1  -7.517442703247070E-1   6.115083098411560E-1   1.149361133575440E-1  
 3.100000000000000E7     4.849727153778076E-1  -3.601139187812805E-1  -2.507514357566834E-1  -7.518001198768616E-1  -2.498092502355576E-1  -7.502185106277466E-1   5.981054306030273E-1   2.229996025562286E-3  
 3.130000000000000E7     4.689292311668396E-1  -3.474135100841522E-1  -3.268220126628876E-1  -7.384903430938721E-1  -3.266910612583160E-1  -7.391163706779480E-1   5.639379024505615E-1  -1.103143319487572E-1  
 3.160000000000000E7     4.601815342903137E-1  -3.305581808090210E-1  -4.046523869037628E-1  -7.119947075843811E-1  -4.039375185966492E-1  -7.132517695426941E-1   5.130764245986939E-1  -2.174861282110214E-1  
 3.190000000000000E7     4.568682909011841E-1  -3.158159852027893E-1  -4.776614904403687E-1  -6.744886636734009E-1  -4.759281277656555E-1  -6.738953590393066E-1   4.448006749153137E-1  -3.189777135848999E-1  
 3.220000000000000E7     4.602781236171722E-1  -3.034614920616150E-1  -5.450598597526550E-1  -6.269372105598450E-1  -5.432492494583130E-1  -6.255624890327454E-1   3.604559600353241E-1  -4.073108732700348E-1  
 3.250000000000000E7     4.713124036788940E-1  -2.949416041374207E-1  -6.021847724914551E-1  -5.671256184577942E-1  -6.022458076477051E-1  -5.667600631713867E-1   2.631259262561798E-1  -4.796549677848816E-1  
 3.280000000000000E7     4.863413274288178E-1  -2.920994758605957E-1  -6.492246985435486E-1  -4.991230368614197E-1  -6.474361419677734E-1  -5.008904933929443E-1   1.569241583347321E-1  -5.367817282676697E-1  
 3.310000000000000E7     5.004431605339050E-1  -2.953385710716248E-1  -6.853182911872864E-1  -4.306802749633789E-1  -6.840351819992065E-1  -4.300783574581146E-1   4.595071822404862E-2  -5.733296871185303E-1  
 3.340000000000000E7     5.188465714454651E-1  -3.068749904632568E-1  -7.096098065376282E-1  -3.570937216281891E-1  -7.089585661888123E-1  -3.569769263267517E-1  -6.560461223125458E-2  -5.938908457756043E-1  
 3.370000000000000E7     5.355077385902405E-1  -3.222923576831818E-1  -7.215329408645630E-1  -2.839742898941040E-1  -7.205315828323364E-1  -2.854257524013519E-1  -1.749885976314545E-1  -5.947764515876770E-1  
 3.400000000000000E7     5.503631234169006E-1  -3.453363776206970E-1  -7.240225672721863E-1  -2.142719328403473E-1  -7.242137193679810E-1  -2.147124856710434E-1  -2.761925756931305E-1  -5.823115706443787E-1  
 3.430000000000000E7     5.613240003585815E-1  -3.730762898921967E-1  -7.191179394721985E-1  -1.486284136772156E-1  -7.171446084976196E-1  -1.478436887264252E-1  -3.708060085773468E-1  -5.594211816787720E-1  
 3.460000000000000E7     5.691990256309509E-1  -4.040609598159790E-1  -7.061628103256226E-1  -8.728032559156418E-2  -7.049213051795960E-1  -8.755097538232803E-2  -4.542689919471741E-1  -5.255749821662903E-1  
 3.490000000000000E7     5.711409449577332E-1  -4.395669698715210E-1  -6.871081590652466E-1  -3.280198574066162E-2  -6.842937469482422E-1  -3.030094318091869E-2  -5.317289233207703E-1  -4.849888384342194E-1  
 3.520000000000000E7     5.718457698822022E-1  -4.758552610874176E-1  -6.634447574615479E-1   1.864742115139961E-2  -6.615317463874817E-1   1.769371889531612E-2  -5.978550910949707E-1  -4.388742446899414E-1  
 3.550000000000000E7     5.657657980918884E-1  -5.142807960510254E-1  -6.358061432838440E-1   6.217494606971741E-2  -6.355705857276917E-1   6.243072077631950E-2  -6.548550724983215E-1  -3.886758685112000E-1  
 3.580000000000000E7     5.549413561820984E-1  -5.520169138908386E-1  -6.077205538749695E-1   1.018009930849075E-1  -6.071379780769348E-1   1.011384576559067E-1  -7.042865753173828E-1  -3.379468619823456E-1  
 3.610000000000000E7     5.391241908073425E-1  -5.915570855140686E-1  -5.789108276367188E-1   1.346800923347473E-1  -5.774979591369629E-1   1.351767182350159E-1  -7.471891641616821E-1  -2.858727574348450E-1  
 3.640000000000000E7     5.206116437911987E-1  -6.288880705833435E-1  -5.472989082336426E-1   1.638648509979248E-1  -5.483033061027527E-1   1.638587713241577E-1  -7.805237770080566E-1  -2.331010401248932E-1  
 3.670000000000000E7     4.983446598052979E-1  -6.653369069099426E-1  -5.176355242729187E-1   1.890845000743866E-1  -5.162448287010193E-1   1.890195459127426E-1  -8.086956739425659E-1  -1.828614473342896E-1  
 3.700000000000000E7     4.708827435970306E-1  -7.003735303878784E-1  -4.873404502868652E-1   2.107666134834290E-1  -4.877034127712250E-1   2.103605866432190E-1  -8.327149152755737E-1  -1.323763132095337E-1  
 3.730000000000000E7     4.413296580314636E-1  -7.329373955726624E-1  -4.566816687583923E-1   2.299905568361282E-1  -4.575017988681793E-1   2.289814352989197E-1  -8.497896194458008E-1  -8.346883207559586E-2  
 3.760000000000000E7     4.081075787544251E-1  -7.631282806396484E-1  -4.295899271965027E-1   2.442159950733185E-1  -4.296634197235107E-1   2.439292669296265E-1  -8.649205565452576E-1  -3.737186640501022E-2  
 3.790000000000000E7     3.724393844604492E-1  -7.929030060768127E-1  -4.013432562351227E-1   2.557004094123840E-1  -4.008200764656067E-1   2.562808096408844E-1  -8.754882812500000E-1   6.827093660831451E-3  
 3.820000000000000E7     3.329417407512665E-1  -8.197211027145386E-1  -3.753576576709747E-1   2.660076320171356E-1  -3.744908571243286E-1   2.668310701847076E-1  -8.820745348930359E-1   4.984325915575028E-2  
 3.850000000000000E7     2.917208969593048E-1  -8.432492613792419E-1  -3.485065102577210E-1   2.737823724746704E-1  -3.474639654159546E-1   2.746964991092682E-1  -8.886404633522034E-1   9.055454283952713E-2  
 3.880000000000000E7     2.493927627801895E-1  -8.635078668594360E-1  -3.239670097827911E-1   2.819446623325348E-1  -3.231940269470215E-1   2.799392640590668E-1  -8.917437195777893E-1   1.292384713888168E-1  
 3.910000000000000E7     2.041284441947937E-1  -8.834838271141052E-1  -2.990604937076569E-1   2.865344583988190E-1  -2.990720868110657E-1   2.865588366985321E-1  -8.932517170906067E-1   1.670111715793610E-1  
 3.940000000000000E7     1.582873761653900E-1  -8.980923295021057E-1  -2.768653929233551E-1   2.888842225074768E-1  -2.765015661716461E-1   2.887835502624512E-1  -8.910401463508606E-1   2.017444223165512E-1  
 3.970000000000000E7     1.107873469591141E-1  -9.130187034606934E-1  -2.548452615737915E-1   2.914888262748718E-1  -2.541716098785400E-1   2.921647131443024E-1  -8.871881365776062E-1   2.361101955175400E-1  
 4.000000000000000E7     6.076060980558395E-2  -9.213508367538452E-1  -2.332893162965775E-1   2.930741310119629E-1  -2.331266701221466E-1   2.928175926208496E-1  -8.850991725921631E-1   2.677051723003388E-1  
 4.030000000000000E7     1.057460159063339E-2  -9.282560348510742E-1  -2.145373374223709E-1   2.935332655906677E-1  -2.124513983726502E-1   2.926696836948395E-1  -8.802126646041870E-1   2.983500659465790E-1  
 4.060000000000000E7    -4.014038294553757E-2  -9.321789741516113E-1  -1.946716010570526E-1   2.922477722167969E-1  -1.938790977001190E-1   2.924929857254028E-1  -8.735958337783814E-1   3.280245959758759E-1  
 4.090000000000000E7    -9.254068136215210E-2  -9.319321513175964E-1  -1.749821901321411E-1   2.906470596790314E-1  -1.746354103088379E-1   2.899846434593201E-1  -8.678482174873352E-1   3.553282618522644E-1  
 4.120000000000000E7    -1.458221375942230E-1  -9.305308461189270E-1  -1.574312001466751E-1   2.876352667808533E-1  -1.578780412673950E-1   2.885410785675049E-1  -8.596820235252380E-1   3.832253813743591E-1  
 4.150000000000000E7    -1.981101930141449E-1  -9.237810373306274E-1  -1.411150991916657E-1   2.862015366554260E-1  -1.411234289407730E-1   2.855215966701508E-1  -8.517704606056213E-1   4.084600806236267E-1  
 4.180000000000000E7    -2.520321309566498E-1  -9.134160280227661E-1  -1.241869777441025E-1   2.824001908302307E-1  -1.244789808988571E-1   2.811070382595062E-1  -8.441282510757446E-1   4.318693280220032E-1  
 4.210000000000000E7    -3.055262565612793E-1  -9.006440639495850E-1  -1.090852245688438E-1   2.783323824405670E-1  -1.093112602829933E-1   2.781754732131958E-1  -8.354718685150147E-1   4.555723369121552E-1  
 4.240000000000000E7    -3.578300178050995E-1  -8.833791017532349E-1  -9.464283287525177E-2   2.733305692672730E-1  -9.449213743209839E-2   2.736241519451141E-1  -8.271583318710327E-1   4.772690534591675E-1  
 4.270000000000000E7    -4.120838642120361E-1  -8.618861436843872E-1  -8.002492785453796E-2   2.692098319530487E-1  -7.971633225679398E-2   2.681754827499390E-1  -8.172401785850525E-1   4.998993575572968E-1  
 4.300000000000000E7    -4.645317494869232E-1  -8.362454771995544E-1  -6.614524871110916E-2   2.633007168769836E-1  -6.645078212022781E-2   2.628242671489716E-1  -8.072402477264404E-1   5.212934613227844E-1  
 4.330000000000000E7    -5.171014666557312E-1  -8.116735816001892E-1  -5.320535600185394E-2   2.570318877696991E-1  -5.369367823004723E-2   2.571305036544800E-1  -7.964023947715759E-1   5.399422049522400E-1  
 4.360000000000000E7    -5.667564868927002E-1  -7.785233259201050E-1  -4.200848191976547E-2   2.502610981464386E-1  -4.174482449889183E-2   2.502881586551666E-1  -7.868451476097107E-1   5.592082738876343E-1  
 4.390000000000000E7    -6.177038550376892E-1  -7.412970066070557E-1  -2.970462664961815E-2   2.438604384660721E-1  -2.876703068614006E-2   2.440319359302521E-1  -7.754087448120117E-1   5.766294002532959E-1  
 4.420000000000000E7    -6.645610928535461E-1  -7.019040584564209E-1  -1.795206405222416E-2   2.366110384464264E-1  -1.773113571107388E-2   2.362782806158066E-1  -7.636762857437134E-1   5.945788025856018E-1  
 4.450000000000000E7    -7.109096646308899E-1  -6.574751734733582E-1  -8.164711296558380E-3   2.290576398372650E-1  -7.900930941104889E-3   2.288328260183334E-1  -7.541939616203308E-1   6.114068031311035E-1  
 4.480000000000000E7    -7.550589442253113E-1  -6.089562177658081E-1   2.013066783547401E-3   2.209770977497101E-1   2.182273194193840E-3   2.209928780794144E-1  -7.430965900421143E-1   6.271156668663025E-1  
 4.510000000000000E7    -7.962635755538940E-1  -5.573209524154663E-1   1.117587089538574E-2   2.128024697303772E-1   1.150626689195633E-2   2.128340452909470E-1  -7.320852875709534E-1   6.435607671737671E-1  
 4.540000000000000E7    -8.336873650550842E-1  -5.014059543609619E-1   2.034447155892849E-2   2.044651508331299E-1   1.970038749277592E-2   2.044967114925385E-1  -7.205703258514404E-1   6.590700745582581E-1  
 4.570000000000000E7    -8.692894577980042E-1  -4.414114952087402E-1   2.854378893971443E-2   1.956724822521210E-1   2.823771163821220E-2   1.958276778459549E-1  -7.087154984474182E-1   6.734499931335449E-1  
 4.600000000000000E7    -9.006911516189575E-1  -3.793544471263886E-1   3.492865711450577E-2   1.865005642175674E-1   3.589167445898056E-2   1.863782107830048E-1  -6.978023052215576E-1   6.873745918273926E-1  
 4.630000000000000E7    -9.268013834953308E-1  -3.090761899948120E-1   4.217809811234474E-2   1.768684983253479E-1   4.258434474468231E-2   1.764502227306366E-1  -6.861231327056885E-1   7.004485726356506E-1  
 4.660000000000000E7    -9.495375156402588E-1  -2.363023310899735E-1   4.910988360643387E-2   1.671154350042343E-1   4.900666698813438E-2   1.670947968959808E-1  -6.738226413726807E-1   7.150164246559143E-1  
 4.690000000000000E7    -9.664281606674194E-1  -1.632213741540909E-1   5.377371609210968E-2   1.574056595563889E-1   5.384778976440430E-2   1.575378328561783E-1  -6.621915698051453E-1   7.270436882972717E-1  
 4.720000000000000E7    -9.774150848388672E-1  -8.525386452674866E-2   5.861043930053711E-2   1.471085846424103E-1   5.860488861799240E-2   1.466961354017258E-1  -6.492291092872620E-1   7.396850585937500E-1  
 4.750000000000000E7    -9.826340675354004E-1  -3.430053591728210E-3   6.283540278673172E-2   1.368544101715088E-1   6.224818527698517E-2   1.369357109069824E-1  -6.378096342086792E-1   7.521379590034485E-1  
 4.780000000000000E7    -9.813970923423767E-1   7.940793037414551E-2   6.620065867900848E-2   1.263515353202820E-1   6.562670320272446E-2   1.260464340448380E-1  -6.247512102127075E-1   7.633066773414612E-1  
 4.810000000000000E7    -9.701240062713623E-1   1.651573777198792E-1   6.791781634092331E-2   1.157859489321709E-1   6.790119409561157E-2   1.156709939241409E-1  -6.136927008628845E-1   7.739900350570679E-1  
 4.840000000000000E7    -9.525316953659058E-1   2.517721056938171E-1   6.944583356380463E-2   1.052357107400894E-1   6.938874721527100E-2   1.047313809394836E-1  -6.018072962760925E-1   7.851088047027588E-1  
 4.870000000000000E7    -9.265773892402649E-1   3.377972841262817E-1   7.011935859918594E-2   9.467805176973343E-2   6.988755613565445E-2   9.438674151897430E-2  -5.892653465270996E-1   7.958646416664124E-1  
 4.900000000000000E7    -8.909493088722229E-1   4.236184060573578E-1   6.973023712635040E-2   8.396888524293900E-2   6.940788775682449E-2   8.385706692934036E-2  -5.771117210388184E-1   8.056333065032959E-1  
 4.930000000000000E7    -8.456255197525024E-1   5.077741146087647E-1   6.832456588745117E-2   7.341240346431732E-2   6.850311160087585E-2   7.334995269775391E-2  -5.638124942779541E-1   8.161218166351318E-1  
 4.960000000000000E7    -7.933213710784912E-1   5.878118276596069E-1   6.598170101642609E-2   6.363427639007568E-2   6.566169857978821E-2   6.343272328376770E-2  -5.515318512916565E-1   8.255573511123657E-1  
 4.990000000000000E7    -7.294626832008362E-1   6.654367446899414E-1   6.289516389369965E-2   5.387288704514504E-2   6.277035176753998E-2   5.390238389372826E-2  -5.393127202987671E-1   8.341261744499207E-1  
 5.020000000000000E7    -6.559705138206482E-1   7.392760515213013E-1   5.876948311924934E-2   4.464557021856308E-2   5.877991765737534E-2   4.443903267383575E-2  -5.264292955398560E-1   8.434978723526001E-1  
 5.050000000000000E7    -5.743603110313416E-1   8.048495054244995E-1   5.377976968884468E-2   3.601649776101112E-2   5.360446125268936E-2   3.599847480654717E-2  -5.141952633857727E-1   8.528094291687012E-1  
 5.080000000000000E7    -4.829092919826508E-1   8.630372285842896E-1   4.776055365800858E-2   2.796178124845028E-2   4.762939736247063E-2   2.793274074792862E-2  -5.001807808876038E-1   8.590971827507019E-1  
 5.110000000000000E7    -3.840565383434296E-1   9.102429747581482E-1   4.103059321641922E-2   2.081103436648846E-2   4.102568700909615E-2   2.078441716730595E-2  -4.886421859264374E-1   8.679434061050415E-1  
 5.140000000000000E7    -2.807528376579285E-1   9.488621354103088E-1   3.375083580613136E-2   1.470335666090250E-2   3.365779295563698E-2   1.465579215437174E-2  -4.752888083457947E-1   8.771061301231384E-1  
 5.170000000000000E7    -1.678645610809326E-1   9.749302268028259E-1   2.569959126412869E-2   9.341617114841938E-3   2.568833343684673E-2   9.425180032849312E-3  -4.612859189510346E-1   8.828206062316895E-1  
 5.200000000000000E7    -5.303594842553139E-2   9.873977303504944E-1   1.723998412489891E-2   5.265377461910248E-3   1.717499271035194E-2   5.248629953712225E-3  -4.481782019138336E-1   8.887851238250732E-1  
 5.230000000000000E7     6.290596723556519E-2   9.870867133140564E-1   8.415821939706802E-3   2.384826540946960E-3   8.431767113506794E-3   2.327961614355445E-3  -4.355551302433014E-1   8.964672088623047E-1  
 5.260000000000000E7     1.794692575931549E-1   9.724096059799194E-1  -5.223014159128070E-4   6.248155841603875E-4  -5.237645236775279E-4   6.043624016456306E-4  -4.224279522895813E-1   9.030599594116211E-1  
 5.290000000000000E7     2.945079803466797E-1   9.435203671455383E-1  -9.449735283851624E-3   7.801153697073460E-5  -9.472013451159000E-3   1.083363313227892E-4  -4.098117947578430E-1   9.081758260726929E-1  
 5.320000000000000E7     4.064269065856934E-1   9.002306461334229E-1  -1.821367815136910E-2   7.509147981181741E-4  -1.819949597120285E-2   7.705823518335819E-4  -3.964660465717316E-1   9.143759012222290E-1  
 5.350000000000000E7     5.113905072212219E-1   8.458369970321655E-1  -2.671642415225506E-2   2.551272511482239E-3  -2.669445052742958E-2   2.502012532204390E-3  -3.850149810314179E-1   9.198078513145447E-1  
 5.380000000000000E7     6.118775606155396E-1   7.776840925216675E-1  -3.470054268836975E-2   5.516404286026955E-3  -3.461605682969093E-2   5.580811295658350E-3  -3.698235750198364E-1   9.241155982017517E-1  
 5.410000000000000E7     6.981109976768494E-1   6.993959546089172E-1  -4.198649525642395E-2   9.392875246703625E-3  -4.198567941784859E-2   9.382439777255058E-3  -3.577596843242645E-1   9.295981526374817E-1  
 5.440000000000000E7     7.770518064498901E-1   6.107704639434815E-1  -4.856956750154495E-2   1.423909701406956E-2  -4.851832240819931E-2   1.417913939803839E-2  -3.449437618255615E-1   9.332766532897949E-1  
 5.470000000000000E7     8.432790040969849E-1   5.144612789154053E-1  -5.410173535346985E-2   1.986604183912277E-2  -5.422347784042358E-2   1.973628252744675E-2  -3.313095867633820E-1   9.376357197761536E-1  
 5.500000000000000E7     8.963649272918701E-1   4.137759208679199E-1  -5.923024192452431E-2   2.602923288941383E-2  -5.912344530224800E-2   2.598702907562256E-2  -3.185418844223023E-1   9.427887201309204E-1  
 5.530000000000000E7     9.380717873573303E-1   3.074727654457092E-1  -6.307373195886612E-2   3.238017112016678E-2  -6.293522566556931E-2   3.240153193473816E-2  -3.058847784996033E-1   9.458704590797424E-1  
 5.560000000000000E7     9.668277502059937E-1   2.002718150615692E-1  -6.612308323383331E-2   3.952756524085999E-2  -6.585213541984558E-2   3.928515687584877E-2  -2.938250601291657E-1   9.493323564529419E-1  
 5.590000000000000E7     9.823413491249085E-1   9.160590171813965E-2  -6.787263602018356E-2   4.643660783767700E-2  -6.796420365571976E-2   4.635467007756233E-2  -2.805590033531189E-1   9.525970220565796E-1  
 5.620000000000000E7     9.868499636650085E-1  -1.465582847595215E-2  -6.918445229530335E-2   5.360597372055054E-2  -6.897243112325668E-2   5.370342358946800E-2  -2.689755558967590E-1   9.559537768363953E-1  
 5.650000000000000E7     9.797639846801758E-1  -1.193810701370239E-1  -6.913663446903229E-2   6.038581952452660E-2  -6.899890303611755E-2   6.049077957868576E-2  -2.562195658683777E-1   9.587369561195374E-1  
 5.680000000000000E7     9.618852138519287E-1  -2.191387712955475E-1  -6.863908469676971E-2   6.730367243289948E-2  -6.856946647167206E-2   6.716625392436981E-2  -2.432061731815338E-1   9.610788822174072E-1  
 5.710000000000000E7     9.346388578414917E-1  -3.149738013744354E-1  -6.708968430757523E-2   7.382304221391678E-2  -6.739336997270584E-2   7.371121644973755E-2  -2.317782342433929E-1   9.641786813735962E-1  
 5.740000000000000E7     8.996008038520813E-1  -4.061695933341980E-1  -6.518566608428955E-2   8.015420287847519E-2  -6.510558724403381E-2   7.995510846376419E-2  -2.189024388790131E-1   9.665104150772095E-1  
 5.770000000000000E7     8.559061288833618E-1  -4.901338815689087E-1  -6.269984692335129E-2   8.591068536043167E-2  -6.222631782293320E-2   8.567893505096436E-2  -2.080193310976028E-1   9.680647850036621E-1  
 5.800000000000000E7     8.069446086883545E-1  -5.682246088981628E-1  -5.949493497610092E-2   9.169647842645645E-2  -5.937603116035461E-2   9.165120869874954E-2  -1.945843845605850E-1   9.721616506576538E-1  
 5.830000000000000E7     7.525340318679810E-1  -6.376703977584839E-1  -5.585579574108124E-2   9.630883485078812E-2  -5.600856989622116E-2   9.641730040311813E-2  -1.836135387420654E-1   9.737614393234253E-1  
 5.860000000000000E7     6.944974660873413E-1  -7.016961574554443E-1  -5.193319171667099E-2   1.007538288831711E-1  -5.204511061310768E-2   1.008149012923241E-1  -1.710149645805359E-1   9.753394722938538E-1  
 5.890000000000000E7     6.305195689201355E-1  -7.595115900039673E-1  -4.767087846994400E-2   1.049580499529839E-1  -4.767506197094917E-2   1.045696586370468E-1  -1.594269573688507E-1   9.765190482139587E-1  
 5.920000000000000E7     5.657008886337280E-1  -8.101658225059509E-1  -4.322584345936775E-2   1.087339594960213E-1  -4.307384043931961E-2   1.087976619601250E-1  -1.473332792520523E-1   9.794029593467712E-1  
 5.950000000000000E7     4.973631799221039E-1  -8.523795604705811E-1  -3.840898722410202E-2   1.115112751722336E-1  -3.842004016041756E-2   1.115453019738197E-1  -1.351848095655441E-1   9.795090556144714E-1  
 5.980000000000000E7     4.287633895874023E-1  -8.896946310997009E-1  -3.330935537815094E-2   1.145276203751564E-1  -3.348190337419510E-2   1.142849177122116E-1  -1.227326095104218E-1   9.812461733818054E-1  
 6.010000000000000E7     3.582216203212738E-1  -9.185534715652466E-1  -2.888086438179016E-2   1.165478602051735E-1  -2.858497947454453E-2   1.161473095417023E-1  -1.117037385702133E-1   9.834495186805725E-1  
 6.040000000000000E7     2.886113524436951E-1  -9.443118572235107E-1  -2.384196035563946E-2   1.185655370354652E-1  -2.381735481321812E-2   1.184990927577019E-1  -9.945652633905411E-2   9.851518869400024E-1  
 6.070000000000000E7     2.199436277151108E-1  -9.627190828323364E-1  -1.899558305740356E-2   1.198673769831657E-1  -1.890824362635613E-2   1.194954589009285E-1  -8.824273943901062E-2   9.852962493896484E-1  
 6.100000000000000E7     1.502102017402649E-1  -9.747750163078308E-1  -1.352620869874954E-2   1.206243783235550E-1  -1.371167600154877E-2   1.207995489239693E-1  -7.492230087518692E-2   9.868211150169373E-1  
 6.130000000000000E7     8.238374441862106E-2  -9.847262501716614E-1  -9.008809924125671E-3   1.217784658074379E-1  -9.102807380259037E-3   1.214122921228409E-1  -6.260330975055695E-2   9.880055785179138E-1  
 6.160000000000000E7     1.494640950113535E-2  -9.874585270881653E-1  -4.215388558804989E-3   1.217060759663582E-1  -4.115891642868519E-3   1.217834204435349E-1  -5.185438692569733E-2   9.874647855758667E-1  
 6.190000000000000E7    -5.087312310934067E-2  -9.863664507865906E-1   4.937216872349381E-4   1.218353733420372E-1   8.784504607319832E-4   1.217243298888207E-1  -4.038245603442192E-2   9.874030351638794E-1  
 6.220000000000000E7    -1.140115484595299E-1  -9.804510474205017E-1   5.008457228541374E-3   1.212885901331902E-1   5.263782572001219E-3   1.216390132904053E-1  -2.918423153460026E-2   9.894799590110779E-1  
 6.250000000000000E7    -1.769455075263977E-1  -9.716965556144714E-1   9.693603031337261E-3   1.209796592593193E-1   1.003515534102917E-2   1.210156455636025E-1  -1.727549917995930E-2   9.897133708000183E-1  
 6.280000000000000E7    -2.367097884416580E-1  -9.587211012840271E-1   1.428167056292296E-2   1.205152124166489E-1   1.426774077117443E-2   1.201874464750290E-1  -5.108594894409180E-3   9.899280071258545E-1  
 6.310000000000000E7    -2.964859604835510E-1  -9.430797696113586E-1   1.872203871607781E-2   1.197913661599159E-1   1.863130927085877E-2   1.191241592168808E-1   6.967216730117798E-3   9.902476668357849E-1  
 6.340000000000000E7    -3.514028191566467E-1  -9.227942228317261E-1   2.277166955173016E-2   1.183902472257614E-1   2.293121069669724E-2   1.181163787841797E-1   1.892632246017456E-2   9.904572367668152E-1  
 6.370000000000000E7    -4.051632285118103E-1  -9.010277986526489E-1   2.690041810274124E-2   1.168499961495400E-1   2.691972814500332E-2   1.166552081704140E-1   3.025016002357006E-2   9.888119101524353E-1  
 6.400000000000000E7    -4.569555521011353E-1  -8.759304285049439E-1   3.108215518295765E-2   1.153103262186050E-1   3.110873885452747E-2   1.150376796722412E-1   4.233723506331444E-2   9.896233081817627E-1  
 6.430000000000000E7    -5.067206025123596E-1  -8.490757346153259E-1   3.452023863792419E-2   1.138586774468422E-1   3.468280285596848E-2   1.133119091391563E-1   5.434270203113556E-2   9.885030388832092E-1  
 6.460000000000000E7    -5.524582862854004E-1  -8.202188611030579E-1   3.803687170147896E-2   1.116760000586510E-1   3.796195983886719E-2   1.114064604043961E-1   6.537693738937378E-2   9.874929189682007E-1  
 6.490000000000000E7    -5.955181717872620E-1  -7.887841463088989E-1   4.129698127508164E-2   1.094607934355736E-1   4.132245853543282E-2   1.095561012625694E-1   7.690814137458801E-2   9.874671697616577E-1  
 6.520000000000000E7    -6.376209855079651E-1  -7.560318112373352E-1   4.469090700149536E-2   1.078260019421578E-1   4.479242861270905E-2   1.073454171419144E-1   8.899801969528198E-2   9.870927929878235E-1  
 6.550000000000000E7    -6.760749220848084E-1  -7.212536334991455E-1   4.797455668449402E-2   1.053585484623909E-1   4.775475710630417E-2   1.050233393907547E-1   1.006920933723450E-1   9.841395020484924E-1  
 6.580000000000000E7    -7.137247920036316E-1  -6.845206618309021E-1   5.111630633473396E-2   1.028488129377365E-1   5.088437721133232E-2   1.027327179908752E-1   1.125969514250755E-1   9.847626686096191E-1  
 6.610000000000000E7    -7.479546666145325E-1  -6.455255746841431E-1   5.393350496888161E-2   1.005513444542885E-1   5.402692407369614E-2   9.988030046224594E-2   1.255476176738739E-1   9.819574356079102E-1  
 6.640000000000000E7    -7.798230051994324E-1  -6.090571880340576E-1   5.643688142299652E-2   9.808467328548431E-2   5.615953728556633E-2   9.785465896129608E-2   1.373740732669830E-1   9.808754324913025E-1  
 6.670000000000000E7    -8.099655508995056E-1  -5.679144859313965E-1   5.913633108139038E-2   9.529622644186020E-2   5.871656909584999E-2   9.513619542121887E-2   1.477787196636200E-1   9.799218177795410E-1  
 6.700000000000000E7    -8.370270729064941E-1  -5.270984768867493E-1   6.133749336004257E-2   9.274333715438843E-2   6.116020679473877E-2   9.226027876138687E-2   1.594976186752319E-1   9.770710468292236E-1  
 6.730000000000000E7    -8.618840575218201E-1  -4.857140481472015E-1   6.321442127227783E-2   8.998005837202072E-2   6.379634141921997E-2   8.961176872253418E-2   1.718684136867523E-1   9.764606356620789E-1  
 6.760000000000000E7    -8.839251995086670E-1  -4.442567825317383E-1   6.580472737550736E-2   8.712268620729446E-2   6.548187881708145E-2   8.689826726913452E-2   1.839956343173981E-1   9.738826155662537E-1  
 6.790000000000000E7    -9.047538638114929E-1  -4.013576805591583E-1   6.746326386928558E-2   8.431205153465271E-2   6.748715788125992E-2   8.413691818714142E-2   1.948487758636475E-1   9.713029861450195E-1  
 6.820000000000000E7    -9.228459000587463E-1  -3.576982617378235E-1   6.931044161319733E-2   8.129300922155380E-2   6.907432526350021E-2   8.119562268257141E-2   2.063479423522949E-1   9.695365428924561E-1  
 6.850000000000000E7    -9.397861957550049E-1  -3.147869110107422E-1   7.091451436281204E-2   7.892097532749176E-2   7.065555453300476E-2   7.858726382255554E-2   2.174833714962006E-1   9.673358798027039E-1  
 6.880000000000000E7    -9.526697397232056E-1  -2.710763812065125E-1   7.253517955541611E-2   7.585580646991730E-2   7.234456390142441E-2   7.546743005514145E-2   2.297517955303192E-1   9.641201496124268E-1  
 6.910000000000000E7    -9.635041356086731E-1  -2.270737737417221E-1   7.393918931484222E-2   7.281596958637238E-2   7.368060201406479E-2   7.271270453929901E-2   2.417354583740234E-1   9.617382287979126E-1  
 6.940000000000000E7    -9.734197258949280E-1  -1.840116232633591E-1   7.491932064294815E-2   7.013152539730072E-2   7.487333565950394E-2   6.991405785083771E-2   2.526933550834656E-1   9.590947628021240E-1  
 6.970000000000000E7    -9.807598590850830E-1  -1.386019289493561E-1   7.611025124788284E-2   6.700624525547028E-2   7.622414082288742E-2   6.692655384540558E-2   2.646286487579346E-1   9.557222127914429E-1  
 7.000000000000000E7    -9.866275191307068E-1  -9.512740373611450E-2   7.715348154306412E-2   6.427205353975296E-2   7.709839940071106E-2   6.402108818292618E-2   2.759657800197601E-1   9.533681273460388E-1  
