#  HZ   S   RI   R     50.00 
! Rohde & Schwarz ZVT8 8Ports - Version 4.11 - 1300.0000k08 SN: 100242
! Date: 2026-07-31 14:41:15
! Measurements: S11 S21 S12 S22 
! 
 1.000000000000000E7    -4.087176918983460E-1   9.088831543922424E-1   5.099189281463623E-2   5.170837789773941E-2   5.091876909136772E-2   5.179680138826370E-2  -9.183450937271118E-1   3.869372904300690E-1  
 1.030000000000000E7    -3.765465617179871E-1   9.215452075004578E-1   5.407081171870232E-2   5.214660987257958E-2   5.406346544623375E-2   5.221775546669960E-2  -9.121440649032593E-1   3.998498022556305E-1  
 1.060000000000000E7    -3.415018618106842E-1   9.347197413444519E-1   5.747204273939133E-2   5.298130586743355E-2   5.740346014499664E-2   5.263241752982140E-2  -9.084513783454895E-1   4.115298986434937E-1  
 1.090000000000000E7    -3.101515471935272E-1   9.452568292617798E-1   6.079749017953873E-2   5.333177745342255E-2   6.067065149545670E-2   5.324342101812363E-2  -9.024738669395447E-1   4.236027896404266E-1  
 1.120000000000000E7    -2.751196026802063E-1   9.544661641120911E-1   6.437197327613831E-2   5.388734117150307E-2   6.388816237449646E-2   5.374320223927498E-2  -8.968167901039124E-1   4.356085360050201E-1  
 1.150000000000000E7    -2.405605167150497E-1   9.649068117141724E-1   6.761430203914642E-2   5.374957621097565E-2   6.741091609001160E-2   5.377527698874474E-2  -8.894574642181397E-1   4.452021121978760E-1  
 1.180000000000000E7    -2.065882384777069E-1   9.706799983978272E-1   7.103949785232544E-2   5.393823236227036E-2   7.095768302679062E-2   5.385430529713631E-2  -8.849593997001648E-1   4.563870131969452E-1  
 1.210000000000000E7    -1.725484132766724E-1   9.780276417732239E-1   7.490879297256470E-2   5.415056645870209E-2   7.465793192386627E-2   5.403871089220047E-2  -8.771761059761047E-1   4.691374897956848E-1  
 1.240000000000000E7    -1.376459449529648E-1   9.819645285606384E-1   7.846680283546448E-2   5.410341918468475E-2   7.863249629735947E-2   5.384175479412079E-2  -8.704965114593506E-1   4.796523451805115E-1  
 1.270000000000000E7    -1.023639887571335E-1   9.860492348670960E-1   8.316162973642349E-2   5.360831320285797E-2   8.248961716890335E-2   5.329845100641251E-2  -8.630574941635132E-1   4.938982427120209E-1  
 1.300000000000000E7    -6.833043694496155E-2   9.891314506530762E-1   8.658471703529358E-2   5.336435139179230E-2   8.645119518041611E-2   5.319489911198616E-2  -8.550688028335571E-1   5.043195486068726E-1  
 1.330000000000000E7    -3.230407834053040E-2   9.913769960403442E-1   9.091497212648392E-2   5.279982462525368E-2   9.079542756080627E-2   5.232635512948036E-2  -8.476685285568237E-1   5.169970393180847E-1  
 1.360000000000000E7     3.742199391126633E-3   9.915429949760437E-1   9.516368061304092E-2   5.231361091136932E-2   9.520202875137329E-2   5.177662149071693E-2  -8.401717543601990E-1   5.265732407569885E-1  
 1.390000000000000E7     3.772369772195816E-2   9.897928833961487E-1   9.979296475648880E-2   5.106678605079651E-2   9.929598122835159E-2   5.119086056947708E-2  -8.325049281120300E-1   5.388303399085999E-1  
 1.420000000000000E7     7.416952401399612E-2   9.879522323608398E-1   1.040241941809654E-1   5.040646716952324E-2   1.037222295999527E-1   5.033852532505989E-2  -8.256981372833252E-1   5.499486327171326E-1  
 1.450000000000000E7     1.090545505285263E-1   9.830150008201599E-1   1.083983927965164E-1   4.908004403114319E-2   1.084334254264832E-1   4.905544593930244E-2  -8.148183226585388E-1   5.630173087120056E-1  
 1.480000000000000E7     1.455298811197281E-1   9.783704280853272E-1   1.130810081958771E-1   4.763428121805191E-2   1.130918934941292E-1   4.799418151378632E-2  -8.073515892028809E-1   5.739645957946777E-1  
 1.510000000000000E7     1.800352632999420E-1   9.721215367317200E-1   1.178870946168900E-1   4.602237790822983E-2   1.175838559865952E-1   4.596456140279770E-2  -7.956063747406006E-1   5.857393741607666E-1  
 1.540000000000000E7     2.142775505781174E-1   9.641333222389221E-1   1.223351731896401E-1   4.521030560135841E-2   1.222691982984543E-1   4.466128349304199E-2  -7.892530560493469E-1   5.964566469192505E-1  
 1.570000000000000E7     2.497645318508148E-1   9.567209482192993E-1   1.275311857461929E-1   4.294161126017571E-2   1.276444643735886E-1   4.267898574471474E-2  -7.783744931221008E-1   6.096445322036743E-1  
 1.600000000000000E7     2.850310206413269E-1   9.452143907546997E-1   1.324547380208969E-1   4.054731503129005E-2   1.325264275074005E-1   4.048666730523109E-2  -7.689858675003052E-1   6.187114715576172E-1  
 1.630000000000000E7     3.189250230789185E-1   9.336363077163696E-1   1.381487697362900E-1   3.811721503734589E-2   1.375610977411270E-1   3.830953314900398E-2  -7.582977414131165E-1   6.319448351860046E-1  
 1.660000000000000E7     3.526030480861664E-1   9.192607998847961E-1   1.434955298900604E-1   3.540075570344925E-2   1.429615318775177E-1   3.490003570914269E-2  -7.464060187339783E-1   6.443152427673340E-1  
 1.690000000000000E7     3.859822452068329E-1   9.055069088935852E-1   1.488243490457535E-1   3.297778218984604E-2   1.487404406070709E-1   3.266674280166626E-2  -7.359808087348938E-1   6.548764109611511E-1  
 1.720000000000000E7     4.212620854377747E-1   8.903126120567322E-1   1.537228375673294E-1   2.907353639602661E-2   1.538331508636475E-1   2.959465235471726E-2  -7.245933413505554E-1   6.664785146713257E-1  
 1.750000000000000E7     4.491942524909973E-1   8.755769133567810E-1   1.599960178136826E-1   2.700803056359291E-2   1.601173132658005E-1   2.654204517602921E-2  -7.132296562194824E-1   6.795099973678589E-1  
 1.780000000000000E7     4.842323660850525E-1   8.542203307151794E-1   1.648053973913193E-1   2.257892303168774E-2   1.650417000055313E-1   2.276960015296936E-2  -7.004519104957581E-1   6.877508759498596E-1  
 1.810000000000000E7     5.140747427940369E-1   8.359282016754150E-1   1.717340350151062E-1   1.906919851899147E-2   1.706192046403885E-1   1.826578751206398E-2  -6.873254179954529E-1   7.029902338981628E-1  
 1.840000000000000E7     5.468466281890869E-1   8.155835866928101E-1   1.777156591415405E-1   1.368658430874348E-2   1.769081950187683E-1   1.397147960960865E-2  -6.737025976181030E-1   7.136108279228210E-1  
 1.870000000000000E7     5.746178030967712E-1   7.937884330749512E-1   1.833829879760742E-1   9.702410548925400E-3   1.826524883508682E-1   9.246803820133209E-3  -6.594151258468628E-1   7.246968746185303E-1  
 1.900000000000000E7     6.038386225700378E-1   7.710122466087341E-1   1.894334256649017E-1   4.846492782235146E-3   1.889607906341553E-1   4.581183195114136E-3  -6.448221206665039E-1   7.355500459671021E-1  
 1.930000000000000E7     6.327723264694214E-1   7.458716630935669E-1   1.951345205307007E-1  -1.578619703650475E-3   1.954248249530792E-1  -6.547868251800537E-4  -6.299666166305542E-1   7.484838962554932E-1  
 1.960000000000000E7     6.605232954025269E-1   7.192930579185486E-1   2.012588828802109E-1  -7.258397527039051E-3   2.013256102800369E-1  -6.602900102734566E-3  -6.156630516052246E-1   7.586081027984619E-1  
 1.990000000000000E7     6.851027011871338E-1   6.927120685577393E-1   2.075467705726624E-1  -1.354582887142897E-2   2.076872140169144E-1  -1.350036356598139E-2  -5.966176986694336E-1   7.716100215911865E-1  
 2.020000000000000E7     7.107745409011841E-1   6.647953987121582E-1   2.144152522087097E-1  -2.000890299677849E-2   2.135827541351318E-1  -1.988975703716278E-2  -5.813286900520325E-1   7.799855470657349E-1  
 2.050000000000000E7     7.365987896919251E-1   6.349270939826965E-1   2.204467654228210E-1  -2.702141366899014E-2   2.189997285604477E-1  -2.749339863657951E-2  -5.635071396827698E-1   7.912951111793518E-1  
 2.080000000000000E7     7.585728764533997E-1   6.035083532333374E-1   2.269742041826248E-1  -3.494768962264061E-2   2.268393933773041E-1  -3.485647961497307E-2  -5.456017851829529E-1   8.035826086997986E-1  
 2.110000000000000E7     7.813367843627930E-1   5.723513364791870E-1   2.336149215698242E-1  -4.413122683763504E-2   2.335100024938583E-1  -4.388935863971710E-2  -5.255888104438782E-1   8.139113187789917E-1  
 2.140000000000000E7     8.016029596328735E-1   5.402202606201172E-1   2.401937693357468E-1  -5.346512794494629E-2   2.391488999128342E-1  -5.249610543251038E-2  -5.055426359176636E-1   8.234568238258362E-1  
 2.170000000000000E7     8.194453716278076E-1   5.078743696212769E-1   2.465014755725861E-1  -6.241419166326523E-2   2.462810873985291E-1  -6.177862733602524E-2  -4.850102663040161E-1   8.339819908142090E-1  
 2.200000000000000E7     8.390143513679504E-1   4.716714918613434E-1   2.526944875717163E-1  -7.334031164646149E-2   2.526214718818665E-1  -7.296168804168701E-2  -4.615280926227570E-1   8.436038494110107E-1  
 2.230000000000000E7     8.540817499160767E-1   4.363355338573456E-1   2.589859962463379E-1  -8.443535864353180E-2   2.585473358631134E-1  -8.376552909612656E-2  -4.389987587928772E-1   8.527232408523560E-1  
 2.260000000000000E7     8.692926764488220E-1   3.996387124061585E-1   2.648576498031616E-1  -9.637721627950668E-2   2.662222683429718E-1  -9.598289430141449E-2  -4.151594638824463E-1   8.614657521247864E-1  
 2.290000000000000E7     8.821636438369751E-1   3.622014224529266E-1   2.709790170192719E-1  -1.090807169675827E-1   2.715502381324768E-1  -1.083004027605057E-1  -3.885072171688080E-1   8.688985109329224E-1  
 2.320000000000000E7     8.924468159675598E-1   3.243448436260223E-1   2.773115038871765E-1  -1.235695779323578E-1   2.765915989875794E-1  -1.235890835523605E-1  -3.621493875980377E-1   8.784803748130798E-1  
 2.350000000000000E7     9.017683863639832E-1   2.842257916927338E-1   2.827842235565186E-1  -1.390936970710754E-1   2.821269333362579E-1  -1.381241083145142E-1  -3.347174227237701E-1   8.852722048759460E-1  
 2.380000000000000E7     9.089964628219605E-1   2.450730502605438E-1   2.878355085849762E-1  -1.539389938116074E-1   2.878061830997467E-1  -1.539328396320343E-1  -3.053655326366425E-1   8.915759325027466E-1  
 2.410000000000000E7     9.148348569869995E-1   2.037636339664459E-1   2.923389971256256E-1  -1.719535142183304E-1   2.916401326656342E-1  -1.712098866701126E-1  -2.740037441253662E-1   8.961530327796936E-1  
 2.440000000000000E7     9.177445173263550E-1   1.642903089523315E-1   2.970556020736694E-1  -1.908152103424072E-1   2.969306707382202E-1  -1.907774507999420E-1  -2.424029111862183E-1   9.004964232444763E-1  
 2.470000000000000E7     9.182080030441284E-1   1.226093992590904E-1   3.001972734928131E-1  -2.112466543912888E-1   3.001828491687775E-1  -2.088599354028702E-1  -2.074458897113800E-1   9.023116230964661E-1  
 2.500000000000000E7     9.178988337516785E-1   8.058947324752808E-2   3.027089238166809E-1  -2.314665019512177E-1   3.026470839977264E-1  -2.321502566337585E-1  -1.708828508853912E-1   9.047504663467407E-1  
 2.530000000000000E7     9.142733812332153E-1   3.919208049774170E-2   3.056975603103638E-1  -2.541762590408325E-1   3.054267168045044E-1  -2.536178231239319E-1  -1.334518790245056E-1   9.034556746482849E-1  
 2.560000000000000E7     9.075267314910889E-1  -1.702573150396347E-3   3.062347471714020E-1  -2.775869369506836E-1   3.067941367626190E-1  -2.778332233428955E-1  -9.445396065711975E-2   9.010855555534363E-1  
 2.590000000000000E7     8.975080251693726E-1  -4.215832054615021E-2   3.046391904354096E-1  -3.049210309982300E-1   3.053568601608276E-1  -3.051292300224304E-1  -5.229695141315460E-2   8.982481360435486E-1  
 2.620000000000000E7     8.856064081192017E-1  -8.349005877971649E-2   3.021930456161499E-1  -3.336602449417114E-1   3.021327555179596E-1  -3.322571516036987E-1  -6.747277453541756E-3   8.894432783126831E-1  
 2.650000000000000E7     8.707833290100098E-1  -1.229782775044441E-1   2.989459931850433E-1  -3.615958094596863E-1   2.985325157642365E-1  -3.623346984386444E-1   3.776194155216217E-2   8.782929778099060E-1  
 2.680000000000000E7     8.519078493118286E-1  -1.616235971450806E-1   2.925080657005310E-1  -3.933698832988739E-1   2.919896543025971E-1  -3.940522372722626E-1   8.509179204702377E-2   8.632164001464844E-1  
 2.710000000000000E7     8.312128782272339E-1  -1.994799375534058E-1   2.810863852500916E-1  -4.268453419208527E-1   2.806093692779541E-1  -4.265353977680206E-1   1.344108879566193E-1   8.457834124565125E-1  
 2.740000000000000E7     8.066903352737427E-1  -2.356024980545044E-1   2.704704403877258E-1  -4.620497226715088E-1   2.693553268909454E-1  -4.621058106422424E-1   1.844631433486939E-1   8.188725709915161E-1  
 2.770000000000000E7     7.804969549179077E-1  -2.677867412567139E-1   2.523536682128906E-1  -4.982596933841705E-1   2.519826591014862E-1  -4.988150000572205E-1   2.367768287658691E-1   7.890760898590088E-1  
 2.800000000000000E7     7.514618039131165E-1  -2.987318038940430E-1   2.321026027202606E-1  -5.353408455848694E-1   2.331932187080383E-1  -5.351034998893738E-1   2.901218533515930E-1   7.515448927879334E-1  
 2.830000000000000E7     7.177361249923706E-1  -3.267219066619873E-1   2.061982005834580E-1  -5.722334980964661E-1   2.043388783931732E-1  -5.731188058853149E-1   3.400114178657532E-1   7.101869583129883E-1  
 2.860000000000000E7     6.827214360237122E-1  -3.495768904685974E-1   1.736269742250443E-1  -6.112852096557617E-1   1.718588918447495E-1  -6.112046837806702E-1   3.925339877605438E-1   6.564802527427673E-1  
 2.890000000000000E7     6.469324231147766E-1  -3.668489456176758E-1   1.340876668691635E-1  -6.486880183219910E-1   1.337835937738419E-1  -6.480286717414856E-1   4.403988122940064E-1   5.965392589569092E-1  
 2.920000000000000E7     6.083159446716309E-1  -3.814830183982849E-1   9.133770316839218E-2  -6.848735809326172E-1   8.905834704637528E-2  -6.831397414207459E-1   4.835061728954315E-1   5.280379652976990E-1  
 2.950000000000000E7     5.717384219169617E-1  -3.877323269844055E-1   3.659145534038544E-2  -7.176207304000855E-1   3.674988076090813E-2  -7.153552770614624E-1   5.216389894485474E-1   4.477745294570923E-1  
 2.980000000000000E7     5.338155031204224E-1  -3.911061584949493E-1  -2.199706435203552E-2  -7.448174953460693E-1  -2.290736138820648E-2  -7.449996471405029E-1   5.508221387863159E-1   3.597594201564789E-1  
 3.010000000000000E7     5.000753402709961E-1  -3.878617882728577E-1  -8.910764008760452E-2  -7.651714086532593E-1  -8.857502043247223E-2  -7.651053071022034E-1   5.692889094352722E-1   2.638606429100037E-1  
 3.040000000000000E7     4.680301249027252E-1  -3.776653409004211E-1  -1.628214418888092E-1  -7.783478498458862E-1  -1.627397537231445E-1  -7.785288095474243E-1   5.718727111816406E-1   1.614678502082825E-1  
 3.070000000000000E7     4.417777061462402E-1  -3.642280697822571E-1  -2.398562729358673E-1  -7.799056172370911E-1  -2.390604615211487E-1  -7.777357101440430E-1   5.633817911148071E-1   5.669100955128670E-2  
 3.100000000000000E7     4.228120148181915E-1  -3.456635773181915E-1  -3.203445672988892E-1  -7.693096995353699E-1  -3.189839720726013E-1  -7.676715850830078E-1   5.377233028411865E-1  -5.088962614536285E-2  
 3.130000000000000E7     4.098775088787079E-1  -3.276367485523224E-1  -3.992905616760254E-1  -7.469699978828430E-1  -3.989459872245789E-1  -7.474197745323181E-1   4.917661845684052E-1  -1.548869907855988E-1  
 3.160000000000000E7     4.060503840446472E-1  -3.061193525791168E-1  -4.768881797790527E-1  -7.110420465469360E-1  -4.768803715705872E-1  -7.117972970008850E-1   4.314350485801697E-1  -2.510548532009125E-1  
 3.190000000000000E7     4.076654613018036E-1  -2.882505655288696E-1  -5.483462810516357E-1  -6.643310785293579E-1  -5.468688011169434E-1  -6.634138822555542E-1   3.557659983634949E-1  -3.387296199798584E-1  
 3.220000000000000E7     4.159847795963287E-1  -2.738012075424194E-1  -6.128389835357666E-1  -6.081452965736389E-1  -6.114377975463867E-1  -6.072559356689453E-1   2.678446471691132E-1  -4.121502935886383E-1  
 3.250000000000000E7     4.319792091846466E-1  -2.652753591537476E-1  -6.650724411010742E-1  -5.418258905410767E-1  -6.653158664703369E-1  -5.415346026420593E-1   1.704155802726746E-1  -4.683668911457062E-1  
 3.280000000000000E7     4.513414204120636E-1  -2.636232376098633E-1  -7.065408825874329E-1  -4.686899781227112E-1  -7.053550481796265E-1  -4.702534377574921E-1   6.691739708185196E-2  -5.105514526367188E-1  
 3.310000000000000E7     4.684558808803558E-1  -2.681005895137787E-1  -7.375580072402954E-1  -3.963213860988617E-1  -7.361266016960144E-1  -3.964802026748657E-1  -3.701861947774887E-2  -5.331176519393921E-1  
 3.340000000000000E7     4.894278049468994E-1  -2.816644608974457E-1  -7.564361691474915E-1  -3.209395706653595E-1  -7.557368874549866E-1  -3.209715783596039E-1  -1.398507654666901E-1  -5.424516201019287E-1  
 3.370000000000000E7     5.082191824913025E-1  -2.994683086872101E-1  -7.635469436645508E-1  -2.472421377897263E-1  -7.624940872192383E-1  -2.485462874174118E-1  -2.388705909252167E-1  -5.342299938201904E-1  
 3.400000000000000E7     5.236150622367859E-1  -3.248454630374908E-1  -7.619203329086304E-1  -1.768174022436142E-1  -7.623115181922913E-1  -1.772226542234421E-1  -3.291214406490326E-1  -5.159361958503723E-1  
 3.430000000000000E7     5.348856449127197E-1  -3.550338149070740E-1  -7.540378570556641E-1  -1.115304976701737E-1  -7.520428299903870E-1  -1.110042259097099E-1  -4.120497107505798E-1  -4.895679056644440E-1  
 3.460000000000000E7     5.422739982604981E-1  -3.886460363864899E-1  -7.386000156402588E-1  -5.014688521623612E-2  -7.373246550559998E-1  -5.078745633363724E-2  -4.849988520145416E-1  -4.540778696537018E-1  
 3.490000000000000E7     5.433892607688904E-1  -4.260324537754059E-1  -7.182611823081970E-1   3.618521615862846E-3  -7.148886322975159E-1   5.984103307127953E-3  -5.523453354835510E-1  -4.140088856220245E-1  
 3.520000000000000E7     5.428188443183899E-1  -4.643294811248779E-1  -6.927607655525208E-1   5.509530007839203E-2  -6.912338137626648E-1   5.416508391499519E-2  -6.097953915596008E-1  -3.695563971996307E-1  
 3.550000000000000E7     5.350364446640015E-1  -5.048658251762390E-1  -6.642207503318787E-1   9.874305129051209E-2  -6.643078923225403E-1   9.901793301105499E-2  -6.587834358215332E-1  -3.222649991512299E-1  
 3.580000000000000E7     5.221441984176636E-1  -5.444898009300232E-1  -6.357217431068420E-1   1.388291120529175E-1  -6.350855827331543E-1   1.381397992372513E-1  -7.015476226806641E-1  -2.746279835700989E-1  
 3.610000000000000E7     5.033474564552307E-1  -5.850372314453125E-1  -6.062781214714050E-1   1.723392903804779E-1  -6.046168804168701E-1   1.729764640331268E-1  -7.381904721260071E-1  -2.260439693927765E-1  
 3.640000000000000E7     4.818770587444305E-1  -6.244276762008667E-1  -5.742143392562866E-1   2.025658190250397E-1  -5.751627683639526E-1   2.025350928306580E-1  -7.667208313941956E-1  -1.778984069824219E-1  
 3.670000000000000E7     4.560671746730804E-1  -6.619493961334229E-1  -5.437359809875488E-1   2.291080504655838E-1  -5.424394607543945E-1   2.290991842746735E-1  -7.914286851882935E-1  -1.319596022367477E-1  
 3.700000000000000E7     4.244773685932159E-1  -6.976874470710754E-1  -5.127558708190918E-1   2.523576915264130E-1  -5.130879282951355E-1   2.518525123596191E-1  -8.115404844284058E-1  -8.572325110435486E-2  
 3.730000000000000E7     3.907758295536041E-1  -7.308025956153870E-1  -4.810559451580048E-1   2.731254100799561E-1  -4.821194410324097E-1   2.720326483249664E-1  -8.263139724731445E-1  -4.125121980905533E-2  
 3.760000000000000E7     3.525121808052063E-1  -7.612411379814148E-1  -4.532381892204285E-1   2.894120216369629E-1  -4.531465470790863E-1   2.893897891044617E-1  -8.395974040031433E-1   1.616314053535461E-3  
 3.790000000000000E7     3.107502162456513E-1  -7.909417152404785E-1  -4.235698282718658E-1   3.027231693267822E-1  -4.230134487152100E-1   3.032409250736237E-1  -8.487982153892517E-1   4.156226292252541E-2  
 3.820000000000000E7     2.650573253631592E-1  -8.170365691184998E-1  -3.963988125324249E-1   3.152393400669098E-1  -3.951165676116943E-1   3.160198628902435E-1  -8.541746139526367E-1   8.101442456245422E-2  
 3.850000000000000E7     2.173514068126679E-1  -8.390734791755676E-1  -3.678239285945892E-1   3.250024616718292E-1  -3.665431737899780E-1   3.258240818977356E-1  -8.601342439651489E-1   1.182025820016861E-1  
 3.880000000000000E7     1.678268015384674E-1  -8.572239279747009E-1  -3.413511812686920E-1   3.352819085121155E-1  -3.404501974582672E-1   3.330534100532532E-1  -8.624516725540161E-1   1.540402024984360E-1  
 3.910000000000000E7     1.146535500884056E-1  -8.742263913154602E-1  -3.139538764953613E-1   3.418873250484467E-1  -3.141277134418488E-1   3.416872024536133E-1  -8.639118671417236E-1   1.882863938808441E-1  
 3.940000000000000E7     6.013429909944534E-2  -8.849064707756043E-1  -2.894375920295715E-1   3.461809754371643E-1  -2.891505062580109E-1   3.459059596061707E-1  -8.616701960563660E-1   2.205355763435364E-1  
 3.970000000000000E7     3.679394721984863E-3  -8.950084447860718E-1  -2.648438811302185E-1   3.507133424282074E-1  -2.641508877277374E-1   3.514006733894348E-1  -8.580961227416992E-1   2.520665824413300E-1  
 4.000000000000000E7    -5.526020377874374E-2  -8.973506689071655E-1  -2.404697686433792E-1   3.541372120380402E-1  -2.402321249246597E-1   3.538843691349030E-1  -8.560009598731995E-1   2.812165319919586E-1  
 4.030000000000000E7    -1.150490939617157E-1  -8.968111872673035E-1  -2.186536043882370E-1   3.565613627433777E-1  -2.165434956550598E-1   3.553094267845154E-1  -8.521656990051270E-1   3.097410500049591E-1  
 4.060000000000000E7    -1.759867072105408E-1  -8.921049237251282E-1  -1.955106854438782E-1   3.567680716514587E-1  -1.947041004896164E-1   3.572510778903961E-1  -8.459676504135132E-1   3.372615575790405E-1  
 4.090000000000000E7    -2.380285710096359E-1  -8.816175460815430E-1  -1.722276508808136E-1   3.565616607666016E-1  -1.720576286315918E-1   3.557405769824982E-1  -8.407170772552490E-1   3.621596693992615E-1  
 4.120000000000000E7    -3.020462393760681E-1  -8.675744533538818E-1  -1.509440988302231E-1   3.547192215919495E-1  -1.512176841497421E-1   3.560013771057129E-1  -8.328198194503784E-1   3.881358206272125E-1  
 4.150000000000000E7    -3.650425076484680E-1  -8.463901877403259E-1  -1.301782280206680E-1   3.547730147838593E-1  -1.302392631769180E-1   3.540420234203339E-1  -8.259150981903076E-1   4.116366803646088E-1  
 4.180000000000000E7    -4.285682141780853E-1  -8.199408650398254E-1  -1.090373024344444E-1   3.516919910907745E-1  -1.097877398133278E-1   3.501418828964233E-1  -8.193092346191406E-1   4.331670999526978E-1  
 4.210000000000000E7    -4.917100369930267E-1  -7.875026464462280E-1  -8.942624926567078E-2   3.481757640838623E-1  -8.971963822841644E-2   3.479982316493988E-1  -8.113373517990112E-1   4.553680419921875E-1  
 4.240000000000000E7    -5.528136491775513E-1  -7.489697933197022E-1  -7.032736390829086E-2   3.432731330394745E-1  -7.000393420457840E-2   3.435529768466950E-1  -8.038850426673889E-1   4.758886098861694E-1  
 4.270000000000000E7    -6.141519546508789E-1  -7.028277516365051E-1  -5.039767175912857E-2   3.390123844146729E-1  -5.015163123607636E-2   3.378479480743408E-1  -7.951434850692749E-1   4.970823526382446E-1  
 4.300000000000000E7    -6.721114516258240E-1  -6.501780152320862E-1  -3.150335326790810E-2   3.324013948440552E-1  -3.171197324991226E-2   3.320247828960419E-1  -7.861847877502441E-1   5.171147584915161E-1  
 4.330000000000000E7    -7.296789884567261E-1  -5.941857695579529E-1  -1.295923348516226E-2   3.250754773616791E-1  -1.357401534914970E-2   3.255553543567658E-1  -7.769194245338440E-1   5.346154570579529E-1  
 4.360000000000000E7    -7.807271480560303E-1  -5.276679992675781E-1   3.419859334826469E-3   3.170230090618134E-1   3.693552687764168E-3   3.171055614948273E-1  -7.681729793548584E-1   5.529358983039856E-1  
 4.390000000000000E7    -8.284028172492981E-1  -4.529347121715546E-1   2.147794887423515E-2   3.082351088523865E-1   2.272462099790573E-2   3.080633878707886E-1  -7.581483125686646E-1   5.692040920257568E-1  
 4.420000000000000E7    -8.697219491004944E-1  -3.733729124069214E-1   3.881130367517471E-2   2.981987595558167E-1   3.899758681654930E-2   2.975025177001953E-1  -7.481199502944946E-1   5.862335562705994E-1  
 4.450000000000000E7    -9.046683311462402E-1  -2.850359678268433E-1   5.414568260312080E-2   2.873036563396454E-1   5.472335964441299E-2   2.870314717292786E-1  -7.392551898956299E-1   6.024893522262573E-1  
 4.480000000000000E7    -9.313553571701050E-1  -1.899827420711517E-1   6.975899636745453E-2   2.748725712299347E-1   7.010579109191895E-2   2.747148573398590E-1  -7.292477488517761E-1   6.174137592315674E-1  
 4.510000000000000E7    -9.487543702125549E-1  -8.978639543056488E-2   8.429871499538422E-2   2.618738412857056E-1   8.446504175662994E-2   2.616096436977387E-1  -7.201862931251526E-1   6.332012414932251E-1  
 4.540000000000000E7    -9.546386003494263E-1   1.582920551300049E-2   9.833788126707077E-2   2.477212399244309E-1   9.757272899150848E-2   2.481062263250351E-1  -7.098407745361328E-1   6.481684446334839E-1  
 4.570000000000000E7    -9.487092494964600E-1   1.268704235553742E-1   1.110891401767731E-1   2.323499023914337E-1   1.108517348766327E-1   2.323600053787231E-1  -6.997784972190857E-1   6.627454161643982E-1  
 4.600000000000000E7    -9.304107427597046E-1   2.395677119493485E-1   1.208430156111717E-1   2.163887470960617E-1   1.216347068548203E-1   2.153957039117813E-1  -6.902878284454346E-1   6.765140295028687E-1  
 4.630000000000000E7    -8.931664228439331E-1   3.544505238533020E-1   1.306182295084000E-1   1.984916925430298E-1   1.307726800441742E-1   1.977677047252655E-1  -6.799732446670532E-1   6.895985603332520E-1  
 4.660000000000000E7    -8.409770727157593E-1   4.681344926357269E-1   1.393637806177139E-1   1.798389852046967E-1   1.389902979135513E-1   1.795936226844788E-1  -6.688432097434998E-1   7.044605612754822E-1  
 4.690000000000000E7    -7.743710279464722E-1   5.768521428108215E-1   1.446103006601334E-1   1.615574806928635E-1   1.450834125280380E-1   1.614135503768921E-1  -6.588534712791443E-1   7.175911068916321E-1  
 4.720000000000000E7    -6.895830631256104E-1   6.793583035469055E-1   1.486436277627945E-1   1.420232653617859E-1   1.483230590820313E-1   1.415615975856781E-1  -6.474834084510803E-1   7.302517294883728E-1  
 4.750000000000000E7    -5.875225067138672E-1   7.713468074798584E-1   1.504671722650528E-1   1.222319900989533E-1   1.502240449190140E-1   1.227354481816292E-1  -6.366339921951294E-1   7.429057955741882E-1  
 4.780000000000000E7    -4.717358946800232E-1   8.507153987884522E-1   1.501340568065643E-1   1.026578173041344E-1   1.494922637939453E-1   1.027394160628319E-1  -6.245076656341553E-1   7.548692226409912E-1  
 4.810000000000000E7    -3.412655591964722E-1   9.114890694618225E-1   1.465983986854553E-1   8.418931066989899E-2   1.464667916297913E-1   8.404266089200974E-2  -6.143101453781128E-1   7.670006155967712E-1  
 4.840000000000000E7    -2.018227130174637E-1   9.533949494361877E-1   1.414849013090134E-1   6.645640730857849E-2   1.410924643278122E-1   6.619488447904587E-2  -6.023983955383301E-1   7.789802551269531E-1  
 4.870000000000000E7    -5.737023428082466E-2   9.757845401763916E-1   1.345319449901581E-1   5.006999522447586E-2   1.338326781988144E-1   4.994300752878189E-2  -5.907000303268433E-1   7.901380658149719E-1  
 4.900000000000000E7     8.999348431825638E-2   9.740551114082336E-1   1.251405477523804E-1   3.528480231761932E-2   1.250805258750916E-1   3.509497642517090E-2  -5.788235664367676E-1   8.014293313026428E-1  
 4.930000000000000E7     2.353241890668869E-1   9.511387944221497E-1   1.145600005984306E-1   2.209763415157795E-2   1.145779192447662E-1   2.181616984307766E-2  -5.661417841911316E-1   8.126106262207031E-1  
 4.960000000000000E7     3.766951262950897E-1   9.081305861473084E-1   1.033074185252190E-1   1.123248785734177E-2   1.029962897300720E-1   1.141902711242437E-2  -5.534567832946777E-1   8.226523399353027E-1  
 4.990000000000000E7     5.066114068031311E-1   8.437533378601074E-1   9.110964089632034E-2   2.396812429651618E-3   9.081446379423142E-2   2.558751497417688E-3  -5.410173535346985E-1   8.323395848274231E-1  
 5.020000000000000E7     6.243237853050232E-1   7.611145377159119E-1   7.842232286930084E-2  -4.228316713124514E-3   7.810231298208237E-2  -4.157468210905790E-3  -5.282472372055054E-1   8.416764140129089E-1  
 5.050000000000000E7     7.268725633621216E-1   6.663972139358521E-1   6.595806032419205E-2  -8.633883669972420E-3   6.593757867813110E-2  -8.548698388040066E-3  -5.155653953552246E-1   8.519446253776550E-1  
 5.080000000000000E7     8.133576512336731E-1   5.592675805091858E-1   5.376952886581421E-2  -1.112987473607063E-2   5.363599210977554E-2  -1.119017787277699E-2  -5.009887814521790E-1   8.586316704750061E-1  
 5.110000000000000E7     8.807364702224731E-1   4.459573924541473E-1   4.242506250739098E-2  -1.203998737037182E-2   4.234655201435089E-2  -1.201094314455986E-2  -4.892002940177918E-1   8.676487207412720E-1  
 5.140000000000000E7     9.337719678878784E-1   3.282358050346375E-1   3.182965144515038E-2  -1.145934872329235E-2   3.182676434516907E-2  -1.150244288146496E-2  -4.758829474449158E-1   8.773295283317566E-1  
 5.170000000000000E7     9.671147465705872E-1   2.080841660499573E-1   2.218738384544849E-2  -9.713700972497463E-3   2.223552204668522E-2  -9.657320566475391E-3  -4.620476663112640E-1   8.827118873596191E-1  
 5.200000000000000E7     9.857625961303711E-1   8.935499191284180E-2   1.370359957218170E-2  -6.873453967273235E-3   1.370067801326513E-2  -6.858820095658302E-3  -4.481619000434876E-1   8.888444900512695E-1  
 5.230000000000000E7     9.907382130622864E-1  -2.501586824655533E-2   6.341013591736555E-3  -3.377813613042235E-3   6.345674861222506E-3  -3.396820276975632E-3  -4.359064102172852E-1   8.965891599655151E-1  
 5.260000000000000E7     9.818325638771057E-1  -1.361934989690781E-1   1.741638334351592E-5   6.187285180203617E-4   2.982859950861894E-5   6.300377426669002E-4  -4.225350022315979E-1   9.030553698539734E-1  
 5.290000000000000E7     9.624305963516235E-1  -2.401453554630280E-1  -5.220497492700815E-3   5.003283265978098E-3  -5.228245630860329E-3   4.985784180462360E-3  -4.098930358886719E-1   9.081829786300659E-1  
 5.320000000000000E7     9.320719838142395E-1  -3.383416831493378E-1  -9.567603468894959E-3   9.544761851429939E-3  -9.558840654790402E-3   9.552742354571819E-3  -3.967521786689758E-1   9.145526885986328E-1  
 5.350000000000000E7     8.936679959297180E-1  -4.291700720787048E-1  -1.296193152666092E-2   1.414947770535946E-2  -1.296004466712475E-2   1.418192684650421E-2  -3.850888311862946E-1   9.196699857711792E-1  
 5.380000000000000E7     8.484042882919312E-1  -5.135251879692078E-1  -1.552993804216385E-2   1.879159547388554E-2  -1.544003281742334E-2   1.875538937747479E-2  -3.703249692916870E-1   9.246885180473328E-1  
 5.410000000000000E7     7.998273968696594E-1  -5.893200635910034E-1  -1.744144596159458E-2   2.325077541172504E-2  -1.739716902375221E-2   2.328747883439064E-2  -3.582378923892975E-1   9.300162792205811E-1  
 5.440000000000000E7     7.434140443801880E-1  -6.581450700759888E-1  -1.859162747859955E-2   2.760599367320538E-2  -1.856073550879955E-2   2.755201049149036E-2  -3.456444144248962E-1   9.340418577194214E-1  
 5.470000000000000E7     6.854261159896851E-1  -7.178795337677002E-1  -1.913036964833736E-2   3.161969408392906E-2  -1.921400055289269E-2   3.161420673131943E-2  -3.322423100471497E-1   9.385362267494202E-1  
 5.500000000000000E7     6.244893074035645E-1  -7.721024155616760E-1  -1.935211382806301E-2   3.554728999733925E-2  -1.929574273526669E-2   3.549002483487129E-2  -3.194602131843567E-1   9.442969560623169E-1  
 5.530000000000000E7     5.609881877899170E-1  -8.193613886833191E-1  -1.900974847376347E-2   3.901055082678795E-2  -1.900576055049896E-2   3.904402256011963E-2  -3.065280616283417E-1   9.468955993652344E-1  
 5.560000000000000E7     4.964693188667297E-1  -8.604501485824585E-1  -1.823722384870052E-2   4.243515059351921E-2  -1.837013103067875E-2   4.222892969846726E-2  -2.950624823570252E-1   9.508965611457825E-1  
 5.590000000000000E7     4.319836199283600E-1  -8.947342038154602E-1  -1.736876554787159E-2   4.532038792967796E-2  -1.739495433866978E-2   4.536496475338936E-2  -2.815077602863312E-1   9.548654556274414E-1  
 5.620000000000000E7     3.655810654163361E-1  -9.237068295478821E-1  -1.611405797302723E-2   4.801632836461067E-2  -1.601078175008297E-2   4.790441319346428E-2  -2.700831294059753E-1   9.587017297744751E-1  
 5.650000000000000E7     3.012998402118683E-1  -9.471626281738281E-1  -1.468450389802456E-2   5.028764903545380E-2  -1.463893428444862E-2   5.028298124670982E-2  -2.570659518241882E-1   9.612752795219421E-1  
 5.680000000000000E7     2.367174774408341E-1  -9.654976129531860E-1  -1.302079018205404E-2   5.257475748658180E-2  -1.300746295601130E-2   5.249099060893059E-2  -2.442224025726318E-1   9.641644358634949E-1  
 5.710000000000000E7     1.718774735927582E-1  -9.790684580802918E-1  -1.112590916454792E-2   5.446412414312363E-2  -1.115118246525526E-2   5.444936454296112E-2  -2.320531159639359E-1   9.676368236541748E-1  
 5.740000000000000E7     1.084596067667007E-1  -9.883918166160584E-1  -9.345604106783867E-3   5.597197264432907E-2  -9.303502738475800E-3   5.596269667148590E-2  -2.193453162908554E-1   9.706179499626160E-1  
 5.770000000000000E7     4.729600250720978E-2  -9.925019741058350E-1  -7.382365874946117E-3   5.735019966959953E-2  -7.342739496380091E-3   5.705630406737328E-2  -2.084231674671173E-1   9.722473621368408E-1  
 5.800000000000000E7    -1.405691541731358E-2  -9.940060377120972E-1  -5.272014066576958E-3   5.865383148193359E-2  -5.168042611330748E-3   5.846622586250305E-2  -1.945079267024994E-1   9.764685034751892E-1  
 5.830000000000000E7    -7.239616662263870E-2  -9.909751415252686E-1  -3.233369207009673E-3   5.929116904735565E-2  -3.266294719651341E-3   5.933802202343941E-2  -1.831554919481278E-1   9.783869981765747E-1  
 5.860000000000000E7    -1.298412829637528E-1  -9.867352247238159E-1  -1.279179006814957E-3   6.010885909199715E-2  -1.168729038909078E-3   6.005821004509926E-2  -1.704019904136658E-1   9.801256060600281E-1  
 5.890000000000000E7    -1.862232834100723E-1  -9.767645597457886E-1   8.704927749931812E-4   6.051256135106087E-2   7.745720795355737E-4   6.037705764174461E-2  -1.589517444372177E-1   9.818097352981567E-1  
 5.920000000000000E7    -2.409463673830032E-1  -9.654641151428223E-1   3.057951573282480E-3   6.092492118477821E-2   3.224249929189682E-3   6.081301718950272E-2  -1.460783034563065E-1   9.847056269645691E-1  
 5.950000000000000E7    -2.927233278751373E-1  -9.499417543411255E-1   5.071409512311220E-3   6.087246164679527E-2   5.130765959620476E-3   6.078901886940002E-2  -1.334072202444077E-1   9.850132465362549E-1  
 5.980000000000000E7    -3.437772691249847E-1  -9.337141513824463E-1   7.233410142362118E-3   6.096876785159111E-2   7.146986201405525E-3   6.075361743569374E-2  -1.205816641449928E-1   9.869916439056397E-1  
 6.010000000000000E7    -3.907870054244995E-1  -9.129517078399658E-1   8.967647328972817E-3   6.063186377286911E-2   9.005210362374783E-3   6.046953052282333E-2  -1.092838719487190E-1   9.890522360801697E-1  
 6.040000000000000E7    -4.395783543586731E-1  -8.920995593070984E-1   1.104023121297360E-2   6.040778011083603E-2   1.100850664079189E-2   6.040776148438454E-2  -9.688265621662140E-2   9.907810688018799E-1  
 6.070000000000000E7    -4.831241071224213E-1  -8.700034618377686E-1   1.275759376585484E-2   6.000071018934250E-2   1.277537271380425E-2   5.972916260361671E-2  -8.520475029945374E-2   9.909562468528748E-1  
 6.100000000000000E7    -5.254786610603333E-1  -8.437706828117371E-1   1.488464139401913E-2   5.930059775710106E-2   1.479242276400328E-2   5.920840054750443E-2  -7.155314087867737E-2   9.928067326545715E-1  
 6.130000000000000E7    -5.676533579826355E-1  -8.174498677253723E-1   1.649675890803337E-2   5.869018286466599E-2   1.638120040297508E-2   5.858975648880005E-2  -5.917270481586456E-2   9.940707087516785E-1  
 6.160000000000000E7    -6.060269474983215E-1  -7.888387441635132E-1   1.803035475313664E-2   5.782470107078552E-2   1.812579110264778E-2   5.777702853083611E-2  -4.793012142181397E-2   9.933013319969177E-1  
 6.190000000000000E7    -6.433363556861877E-1  -7.585042119026184E-1   1.960947737097740E-2   5.690006911754608E-2   1.979077421128750E-2   5.660457536578178E-2  -3.601515293121338E-2   9.934098720550537E-1  
 6.220000000000000E7    -6.777788996696472E-1  -7.278723716735840E-1   2.114131674170494E-2   5.585758760571480E-2   2.124508842825890E-2   5.585613474249840E-2  -2.443084865808487E-2   9.950252175331116E-1  
 6.250000000000000E7    -7.120103836059570E-1  -6.949292421340942E-1   2.255130000412464E-2   5.487679317593575E-2   2.267719432711601E-2   5.468257516622543E-2  -1.251102238893509E-2   9.953646063804627E-1  
 6.280000000000000E7    -7.428584694862366E-1  -6.611924767494202E-1   2.406992390751839E-2   5.375754088163376E-2   2.394095622003079E-2   5.364866182208061E-2  -5.528330802917481E-6   9.956916570663452E-1  
 6.310000000000000E7    -7.735456824302673E-1  -6.254834532737732E-1   2.546023204922676E-2   5.258058011531830E-2   2.531690895557404E-2   5.235440284013748E-2   1.259745657444000E-2   9.958983659744263E-1  
 6.340000000000000E7    -8.002926707267761E-1  -5.901221036911011E-1   2.659383043646812E-2   5.132317543029785E-2   2.656282484531403E-2   5.117730051279068E-2   2.486153692007065E-2   9.955471754074097E-1  
 6.370000000000000E7    -8.259246945381165E-1  -5.537525415420532E-1   2.779351919889450E-2   4.986032098531723E-2   2.771138399839401E-2   4.979299381375313E-2   3.635428845882416E-2   9.943460226058960E-1  
 6.400000000000000E7    -8.496813774108887E-1  -5.161558389663696E-1   2.891601622104645E-2   4.851976409554482E-2   2.885864116251469E-2   4.835525155067444E-2   4.901565611362457E-2   9.948530793190002E-1  
 6.430000000000000E7    -8.721657395362854E-1  -4.777851998806000E-1   2.979870699346066E-2   4.724466055631638E-2   2.973242476582527E-2   4.694598540663719E-2   6.110441684722900E-2   9.937800168991089E-1  
 6.460000000000000E7    -8.924552798271179E-1  -4.404086768627167E-1   3.060555644333363E-2   4.577797278761864E-2   3.051776811480522E-2   4.555525630712509E-2   7.209771126508713E-2   9.924760460853577E-1  
 6.490000000000000E7    -9.103032350540161E-1  -4.024155139923096E-1   3.131135553121567E-2   4.417223110795021E-2   3.142775222659111E-2   4.411342740058899E-2   8.416517078876495E-2   9.922286868095398E-1  
 6.520000000000000E7    -9.262304902076721E-1  -3.629142940044403E-1   3.217146173119545E-2   4.289156943559647E-2   3.215651959180832E-2   4.253972694277763E-2   9.661518037319183E-2   9.918635487556458E-1  
 6.550000000000000E7    -9.404948949813843E-1  -3.237428665161133E-1   3.285607695579529E-2   4.111988097429276E-2   3.264721855521202E-2   4.104902967810631E-2   1.083982288837433E-1   9.887760877609253E-1  
 6.580000000000000E7    -9.538809657096863E-1  -2.830204367637634E-1   3.350169211626053E-2   3.954724967479706E-2   3.321166709065437E-2   3.957384079694748E-2   1.209030002355576E-1   9.890329837799072E-1  
 6.610000000000000E7    -9.640946984291077E-1  -2.417427152395248E-1   3.390540555119515E-2   3.799432143568993E-2   3.378122299909592E-2   3.765771165490151E-2   1.338649392127991E-1   9.859573841094971E-1  
 6.640000000000000E7    -9.742811322212219E-1  -2.035119533538818E-1   3.424187749624252E-2   3.645704686641693E-2   3.404672071337700E-2   3.639144822955132E-2   1.457568556070328E-1   9.848102927207947E-1  
 6.670000000000000E7    -9.814972281455994E-1  -1.624700725078583E-1   3.447914123535156E-2   3.482417017221451E-2   3.442340716719627E-2   3.478613868355751E-2   1.565908491611481E-1   9.837915301322937E-1  
 6.700000000000000E7    -9.871388673782349E-1  -1.217850372195244E-1   3.473307192325592E-2   3.316477313637734E-2   3.450366482138634E-2   3.304842114448547E-2   1.686812639236450E-1   9.807548522949219E-1  
 6.730000000000000E7    -9.914426207542419E-1  -8.136552572250366E-2   3.468319773674011E-2   3.164445236325264E-2   3.495920449495316E-2   3.146032616496086E-2   1.813152134418488E-1   9.797970056533814E-1  
 6.760000000000000E7    -9.937878847122192E-1  -4.196748882532120E-2   3.504303842782974E-2   2.997735515236855E-2   3.483599051833153E-2   2.997964993119240E-2   1.935569345951080E-1   9.770104885101318E-1  
 6.790000000000000E7    -9.947816729545593E-1  -1.472316682338715E-3   3.478816151618958E-2   2.844743989408016E-2   3.481574356555939E-2   2.837154269218445E-2   2.047799527645111E-1   9.742305278778076E-1  
 6.820000000000000E7    -9.940049648284912E-1   3.821687027812004E-2   3.474543243646622E-2   2.680360712110996E-2   3.471500054001808E-2   2.678071893751621E-2   2.162941992282867E-1   9.721897840499878E-1  
 6.850000000000000E7    -9.926174283027649E-1   7.840150594711304E-2   3.457444906234741E-2   2.545378357172012E-2   3.447303920984268E-2   2.537596598267555E-2   2.277231067419052E-1   9.698688983917236E-1  
 6.880000000000000E7    -9.883624911308289E-1   1.169824451208115E-1   3.433690220117569E-2   2.390035986900330E-2   3.418845310807228E-2   2.361838892102242E-2   2.403541207313538E-1   9.665135145187378E-1  
 6.910000000000000E7    -9.825342297554016E-1   1.559184193611145E-1   3.402811661362648E-2   2.228084392845631E-2   3.392566740512848E-2   2.230450510978699E-2   2.525879740715027E-1   9.637091159820557E-1  
 6.940000000000000E7    -9.764550924301148E-1   1.940788328647614E-1   3.357243165373802E-2   2.079282701015472E-2   3.357206657528877E-2   2.081495150923729E-2   2.632733881473541E-1   9.606099724769592E-1  
 6.970000000000000E7    -9.676299095153809E-1   2.330929040908814E-1   3.307257220149040E-2   1.928590983152390E-2   3.303461894392967E-2   1.928185857832432E-2   2.757589817047119E-1   9.570299983024597E-1  
 7.000000000000000E7    -9.582661986351013E-1   2.706481516361237E-1   3.247954696416855E-2   1.794852688908577E-2   3.245285153388977E-2   1.788611337542534E-2   2.869310975074768E-1   9.544496536254883E-1  
