#  HZ   S   RI   R     50.00 
! Rohde & Schwarz ZVT8 8Ports - Version 4.11 - 1300.0000k08 SN: 100242
! Date: 2026-07-31 14:40:08
! Measurements: S11 S21 S12 S22 
! 
 1.000000000000000E7    -4.054095447063446E-1   9.101555943489075E-1   5.207958072423935E-2   5.281528830528259E-2   5.180473625659943E-2   5.254966765642166E-2  -9.181690216064453E-1   3.871071636676788E-1  
 1.030000000000000E7    -3.731841742992401E-1   9.227642416954041E-1   5.517383664846420E-2   5.315903201699257E-2   5.515276640653610E-2   5.312862992286682E-2  -9.120714664459229E-1   3.999907970428467E-1  
 1.060000000000000E7    -3.375207781791687E-1   9.357475638389587E-1   5.871544405817986E-2   5.402179807424545E-2   5.864577367901802E-2   5.372849851846695E-2  -9.083079695701599E-1   4.120291471481323E-1  
 1.090000000000000E7    -3.057470917701721E-1   9.463291168212891E-1   6.230290606617928E-2   5.426330119371414E-2   6.214192509651184E-2   5.407733097672463E-2  -9.019143581390381E-1   4.245347082614899E-1  
 1.120000000000000E7    -2.703923285007477E-1   9.559451341629028E-1   6.610829383134842E-2   5.506122857332230E-2   6.569098681211472E-2   5.463501065969467E-2  -8.961623907089233E-1   4.362280666828156E-1  
 1.150000000000000E7    -2.352577596902847E-1   9.663240909576416E-1   6.952705234289169E-2   5.484047532081604E-2   6.927210837602615E-2   5.483707413077354E-2  -8.884546756744385E-1   4.459527730941773E-1  
 1.180000000000000E7    -2.002990990877152E-1   9.717773795127869E-1   7.327170670032501E-2   5.518012121319771E-2   7.303813099861145E-2   5.518405511975288E-2  -8.839884400367737E-1   4.573778510093689E-1  
 1.210000000000000E7    -1.659892797470093E-1   9.784030318260193E-1   7.748349756002426E-2   5.553021281957626E-2   7.712096720933914E-2   5.527438968420029E-2  -8.764986991882324E-1   4.699613451957703E-1  
 1.240000000000000E7    -1.307994574308395E-1   9.827632904052734E-1   8.127491921186447E-2   5.555526539683342E-2   8.135271072387695E-2   5.515312030911446E-2  -8.691228628158569E-1   4.803298711776733E-1  
 1.270000000000000E7    -9.504884481430054E-2   9.865462779998779E-1   8.582627773284912E-2   5.504057556390762E-2   8.543056994676590E-2   5.480150505900383E-2  -8.621095418930054E-1   4.945555329322815E-1  
 1.300000000000000E7    -5.987951159477234E-2   9.894157648086548E-1   8.980907499790192E-2   5.460484698414803E-2   8.973566442728043E-2   5.465660989284515E-2  -8.543205857276917E-1   5.056886672973633E-1  
 1.330000000000000E7    -2.372992970049381E-2   9.912051558494568E-1   9.454461932182312E-2   5.422880500555039E-2   9.445590525865555E-2   5.370281264185906E-2  -8.467767238616943E-1   5.181283950805664E-1  
 1.360000000000000E7     1.354366913437843E-2   9.908073544502258E-1   9.901955723762512E-2   5.379871279001236E-2   9.922847151756287E-2   5.312949046492577E-2  -8.389283418655396E-1   5.283207893371582E-1  
 1.390000000000000E7     4.798542335629463E-2   9.886662364006043E-1   1.040891036391258E-1   5.255564302206039E-2   1.035967841744423E-1   5.258919298648834E-2  -8.308507204055786E-1   5.403297543525696E-1  
 1.420000000000000E7     8.576153218746185E-2   9.865114092826843E-1   1.084112003445625E-1   5.186140909790993E-2   1.086451783776283E-1   5.187378451228142E-2  -8.237529397010803E-1   5.511911511421204E-1  
 1.450000000000000E7     1.212340891361237E-1   9.808546900749207E-1   1.137672811746597E-1   5.039455741643906E-2   1.135480999946594E-1   5.029479414224625E-2  -8.128496408462524E-1   5.643380880355835E-1  
 1.480000000000000E7     1.587521433830261E-1   9.757124781608582E-1   1.189232990145683E-1   4.876805096864700E-2   1.189141795039177E-1   4.929275810718536E-2  -8.054758310317993E-1   5.755034685134888E-1  
 1.510000000000000E7     1.943118721246719E-1   9.682646989822388E-1   1.240621060132980E-1   4.719064757227898E-2   1.238480433821678E-1   4.721394181251526E-2  -7.933447957038879E-1   5.875079631805420E-1  
 1.540000000000000E7     2.292516976594925E-1   9.599726796150208E-1   1.294284015893936E-1   4.627785831689835E-2   1.290480941534042E-1   4.577356204390526E-2  -7.872127294540405E-1   5.980823636054993E-1  
 1.570000000000000E7     2.656404972076416E-1   9.511077404022217E-1   1.348159909248352E-1   4.381158202886581E-2   1.350904405117035E-1   4.372777044773102E-2  -7.758195400238037E-1   6.110780239105225E-1  
 1.600000000000000E7     3.019230067729950E-1   9.386598467826843E-1   1.404817253351212E-1   4.131688550114632E-2   1.407872289419174E-1   4.115484654903412E-2  -7.661885619163513E-1   6.206742525100708E-1  
 1.630000000000000E7     3.369312584400177E-1   9.260240793228149E-1   1.469803601503372E-1   3.860256820917130E-2   1.464804410934448E-1   3.875831887125969E-2  -7.549191713333130E-1   6.344992518424988E-1  
 1.660000000000000E7     3.714101016521454E-1   9.102752208709717E-1   1.528523713350296E-1   3.567139059305191E-2   1.525620073080063E-1   3.516104444861412E-2  -7.428342700004578E-1   6.463446021080017E-1  
 1.690000000000000E7     4.055054485797882E-1   8.949860930442810E-1   1.589862406253815E-1   3.306567296385765E-2   1.588973253965378E-1   3.267358988523483E-2  -7.321097254753113E-1   6.569657325744629E-1  
 1.720000000000000E7     4.420147836208344E-1   8.780699372291565E-1   1.649222522974014E-1   2.862797677516937E-2   1.648979038000107E-1   2.904284372925758E-2  -7.198224067687988E-1   6.685143709182739E-1  
 1.750000000000000E7     4.709621369838715E-1   8.617435097694397E-1   1.719514578580856E-1   2.621905133128166E-2   1.721535921096802E-1   2.564421296119690E-2  -7.086023092269898E-1   6.820224523544312E-1  
 1.780000000000000E7     5.069187879562378E-1   8.381017446517944E-1   1.779095828533173E-1   2.123620733618736E-2   1.780843287706375E-1   2.165987528860569E-2  -6.948175430297852E-1   6.905572414398193E-1  
 1.810000000000000E7     5.379037261009216E-1   8.180846571922302E-1   1.857537925243378E-1   1.700763590633869E-2   1.846892982721329E-1   1.641372032463551E-2  -6.813219189643860E-1   7.054778337478638E-1  
 1.840000000000000E7     5.714034438133240E-1   7.945833206176758E-1   1.926732212305069E-1   1.083665713667870E-2   1.916758269071579E-1   1.137454435229302E-2  -6.664698123931885E-1   7.162088155746460E-1  
 1.870000000000000E7     6.001590490341187E-1   7.707972526550293E-1   1.995376199483872E-1   6.304228678345680E-3   1.987654268741608E-1   5.889870226383209E-3  -6.517803668975830E-1   7.273181676864624E-1  
 1.900000000000000E7     6.297365427017212E-1   7.450665235519409E-1   2.066042125225067E-1   5.469042807817459E-4   2.061878591775894E-1  -9.054318070411682E-6  -6.362597942352295E-1   7.382372021675110E-1  
 1.930000000000000E7     6.591140031814575E-1   7.171044349670410E-1   2.136980146169663E-1  -7.003424689173698E-3   2.140188217163086E-1  -6.141969934105873E-3  -6.207648515701294E-1   7.513077259063721E-1  
 1.960000000000000E7     6.877359747886658E-1   6.872808933258057E-1   2.209922671318054E-1  -1.375660020858049E-2   2.210940569639206E-1  -1.321509387344122E-2  -6.056544780731201E-1   7.610318660736084E-1  
 1.990000000000000E7     7.121756076812744E-1   6.568750739097595E-1   2.286611944437027E-1  -2.150601893663406E-2   2.290636152029038E-1  -2.134967781603336E-2  -5.856528282165527E-1   7.740467786788940E-1  
 2.020000000000000E7     7.376239299774170E-1   6.249400973320007E-1   2.368520647287369E-1  -2.942912280559540E-2   2.360769510269165E-1  -2.928709983825684E-2  -5.689553022384644E-1   7.821644544601440E-1  
 2.050000000000000E7     7.638133168220520E-1   5.913654565811157E-1   2.444825023412705E-1  -3.819063678383827E-2   2.429035902023315E-1  -3.858629241585732E-2  -5.501467585563660E-1   7.931007146835327E-1  
 2.080000000000000E7     7.856390476226807E-1   5.552120208740234E-1   2.526322305202484E-1  -4.820170626044273E-2   2.525334060192108E-1  -4.801554977893829E-2  -5.305271744728088E-1   8.049713969230652E-1  
 2.110000000000000E7     8.080375194549561E-1   5.195604562759399E-1   2.609343528747559E-1  -5.964735150337219E-2   2.605932056903839E-1  -5.943003296852112E-2  -5.091150999069214E-1   8.151388168334961E-1  
 2.140000000000000E7     8.273091316223145E-1   4.821694493293762E-1   2.687845230102539E-1  -7.167297601699829E-2   2.678053975105286E-1  -7.047702372074127E-2  -4.877401888370514E-1   8.243403434753418E-1  
 2.170000000000000E7     8.439946174621582E-1   4.443645179271698E-1   2.769166231155396E-1  -8.352823555469513E-2   2.766047716140747E-1  -8.259928226470947E-2  -4.652151763439179E-1   8.338547348976135E-1  
 2.200000000000000E7     8.617947101593018E-1   4.024142622947693E-1   2.844255566596985E-1  -9.747347980737686E-2   2.844245433807373E-1  -9.705864638090134E-2  -4.399336576461792E-1   8.424714207649231E-1  
 2.230000000000000E7     8.745956420898438E-1   3.609375655651093E-1   2.922666370868683E-1  -1.121594309806824E-1   2.917670607566834E-1  -1.115704625844955E-1  -4.149632453918457E-1   8.505547642707825E-1  
 2.260000000000000E7     8.871499896049500E-1   3.180261552333832E-1   2.993864715099335E-1  -1.282063275575638E-1   3.010435998439789E-1  -1.280099302530289E-1  -3.888995051383972E-1   8.576785922050476E-1  
 2.290000000000000E7     8.967532515525818E-1   2.732784450054169E-1   3.068627715110779E-1  -1.455492079257965E-1   3.076569736003876E-1  -1.447966992855072E-1  -3.597820401191711E-1   8.638400435447693E-1  
 2.320000000000000E7     9.026795029640198E-1   2.283437848091126E-1   3.143276870250702E-1  -1.652369797229767E-1   3.134166598320007E-1  -1.653106212615967E-1  -3.306838274002075E-1   8.715255260467529E-1  
 2.350000000000000E7     9.068927764892578E-1   1.810830533504486E-1   3.204842507839203E-1  -1.866856366395950E-1   3.200969398021698E-1  -1.855977028608322E-1  -3.001250624656677E-1   8.761323690414429E-1  
 2.380000000000000E7     9.083145260810852E-1   1.345016956329346E-1   3.263421952724457E-1  -2.079572081565857E-1   3.263692855834961E-1  -2.075466215610504E-1  -2.679132521152496E-1   8.792707324028015E-1  
 2.410000000000000E7     9.069305658340454E-1   8.556357771158218E-2   3.307172656059265E-1  -2.328128367662430E-1   3.301348090171814E-1  -2.321872413158417E-1  -2.333932816982269E-1   8.805980682373047E-1  
 2.440000000000000E7     9.006457328796387E-1   3.773351386189461E-2   3.347187638282776E-1  -2.597697377204895E-1   3.347079455852509E-1  -2.598582208156586E-1  -1.984605491161346E-1   8.804692029953003E-1  
 2.470000000000000E7     8.919724225997925E-1  -1.090001687407494E-2   3.367261290550232E-1  -2.886240482330322E-1   3.369214534759522E-1  -2.861776351928711E-1  -1.599746048450470E-1   8.771466612815857E-1  
 2.500000000000000E7     8.802854418754578E-1  -6.090730056166649E-2   3.372012972831726E-1  -3.184290230274200E-1   3.368141651153565E-1  -3.192329108715057E-1  -1.200737059116364E-1   8.733537793159485E-1  
 2.530000000000000E7     8.629979491233826E-1  -1.098905578255653E-1   3.370749652385712E-1  -3.516337871551514E-1   3.367385864257813E-1  -3.509645760059357E-1  -7.932269573211670E-2   8.648921847343445E-1  
 2.560000000000000E7     8.415626287460327E-1  -1.573777049779892E-1   3.330971598625183E-1  -3.861113488674164E-1   3.337044715881348E-1  -3.867312669754028E-1  -3.690839558839798E-2   8.541834950447083E-1  
 2.590000000000000E7     8.151083588600159E-1  -2.026761174201965E-1   3.247241377830505E-1  -4.253799617290497E-1   3.256193697452545E-1  -4.256020784378052E-1   7.803704589605331E-3   8.411629796028137E-1  
 2.620000000000000E7     7.838292717933655E-1  -2.476360648870468E-1   3.137464821338654E-1  -4.668296873569489E-1   3.139510154724121E-1  -4.653229117393494E-1   5.526991933584213E-2   8.206761479377747E-1  
 2.650000000000000E7     7.481847405433655E-1  -2.898708879947662E-1   3.002542555332184E-1  -5.077749490737915E-1   2.996911108493805E-1  -5.086578130722046E-1   1.006113886833191E-1   7.959569692611694E-1  
 2.680000000000000E7     7.064101099967957E-1  -3.278376162052155E-1   2.802532613277435E-1  -5.530058145523071E-1   2.792975902557373E-1  -5.534805059432983E-1   1.468093246221542E-1   7.652686238288879E-1  
 2.710000000000000E7     6.611316800117493E-1  -3.618306815624237E-1   2.513271272182465E-1  -5.985029935836792E-1   2.514577805995941E-1  -5.978859066963196E-1   1.932930797338486E-1   7.308015227317810E-1  
 2.740000000000000E7     6.097009778022766E-1  -3.910582065582275E-1   2.205975502729416E-1  -6.462618708610535E-1   2.189643383026123E-1  -6.459060311317444E-1   2.369519323110580E-1   6.843229532241821E-1  
 2.770000000000000E7     5.573430061340332E-1  -4.114488959312439E-1   1.781243830919266E-1  -6.914519667625427E-1   1.778053939342499E-1  -6.918065547943115E-1   2.787373960018158E-1   6.338469386100769E-1  
 2.800000000000000E7     5.009109973907471E-1  -4.269354939460754E-1   1.297323405742645E-1  -7.359823584556580E-1   1.311365067958832E-1  -7.361692190170288E-1   3.177889287471771E-1   5.730311274528503E-1  
 2.830000000000000E7     4.417569041252136E-1  -4.329754114151001E-1   7.280673086643219E-2  -7.759336829185486E-1   7.050354778766632E-2  -7.757647633552551E-1   3.482090234756470E-1   5.106846690177918E-1  
 2.860000000000000E7     3.832550644874573E-1  -4.279969334602356E-1   4.923995584249497E-3  -8.121003508567810E-1   2.561368048191071E-3  -8.108939528465271E-1   3.732458353042603E-1   4.351939260959625E-1  
 2.890000000000000E7     3.292781710624695E-1  -4.132252633571625E-1  -7.179096341133118E-2  -8.396210670471191E-1  -7.179842889308929E-2  -8.385848999023438E-1   3.871729075908661E-1   3.572250306606293E-1  
 2.920000000000000E7     2.757736146450043E-1  -3.901349902153015E-1  -1.525427699089050E-1  -8.598842024803162E-1  -1.540146768093109E-1  -8.568339943885803E-1   3.896564245223999E-1   2.748140096664429E-1  
 2.950000000000000E7     2.338146269321442E-1  -3.567177951335907E-1  -2.433788627386093E-1  -8.658218979835510E-1  -2.422392070293427E-1  -8.637269735336304E-1   3.791699707508087E-1   1.892485320568085E-1  
 2.980000000000000E7     1.964050382375717E-1  -3.176781833171845E-1  -3.345510661602020E-1  -8.595836162567139E-1  -3.355369269847870E-1  -8.587553501129150E-1   3.544447422027588E-1   1.053494289517403E-1  
 3.010000000000000E7     1.722761839628220E-1  -2.747227847576141E-1  -4.278756380081177E-1  -8.385361433029175E-1  -4.267473518848419E-1  -8.378400206565857E-1   3.171471655368805E-1   2.537549287080765E-2  
 3.040000000000000E7     1.597537249326706E-1  -2.259400635957718E-1  -5.181879997253418E-1  -8.030417561531067E-1  -5.184557437896729E-1  -8.029040694236755E-1   2.655428946018219E-1  -4.488106444478035E-2  
 3.070000000000000E7     1.576519459486008E-1  -1.818676888942719E-1  -6.025491952896118E-1  -7.547788023948669E-1  -6.003074645996094E-1  -7.534775733947754E-1   2.085719853639603E-1  -1.075014621019363E-1  
 3.100000000000000E7     1.694873273372650E-1  -1.403369605541229E-1  -6.788240075111389E-1  -6.939907073974609E-1  -6.772774457931519E-1  -6.930010318756104E-1   1.416384279727936E-1  -1.598428487777710E-1  
 3.130000000000000E7     1.873735934495926E-1  -1.065656915307045E-1  -7.442368865013123E-1  -6.241624951362610E-1  -7.430483102798462E-1  -6.244966387748718E-1   6.656978279352188E-2  -1.966709196567535E-1  
 3.160000000000000E7     2.169177532196045E-1  -7.880207896232605E-2  -7.976937294006348E-1  -5.469316244125366E-1  -7.983331680297852E-1  -5.477824807167053E-1  -6.622189655900002E-3  -2.212203443050385E-1  
 3.190000000000000E7     2.476571798324585E-1  -6.073695421218872E-2  -8.408901691436768E-1  -4.665158390998840E-1  -8.392845988273621E-1  -4.662655889987946E-1  -8.103418350219727E-2  -2.359425276517868E-1  
 3.220000000000000E7     2.823520004749298E-1  -5.157848447561264E-2  -8.732251524925232E-1  -3.841163814067841E-1  -8.714599013328552E-1  -3.837507367134094E-1  -1.522833406925201E-1  -2.379722148180008E-1  
 3.250000000000000E7     3.178779482841492E-1  -5.460989475250244E-2  -8.925654888153076E-1  -3.015681505203247E-1  -8.928775787353516E-1  -3.012440204620361E-1  -2.181566655635834E-1  -2.290377020835877E-1  
 3.280000000000000E7     3.519235551357269E-1  -6.720758229494095E-2  -9.021144509315491E-1  -2.198345512151718E-1  -9.020674824714661E-1  -2.202634513378143E-1  -2.812584042549133E-1  -2.145870327949524E-1  
 3.310000000000000E7     3.787838220596314E-1  -8.330984413623810E-2  -9.062134027481079E-1  -1.421195566654205E-1  -9.053182601928711E-1  -1.422894150018692E-1  -3.345665037631989E-1  -1.912615746259689E-1  
 3.340000000000000E7     4.029125869274139E-1  -1.109462156891823E-1  -9.021422863006592E-1  -6.669033318758011E-2  -9.007366895675659E-1  -6.651693582534790E-2  -3.825478851795197E-1  -1.652397215366364E-1  
 3.370000000000000E7     4.222336709499359E-1  -1.418030858039856E-1  -8.897642493247986E-1   4.374152049422264E-3  -8.894160985946655E-1   2.668386325240135E-3  -4.240350723266602E-1  -1.333847194910049E-1  
 3.400000000000000E7     4.341614842414856E-1  -1.784860640764237E-1  -8.745746612548828E-1   7.104176282882690E-2  -8.747929334640503E-1   7.094137370586395E-2  -4.566949903964996E-1  -1.017948240041733E-1  
 3.430000000000000E7     4.384935796260834E-1  -2.178925126791000E-1  -8.562651276588440E-1   1.356021165847778E-1  -8.544776439666748E-1   1.347776353359222E-1  -4.858403205871582E-1  -7.038652151823044E-2  
 3.460000000000000E7     4.368859529495239E-1  -2.596759200096130E-1  -8.339012265205383E-1   1.956138908863068E-1  -8.330672979354858E-1   1.945996880531311E-1  -5.061659216880798E-1  -3.788425028324127E-2  
 3.490000000000000E7     4.244683086872101E-1  -3.023120462894440E-1  -8.089615106582642E-1   2.533112168312073E-1  -8.052696585655212E-1   2.523213624954224E-1  -5.254347920417786E-1  -6.447594612836838E-3  
 3.520000000000000E7     4.094592332839966E-1  -3.464440107345581E-1  -7.799375057220459E-1   3.077061176300049E-1  -7.792099118232727E-1   3.058668076992035E-1  -5.375423431396484E-1   2.561432123184204E-2  
 3.550000000000000E7     3.828245997428894E-1  -3.907317519187927E-1  -7.493854165077210E-1   3.591675758361816E-1  -7.490940093994141E-1   3.592151403427124E-1  -5.440385341644287E-1   5.520244315266609E-2  
 3.580000000000000E7     3.488588333129883E-1  -4.298252463340759E-1  -7.167298793792725E-1   4.110942780971527E-1  -7.169007062911987E-1   4.100933372974396E-1  -5.489169955253601E-1   8.292940258979797E-2  
 3.610000000000000E7     3.039518296718597E-1  -4.667977690696716E-1  -6.839283704757690E-1   4.606973826885223E-1  -6.820560693740845E-1   4.598542749881744E-1  -5.503386855125427E-1   1.085341870784760E-1  
 3.640000000000000E7     2.529902458190918E-1  -5.001537203788757E-1  -6.452282071113586E-1   5.084998011589050E-1  -6.460213065147400E-1   5.087838172912598E-1  -5.458511114120483E-1   1.311151534318924E-1  
 3.670000000000000E7     1.927288323640823E-1  -5.263725519180298E-1  -6.052696704864502E-1   5.574530959129334E-1  -6.035251021385193E-1   5.561276674270630E-1  -5.422076582908630E-1   1.486864835023880E-1  
 3.700000000000000E7     1.224067211151123E-1  -5.427074432373047E-1  -5.590407848358154E-1   6.055651307106018E-1  -5.595978498458862E-1   6.050857305526733E-1  -5.336900949478149E-1   1.655556559562683E-1  
 3.730000000000000E7     4.650383070111275E-2  -5.496174097061157E-1  -5.067824125289917E-1   6.527546644210815E-1  -5.081453919410706E-1   6.523392796516419E-1  -5.240455269813538E-1   1.755189001560211E-1  
 3.760000000000000E7    -3.972052037715912E-2  -5.393608212471008E-1  -4.517064690589905E-1   6.993181109428406E-1  -4.520254135131836E-1   6.993150115013123E-1  -5.142061114311218E-1   1.826463639736176E-1  
 3.790000000000000E7    -1.335873007774353E-1  -5.148015618324280E-1  -3.877207934856415E-1   7.428197264671326E-1  -3.871043026447296E-1   7.419049739837647E-1  -5.052071213722229E-1   1.844095736742020E-1  
 3.820000000000000E7    -2.291890978813171E-1  -4.659870862960815E-1  -3.142604827880859E-1   7.843367457389832E-1  -3.126878738403320E-1   7.839872837066650E-1  -4.941800236701965E-1   1.787346005439758E-1  
 3.850000000000000E7    -3.230042159557343E-1  -3.944219052791596E-1  -2.303661704063416E-1   8.178915381431580E-1  -2.279773503541946E-1   8.178026676177979E-1  -4.893808960914612E-1   1.708175837993622E-1  
 3.880000000000000E7    -4.050330817699432E-1  -2.919014990329742E-1  -1.324676722288132E-1   8.443745970726013E-1  -1.343551278114319E-1   8.426848053932190E-1  -4.870470762252808E-1   1.561769247055054E-1  
 3.910000000000000E7    -4.721286296844482E-1  -1.611559092998505E-1  -2.501768618822098E-2   8.529580235481262E-1  -2.586303651332855E-2   8.529266119003296E-1  -4.942400455474854E-1   1.351236402988434E-1  
 3.940000000000000E7    -5.063800215721130E-1   8.938834071159363E-6   8.807986229658127E-2   8.427418470382690E-1   8.771143853664398E-2   8.434612751007080E-1  -5.070347189903259E-1   1.113490313291550E-1  
 3.970000000000000E7    -4.972229599952698E-1   1.774517297744751E-1   2.058925330638886E-1   8.073879480361939E-1   2.065595686435700E-1   8.066931366920471E-1  -5.348973274230957E-1   8.780059963464737E-2  
 4.000000000000000E7    -4.334007501602173E-1   3.567104935646057E-1   3.157316148281097E-1   7.455155253410339E-1   3.159232437610626E-1   7.445454597473145E-1  -5.725439190864563E-1   7.125763595104218E-2  
 4.030000000000000E7    -3.137795925140381E-1   5.199071764945984E-1   4.090002477169037E-1   6.598512530326843E-1   4.080827534198761E-1   6.588807702064514E-1  -6.188488602638245E-1   6.589658558368683E-2  
 4.060000000000000E7    -1.506310403347015E-1   6.443975567817688E-1   4.769882559776306E-1   5.526170134544373E-1   4.780654907226563E-1   5.508339405059815E-1  -6.720020174980164E-1   7.032760232686997E-2  
 4.090000000000000E7     3.961959481239319E-2   7.168715596199036E-1   5.161048173904419E-1   4.383400976657867E-1   5.156620740890503E-1   4.382995665073395E-1  -7.221425771713257E-1   9.117294102907181E-2  
 4.120000000000000E7     2.385064363479614E-1   7.321937084197998E-1   5.229262113571167E-1   3.261762559413910E-1   5.241404175758362E-1   3.251550197601318E-1  -7.701317667961121E-1   1.243338286876679E-1  
 4.150000000000000E7     4.239639639854431E-1   6.938339471817017E-1   5.096705555915833E-1   2.272824048995972E-1   5.076270699501038E-1   2.265801578760147E-1  -8.070558905601502E-1   1.673280000686646E-1  
 4.180000000000000E7     5.841476321220398E-1   6.209960579872131E-1   4.785899817943573E-1   1.435255408287048E-1   4.777619838714600E-1   1.435638964176178E-1  -8.335173726081848E-1   2.133403122425079E-1  
 4.210000000000000E7     7.132490873336792E-1   5.215367674827576E-1   4.374086856842041E-1   7.779064029455185E-2   4.372388124465942E-1   7.751962542533875E-2  -8.512353897094727E-1   2.626223564147949E-1  
 4.240000000000000E7     8.114475011825562E-1   4.082620739936829E-1   3.920480906963348E-1   2.756618335843086E-2   3.920107483863831E-1   2.753972262144089E-2  -8.612026572227478E-1   3.103809356689453E-1  
 4.270000000000000E7     8.802351355552673E-1   2.906364202499390E-1   3.479331135749817E-1  -9.638639166951180E-3   3.471253216266632E-1  -9.714085608720779E-3  -8.631836175918579E-1   3.572518825531006E-1  
 4.300000000000000E7     9.276337623596191E-1   1.735601127147675E-1   3.052172362804413E-1  -3.571300581097603E-2   3.041790723800659E-1  -3.559871762990952E-2  -8.599982261657715E-1   4.004796743392944E-1  
 4.330000000000000E7     9.521636962890625E-1   6.168369576334953E-2   2.647499144077301E-1  -5.290879309177399E-2   2.651710510253906E-1  -5.287884920835495E-2  -8.528531193733215E-1   4.386251568794251E-1  
 4.360000000000000E7     9.629831910133362E-1  -4.592493548989296E-2   2.297926098108292E-1  -6.339950859546661E-2   2.293455302715302E-1  -6.423292309045792E-2  -8.440703749656677E-1   4.751217365264893E-1  
 4.390000000000000E7     9.609043598175049E-1  -1.441689729690552E-1   1.989446878433228E-1  -6.991186738014221E-2   1.986286342144013E-1  -6.972445547580719E-2  -8.313900828361511E-1   5.073785185813904E-1  
 4.420000000000000E7     9.467990398406982E-1  -2.354151308536530E-1   1.709658950567246E-1  -7.329559326171875E-2   1.710020750761032E-1  -7.283656299114227E-2  -8.176599740982056E-1   5.376877784729004E-1  
 4.450000000000000E7     9.268431067466736E-1  -3.189500570297241E-1   1.473045498132706E-1  -7.318768650293350E-2   1.468381285667419E-1  -7.343310117721558E-2  -8.048897385597229E-1   5.645207166671753E-1  
 4.480000000000000E7     9.012382030487061E-1  -3.949183523654938E-1   1.262435913085938E-1  -7.195544987916946E-2   1.262060999870300E-1  -7.187388092279434E-2  -7.901835441589356E-1   5.893653631210327E-1  
 4.510000000000000E7     8.711442351341248E-1  -4.637629985809326E-1   1.083023026585579E-1  -6.938072293996811E-2   1.082840412855148E-1  -6.924837827682495E-2  -7.761426568031311E-1   6.132337450981140E-1  
 4.540000000000000E7     8.360065817832947E-1  -5.275360941886902E-1   9.257175028324127E-2  -6.641833484172821E-2   9.248735010623932E-2  -6.605337560176849E-2  -7.609099745750427E-1   6.342451572418213E-1  
 4.570000000000000E7     7.982109785079956E-1  -5.859807133674622E-1   7.894544303417206E-2  -6.254111975431442E-2   7.902703434228897E-2  -6.207044795155525E-2  -7.454759478569031E-1   6.548295617103577E-1  
 4.600000000000000E7     7.596587538719177E-1  -6.364691257476807E-1   6.739035248756409E-2  -5.787101015448570E-2   6.748913973569870E-2  -5.805244296789169E-2  -7.307615876197815E-1   6.728890538215637E-1  
 4.630000000000000E7     7.177359461784363E-1  -6.862097978591919E-1   5.728267133235931E-2  -5.396033823490143E-2   5.722910910844803E-2  -5.401698127388954E-2  -7.160318493843079E-1   6.894124150276184E-1  
 4.660000000000000E7     6.757246851921082E-1  -7.297279238700867E-1   4.853414371609688E-2  -4.990659654140472E-2   4.855661466717720E-2  -4.974893108010292E-2  -7.003344893455505E-1   7.069147229194641E-1  
 4.690000000000000E7     6.316102743148804E-1  -7.678934335708618E-1   4.103700071573257E-2  -4.550826177001000E-2   4.099456593394280E-2  -4.532902687788010E-2  -6.861033439636231E-1   7.218691706657410E-1  
 4.720000000000000E7     5.864140391349793E-1  -8.031217455863953E-1   3.449176624417305E-2  -4.142331331968308E-2   3.452804684638977E-2  -4.145698621869087E-2  -6.707504391670227E-1   7.360033988952637E-1  
 4.750000000000000E7     5.428659319877625E-1  -8.345636725425720E-1   2.885260060429573E-2  -3.751815110445023E-2   2.883818931877613E-2  -3.733383119106293E-2  -6.558231711387634E-1   7.498817443847656E-1  
 4.780000000000000E7     4.980281293392181E-1  -8.620610833168030E-1   2.399685233831406E-2  -3.383496031165123E-2   2.405372075736523E-2  -3.371105343103409E-2  -6.401662826538086E-1   7.623451948165894E-1  
 4.810000000000000E7     4.521680176258087E-1  -8.872702121734619E-1   2.009266428649426E-2  -3.027754835784435E-2   1.996766589581966E-2  -3.006584383547306E-2  -6.268435716629028E-1   7.740473151206970E-1  
 4.840000000000000E7     4.071086645126343E-1  -9.093548655509949E-1   1.655175723135471E-2  -2.685588225722313E-2   1.650401577353478E-2  -2.675135433673859E-2  -6.128966212272644E-1   7.858213186264038E-1  
 4.870000000000000E7     3.609685003757477E-1  -9.289829730987549E-1   1.350783091038466E-2  -2.367392182350159E-2   1.355362497270107E-2  -2.369217202067375E-2  -5.982941985130310E-1   7.969756722450256E-1  
 4.900000000000000E7     3.159629702568054E-1  -9.461002349853516E-1   1.097059063613415E-2  -2.070986479520798E-2   1.095299422740936E-2  -2.077416144311428E-2  -5.847347974777222E-1   8.068029284477234E-1  
 4.930000000000000E7     2.702635228633881E-1  -9.605961441993713E-1   8.730526082217693E-3  -1.803994737565517E-2   8.903254754841328E-3  -1.802929118275642E-2  -5.704174637794495E-1   8.176625967025757E-1  
 4.960000000000000E7     2.243847101926804E-1  -9.705087542533875E-1   6.886715535074472E-3  -1.558539737015963E-2   7.003108970820904E-3  -1.551950071007013E-2  -5.565508604049683E-1   8.270438909530640E-1  
 4.990000000000000E7     1.805694252252579E-1  -9.804092049598694E-1   5.408149212598801E-3  -1.319513469934464E-2   5.408134777098894E-3  -1.322253607213497E-2  -5.429407954216003E-1   8.357832431793213E-1  
 5.020000000000000E7     1.373901367187500E-1  -9.879384040832520E-1   4.203484393656254E-3  -1.103301998227835E-2   4.210956860333681E-3  -1.103401556611061E-2  -5.297536849975586E-1   8.447573184967041E-1  
 5.050000000000000E7     9.221194684505463E-2  -9.930247068405151E-1   3.170134266838431E-3  -9.096176363527775E-3   3.159524407237768E-3  -9.105664677917957E-3  -5.163938999176025E-1   8.542258739471436E-1  
 5.080000000000000E7     4.940827935934067E-2  -9.964884519577026E-1   2.295488724485040E-3  -7.317602168768644E-3   2.344459062442184E-3  -7.331384811550379E-3  -5.019378662109375E-1   8.601413965225220E-1  
 5.110000000000000E7     5.603007972240448E-3  -9.974251389503479E-1   1.641101320274174E-3  -5.739348940551281E-3   1.648108125664294E-3  -5.690316203981638E-3  -4.899066686630249E-1   8.689849972724915E-1  
 5.140000000000000E7    -3.764826804399490E-2  -9.965152740478516E-1   1.118476735427976E-3  -4.273406695574522E-3   1.128217438235879E-3  -4.277052357792854E-3  -4.761784672737122E-1   8.778716325759888E-1  
 5.170000000000000E7    -7.867232710123062E-2  -9.937610030174255E-1   6.858176784589887E-4  -2.979010809212923E-3   7.249027257785201E-4  -3.002134850248694E-3  -4.622007906436920E-1   8.833585381507874E-1  
 5.200000000000000E7    -1.200848892331123E-1  -9.912939667701721E-1   3.885769692715257E-4  -1.844955375418067E-3   3.941959585063160E-4  -1.831783214583993E-3  -4.480624794960022E-1   8.888925313949585E-1  
 5.230000000000000E7    -1.612080633640289E-1  -9.843657016754150E-1   1.952288876054809E-4  -8.408002904616296E-4   1.762973261065781E-4  -8.402171079069376E-4  -4.361125826835632E-1   8.965193033218384E-1  
 5.260000000000000E7    -2.013759315013886E-1  -9.758325219154358E-1   2.683323145902250E-5   6.968171510379762E-5   6.474040856119245E-5   5.581111690844409E-5  -4.227664470672607E-1   9.031108617782593E-1  
 5.290000000000000E7    -2.412596940994263E-1  -9.679447412490845E-1  -2.243359631393105E-5   8.169066277332604E-4  -4.191357220406644E-5   7.755410042591393E-4  -4.097056388854981E-1   9.085224270820618E-1  
 5.320000000000000E7    -2.791349291801453E-1  -9.583893418312073E-1  -4.547158459899947E-5   1.442139619030058E-3  -4.545870615402237E-5   1.441845903173089E-3  -3.966497182846069E-1   9.147083163261414E-1  
 5.350000000000000E7    -3.161877393722534E-1  -9.454301595687866E-1  -4.271777288522571E-5   1.995425438508391E-3  -1.695990795269609E-5   1.952016493305564E-3  -3.847324848175049E-1   9.198594093322754E-1  
 5.380000000000000E7    -3.525669872760773E-1  -9.319615960121155E-1  -8.040864486247301E-6   2.423233352601528E-3   5.880922253709287E-5   2.416250528767705E-3  -3.701102733612061E-1   9.248705506324768E-1  
 5.410000000000000E7    -3.910641670227051E-1  -9.186736345291138E-1   7.705834286753088E-5   2.744864206761122E-3   9.231946023646742E-5   2.721730386838317E-3  -3.578544259071350E-1   9.304398894309998E-1  
 5.440000000000000E7    -4.263264238834381E-1  -9.016719460487366E-1   1.199031103169546E-4   2.986723789945245E-3   1.557035866426304E-4   2.993537811562419E-3  -3.453086018562317E-1   9.348818659782410E-1  
 5.470000000000000E7    -4.590323865413666E-1  -8.852475881576538E-1   1.954308681888506E-4   3.122003516182303E-3   2.143348683603108E-4   3.132631769403815E-3  -3.316744863986969E-1   9.399697780609131E-1  
 5.500000000000000E7    -4.937082827091217E-1  -8.672078847885132E-1   3.200226929038763E-4   3.222132800146937E-3   2.790081780403853E-4   3.218299709260464E-3  -3.186213672161102E-1   9.451454281806946E-1  
 5.530000000000000E7    -5.262838006019592E-1  -8.475276827812195E-1   3.847629704978317E-4   3.228683955967426E-3   3.839345299638808E-4   3.232325892895460E-3  -3.059192895889282E-1   9.485177397727966E-1  
 5.560000000000000E7    -5.589562654495239E-1  -8.264001607894898E-1   4.611361364368349E-4   3.173584118485451E-3   4.551922320388258E-4   3.156120656058192E-3  -2.939957678318024E-1   9.525917768478394E-1  
 5.590000000000000E7    -5.894443988800049E-1  -8.055964708328247E-1   5.290280678309500E-4   3.060403512790799E-3   5.153770907782018E-4   3.025685669854283E-3  -2.801106274127960E-1   9.565110206604004E-1  
 5.620000000000000E7    -6.197564601898193E-1  -7.812794446945190E-1   5.541294231079519E-4   2.872343175113201E-3   5.654023261740804E-4   2.834965707734227E-3  -2.683647871017456E-1   9.605416655540466E-1  
 5.650000000000000E7    -6.473327875137329E-1  -7.588986158370972E-1   5.707118543796241E-4   2.606913680210710E-3   5.368860438466072E-4   2.614066237583756E-3  -2.554379701614380E-1   9.634129405021668E-1  
 5.680000000000000E7    -6.755486130714417E-1  -7.342362403869629E-1   5.575301474891603E-4   2.337343292310834E-3   5.624929326586425E-4   2.316361991688609E-3  -2.422214150428772E-1   9.664567112922669E-1  
 5.710000000000000E7    -7.033091187477112E-1  -7.076767683029175E-1   5.515713710337877E-4   1.992222387343645E-3   5.177501589059830E-4   1.985385781154037E-3  -2.297848761081696E-1   9.698278307914734E-1  
 5.740000000000000E7    -7.291160821914673E-1  -6.816876530647278E-1   4.578940279316157E-4   1.588137354701757E-3   4.627368471119553E-4   1.560509670525789E-3  -2.164049297571182E-1   9.729045033454895E-1  
 5.770000000000000E7    -7.520315051078796E-1  -6.548076272010803E-1   3.623298543971032E-4   1.205417327582836E-3   3.617287147790194E-4   1.161524909548461E-3  -2.054609507322311E-1   9.743875265121460E-1  
 5.800000000000000E7    -7.762028574943543E-1  -6.257949471473694E-1   2.242304908577353E-4   7.218297105282545E-4   1.902428630273789E-4   7.063117227517068E-4  -1.914214193820953E-1   9.792276024818420E-1  
 5.830000000000000E7    -7.984170317649841E-1  -5.969038009643555E-1   6.330410542432219E-5   2.518476103432477E-4   7.246702443808317E-5   2.507810131646693E-4  -1.797831952571869E-1   9.812245368957520E-1  
 5.860000000000000E7    -8.208052515983582E-1  -5.683845877647400E-1  -1.423895591869950E-4  -2.830903104040772E-4  -1.677679247222841E-4  -3.040105511900038E-4  -1.666620224714279E-1   9.830364584922791E-1  
 5.890000000000000E7    -8.399394750595093E-1  -5.375227928161621E-1  -4.151845059823245E-4  -7.954395259730518E-4  -4.247939505148679E-4  -8.331981371156871E-4  -1.545560359954834E-1   9.844254255294800E-1  
 5.920000000000000E7    -8.594321608543396E-1  -5.062909722328186E-1  -7.548441644757986E-4  -1.364347524940968E-3  -7.137252250686288E-4  -1.380615052767098E-3  -1.415813416242600E-1   9.874897003173828E-1  
 5.950000000000000E7    -8.765401244163513E-1  -4.751955270767212E-1  -1.057308400049806E-3  -1.900688279420137E-3  -1.075117965228856E-3  -1.942805247381330E-3  -1.287847459316254E-1   9.873884320259094E-1  
 5.980000000000000E7    -8.937103748321533E-1  -4.429159462451935E-1  -1.431755488738418E-3  -2.503679366782308E-3  -1.410295488312841E-3  -2.525913529098034E-3  -1.155593618750572E-1   9.896425604820252E-1  
 6.010000000000000E7    -9.072163105010986E-1  -4.112632274627686E-1  -1.836776966229081E-3  -3.117400920018554E-3  -1.858078408986330E-3  -3.118640743196011E-3  -1.039671748876572E-1   9.915624856948853E-1  
 6.040000000000000E7    -9.225220680236816E-1  -3.772350847721100E-1  -2.321860287338495E-3  -3.734993282705545E-3  -2.349083311855793E-3  -3.724256064742804E-3  -9.110039472579956E-2   9.935199022293091E-1  
 6.070000000000000E7    -9.361323714256287E-1  -3.459044992923737E-1  -2.844697330147028E-3  -4.360869061201811E-3  -2.833634614944458E-3  -4.345013760030270E-3  -7.914108037948608E-2   9.935941696166992E-1  
 6.100000000000000E7    -9.470173120498657E-1  -3.119431734085083E-1  -3.429691307246685E-3  -4.968122579157352E-3  -3.424415830522776E-3  -4.972194321453571E-3  -6.543897092342377E-2   9.950618147850037E-1  
 6.130000000000000E7    -9.580653905868530E-1  -2.774458527565002E-1  -4.051894415169954E-3  -5.559147335588932E-3  -4.043218214064837E-3  -5.568655207753182E-3  -5.266182124614716E-2   9.964690208435059E-1  
 6.160000000000000E7    -9.667572975158691E-1  -2.435296773910523E-1  -4.668313078582287E-3  -6.157450377941132E-3  -4.723169375211000E-3  -6.167026236653328E-3  -4.122093319892883E-2   9.955569505691528E-1  
 6.190000000000000E7    -9.744960069656372E-1  -2.090967446565628E-1  -5.420537665486336E-3  -6.784135941416025E-3  -5.394113250076771E-3  -6.720201577991247E-3  -2.904628217220306E-2   9.954734444618225E-1  
 6.220000000000000E7    -9.815710186958313E-1  -1.747297197580338E-1  -6.161428987979889E-3  -7.336132228374481E-3  -6.172043271362782E-3  -7.371343672275543E-3  -1.702693104743958E-2   9.969297051429749E-1  
 6.250000000000000E7    -9.873672127723694E-1  -1.396062523126602E-1  -6.968628615140915E-3  -7.974761538207531E-3  -6.975780241191387E-3  -7.940795272588730E-3  -4.806950688362122E-3   9.974119067192078E-1  
 6.280000000000000E7    -9.911889433860779E-1  -1.048210412263870E-1  -7.839538156986237E-3  -8.534883148968220E-3  -7.812790572643280E-3  -8.528598584234715E-3   8.042380213737488E-3   9.972919821739197E-1  
 6.310000000000000E7    -9.942469000816345E-1  -6.849320232868195E-2  -8.775706402957439E-3  -9.057520888745785E-3  -8.715143427252770E-3  -9.060050360858440E-3   2.061951160430908E-2   9.973321557044983E-1  
 6.340000000000000E7    -9.955662488937378E-1  -3.373195230960846E-2  -9.701544418931007E-3  -9.610012173652649E-3  -9.668117389082909E-3  -9.571630507707596E-3   3.345540165901184E-2   9.972943663597107E-1  
 6.370000000000000E7    -9.965553283691406E-1   1.285836100578308E-3  -1.071001309901476E-2  -1.006190571933985E-2  -1.072315033525229E-2  -1.008043251931667E-2   4.517549276351929E-2   9.957686662673950E-1  
 6.400000000000000E7    -9.947444796562195E-1   3.606501221656799E-2  -1.175936404615641E-2  -1.054304372519255E-2  -1.173196360468864E-2  -1.050341594964266E-2   5.807705223560333E-2   9.962025880813599E-1  
 6.430000000000000E7    -9.934312105178833E-1   7.216534018516541E-2  -1.284345611929894E-2  -1.105416007339954E-2  -1.284741982817650E-2  -1.099183131009340E-2   7.045599073171616E-2   9.948290586471558E-1  
 6.460000000000000E7    -9.907413721084595E-1   1.068530380725861E-1  -1.399746723473072E-2  -1.141933724284172E-2  -1.394956838339567E-2  -1.144216023385525E-2   8.186256140470505E-2   9.931946992874146E-1  
 6.490000000000000E7    -9.873591065406799E-1   1.407487094402313E-1  -1.514570042490959E-2  -1.184327993541956E-2  -1.517323590815067E-2  -1.187073625624180E-2   9.397854655981064E-2   9.929351210594177E-1  
 6.520000000000000E7    -9.808526039123535E-1   1.751622706651688E-1  -1.643208041787148E-2  -1.223380584269762E-2  -1.637865230441093E-2  -1.218843832612038E-2   1.063217073678970E-1   9.921703934669495E-1  
 6.550000000000000E7    -9.743540883064270E-1   2.087872624397278E-1  -1.771771162748337E-2  -1.252446882426739E-2  -1.765949651598930E-2  -1.250960584729910E-2   1.187186241149902E-1   9.889681935310364E-1  
 6.580000000000000E7    -9.659122824668884E-1   2.434642910957336E-1  -1.906206086277962E-2  -1.275581773370504E-2  -1.899070665240288E-2  -1.278293877840042E-2   1.312309801578522E-1   9.889671802520752E-1  
 6.610000000000000E7    -9.558863639831543E-1   2.769564986228943E-1  -2.041328512132168E-2  -1.298581250011921E-2  -2.028062939643860E-2  -1.287824567407370E-2   1.442818194627762E-1   9.855785965919495E-1  
 6.640000000000000E7    -9.474327564239502E-1   3.100861907005310E-1  -2.180701307952404E-2  -1.323723420500755E-2  -2.177439816296101E-2  -1.324474904686213E-2   1.568421721458435E-1   9.842835068702698E-1  
 6.670000000000000E7    -9.352280497550964E-1   3.431770801544190E-1  -2.325787395238876E-2  -1.332353707402945E-2  -2.321566455066204E-2  -1.337191462516785E-2   1.677151322364807E-1   9.830607771873474E-1  
 6.700000000000000E7    -9.223445653915405E-1   3.754887580871582E-1  -2.473799698054791E-2  -1.343416795134544E-2  -2.465231902897358E-2  -1.339409034699202E-2   1.800711303949356E-1   9.797279834747315E-1  
 6.730000000000000E7    -9.084141850471497E-1   4.077084362506867E-1  -2.620362862944603E-2  -1.350705698132515E-2  -2.619948051869869E-2  -1.336921192705631E-2   1.929112076759338E-1   9.782487154006958E-1  
 6.760000000000000E7    -8.941257596015930E-1   4.385721981525421E-1  -2.787580341100693E-2  -1.339852903038263E-2  -2.776405028998852E-2  -1.345176994800568E-2   2.055854946374893E-1   9.753763079643250E-1  
 6.790000000000000E7    -8.778399229049683E-1   4.700208902359009E-1  -2.941014431416988E-2  -1.340192928910255E-2  -2.940501458942890E-2  -1.332512218505144E-2   2.165082395076752E-1   9.720492959022522E-1  
 6.820000000000000E7    -8.608945012092590E-1   4.998039901256561E-1  -3.103644587099552E-2  -1.321121864020824E-2  -3.096112236380577E-2  -1.325462758541107E-2   2.286059558391571E-1   9.698389768600464E-1  
 6.850000000000000E7    -8.433505296707153E-1   5.304447412490845E-1  -3.279896453022957E-2  -1.311965286731720E-2  -3.270237147808075E-2  -1.306522544473410E-2   2.398631572723389E-1   9.671411514282227E-1  
 6.880000000000000E7    -8.239048719406128E-1   5.587900876998901E-1  -3.448086604475975E-2  -1.281395927071571E-2  -3.432749211788178E-2  -1.274159736931324E-2   2.531354427337647E-1   9.634912610054016E-1  
 6.910000000000000E7    -8.038334846496582E-1   5.872022509574890E-1  -3.619436547160149E-2  -1.245077420026064E-2  -3.613398596644402E-2  -1.245824526995421E-2   2.653613984584808E-1   9.603433012962341E-1  
 6.940000000000000E7    -7.834850549697876E-1   6.148252487182617E-1  -3.791893273591995E-2  -1.209519058465958E-2  -3.794757649302483E-2  -1.213302649557591E-2   2.761820852756500E-1   9.572324156761169E-1  
 6.970000000000000E7    -7.602146863937378E-1   6.420980095863342E-1  -3.966216742992401E-2  -1.167427562177181E-2  -3.979660570621491E-2  -1.153396256268024E-2   2.890039384365082E-1   9.529982805252075E-1  
 7.000000000000000E7    -7.374410629272461E-1   6.688403487205505E-1  -4.160759598016739E-2  -1.112787239253521E-2  -4.155736044049263E-2  -1.108746509999037E-2   3.003017604351044E-1   9.500511884689331E-1  
