#  HZ   S   RI   R     50.00 
! Rohde & Schwarz ZVT8 8Ports - Version 4.11 - 1300.0000k08 SN: 100242
! Date: 2026-07-31 14:55:54
! Measurements: S11 S21 S12 S22 
! 
 1.000000000000000E7    -4.096530079841614E-1   9.080196022987366E-1   4.909691959619522E-2   5.006298050284386E-2   4.894790798425674E-2   5.016314610838890E-2  -9.204266667366028E-1   3.820993900299072E-1  
 1.030000000000000E7    -3.785473704338074E-1   9.205998182296753E-1   5.206083878874779E-2   5.043220892548561E-2   5.188181623816490E-2   5.056879296898842E-2  -9.152017235755920E-1   3.944069147109985E-1  
 1.060000000000000E7    -3.432787060737610E-1   9.340016841888428E-1   5.504715815186501E-2   5.128136649727821E-2   5.492119491100311E-2   5.092881619930267E-2  -9.114582538604736E-1   4.055367708206177E-1  
 1.090000000000000E7    -3.122613430023193E-1   9.447752237319946E-1   5.801836773753166E-2   5.132147669792175E-2   5.796663463115692E-2   5.140051245689392E-2  -9.056746959686279E-1   4.172409772872925E-1  
 1.120000000000000E7    -2.778336703777313E-1   9.541463851928711E-1   6.132956966757774E-2   5.205700919032097E-2   6.086586788296700E-2   5.162400379776955E-2  -9.003822803497315E-1   4.287585318088532E-1  
 1.150000000000000E7    -2.429983615875244E-1   9.646919369697571E-1   6.432990729808807E-2   5.155926570296288E-2   6.396819651126862E-2   5.163014680147171E-2  -8.934040665626526E-1   4.379087686538696E-1  
 1.180000000000000E7    -2.093059122562408E-1   9.703854918479919E-1   6.741458177566528E-2   5.175974965095520E-2   6.733341515064240E-2   5.184787511825562E-2  -8.893198966979981E-1   4.486632645130158E-1  
 1.210000000000000E7    -1.755478978157044E-1   9.770786166191101E-1   7.074493169784546E-2   5.183422192931175E-2   7.066394388675690E-2   5.167416855692864E-2  -8.819210529327393E-1   4.601478874683380E-1  
 1.240000000000000E7    -1.410896182060242E-1   9.818800687789917E-1   7.399453222751617E-2   5.182630941271782E-2   7.398719340562820E-2   5.146564170718193E-2  -8.758363723754883E-1   4.698269367218018E-1  
 1.270000000000000E7    -1.064484789967537E-1   9.860311150550842E-1   7.797161489725113E-2   5.119770020246506E-2   7.742727547883987E-2   5.102556198835373E-2  -8.691211342811585E-1   4.830606281757355E-1  
 1.300000000000000E7    -7.226736098527908E-2   9.891325235366821E-1   8.097076416015625E-2   5.099868774414063E-2   8.093720674514771E-2   5.068524554371834E-2  -8.625662326812744E-1   4.935090839862824E-1  
 1.330000000000000E7    -3.730166330933571E-2   9.915192127227783E-1   8.485789597034454E-2   5.018905550241470E-2   8.469948917627335E-2   4.984620586037636E-2  -8.558366298675537E-1   5.052647590637207E-1  
 1.360000000000000E7    -9.839832782745361E-4   9.921304583549500E-1   8.841013163328171E-2   4.976393282413483E-2   8.853831142187119E-2   4.909126833081245E-2  -8.493114113807678E-1   5.139937996864319E-1  
 1.390000000000000E7     3.223749995231628E-2   9.909397959709168E-1   9.216769039630890E-2   4.859783127903938E-2   9.168719500303268E-2   4.894440993666649E-2  -8.420367240905762E-1   5.252159237861633E-1  
 1.420000000000000E7     6.839523464441299E-2   9.893999099731445E-1   9.566376358270645E-2   4.805701225996018E-2   9.567750990390778E-2   4.787481576204300E-2  -8.362776041030884E-1   5.350548028945923E-1  
 1.450000000000000E7     1.031615734100342E-1   9.847295284271240E-1   9.964917600154877E-2   4.672532528638840E-2   9.948549419641495E-2   4.639858007431030E-2  -8.265041112899780E-1   5.474666953086853E-1  
 1.480000000000000E7     1.389998048543930E-1   9.801976680755615E-1   1.033793240785599E-1   4.513724148273468E-2   1.034637391567230E-1   4.581477493047714E-2  -8.204252719879150E-1   5.571408271789551E-1  
 1.510000000000000E7     1.729635745286942E-1   9.741954207420349E-1   1.071831732988358E-1   4.388171061873436E-2   1.070106625556946E-1   4.399910941720009E-2  -8.102619051933289E-1   5.680038928985596E-1  
 1.540000000000000E7     2.069305032491684E-1   9.672808647155762E-1   1.111031025648117E-1   4.306689277291298E-2   1.109488829970360E-1   4.254524782299995E-2  -8.050330877304077E-1   5.773662924766541E-1  
 1.570000000000000E7     2.420309484004974E-1   9.601095318794251E-1   1.150879114866257E-1   4.079534858465195E-2   1.150917857885361E-1   4.089264944195747E-2  -7.956956028938294E-1   5.891426801681519E-1  
 1.600000000000000E7     2.765622735023499E-1   9.494603872299194E-1   1.190599873661995E-1   3.891598433256149E-2   1.191094368696213E-1   3.884781897068024E-2  -7.882895469665527E-1   5.972281694412231E-1  
 1.630000000000000E7     3.100402653217316E-1   9.384958744049072E-1   1.234755367040634E-1   3.673050552606583E-2   1.231353729963303E-1   3.705103322863579E-2  -7.790810465812683E-1   6.093569397926331E-1  
 1.660000000000000E7     3.436457216739655E-1   9.247066378593445E-1   1.275510638952255E-1   3.456025570631027E-2   1.272547543048859E-1   3.421904891729355E-2  -7.693253755569458E-1   6.202703118324280E-1  
 1.690000000000000E7     3.762023150920868E-1   9.121603965759277E-1   1.316663026809692E-1   3.261017799377441E-2   1.313671618700028E-1   3.237414732575417E-2  -7.612383961677551E-1   6.291559338569641E-1  
 1.720000000000000E7     4.110712707042694E-1   8.978958129882813E-1   1.353436708450317E-1   2.933761849999428E-2   1.354916542768478E-1   2.967859059572220E-2  -7.511637210845947E-1   6.384964585304260E-1  
 1.750000000000000E7     4.388210773468018E-1   8.842808604240418E-1   1.401087343692780E-1   2.764226868748665E-2   1.401877850294113E-1   2.731400541961193E-2  -7.435015439987183E-1   6.502392888069153E-1  
 1.780000000000000E7     4.734722375869751E-1   8.637324571609497E-1   1.435664892196655E-1   2.403783611953259E-2   1.436992138624191E-1   2.443161979317665E-2  -7.332728505134583E-1   6.576404571533203E-1  
 1.810000000000000E7     5.031734108924866E-1   8.469025492668152E-1   1.485330313444138E-1   2.147391997277737E-2   1.476901024580002E-1   2.079449966549873E-2  -7.235637903213501E-1   6.708287000656128E-1  
 1.840000000000000E7     5.353918671607971E-1   8.275896310806274E-1   1.530785411596298E-1   1.717001199722290E-2   1.521462500095367E-1   1.733996719121933E-2  -7.124594449996948E-1   6.802337765693665E-1  
 1.870000000000000E7     5.630095601081848E-1   8.074733614921570E-1   1.568490713834763E-1   1.423267647624016E-2   1.564908623695374E-1   1.366130821406841E-2  -7.021262645721436E-1   6.899558305740356E-1  
 1.900000000000000E7     5.919978022575378E-1   7.861889004707336E-1   1.609927862882614E-1   1.066148187965155E-2   1.608782410621643E-1   1.011090166866779E-2  -6.912001371383667E-1   6.987459659576416E-1  
 1.930000000000000E7     6.211119294166565E-1   7.629191279411316E-1   1.652682274580002E-1   5.600308999419212E-3   1.651416122913361E-1   6.500948220491409E-3  -6.809507012367249E-1   7.098361849784851E-1  
 1.960000000000000E7     6.488321423530579E-1   7.382664084434509E-1   1.691592633724213E-1   1.682609319686890E-3   1.691416203975678E-1   2.220913767814636E-3  -6.711422204971314E-1   7.182464599609375E-1  
 1.990000000000000E7     6.734511256217957E-1   7.130964398384094E-1   1.732771694660187E-1  -2.756595611572266E-3   1.735374480485916E-1  -2.728376537561417E-3  -6.575241684913635E-1   7.296981811523438E-1  
 2.020000000000000E7     6.989657878875732E-1   6.873761415481567E-1   1.776714622974396E-1  -7.133886218070984E-3   1.770960241556168E-1  -7.116812281310558E-3  -6.468162536621094E-1   7.364811897277832E-1  
 2.050000000000000E7     7.252964377403259E-1   6.601659655570984E-1   1.817491054534912E-1  -1.181624550372362E-2   1.805820465087891E-1  -1.243887934833765E-2  -6.351672410964966E-1   7.463108301162720E-1  
 2.080000000000000E7     7.482413053512573E-1   6.306523084640503E-1   1.859425157308579E-1  -1.717892661690712E-2   1.858032047748566E-1  -1.696111261844635E-2  -6.238678693771362E-1   7.566465735435486E-1  
 2.110000000000000E7     7.713339328765869E-1   6.023347973823547E-1   1.901809722185135E-1  -2.300515770912170E-2   1.899448037147522E-1  -2.298135124146938E-2  -6.103495955467224E-1   7.656776905059815E-1  
 2.140000000000000E7     7.926120758056641E-1   5.726341009140015E-1   1.941460371017456E-1  -2.911297976970673E-2   1.932026743888855E-1  -2.837640233337879E-2  -5.978529453277588E-1   7.738989591598511E-1  
 2.170000000000000E7     8.115793466567993E-1   5.432765483856201E-1   1.978971511125565E-1  -3.469061106443405E-2   1.977157592773438E-1  -3.395661711692810E-2  -5.855061411857605E-1   7.832185626029968E-1  
 2.200000000000000E7     8.325678110122681E-1   5.098822712898254E-1   2.015722841024399E-1  -4.113508388400078E-2   2.015511393547058E-1  -4.079037159681320E-2  -5.705527663230896E-1   7.913975119590759E-1  
 2.230000000000000E7     8.494032621383667E-1   4.776605963706970E-1   2.053388059139252E-1  -4.765256494283676E-2   2.048207819461823E-1  -4.728341475129128E-2  -5.573067069053650E-1   7.994515299797058E-1  
 2.260000000000000E7     8.666263222694397E-1   4.445190429687500E-1   2.085616886615753E-1  -5.459362640976906E-2   2.096360474824905E-1  -5.416191369295120E-2  -5.437923669815064E-1   8.077860474586487E-1  
 2.290000000000000E7     8.820662498474121E-1   4.104103744029999E-1   2.121929973363876E-1  -6.150569021701813E-2   2.125192135572434E-1  -6.098755449056625E-2  -5.279255509376526E-1   8.153047561645508E-1  
 2.320000000000000E7     8.952398896217346E-1   3.756632506847382E-1   2.160529792308807E-1  -6.935047358274460E-2   2.155254185199738E-1  -6.969387829303742E-2  -5.139976143836975E-1   8.250352740287781E-1  
 2.350000000000000E7     9.082816243171692E-1   3.390043079853058E-1   2.194846868515015E-1  -7.798406481742859E-2   2.188295871019363E-1  -7.709514349699020E-2  -4.994937777519226E-1   8.324519395828247E-1  
 2.380000000000000E7     9.191162586212158E-1   3.038164675235748E-1   2.223785221576691E-1  -8.539721369743347E-2   2.220882922410965E-1  -8.517342060804367E-2  -4.841850399971008E-1   8.398612141609192E-1  
 2.410000000000000E7     9.295861721038818E-1   2.664200961589813E-1   2.250251173973084E-1  -9.437223523855209E-2   2.242890894412994E-1  -9.404123574495316E-2  -4.672866165637970E-1   8.465246558189392E-1  
 2.440000000000000E7     9.372600913047791E-1   2.296719700098038E-1   2.281031012535095E-1  -1.034770384430885E-1   2.280414402484894E-1  -1.035785824060440E-1  -4.524910449981690E-1   8.536028861999512E-1  
 2.470000000000000E7     9.437382221221924E-1   1.919952332973480E-1   2.305914610624313E-1  -1.132000312209129E-1   2.299133837223053E-1  -1.116295084357262E-1  -4.351251721382141E-1   8.589659929275513E-1  
 2.500000000000000E7     9.499096274375916E-1   1.537094712257385E-1   2.323390990495682E-1  -1.222958862781525E-1   2.324099242687225E-1  -1.228028088808060E-1  -4.178662300109863E-1   8.669320940971375E-1  
 2.530000000000000E7     9.539674520492554E-1   1.155650019645691E-1   2.350039780139923E-1  -1.320208162069321E-1   2.348456978797913E-1  -1.315979510545731E-1  -4.011059403419495E-1   8.717840313911438E-1  
 2.560000000000000E7     9.554241895675659E-1   7.829168438911438E-2   2.365196943283081E-1  -1.419374346733093E-1   2.371209263801575E-1  -1.418991386890411E-1  -3.842331469058991E-1   8.781511783599854E-1  
 2.590000000000000E7     9.551113247871399E-1   3.903279826045036E-2   2.379550188779831E-1  -1.538749337196350E-1   2.383274137973785E-1  -1.536280661821365E-1  -3.663248717784882E-1   8.851666450500488E-1  
 2.620000000000000E7     9.537826180458069E-1  -7.407516241073608E-4   2.392529100179672E-1  -1.655975133180618E-1   2.388423234224320E-1  -1.648006737232208E-1  -3.456484079360962E-1   8.903445005416870E-1  
 2.650000000000000E7     9.508709907531738E-1  -3.852394223213196E-2   2.404352724552155E-1  -1.759783178567886E-1   2.402560114860535E-1  -1.763591766357422E-1  -3.280018568038940E-1   8.942536115646362E-1  
 2.680000000000000E7     9.452639222145081E-1  -7.715274393558502E-2   2.411741018295288E-1  -1.878884136676788E-1   2.410814911127091E-1  -1.884858757257462E-1  -3.093726336956024E-1   8.983636498451233E-1  
 2.710000000000000E7     9.384135603904724E-1  -1.172795221209526E-1   2.402432262897492E-1  -2.014718651771545E-1   2.398430109024048E-1  -2.010407447814941E-1  -2.894878387451172E-1   9.033571481704712E-1  
 2.740000000000000E7     9.301729798316956E-1  -1.555989235639572E-1   2.411074042320252E-1  -2.132693380117416E-1   2.405363768339157E-1  -2.141060382127762E-1  -2.689489722251892E-1   9.049128890037537E-1  
 2.770000000000000E7     9.204024672508240E-1  -1.929843574762344E-1   2.397122830152512E-1  -2.271088361740112E-1   2.394218295812607E-1  -2.279054224491119E-1  -2.475285679101944E-1   9.089046120643616E-1  
 2.800000000000000E7     9.094512462615967E-1  -2.305178940296173E-1   2.382787019014359E-1  -2.401865869760513E-1   2.392522841691971E-1  -2.400078326463699E-1  -2.266130298376083E-1   9.097843766212463E-1  
 2.830000000000000E7     8.942521810531616E-1  -2.687582075595856E-1   2.360582202672958E-1  -2.537828087806702E-1   2.357152402400971E-1  -2.548846900463104E-1  -2.073384076356888E-1   9.122492671012878E-1  
 2.860000000000000E7     8.789165019989014E-1  -3.062621951103210E-1   2.337049245834351E-1  -2.688400447368622E-1   2.329816073179245E-1  -2.698646485805512E-1  -1.824980974197388E-1   9.138858318328857E-1  
 2.890000000000000E7     8.615066409111023E-1  -3.411634266376495E-1   2.301399558782578E-1  -2.847296893596649E-1   2.300655245780945E-1  -2.840394675731659E-1  -1.612557470798492E-1   9.140539169311523E-1  
 2.920000000000000E7     8.423861265182495E-1  -3.773522675037384E-1   2.272326201200485E-1  -2.985296547412872E-1   2.258119583129883E-1  -2.990000247955322E-1  -1.397206336259842E-1   9.131754040718079E-1  
 2.950000000000000E7     8.224269151687622E-1  -4.109295606613159E-1   2.225960791110992E-1  -3.159440159797669E-1   2.215771824121475E-1  -3.152255713939667E-1  -1.145340800285339E-1   9.132262468338013E-1  
 2.980000000000000E7     7.992376089096069E-1  -4.450812637805939E-1   2.170157432556152E-1  -3.309431672096252E-1   2.169697731733322E-1  -3.319708704948425E-1  -9.162583947181702E-2   9.114320278167725E-1  
 3.010000000000000E7     7.753494977951050E-1  -4.778995215892792E-1   2.102525532245636E-1  -3.482038676738739E-1   2.108863890171051E-1  -3.476572334766388E-1  -6.748272478580475E-2   9.084883928298950E-1  
 3.040000000000000E7     7.485678195953369E-1  -5.107749700546265E-1   2.038735151290894E-1  -3.654060363769531E-1   2.033321112394333E-1  -3.659827709197998E-1  -4.266099631786346E-2   9.035459160804749E-1  
 3.070000000000000E7     7.201238274574280E-1  -5.397253632545471E-1   1.945350617170334E-1  -3.819667398929596E-1   1.938402652740479E-1  -3.815390765666962E-1  -1.728238537907600E-2   8.998402357101440E-1  
 3.100000000000000E7     6.897906661033630E-1  -5.682353377342224E-1   1.850596964359283E-1  -4.002007842063904E-1   1.843598335981369E-1  -3.989909291267395E-1   8.462868630886078E-3   8.947736620903015E-1  
 3.130000000000000E7     6.597411036491394E-1  -5.960777401924133E-1   1.740451753139496E-1  -4.175802171230316E-1   1.748360544443131E-1  -4.172117710113525E-1   3.337440639734268E-2   8.866856694221497E-1  
 3.160000000000000E7     6.254760622978210E-1  -6.205701828002930E-1   1.629018634557724E-1  -4.360126256942749E-1   1.627960354089737E-1  -4.359033107757568E-1   5.908830836415291E-2   8.803244233131409E-1  
 3.190000000000000E7     5.907700061798096E-1  -6.439118981361389E-1   1.495041847229004E-1  -4.540859758853912E-1   1.493493318557739E-1  -4.524497091770172E-1   8.607628941535950E-2   8.705762624740601E-1  
 3.220000000000000E7     5.552877187728882E-1  -6.674507260322571E-1   1.363280862569809E-1  -4.718491137027741E-1   1.354142129421234E-1  -4.708819091320038E-1   1.105562224984169E-1   8.603075742721558E-1  
 3.250000000000000E7     5.180118083953857E-1  -6.859635114669800E-1   1.204562112689018E-1  -4.904292821884155E-1   1.194983944296837E-1  -4.900351762771606E-1   1.375197470188141E-1   8.500546216964722E-1  
 3.280000000000000E7     4.788532257080078E-1  -7.021926045417786E-1   1.033229380846024E-1  -5.089693665504456E-1   1.030769050121307E-1  -5.064595341682434E-1   1.638858616352081E-1   8.361579775810242E-1  
 3.310000000000000E7     4.401290118694305E-1  -7.184278964996338E-1   8.444505929946899E-2  -5.253947973251343E-1   8.353487402200699E-2  -5.251225233078003E-1   1.908718049526215E-1   8.207024931907654E-1  
 3.340000000000000E7     4.000762999057770E-1  -7.309882640838623E-1   6.244885921478272E-2  -5.436425209045410E-1   6.324896216392517E-2  -5.419031977653503E-1   2.169055491685867E-1   8.042085766792297E-1  
 3.370000000000000E7     3.590910732746124E-1  -7.408096790313721E-1   4.143384844064713E-2  -5.597259998321533E-1   4.194456711411476E-2  -5.598942637443543E-1   2.430029511451721E-1   7.867239117622376E-1  
 3.400000000000000E7     3.168182373046875E-1  -7.479525208473206E-1   1.661839894950390E-2  -5.761340260505676E-1   1.701057516038418E-2  -5.765898823738098E-1   2.683208584785461E-1   7.659834027290344E-1  
 3.430000000000000E7     2.756398320198059E-1  -7.534034252166748E-1  -9.863819926977158E-3  -5.918813943862915E-1  -8.778586983680725E-3  -5.911350250244141E-1   2.938832938671112E-1   7.451492547988892E-1  
 3.460000000000000E7     2.322832047939301E-1  -7.544786930084229E-1  -3.729017451405525E-2  -6.066317558288574E-1  -3.777875378727913E-2  -6.067812442779541E-1   3.184877634048462E-1   7.222846150398254E-1  
 3.490000000000000E7     1.919428259134293E-1  -7.532541155815125E-1  -6.864954531192780E-2  -6.189292669296265E-1  -6.641381978988648E-2  -6.191724538803101E-1   3.414528369903565E-1   6.973859667778015E-1  
 3.520000000000000E7     1.493138968944550E-1  -7.491379976272583E-1  -9.919926524162293E-2  -6.323615312576294E-1  -9.818893671035767E-2  -6.322709918022156E-1   3.661338686943054E-1   6.699525117874146E-1  
 3.550000000000000E7     1.066085547208786E-1  -7.403454780578613E-1  -1.325691342353821E-1  -6.441692709922791E-1  -1.327683031558991E-1  -6.438382863998413E-1   3.866139650344849E-1   6.414648890495300E-1  
 3.580000000000000E7     6.643747538328171E-2  -7.303572893142700E-1  -1.681484580039978E-1  -6.524081826210022E-1  -1.674420833587647E-1  -6.518330574035645E-1   4.070280194282532E-1   6.097597479820252E-1  
 3.610000000000000E7     2.851229906082153E-2  -7.161129713058472E-1  -2.073493599891663E-1  -6.603112816810608E-1  -2.058790177106857E-1  -6.587287783622742E-1   4.274932146072388E-1   5.769763588905335E-1  
 3.640000000000000E7    -1.032891124486923E-2  -6.994985342025757E-1  -2.452367544174194E-1  -6.652642488479614E-1  -2.449370324611664E-1  -6.655465960502625E-1   4.428794085979462E-1   5.415548086166382E-1  
 3.670000000000000E7    -4.562625661492348E-2  -6.801629066467285E-1  -2.865699529647827E-1  -6.691570281982422E-1  -2.851220369338989E-1  -6.660823822021484E-1   4.582816660404205E-1   5.070754289627075E-1  
 3.700000000000000E7    -7.994235306978226E-2  -6.583117246627808E-1  -3.288851976394653E-1  -6.667361855506897E-1  -3.279030621051788E-1  -6.662733554840088E-1   4.710217416286469E-1   4.670542776584625E-1  
 3.730000000000000E7    -1.123490631580353E-1  -6.344820857048035E-1  -3.706590533256531E-1  -6.627328395843506E-1  -3.712941706180573E-1  -6.625997424125671E-1   4.790909290313721E-1   4.287666380405426E-1  
 3.760000000000000E7    -1.390878707170487E-1  -6.090100407600403E-1  -4.160932600498200E-1  -6.551589965820313E-1  -4.170764982700348E-1  -6.557379961013794E-1   4.873462915420532E-1   3.876360058784485E-1  
 3.790000000000000E7    -1.633627414703369E-1  -5.795698761940002E-1  -4.622065126895905E-1  -6.457377672195435E-1  -4.602819979190826E-1  -6.437714695930481E-1   4.923291206359863E-1   3.464447557926178E-1  
 3.820000000000000E7    -1.855863630771637E-1  -5.496355891227722E-1  -5.083414912223816E-1  -6.306504607200623E-1  -5.080345273017883E-1  -6.309321522712708E-1   4.922173023223877E-1   3.037284016609192E-1  
 3.850000000000000E7    -2.049585580825806E-1  -5.173228979110718E-1  -5.532626509666443E-1  -6.143100857734680E-1  -5.537111163139343E-1  -6.119794249534607E-1   4.927079379558563E-1   2.609579563140869E-1  
 3.880000000000000E7    -2.197774201631546E-1  -4.878281652927399E-1  -5.988055467605591E-1  -5.892325043678284E-1  -5.970903635025024E-1  -5.902052521705627E-1   4.881118834018707E-1   2.160270065069199E-1  
 3.910000000000000E7    -2.323545962572098E-1  -4.542167782783508E-1  -6.434285044670105E-1  -5.642534494400024E-1  -6.428380012512207E-1  -5.631383061408997E-1   4.789584279060364E-1   1.750530898571014E-1  
 3.940000000000000E7    -2.379944473505020E-1  -4.219185709953308E-1  -6.866919398307800E-1  -5.336067676544190E-1  -6.852173209190369E-1  -5.343895554542542E-1   4.664981663227081E-1   1.312170326709747E-1  
 3.970000000000000E7    -2.432940602302551E-1  -3.906853199005127E-1  -7.286998629570007E-1  -5.002686977386475E-1  -7.283037304878235E-1  -4.995760023593903E-1   4.485498070716858E-1   9.174223989248276E-2  
 4.000000000000000E7    -2.444931566715241E-1  -3.605759739875794E-1  -7.676281929016113E-1  -4.619535505771637E-1  -7.672277092933655E-1  -4.600560963153839E-1   4.306514561176300E-1   5.092336982488632E-2  
 4.030000000000000E7    -2.406512498855591E-1  -3.346536159515381E-1  -8.047912120819092E-1  -4.187307357788086E-1  -8.032396435737610E-1  -4.197460711002350E-1   4.107716679573059E-1   1.342879235744476E-2  
 4.060000000000000E7    -2.354614734649658E-1  -3.062469959259033E-1  -8.382086157798767E-1  -3.750458359718323E-1  -8.388822078704834E-1  -3.746947944164276E-1   3.821038603782654E-1  -2.313851751387119E-2  
 4.090000000000000E7    -2.284955084323883E-1  -2.801740467548370E-1  -8.683265447616577E-1  -3.276591300964356E-1  -8.675151467323303E-1  -3.267420232295990E-1   3.566247224807739E-1  -5.739541351795197E-2  
 4.120000000000000E7    -2.159135937690735E-1  -2.572189569473267E-1  -8.965990543365479E-1  -2.764993607997894E-1  -8.966363072395325E-1  -2.759621441364288E-1   3.224235177040100E-1  -8.814494311809540E-2  
 4.150000000000000E7    -2.047250419855118E-1  -2.416773736476898E-1  -9.189242124557495E-1  -2.209173142910004E-1  -9.171814918518066E-1  -2.228626608848572E-1   2.896185517311096E-1  -1.148641034960747E-1  
 4.180000000000000E7    -1.927125155925751E-1  -2.245829552412033E-1  -9.365010261535645E-1  -1.669782698154450E-1  -9.349967837333679E-1  -1.676088124513626E-1   2.572806477546692E-1  -1.415564566850662E-1  
 4.210000000000000E7    -1.789197176694870E-1  -2.138053774833679E-1  -9.491773843765259E-1  -1.098060309886932E-1  -9.509320259094238E-1  -1.106947883963585E-1   2.209911048412323E-1  -1.625065207481384E-1  
 4.240000000000000E7    -1.627898365259171E-1  -2.041047364473343E-1  -9.597604274749756E-1  -5.303687602281570E-2  -9.593867659568787E-1  -5.300481617450714E-2   1.840972304344177E-1  -1.797929406166077E-1  
 4.270000000000000E7    -1.512815058231354E-1  -1.970693618059158E-1  -9.647570848464966E-1   5.100037902593613E-3  -9.640913009643555E-1   5.786666646599770E-3   1.472730338573456E-1  -1.949696689844132E-1  
 4.300000000000000E7    -1.367982774972916E-1  -1.935155987739563E-1  -9.655160307884216E-1   6.364213675260544E-2  -9.647929668426514E-1   6.339466571807861E-2   1.087533608078957E-1  -2.058543711900711E-1  
 4.330000000000000E7    -1.236688643693924E-1  -1.919620633125305E-1  -9.617017507553101E-1   1.211530640721321E-1  -9.628139734268189E-1   1.212597191333771E-1   7.091058045625687E-2  -2.138844430446625E-1  
 4.360000000000000E7    -1.097535640001297E-1  -1.971827596426010E-1  -9.539406299591065E-1   1.787355989217758E-1  -9.536850452423096E-1   1.776315122842789E-1   3.216523677110672E-2  -2.199046462774277E-1  
 4.390000000000000E7    -1.029661893844605E-1  -2.007168084383011E-1  -9.416467547416687E-1   2.343811988830566E-1  -9.412958025932312E-1   2.356813549995422E-1  -8.284908253699541E-4  -2.182812839746475E-1  
 4.420000000000000E7    -9.491960704326630E-2  -2.040403932332993E-1  -9.266483783721924E-1   2.894378006458283E-1  -9.253430366516113E-1   2.896782755851746E-1  -3.663091734051704E-2  -2.185608446598053E-1  
 4.450000000000000E7    -8.971691876649857E-2  -2.128358036279678E-1  -9.070920944213867E-1   3.410715758800507E-1  -9.061697125434876E-1   3.423426747322083E-1  -7.254321873188019E-2  -2.156551778316498E-1  
 4.480000000000000E7    -8.622479438781738E-2  -2.210163921117783E-1  -8.842442631721497E-1   3.922635018825531E-1  -8.837727904319763E-1   3.927118480205536E-1  -1.039449051022530E-1  -2.092863917350769E-1  
 4.510000000000000E7    -8.533670008182526E-2  -2.314888089895248E-1  -8.584200739860535E-1   4.419906437397003E-1  -8.577629923820496E-1   4.407930374145508E-1  -1.349586248397827E-1  -2.003266066312790E-1  
 4.540000000000000E7    -8.939570188522339E-2  -2.375658601522446E-1  -8.299251198768616E-1   4.869260489940643E-1  -8.312448263168335E-1   4.869096875190735E-1  -1.656964123249054E-1  -1.917567998170853E-1  
 4.570000000000000E7    -9.262101352214813E-2  -2.472332268953323E-1  -8.003705739974976E-1   5.325150489807129E-1  -7.998544573783875E-1   5.313717126846314E-1  -1.928314119577408E-1  -1.775560230016708E-1  
 4.600000000000000E7    -9.926091134548187E-2  -2.602937221527100E-1  -7.665176987648010E-1   5.730286240577698E-1  -7.667102813720703E-1   5.734304189682007E-1  -2.160097211599350E-1  -1.654394418001175E-1  
 4.630000000000000E7    -1.088602542877197E-1  -2.668349444866180E-1  -7.315769195556641E-1   6.123774647712708E-1  -7.297115325927734E-1   6.122293472290039E-1  -2.398989796638489E-1  -1.531581580638886E-1  
 4.660000000000000E7    -1.201240792870522E-1  -2.709444463253021E-1  -6.949738264083862E-1   6.504216194152832E-1  -6.940932273864746E-1   6.490479707717896E-1  -2.609848678112030E-1  -1.381260752677918E-1  
 4.690000000000000E7    -1.343137174844742E-1  -2.796323597431183E-1  -6.562583446502686E-1   6.834204196929932E-1  -6.554507613182068E-1   6.826432347297669E-1  -2.830682396888733E-1  -1.195681393146515E-1  
 4.720000000000000E7    -1.486473977565765E-1  -2.828280031681061E-1  -6.154325008392334E-1   7.152770757675171E-1  -6.146245002746582E-1   7.145616412162781E-1  -3.008532822132111E-1  -1.066287681460381E-1  
 4.750000000000000E7    -1.666624546051025E-1  -2.841943502426148E-1  -5.742992162704468E-1   7.442584633827210E-1  -5.745878219604492E-1   7.432746291160584E-1  -3.181590437889099E-1  -8.719827979803085E-2  
 4.780000000000000E7    -1.827685534954071E-1  -2.836332023143768E-1  -5.327308177947998E-1   7.724114656448364E-1  -5.318430066108704E-1   7.699862718582153E-1  -3.299885392189026E-1  -7.177300006151199E-2  
 4.810000000000000E7    -2.042695581912994E-1  -2.831769287586212E-1  -4.887199699878693E-1   7.952485680580139E-1  -4.881679415702820E-1   7.937865853309631E-1  -3.422336280345917E-1  -5.447972565889359E-2  
 4.840000000000000E7    -2.252833098173142E-1  -2.777349352836609E-1  -4.453876912593842E-1   8.173906803131104E-1  -4.428115785121918E-1   8.159698247909546E-1  -3.530090153217316E-1  -3.949741274118424E-2  
 4.870000000000000E7    -2.465685158967972E-1  -2.685565650463104E-1  -3.994964361190796E-1   8.368784785270691E-1  -3.993149697780609E-1   8.353387117385864E-1  -3.624112010002136E-1  -2.334970794618130E-2  
 4.900000000000000E7    -2.677271962165833E-1  -2.576920390129089E-1  -3.544662594795227E-1   8.536440134048462E-1  -3.528078496456146E-1   8.534638285636902E-1  -3.717480897903442E-1  -7.526762783527374E-3  
 4.930000000000000E7    -2.882789373397827E-1  -2.452680021524429E-1  -3.070262670516968E-1   8.683056831359863E-1  -3.067369461059570E-1   8.694487810134888E-1  -3.763654530048370E-1   7.664963603019714E-3  
 4.960000000000000E7    -3.084294199943543E-1  -2.287254631519318E-1  -2.603772282600403E-1   8.812916278839111E-1  -2.589229345321655E-1   8.791673779487610E-1  -3.851506114006043E-1   2.211120724678040E-2  
 4.990000000000000E7    -3.270758390426636E-1  -2.083572149276733E-1  -2.131472676992416E-1   8.916558623313904E-1  -2.128780335187912E-1   8.901765346527100E-1  -3.879445791244507E-1   3.688322007656097E-2  
 5.020000000000000E7    -3.470603823661804E-1  -1.863201409578323E-1  -1.642500460147858E-1   8.994725942611694E-1  -1.648321747779846E-1   8.999409675598145E-1  -3.897298574447632E-1   4.909817874431610E-2  
 5.050000000000000E7    -3.641718626022339E-1  -1.601397991180420E-1  -1.159395053982735E-1   9.060553908348084E-1  -1.156926229596138E-1   9.040270447731018E-1  -3.946428000926971E-1   6.170285120606422E-2  
 5.080000000000000E7    -3.800202310085297E-1  -1.311704367399216E-1  -6.665393710136414E-2   9.082395434379578E-1  -6.601632386445999E-2   9.085249900817871E-1  -3.938713371753693E-1   7.289832830429077E-2  
 5.110000000000000E7    -3.918692767620087E-1  -9.949354827404022E-2  -1.629122346639633E-2   9.091024994850159E-1  -1.721994578838348E-2   9.082919955253601E-1  -3.968569934368134E-1   8.315742760896683E-2  
 5.140000000000000E7    -4.022405743598938E-1  -6.518140435218811E-2   3.265678882598877E-2   9.075285792350769E-1   3.367918729782105E-2   9.072368144989014E-1  -3.981641829013825E-1   9.191659092903137E-2  
 5.170000000000000E7    -4.061081111431122E-1  -2.769825235009193E-2   8.453601598739624E-2   9.027355313301086E-1   8.360558003187180E-2   9.033607244491577E-1  -3.974298238754273E-1   1.005811840295792E-1  
 5.200000000000000E7    -4.112778604030609E-1   1.154219359159470E-2   1.361718773841858E-1   8.955228328704834E-1   1.357630789279938E-1   8.960030674934387E-1  -3.964106738567352E-1   1.052695214748383E-1  
 5.230000000000000E7    -4.092319905757904E-1   5.534793063998222E-2   1.854507327079773E-1   8.850988149642944E-1   1.863095611333847E-1   8.850213885307312E-1  -3.990934491157532E-1   1.132038980722427E-1  
 5.260000000000000E7    -4.007186889648438E-1   9.831573069095612E-2   2.370577752590179E-1   8.724210858345032E-1   2.375998049974442E-1   8.715606927871704E-1  -3.992270529270172E-1   1.174339503049851E-1  
 5.290000000000000E7    -3.909643590450287E-1   1.419662386178970E-1   2.891922295093536E-1   8.546200394630432E-1   2.890874147415161E-1   8.550424575805664E-1  -4.002084136009216E-1   1.206605583429337E-1  
 5.320000000000000E7    -3.729766905307770E-1   1.886729747056961E-1   3.401950001716614E-1   8.353083133697510E-1   3.406529426574707E-1   8.348467946052551E-1  -4.030960798263550E-1   1.225117594003677E-1  
 5.350000000000000E7    -3.486258983612061E-1   2.353676408529282E-1   3.896924555301666E-1   8.112941384315491E-1   3.888569772243500E-1   8.110647201538086E-1  -4.045564532279968E-1   1.255516558885574E-1  
 5.380000000000000E7    -3.169305324554443E-1   2.798608839511871E-1   4.403806328773499E-1   7.848520874977112E-1   4.407237768173218E-1   7.829112410545349E-1  -4.054631590843201E-1   1.261598020792007E-1  
 5.410000000000000E7    -2.794261276721954E-1   3.227316439151764E-1   4.898213446140289E-1   7.521646618843079E-1   4.892668426036835E-1   7.511963248252869E-1  -4.129049181938171E-1   1.253923624753952E-1  
 5.440000000000000E7    -2.335695326328278E-1   3.620858788490295E-1   5.368154048919678E-1   7.156739234924316E-1   5.368398427963257E-1   7.150070667266846E-1  -4.176404774188995E-1   1.239476650953293E-1  
 5.470000000000000E7    -1.831257492303848E-1   3.965038061141968E-1   5.829208493232727E-1   6.745169758796692E-1   5.824131369590759E-1   6.737566590309143E-1  -4.253220856189728E-1   1.219605058431625E-1  
 5.500000000000000E7    -1.214175075292587E-1   4.272456169128418E-1   6.256302595138550E-1   6.296411156654358E-1   6.245087385177612E-1   6.294844746589661E-1  -4.331524968147278E-1   1.215704679489136E-1  
 5.530000000000000E7    -5.573653429746628E-2   4.514880776405335E-1   6.644980907440186E-1   5.802913308143616E-1   6.640302538871765E-1   5.778679847717285E-1  -4.455776512622833E-1   1.194142177700996E-1  
 5.560000000000000E7     1.505288667976856E-2   4.655331373214722E-1   7.009959220886231E-1   5.257089734077454E-1   6.986609101295471E-1   5.245065689086914E-1  -4.574980437755585E-1   1.183040663599968E-1  
 5.590000000000000E7     9.131339192390442E-2   4.717192649841309E-1   7.313571572303772E-1   4.665676057338715E-1   7.300098538398743E-1   4.667922556400299E-1  -4.734468758106232E-1   1.191240176558495E-1  
 5.620000000000000E7     1.720534563064575E-1   4.665073454380035E-1   7.554802894592285E-1   4.059785604476929E-1   7.558445930480957E-1   4.054737091064453E-1  -4.873334765434265E-1   1.202803999185562E-1  
 5.650000000000000E7     2.525139451026917E-1   4.511687755584717E-1   7.748154401779175E-1   3.404264450073242E-1   7.746699452400208E-1   3.394013941287994E-1  -5.074582099914551E-1   1.219639629125595E-1  
 5.680000000000000E7     3.334330022335053E-1   4.204762876033783E-1   7.869824171066284E-1   2.739617824554443E-1   7.853143811225891E-1   2.733859419822693E-1  -5.291254520416260E-1   1.288670599460602E-1  
 5.710000000000000E7     4.113374948501587E-1   3.782688081264496E-1   7.914448976516724E-1   2.055544853210449E-1   7.894230484962463E-1   2.065197825431824E-1  -5.507313609123230E-1   1.367840170860291E-1  
 5.740000000000000E7     4.858780503273010E-1   3.237388730049133E-1   7.890992164611816E-1   1.376609057188034E-1   7.881543636322022E-1   1.385784745216370E-1  -5.723828673362732E-1   1.458945274353027E-1  
 5.770000000000000E7     5.530435442924500E-1   2.567890584468842E-1   7.775924205780029E-1   7.249964773654938E-2   7.768079042434692E-1   6.989273428916931E-2  -5.941573381423950E-1   1.576196402311325E-1  
 5.800000000000000E7     6.089662909507752E-1   1.791047155857086E-1   7.614401578903198E-1   8.112914860248566E-3   7.596343159675598E-1   8.499775081872940E-3  -6.159242987632752E-1   1.772870570421219E-1  
 5.830000000000000E7     6.555229425430298E-1   9.462148696184158E-2   7.344132661819458E-1  -5.290181934833527E-2   7.347738742828369E-1  -5.236988142132759E-2  -6.379079818725586E-1   1.968591511249542E-1  
 5.860000000000000E7     6.888619065284729E-1   2.398420125246048E-3   7.037233710289002E-1  -1.085710078477860E-1   7.038933038711548E-1  -1.084167137742043E-1  -6.584414243698120E-1   2.196721434593201E-1  
 5.890000000000000E7     7.089210152626038E-1  -9.583210200071335E-2   6.678736805915833E-1  -1.594272404909134E-1   6.658464074134827E-1  -1.593545973300934E-1  -6.780209541320801E-1   2.447351366281509E-1  
 5.920000000000000E7     7.143130302429199E-1  -1.938238590955734E-1   6.281501650810242E-1  -2.037037163972855E-1   6.283693909645081E-1  -2.038491964340210E-1  -6.920480132102966E-1   2.731043100357056E-1  
 5.950000000000000E7     7.062402367591858E-1  -2.918090522289276E-1   5.832798480987549E-1  -2.419832646846771E-1   5.829849839210510E-1  -2.425210028886795E-1  -7.055089473724365E-1   3.026695847511292E-1  
 5.980000000000000E7     6.850231289863586E-1  -3.872305750846863E-1   5.386700630187988E-1  -2.747510969638825E-1   5.375990271568298E-1  -2.739589512348175E-1  -7.165096998214722E-1   3.346457481384277E-1  
 6.010000000000000E7     6.508830189704895E-1  -4.788336455821991E-1   4.917182624340057E-1  -2.978162467479706E-1   4.895742833614349E-1  -2.982438802719116E-1  -7.251185774803162E-1   3.664250671863556E-1  
 6.040000000000000E7     6.071190834045410E-1  -5.634188652038574E-1   4.451698362827301E-1  -3.166418671607971E-1   4.457760453224182E-1  -3.170776963233948E-1  -7.288553118705750E-1   4.003394544124603E-1  
 6.070000000000000E7     5.542363524436951E-1  -6.399275660514832E-1   3.999149203300476E-1  -3.292861580848694E-1   3.988986909389496E-1  -3.291392624378204E-1  -7.310320138931274E-1   4.328013360500336E-1  
 6.100000000000000E7     4.922897219657898E-1  -7.070601582527161E-1   3.554182052612305E-1  -3.388936221599579E-1   3.554547131061554E-1  -3.382150530815125E-1  -7.301310300827026E-1   4.665057063102722E-1  
 6.130000000000000E7     4.259340763092041E-1  -7.677271366119385E-1   3.142134249210358E-1  -3.414804637432098E-1   3.139957189559937E-1  -3.409752845764160E-1  -7.259336113929749E-1   4.992150664329529E-1  
 6.160000000000000E7     3.542415201663971E-1  -8.183442354202271E-1   2.740205526351929E-1  -3.407296538352966E-1   2.742317318916321E-1  -3.406259417533875E-1  -7.195152640342712E-1   5.301231145858765E-1  
 6.190000000000000E7     2.791489660739899E-1  -8.596649169921875E-1   2.377564758062363E-1  -3.365451097488403E-1   2.369493246078491E-1  -3.373442888259888E-1  -7.106863260269165E-1   5.600351691246033E-1  
 6.220000000000000E7     2.026800215244293E-1  -8.911707997322083E-1   2.033005356788635E-1  -3.294990658760071E-1   2.041763961315155E-1  -3.301356434822083E-1  -7.022074460983276E-1   5.886281132698059E-1  
 6.250000000000000E7     1.250183731317520E-1  -9.156520366668701E-1   1.734284758567810E-1  -3.211336135864258E-1   1.731209754943848E-1  -3.214231133460999E-1  -6.915749907493591E-1   6.164959669113159E-1  
 6.280000000000000E7     4.782827198505402E-2  -9.308661818504334E-1   1.453112065792084E-1  -3.106743097305298E-1   1.452424079179764E-1  -3.106510639190674E-1  -6.781964302062988E-1   6.429643034934998E-1  
 6.310000000000000E7    -2.924384921789169E-2  -9.399381279945374E-1   1.203536912798882E-1  -2.997474372386932E-1   1.195746958255768E-1  -2.986574769020081E-1  -6.637033820152283E-1   6.688479781150818E-1  
 6.340000000000000E7    -1.031839251518250E-1  -9.406274557113648E-1   9.761758148670197E-2  -2.866365313529968E-1   9.713261574506760E-2  -2.863857150077820E-1  -6.490299701690674E-1   6.927106380462647E-1  
 6.370000000000000E7    -1.757301688194275E-1  -9.363074898719788E-1   7.728694379329681E-2  -2.732223570346832E-1   7.689575850963593E-2  -2.731861472129822E-1  -6.320726871490479E-1   7.142847180366516E-1  
 6.400000000000000E7    -2.464072108268738E-1  -9.253858923912048E-1   5.917273834347725E-2  -2.602731883525848E-1   5.866584926843643E-2  -2.597244679927826E-1  -6.165753006935120E-1   7.358579039573669E-1  
 6.430000000000000E7    -3.139849007129669E-1  -9.104098677635193E-1   4.393287748098373E-2  -2.461591660976410E-1   4.316849261522293E-2  -2.456394284963608E-1  -5.991260409355164E-1   7.557407617568970E-1  
 6.460000000000000E7    -3.771898448467255E-1  -8.905071020126343E-1   2.982896193861961E-2  -2.317976504564285E-1   2.961772866547108E-2  -2.313536405563355E-1  -5.811141729354858E-1   7.729770541191101E-1  
 6.490000000000000E7    -4.370342195034027E-1  -8.657635450363159E-1   1.784418150782585E-2  -2.178829014301300E-1   1.810229569673538E-2  -2.179187834262848E-1  -5.647583603858948E-1   7.905066013336182E-1  
 6.520000000000000E7    -4.950272142887116E-1  -8.385684490203857E-1   8.108511567115784E-3  -2.050445675849915E-1   7.423471659421921E-3  -2.046204060316086E-1  -5.465811491012573E-1   8.073910474777222E-1  
 6.550000000000000E7    -5.484066605567932E-1  -8.068252205848694E-1  -1.263493672013283E-3  -1.920158267021179E-1  -1.429608091711998E-3  -1.915008872747421E-1  -5.277159214019775E-1   8.221517801284790E-1  
 6.580000000000000E7    -6.000278592109680E-1  -7.731031179428101E-1  -9.202890098094940E-3  -1.795842349529266E-1  -9.115980938076973E-3  -1.790256500244141E-1  -5.103450417518616E-1   8.368893265724182E-1  
 6.610000000000000E7    -6.472114324569702E-1  -7.350702285766602E-1  -1.554425153881311E-2  -1.672879308462143E-1  -1.625975966453552E-2  -1.666837930679321E-1  -4.905270636081696E-1   8.503813147544861E-1  
 6.640000000000000E7    -6.908050775527954E-1  -6.989627480506897E-1  -2.077566832304001E-2  -1.556351184844971E-1  -2.056017145514488E-2  -1.552121490240097E-1  -4.721975624561310E-1   8.631972670555115E-1  
 6.670000000000000E7    -7.322250008583069E-1  -6.577750444412231E-1  -2.552113495767117E-2  -1.444343030452728E-1  -2.507163025438786E-2  -1.440838128328323E-1  -4.552748203277588E-1   8.743945956230164E-1  
 6.700000000000000E7    -7.694260478019714E-1  -6.155102849006653E-1  -2.875285595655441E-2  -1.337773054838181E-1  -2.900926023721695E-2  -1.332720518112183E-1  -4.362170696258545E-1   8.843438029289246E-1  
 6.730000000000000E7    -8.038549423217773E-1  -5.721668004989624E-1  -3.152754530310631E-2  -1.234004497528076E-1  -3.199334442615509E-2  -1.233891025185585E-1  -4.185909032821655E-1   8.953145742416382E-1  
 6.760000000000000E7    -8.342100381851196E-1  -5.287882089614868E-1  -3.417737782001495E-2  -1.141553446650505E-1  -3.385758772492409E-2  -1.137979775667191E-1  -3.996295928955078E-1   9.047546386718750E-1  
 6.790000000000000E7    -8.622925281524658E-1  -4.834336042404175E-1  -3.536519408226013E-2  -1.049381121993065E-1  -3.557159379124641E-2  -1.048436835408211E-1  -3.815691173076630E-1   9.128775000572205E-1  
 6.820000000000000E7    -8.878726363182068E-1  -4.371116757392883E-1  -3.674258291721344E-2  -9.636037051677704E-2  -3.649151325225830E-2  -9.613139182329178E-2  -3.642354309558868E-1   9.215018153190613E-1  
 6.850000000000000E7    -9.109448790550232E-1  -3.909673988819122E-1  -3.704380244016647E-2  -8.857993781566620E-2  -3.699276596307755E-2  -8.829123526811600E-2  -3.465774357318878E-1   9.286186099052429E-1  
 6.880000000000000E7    -9.297188520431519E-1  -3.443875312805176E-1  -3.738513588905335E-2  -8.087790757417679E-2  -3.747912123799324E-2  -8.060347288846970E-2  -3.280166685581207E-1   9.357327818870544E-1  
 6.910000000000000E7    -9.457353949546814E-1  -2.971131205558777E-1  -3.733098506927490E-2  -7.395599037408829E-2  -3.723064810037613E-2  -7.373275607824326E-2  -3.103804588317871E-1   9.430622458457947E-1  
 6.940000000000000E7    -9.603599309921265E-1  -2.510050535202026E-1  -3.670897707343102E-2  -6.732637435197830E-2  -3.683140501379967E-2  -6.709194183349609E-2  -2.937066256999970E-1   9.489201903343201E-1  
 6.970000000000000E7    -9.717371463775635E-1  -2.022766023874283E-1  -3.610230609774590E-2  -6.107953190803528E-2  -3.621304780244827E-2  -6.099072843790054E-2  -2.758016586303711E-1   9.545641541481018E-1  
 7.000000000000000E7    -9.815179109573364E-1  -1.559888422489166E-1  -3.526213392615318E-2  -5.534646287560463E-2  -3.534268215298653E-2  -5.522531643509865E-2  -2.591094970703125E-1   9.600087404251099E-1  
