#  HZ   S   RI   R     50.00 
! Rohde & Schwarz ZVT8 8Ports - Version 4.11 - 1300.0000k08 SN: 100242
! Date: 2026-07-31 14:47:24
! Measurements: S11 S21 S12 S22 
! 
 1.000000000000000E7    -3.969313204288483E-1   9.133098125457764E-1   5.396608263254166E-2   5.414829775691032E-2   5.373755842447281E-2   5.416143685579300E-2  -9.187006950378418E-1   3.855411410331726E-1  
 1.030000000000000E7    -3.639727532863617E-1   9.262230992317200E-1   5.762211978435516E-2   5.459193140268326E-2   5.719799175858498E-2   5.459258332848549E-2  -9.125755429267883E-1   3.986241519451141E-1  
 1.060000000000000E7    -3.267428278923035E-1   9.393149018287659E-1   6.130424514412880E-2   5.558709800243378E-2   6.129913777112961E-2   5.548657849431038E-2  -9.091039896011353E-1   4.098405241966248E-1  
 1.090000000000000E7    -2.936684787273407E-1   9.493442773818970E-1   6.497858464717865E-2   5.604694411158562E-2   6.493061035871506E-2   5.592297762632370E-2  -9.028249979019165E-1   4.216556251049042E-1  
 1.120000000000000E7    -2.567222416400909E-1   9.590913653373718E-1   6.929455697536469E-2   5.699148774147034E-2   6.875069439411163E-2   5.666898190975189E-2  -8.975381255149841E-1   4.335175156593323E-1  
 1.150000000000000E7    -2.201598882675171E-1   9.687030911445618E-1   7.308962941169739E-2   5.695783719420433E-2   7.287095487117767E-2   5.694573000073433E-2  -8.900278806686401E-1   4.429810047149658E-1  
 1.180000000000000E7    -1.839050650596619E-1   9.739652276039124E-1   7.707051932811737E-2   5.737507343292236E-2   7.714133709669113E-2   5.738238990306854E-2  -8.853207230567932E-1   4.535890817642212E-1  
 1.210000000000000E7    -1.479661613702774E-1   9.802884459495544E-1   8.184343576431274E-2   5.770395696163178E-2   8.163983374834061E-2   5.756266415119171E-2  -8.778872489929199E-1   4.664463102817535E-1  
 1.240000000000000E7    -1.107124388217926E-1   9.842315316200256E-1   8.621334284543991E-2   5.785540118813515E-2   8.624687045812607E-2   5.739872530102730E-2  -8.705101609230042E-1   4.765124320983887E-1  
 1.270000000000000E7    -7.325907796621323E-2   9.876017570495606E-1   9.152344614267349E-2   5.738254263997078E-2   9.112311154603958E-2   5.714706704020500E-2  -8.634265065193176E-1   4.906065165996552E-1  
 1.300000000000000E7    -3.577898815274239E-2   9.899747371673584E-1   9.623470902442932E-2   5.735919624567032E-2   9.625650942325592E-2   5.715825036168098E-2  -8.561514616012573E-1   5.010282993316650E-1  
 1.330000000000000E7     2.869646996259689E-3   9.903913140296936E-1   1.017260774970055E-1   5.654967948794365E-2   1.015870496630669E-1   5.645349621772766E-2  -8.484882712364197E-1   5.132597684860230E-1  
 1.360000000000000E7     4.263526573777199E-2   9.891079664230347E-1   1.070127487182617E-1   5.632204934954643E-2   1.072091534733772E-1   5.555844306945801E-2  -8.412331342697144E-1   5.227622389793396E-1  
 1.390000000000000E7     8.035898953676224E-2   9.857967495918274E-1   1.128700971603394E-1   5.505691841244698E-2   1.123536378145218E-1   5.542634427547455E-2  -8.330891132354736E-1   5.348700881004334E-1  
 1.420000000000000E7     1.204160302877426E-1   9.814317226409912E-1   1.185807660222054E-1   5.426483228802681E-2   1.185412779450417E-1   5.440111458301544E-2  -8.263254761695862E-1   5.456594228744507E-1  
 1.450000000000000E7     1.590747535228729E-1   9.739259481430054E-1   1.247202306985855E-1   5.285742133855820E-2   1.246738582849503E-1   5.291842296719551E-2  -8.155683279037476E-1   5.581153631210327E-1  
 1.480000000000000E7     1.998875439167023E-1   9.663076400756836E-1   1.313803046941757E-1   5.112441256642342E-2   1.313361227512360E-1   5.164494737982750E-2  -8.080865740776062E-1   5.693947076797485E-1  
 1.510000000000000E7     2.389727085828781E-1   9.558084011077881E-1   1.375829279422760E-1   4.938931390643120E-2   1.377550214529038E-1   4.935647174715996E-2  -7.964313626289368E-1   5.809946656227112E-1  
 1.540000000000000E7     2.776018083095551E-1   9.445494413375855E-1   1.444995403289795E-1   4.815073683857918E-2   1.444582343101502E-1   4.753552377223969E-2  -7.893709540367127E-1   5.906825065612793E-1  
 1.570000000000000E7     3.179082870483398E-1   9.321292042732239E-1   1.519237756729126E-1   4.531953111290932E-2   1.518599092960358E-1   4.514525458216667E-2  -7.788406014442444E-1   6.029885411262512E-1  
 1.600000000000000E7     3.579117953777313E-1   9.153585433959961E-1   1.589928418397903E-1   4.229768738150597E-2   1.594297885894775E-1   4.206733033061028E-2  -7.689508199691773E-1   6.124407052993774E-1  
 1.630000000000000E7     3.971263170242310E-1   8.976417779922485E-1   1.678448915481567E-1   3.879664093255997E-2   1.671657264232636E-1   3.905259445309639E-2  -7.583048939704895E-1   6.251282095909119E-1  
 1.660000000000000E7     4.360390007495880E-1   8.767220973968506E-1   1.760673671960831E-1   3.499179705977440E-2   1.753265857696533E-1   3.444224596023560E-2  -7.458913922309876E-1   6.363263130187988E-1  
 1.690000000000000E7     4.746605753898621E-1   8.547954559326172E-1   1.847729980945587E-1   3.138145804405212E-2   1.843368709087372E-1   3.103435598313808E-2  -7.351256012916565E-1   6.464678645133972E-1  
 1.720000000000000E7     5.154246687889099E-1   8.305033445358276E-1   1.929720491170883E-1   2.567027509212494E-2   1.929550617933273E-1   2.640602178871632E-2  -7.230964303016663E-1   6.566403508186340E-1  
 1.750000000000000E7     5.496115088462830E-1   8.059689402580261E-1   2.033427804708481E-1   2.187053486704826E-2   2.034550011157990E-1   2.138685993850231E-2  -7.114465236663818E-1   6.691704392433167E-1  
 1.780000000000000E7     5.891336202621460E-1   7.728105783462524E-1   2.119809538125992E-1   1.503115706145763E-2   2.124558389186859E-1   1.562085375189781E-2  -6.982501149177551E-1   6.772485375404358E-1  
 1.810000000000000E7     6.254571676254273E-1   7.419623732566834E-1   2.239349186420441E-1   8.426895365118980E-3   2.224405705928803E-1   7.772287353873253E-3  -6.839764118194580E-1   6.909209489822388E-1  
 1.840000000000000E7     6.632332205772400E-1   7.060741782188416E-1   2.345764786005020E-1  -7.410217076539993E-4   2.336298525333405E-1  -1.928769052028656E-5  -6.692656278610230E-1   7.008601427078247E-1  
 1.870000000000000E7     6.965540647506714E-1   6.688216328620911E-1   2.458570003509522E-1  -8.557387627661228E-3   2.448140531778336E-1  -9.026505984365940E-3  -6.540531516075134E-1   7.106524705886841E-1  
 1.900000000000000E7     7.302433848381043E-1   6.268104314804077E-1   2.575967907905579E-1  -1.827519759535790E-2   2.570079267024994E-1  -1.883449964225292E-2  -6.383309960365295E-1   7.197958230972290E-1  
 1.930000000000000E7     7.626854777336121E-1   5.803536176681519E-1   2.692057192325592E-1  -3.123624250292778E-2   2.697250247001648E-1  -3.012296184897423E-2  -6.211819052696228E-1   7.310741543769836E-1  
 1.960000000000000E7     7.929442524909973E-1   5.302594900131226E-1   2.820517718791962E-1  -4.380018264055252E-2   2.820980250835419E-1  -4.314660653471947E-2  -6.054620146751404E-1   7.391826510429382E-1  
 1.990000000000000E7     8.193756341934204E-1   4.773210287094116E-1   2.954280078411102E-1  -5.884605646133423E-2   2.958827614784241E-1  -5.880437791347504E-2  -5.846494436264038E-1   7.497178316116333E-1  
 2.020000000000000E7     8.441547155380249E-1   4.186837673187256E-1   3.097960948944092E-1  -7.560189068317413E-2   3.086158633232117E-1  -7.513931393623352E-2  -5.658476948738098E-1   7.554844617843628E-1  
 2.050000000000000E7     8.670313358306885E-1   3.544419407844544E-1   3.233994841575623E-1  -9.461702406406403E-2   3.214623928070068E-1  -9.445691108703613E-2  -5.449579954147339E-1   7.632385492324829E-1  
 2.080000000000000E7     8.831356167793274E-1   2.847882509231567E-1   3.378691375255585E-1  -1.177281141281128E-1   3.382752537727356E-1  -1.173695325851440E-1  -5.232354402542114E-1   7.708308100700378E-1  
 2.110000000000000E7     8.949275612831116E-1   2.105621248483658E-1   3.522659242153168E-1  -1.448623538017273E-1   3.519425988197327E-1  -1.445659995079041E-1  -4.986294507980347E-1   7.754744887351990E-1  
 2.140000000000000E7     8.987796902656555E-1   1.303935348987579E-1   3.656101226806641E-1  -1.757568567991257E-1   3.646475076675415E-1  -1.736295074224472E-1  -4.736217856407166E-1   7.783216834068298E-1  
 2.170000000000000E7     8.944840431213379E-1   4.445254057645798E-2   3.784427046775818E-1  -2.099377512931824E-1   3.785883188247681E-1  -2.086958289146423E-1  -4.469503462314606E-1   7.797139286994934E-1  
 2.200000000000000E7     8.787751197814941E-1  -4.995967447757721E-2   3.883147239685059E-1  -2.507297992706299E-1   3.886791467666626E-1  -2.499589473009110E-1  -4.177926182746887E-1   7.776005268096924E-1  
 2.230000000000000E7     8.481514453887940E-1  -1.476624310016632E-1   3.956298232078552E-1  -2.975252866744995E-1   3.958360254764557E-1  -2.964607179164887E-1  -3.884512782096863E-1   7.723630666732788E-1  
 2.260000000000000E7     8.010194301605225E-1  -2.503664791584015E-1   3.974612951278687E-1  -3.510410785675049E-1   3.990621566772461E-1  -3.519620001316071E-1  -3.588494658470154E-1   7.617628574371338E-1  
 2.290000000000000E7     7.312459945678711E-1  -3.539693653583527E-1   3.924543857574463E-1  -4.125341475009918E-1   3.940106034278870E-1  -4.132216274738312E-1  -3.261129856109619E-1   7.466740012168884E-1  
 2.320000000000000E7     6.354875564575195E-1  -4.517526924610138E-1   3.770376145839691E-1  -4.823974967002869E-1   3.763431608676910E-1  -4.815902411937714E-1  -2.977912724018097E-1   7.280880212783814E-1  
 2.350000000000000E7     5.093740820884705E-1  -5.390845537185669E-1   3.455077707767487E-1  -5.577588677406311E-1   3.462263345718384E-1  -5.559073686599731E-1  -2.710968554019928E-1   6.992927193641663E-1  
 2.380000000000000E7     3.529558479785919E-1  -6.045290231704712E-1   2.964061796665192E-1  -6.328122615814209E-1   2.970733642578125E-1  -6.334125399589539E-1  -2.502222657203674E-1   6.627968549728394E-1  
 2.410000000000000E7     1.688203811645508E-1  -6.323569416999817E-1   2.231501787900925E-1  -7.052928209304810E-1   2.239658981561661E-1  -7.047941088676453E-1  -2.385009825229645E-1   6.209529638290405E-1  
 2.440000000000000E7    -3.246914222836494E-2  -6.071386337280273E-1   1.260926723480225E-1  -7.657018899917603E-1   1.265627592802048E-1  -7.647712826728821E-1  -2.418729811906815E-1   5.747417211532593E-1  
 2.470000000000000E7    -2.310205698013306E-1  -5.235813856124878E-1   9.030268527567387E-3  -8.031341433525085E-1   1.023050863295794E-2  -8.016082644462585E-1  -2.560119926929474E-1   5.275188684463501E-1  
 2.500000000000000E7    -4.049151539802551E-1  -3.784851729869843E-1  -1.190356910228729E-1  -8.057543635368347E-1  -1.192609816789627E-1  -8.063476085662842E-1  -2.874927520751953E-1   4.925339818000794E-1  
 2.530000000000000E7    -5.268066525459290E-1  -1.838633269071579E-1  -2.445870190858841E-1  -7.759855985641480E-1  -2.442213892936707E-1  -7.747688889503479E-1  -3.308777213096619E-1   4.668036699295044E-1  
 2.560000000000000E7    -5.823646187782288E-1   3.186850249767304E-2  -3.554253578186035E-1  -7.121562957763672E-1  -3.557606339454651E-1  -7.114154100418091E-1  -3.803752660751343E-1   4.596486389636993E-1  
 2.590000000000000E7    -5.698209404945374E-1   2.428302615880966E-1  -4.425262212753296E-1  -6.288306713104248E-1  -4.419145286083221E-1  -6.302753090858460E-1  -4.245962202548981E-1   4.688409268856049E-1  
 2.620000000000000E7    -5.064971446990967E-1   4.310413599014282E-1  -5.014674067497253E-1  -5.348362326622009E-1  -5.003413558006287E-1  -5.345680713653565E-1  -4.628060758113861E-1   4.905968010425568E-1  
 2.650000000000000E7    -4.062007665634155E-1   5.819842219352722E-1  -5.309759378433228E-1  -4.391888380050659E-1  -5.322988629341126E-1  -4.391779005527496E-1  -4.936705827713013E-1   5.219493508338928E-1  
 2.680000000000000E7    -2.860273122787476E-1   6.937564611434937E-1  -5.424599051475525E-1  -3.517967462539673E-1  -5.420939326286316E-1  -3.515137732028961E-1  -5.133179426193237E-1   5.585786104202271E-1  
 2.710000000000000E7    -1.605955958366394E-1   7.699101567268372E-1  -5.401350259780884E-1  -2.732440233230591E-1  -5.403298139572144E-1  -2.728328108787537E-1  -5.225918889045715E-1   5.957301855087280E-1  
 2.740000000000000E7    -3.517577052116394E-2   8.163566589355469E-1  -5.240662097930908E-1  -2.070088684558868E-1  -5.236124992370606E-1  -2.064368426799774E-1  -5.239146351814270E-1   6.330283880233765E-1  
 2.770000000000000E7     8.224922418594360E-2   8.382604122161865E-1  -5.043281316757202E-1  -1.491672992706299E-1  -5.046997070312500E-1  -1.499508023262024E-1  -5.196915268898010E-1   6.692150235176086E-1  
 2.800000000000000E7     1.915770471096039E-1   8.426575660705566E-1  -4.793934822082520E-1  -1.009388789534569E-1  -4.787198305130005E-1  -1.022108793258667E-1  -5.108968615531921E-1   7.018415331840515E-1  
 2.830000000000000E7     2.914075851440430E-1   8.321561813354492E-1  -4.537228941917419E-1  -6.148105859756470E-2  -4.548910856246948E-1  -6.198462843894959E-2  -4.981411099433899E-1   7.316255569458008E-1  
 2.860000000000000E7     3.807725012302399E-1   8.128086924552918E-1  -4.281382262706757E-1  -2.923899143934250E-2  -4.286060035228729E-1  -2.813698723912239E-2  -4.800221920013428E-1   7.615674138069153E-1  
 2.890000000000000E7     4.602122902870178E-1   7.851176857948303E-1  -4.035618007183075E-1  -1.230027526617050E-3  -4.025848209857941E-1  -1.534055918455124E-3  -4.615803360939026E-1   7.868152260780335E-1  
 2.920000000000000E7     5.329628586769104E-1   7.512406706809998E-1  -3.776210844516754E-1   2.041732892394066E-2  -3.774495124816895E-1   2.146692201495171E-2  -4.410966634750366E-1   8.094708323478699E-1  
 2.950000000000000E7     5.942341685295105E-1   7.142435908317566E-1  -3.545403182506561E-1   3.936751559376717E-2  -3.539316952228546E-1   3.974851220846176E-2  -4.179144799709320E-1   8.332706689834595E-1  
 2.980000000000000E7     6.508603692054749E-1   6.745920181274414E-1  -3.311623930931091E-1   5.452575907111168E-2  -3.315162360668182E-1   5.461644008755684E-2  -3.940115571022034E-1   8.529672026634216E-1  
 3.010000000000000E7     7.012309432029724E-1   6.316577196121216E-1  -3.096404969692230E-1   6.819390505552292E-2  -3.094368875026703E-1   6.747622042894363E-2  -3.690617382526398E-1   8.714090585708618E-1  
 3.040000000000000E7     7.458739280700684E-1   5.882434844970703E-1  -2.898859679698944E-1   7.782931625843048E-2  -2.898245155811310E-1   7.797156274318695E-2  -3.412401676177979E-1   8.871359229087830E-1  
 3.070000000000000E7     7.858023047447205E-1   5.411792993545532E-1  -2.699224650859833E-1   8.784051984548569E-2  -2.699554562568665E-1   8.756050467491150E-2  -3.132871091365814E-1   9.030361175537109E-1  
 3.100000000000000E7     8.208310008049011E-1   4.964885711669922E-1  -2.523420155048370E-1   9.509932249784470E-2  -2.515834271907806E-1   9.526474028825760E-2  -2.842474579811096E-1   9.172756075859070E-1  
 3.130000000000000E7     8.502410650253296E-1   4.507302939891815E-1  -2.344203293323517E-1   1.011372581124306E-1  -2.344301939010620E-1   1.004782170057297E-1  -2.540909051895142E-1   9.283553361892700E-1  
 3.160000000000000E7     8.779379725456238E-1   4.038140177726746E-1  -2.186670303344727E-1   1.060011833906174E-1  -2.188806086778641E-1   1.056880205869675E-1  -2.238675802946091E-1   9.415520429611206E-1  
 3.190000000000000E7     9.004654884338379E-1   3.583932816982269E-1  -2.030456513166428E-1   1.096492409706116E-1  -2.024636417627335E-1   1.093272343277931E-1  -1.909591406583786E-1   9.509326219558716E-1  
 3.220000000000000E7     9.214090704917908E-1   3.125781118869782E-1  -1.883513629436493E-1   1.120468378067017E-1  -1.878560930490494E-1   1.121994405984879E-1  -1.589173376560211E-1   9.586960673332214E-1  
 3.250000000000000E7     9.384189248085022E-1   2.672799825668335E-1  -1.746027618646622E-1   1.141840964555740E-1  -1.742802560329437E-1   1.144648715853691E-1  -1.241450980305672E-1   9.681895375251770E-1  
 3.280000000000000E7     9.511542320251465E-1   2.207651734352112E-1  -1.612702608108521E-1   1.157209202647209E-1  -1.602054089307785E-1   1.154082342982292E-1  -8.838342130184174E-2   9.731427431106567E-1  
 3.310000000000000E7     9.626513719558716E-1   1.761877834796906E-1  -1.478516608476639E-1   1.160723865032196E-1  -1.475673764944077E-1   1.161418259143829E-1  -4.999741911888123E-2   9.776325821876526E-1  
 3.340000000000000E7     9.726299047470093E-1   1.319375634193420E-1  -1.355871558189392E-1   1.168303713202477E-1  -1.353009939193726E-1   1.161363869905472E-1  -1.143737882375717E-2   9.794989228248596E-1  
 3.370000000000000E7     9.779844880104065E-1   8.773046731948853E-2  -1.236552521586418E-1   1.156309545040131E-1  -1.236695647239685E-1   1.154187470674515E-1   2.789697051048279E-2   9.819806814193726E-1  
 3.400000000000000E7     9.829676747322083E-1   4.399488121271133E-2  -1.123868376016617E-1   1.148534119129181E-1  -1.124382913112640E-1   1.145495474338532E-1   7.010459899902344E-2   9.800215959548950E-1  
 3.430000000000000E7     9.860070347785950E-1   1.155808568000794E-3  -1.013303101062775E-1   1.135829836130142E-1  -1.013468503952026E-1   1.130828335881233E-1   1.132421493530273E-1   9.773623347282410E-1  
 3.460000000000000E7     9.857625961303711E-1  -4.176901280879974E-2  -9.111315757036209E-2   1.114325821399689E-1  -9.119430184364319E-2   1.114004328846932E-1   1.591977030038834E-1   9.731934070587158E-1  
 3.490000000000000E7     9.846153855323792E-1  -8.381322026252747E-2  -8.051202446222305E-2   1.090741604566574E-1  -8.076137304306030E-2   1.087315678596497E-1   2.038414329290390E-1   9.638993144035339E-1  
 3.520000000000000E7     9.818676710128784E-1  -1.246339231729507E-1  -7.139430940151215E-2   1.057787016034126E-1  -7.133699953556061E-2   1.057081371545792E-1   2.548376917839050E-1   9.543094038963318E-1  
 3.550000000000000E7     9.752182960510254E-1  -1.662213504314423E-1  -6.242723762989044E-2   1.023440435528755E-1  -6.236933916807175E-2   1.022951379418373E-1   3.040763139724731E-1   9.417716264724731E-1  
 3.580000000000000E7     9.693408012390137E-1  -2.062674760818481E-1  -5.363145470619202E-2   9.817527979612351E-2  -5.357861146330833E-2   9.808464348316193E-2   3.560945093631744E-1   9.220921993255615E-1  
 3.610000000000000E7     9.615007638931274E-1  -2.456236034631729E-1  -4.509837925434113E-2   9.414110332727432E-2  -4.504583030939102E-2   9.360487759113312E-2   4.120268523693085E-1   9.008353352546692E-1  
 3.640000000000000E7     9.515478610992432E-1  -2.845108509063721E-1  -3.752015903592110E-2   8.885198086500168E-2  -3.758066520094872E-2   8.848869055509567E-2   4.658827483654022E-1   8.746431469917297E-1  
 3.670000000000000E7     9.408394098281860E-1  -3.210434913635254E-1  -3.033860772848129E-2   8.336066454648972E-2  -2.999276295304298E-2   8.290638029575348E-2   5.232896208763123E-1   8.433478474617004E-1  
 3.700000000000000E7     9.278885126113892E-1  -3.581921458244324E-1  -2.345121651887894E-2   7.695981115102768E-2  -2.329639717936516E-2   7.677222788333893E-2   5.815075039863586E-1   8.037744760513306E-1  
 3.730000000000000E7     9.131476283073425E-1  -3.947922587394714E-1  -1.720058545470238E-2   6.985709071159363E-2  -1.705299876630306E-2   7.011913508176804E-2   6.373057365417481E-1   7.599558234214783E-1  
 3.760000000000000E7     8.984977602958679E-1  -4.283747971057892E-1  -1.154944952577353E-2   6.255315989255905E-2  -1.148198451846838E-2   6.271253526210785E-2   6.964866518974304E-1   7.071881294250488E-1  
 3.790000000000000E7     8.816069364547730E-1  -4.635571241378784E-1  -6.638888735324144E-3   5.491436272859573E-2  -6.677627563476563E-3   5.474501475691795E-2   7.524660229682922E-1   6.448638439178467E-1  
 3.820000000000000E7     8.642697930335999E-1  -4.979268014431000E-1  -2.727602142840624E-3   4.627026617527008E-2  -2.776514738798142E-3   4.634915664792061E-2   8.072631955146790E-1   5.772981643676758E-1  
 3.850000000000000E7     8.435366153717041E-1  -5.309745669364929E-1   2.294606529176235E-4   3.748811036348343E-2   2.674749121069908E-4   3.738803416490555E-2   8.599821925163269E-1   4.977363049983978E-1  
 3.880000000000000E7     8.233420848846436E-1  -5.618726015090942E-1   1.909865532070398E-3   2.804922498762608E-2   1.889704377390444E-3   2.794076502323151E-2   9.057615399360657E-1   4.054301381111145E-1  
 3.910000000000000E7     8.025782704353333E-1  -5.937883257865906E-1   2.409798558801413E-3   1.852720975875855E-2   2.486300654709339E-3   1.843784935772419E-2   9.444610476493835E-1   3.056158721446991E-1  
 3.940000000000000E7     7.793722152709961E-1  -6.214720010757446E-1   1.629038946703076E-3   8.725558407604694E-3   1.526267267763615E-3   8.748726919293404E-3   9.722505807876587E-1   1.958786249160767E-1  
 3.970000000000000E7     7.568954825401306E-1  -6.507676839828491E-1  -9.319585515186191E-4  -8.964855805970728E-4  -9.456896805204451E-4  -8.954445365816355E-4   9.879611730575562E-1   7.628227770328522E-2  
 4.000000000000000E7     7.314380407333374E-1  -6.782069206237793E-1  -4.966141190379858E-3  -1.012044306844473E-2  -5.118352361023426E-3  -1.011136360466480E-2   9.893700480461121E-1  -5.403046309947968E-2  
 4.030000000000000E7     7.066239714622498E-1  -7.043468952178955E-1  -1.066534873098135E-2  -1.873820088803768E-2  -1.069564837962389E-2  -1.873992010951042E-2   9.732037186622620E-1  -1.865797340869904E-1  
 4.060000000000000E7     6.802020668983460E-1  -7.294028997421265E-1  -1.780298724770546E-2  -2.619745396077633E-2  -1.789742521941662E-2  -2.630329318344593E-2   9.362706542015076E-1  -3.230970501899719E-1  
 4.090000000000000E7     6.525179147720337E-1  -7.539221048355103E-1  -2.644348703324795E-2  -3.254236653447151E-2  -2.652602642774582E-2  -3.243295475840569E-2   8.775779008865356E-1  -4.567527770996094E-1  
 4.120000000000000E7     6.254392862319946E-1  -7.768303751945496E-1  -3.627263009548187E-2  -3.705980256199837E-2  -3.610838949680328E-2  -3.704315796494484E-2   7.983037829399109E-1  -5.863009095191956E-1  
 4.150000000000000E7     5.975882411003113E-1  -7.970337867736816E-1  -4.667413979768753E-2  -3.937489911913872E-2  -4.640352353453636E-2  -3.971814736723900E-2   6.967380046844482E-1  -7.015248537063599E-1  
 4.180000000000000E7     5.676382780075073E-1  -8.180069923400879E-1  -5.733045935630798E-2  -3.994280844926834E-2  -5.720820277929306E-2  -3.971843793988228E-2   5.774961709976196E-1  -8.018838167190552E-1  
 4.210000000000000E7     5.386369824409485E-1  -8.370318412780762E-1  -6.772638857364655E-2  -3.825031220912933E-2  -6.782520562410355E-2  -3.814286738634110E-2   4.436470270156860E-1  -8.820451498031616E-1  
 4.240000000000000E7     5.084239244461060E-1  -8.538743257522583E-1  -7.759541273117065E-2  -3.448907285928726E-2  -7.764878123998642E-2  -3.452279418706894E-2   3.010554611682892E-1  -9.392411708831787E-1  
 4.270000000000000E7     4.775116145610809E-1  -8.706436753273010E-1  -8.653006702661514E-2  -2.929712273180485E-2  -8.650418370962143E-2  -2.909495308995247E-2   1.536559909582138E-1  -9.752976894378662E-1  
 4.300000000000000E7     4.460648894309998E-1  -8.871335983276367E-1  -9.411592781543732E-2  -2.234211936593056E-2  -9.391655772924423E-2  -2.240872383117676E-2   6.704688072204590E-3  -9.864122867584229E-1  
 4.330000000000000E7     4.177467823028565E-1  -9.018144607543945E-1  -1.001344174146652E-1  -1.483895629644394E-2  -9.993939101696014E-2  -1.464803330600262E-2  -1.346734464168549E-1  -9.767077565193176E-1  
 4.360000000000000E7     3.852196335792542E-1  -9.144661426544190E-1  -1.041908785700798E-1  -6.105070933699608E-3  -1.041024923324585E-1  -6.293678656220436E-3  -2.678270637989044E-1  -9.499202370643616E-1  
 4.390000000000000E7     3.526117205619812E-1  -9.282026290893555E-1  -1.071037948131561E-1   2.457821741700172E-3  -1.073831617832184E-1   2.476548776030541E-3  -3.902011811733246E-1  -9.048717021942139E-1  
 4.420000000000000E7     3.209857046604157E-1  -9.381816983222961E-1  -1.086894348263741E-1   1.102405227720738E-2  -1.086297631263733E-1   1.117308624088764E-2  -4.999347329139710E-1  -8.504335284233093E-1  
 4.450000000000000E7     2.885954380035400E-1  -9.486443996429443E-1  -1.086598113179207E-1   1.928331144154072E-2  -1.085677817463875E-1   1.942851580679417E-2  -5.956265330314636E-1  -7.869527339935303E-1  
 4.480000000000000E7     2.562040090560913E-1  -9.579204320907593E-1  -1.075807958841324E-1   2.728485316038132E-2  -1.075866445899010E-1   2.725608646869659E-2  -6.773121953010559E-1  -7.167843580245972E-1  
 4.510000000000000E7     2.246070504188538E-1  -9.666493535041809E-1  -1.056816279888153E-1   3.479228168725967E-2  -1.056942492723465E-1   3.453392535448074E-2  -7.483206987380981E-1  -6.432610154151917E-1  
 4.540000000000000E7     1.915429830551148E-1  -9.728967547416687E-1  -1.032209545373917E-1   4.124000295996666E-2  -1.029958277940750E-1   4.111657291650772E-2  -8.068454861640930E-1  -5.693784952163696E-1  
 4.570000000000000E7     1.581856906414032E-1  -9.794456362724304E-1  -9.997899085283279E-2   4.760880768299103E-2  -9.985125809907913E-2   4.708547890186310E-2  -8.563024401664734E-1  -4.937948584556580E-1  
 4.600000000000000E7     1.276974529027939E-1  -9.835368990898132E-1  -9.583137929439545E-2   5.247034132480621E-2  -9.620457887649536E-2   5.284684896469116E-2  -8.953014016151428E-1  -4.192426800727844E-1  
 4.630000000000000E7     9.160842746496201E-2  -9.878420233726502E-1  -9.192679822444916E-2   5.751260742545128E-2  -9.181083738803864E-2   5.752462521195412E-2  -9.246180653572083E-1  -3.476320803165436E-1  
 4.660000000000000E7     5.790894478559494E-2  -9.914571642875671E-1  -8.795090764760971E-2   6.199741363525391E-2  -8.786781132221222E-2   6.176960468292236E-2  -9.497917890548706E-1  -2.796028852462769E-1  
 4.690000000000000E7     2.550218626856804E-2  -9.920737147331238E-1  -8.323498815298080E-2   6.513105332851410E-2  -8.326986432075501E-2   6.491969525814056E-2  -9.664960503578186E-1  -2.115285098552704E-1  
 4.720000000000000E7    -8.388102054595947E-3  -9.919974207878113E-1  -7.869479060173035E-2   6.837542355060577E-2  -7.855979353189468E-2   6.825146824121475E-2  -9.792714118957520E-1  -1.477482467889786E-1  
 4.750000000000000E7    -4.122003912925720E-2  -9.922819137573242E-1  -7.422814518213272E-2   7.082184404134750E-2  -7.406044006347656E-2   7.051143795251846E-2  -9.860485196113586E-1  -8.583518862724304E-2  
 4.780000000000000E7    -7.392867654561997E-2  -9.903687238693237E-1  -6.983856856822968E-2   7.321079820394516E-2  -6.965287029743195E-2   7.273796200752258E-2  -9.900152087211609E-1  -2.857538685202599E-2  
 4.810000000000000E7    -1.077272891998291E-1  -9.870331883430481E-1  -6.522537767887116E-2   7.449753582477570E-2  -6.517652422189713E-2   7.435267418622971E-2  -9.896112084388733E-1   2.521359175443649E-2  
 4.840000000000000E7    -1.408577710390091E-1  -9.841694235801697E-1  -6.098173931241036E-2   7.581774890422821E-2  -6.072338670492172E-2   7.577116042375565E-2  -9.871591329574585E-1   7.654492557048798E-2  
 4.870000000000000E7    -1.739956736564636E-1  -9.785862565040588E-1  -5.662968009710312E-2   7.686996459960938E-2  -5.656063556671143E-2   7.672279328107834E-2  -9.826524257659912E-1   1.251054108142853E-1  
 4.900000000000000E7    -2.073942720890045E-1  -9.730309247970581E-1  -5.257012695074081E-2   7.748921215534210E-2  -5.220594257116318E-2   7.747853547334671E-2  -9.760153889656067E-1   1.714543104171753E-1  
 4.930000000000000E7    -2.399589717388153E-1  -9.651224017143250E-1  -4.835121333599091E-2   7.795131951570511E-2  -4.842645302414894E-2   7.806979864835739E-2  -9.684031009674072E-1   2.151226699352264E-1  
 4.960000000000000E7    -2.713086009025574E-1  -9.549527764320374E-1  -4.432763904333115E-2   7.810907065868378E-2  -4.411391168832779E-2   7.787185907363892E-2  -9.581621885299683E-1   2.562016248703003E-1  
 4.990000000000000E7    -3.028055429458618E-1  -9.460282921791077E-1  -4.065506905317307E-2   7.804011553525925E-2  -4.064325615763664E-2   7.775286585092545E-2  -9.473966956138611E-1   2.937949001789093E-1  
 5.020000000000000E7    -3.338237702846527E-1  -9.370812177658081E-1  -3.697719797492027E-2   7.764236629009247E-2  -3.719253838062286E-2   7.773409783840179E-2  -9.354392290115356E-1   3.308951556682587E-1  
 5.050000000000000E7    -3.658140599727631E-1  -9.249526262283325E-1  -3.350551053881645E-2   7.729867845773697E-2  -3.338818997144699E-2   7.706402242183685E-2  -9.234912991523743E-1   3.652576208114624E-1  
 5.080000000000000E7    -3.960023820400238E-1  -9.129707217216492E-1  -3.025867789983749E-2   7.646622508764267E-2  -3.020868450403214E-2   7.653538882732391E-2  -9.084602594375610E-1   3.984203040599823E-1  
 5.110000000000000E7    -4.270082116127014E-1  -8.985794782638550E-1  -2.686240151524544E-2   7.594070583581924E-2  -2.696021273732185E-2   7.567454874515533E-2  -8.954349160194397E-1   4.287154078483582E-1  
 5.140000000000000E7    -4.564607441425324E-1  -8.835182189941406E-1  -2.383109368383884E-2   7.490415871143341E-2  -2.384514361619949E-2   7.499972730875015E-2  -8.823449611663818E-1   4.589628577232361E-1  
 5.170000000000000E7    -4.852120876312256E-1  -8.681125640869141E-1  -2.083433791995049E-2   7.400327920913696E-2  -2.087821438908577E-2   7.379089295864105E-2  -8.655487298965454E-1   4.861129224300385E-1  
 5.200000000000000E7    -5.147066116333008E-1  -8.532902598381043E-1  -1.796896755695343E-2   7.271494716405869E-2  -1.813671737909317E-2   7.284489274024963E-2  -8.493851423263550E-1   5.130581259727478E-1  
 5.230000000000000E7    -5.429683327674866E-1  -8.341197371482849E-1  -1.536546275019646E-2   7.144945859909058E-2  -1.537750288844109E-2   7.153432071208954E-2  -8.348867297172546E-1   5.374156832695007E-1  
 5.260000000000000E7    -5.693539977073669E-1  -8.146248459815979E-1  -1.281315274536610E-2   7.022073864936829E-2  -1.285266038030386E-2   7.023649662733078E-2  -8.193489909172058E-1   5.618066787719727E-1  
 5.290000000000000E7    -5.975979566574097E-1  -7.956144809722900E-1  -1.031681615859270E-2   6.878522038459778E-2  -1.036692783236504E-2   6.876692920923233E-2  -8.039404153823853E-1   5.838883519172669E-1  
 5.320000000000000E7    -6.236695647239685E-1  -7.765146493911743E-1  -8.161487989127636E-3   6.729905307292938E-2  -8.096624165773392E-3   6.735181808471680E-2  -7.880617976188660E-1   6.058003306388855E-1  
 5.350000000000000E7    -6.476583480834961E-1  -7.551149725914002E-1  -6.138050928711891E-3   6.577268987894058E-2  -6.102840416133404E-3   6.568526476621628E-2  -7.726445794105530E-1   6.248304843902588E-1  
 5.380000000000000E7    -6.715969443321228E-1  -7.334303855895996E-1  -4.072194918990135E-3   6.426738947629929E-2  -4.044623114168644E-3   6.413309276103973E-2  -7.549593448638916E-1   6.455112695693970E-1  
 5.410000000000000E7    -6.982504129409790E-1  -7.108064293861389E-1  -2.081059850752354E-3   6.263133138418198E-2  -1.966461073607206E-3   6.266098469495773E-2  -7.400897741317749E-1   6.641033887863159E-1  
 5.440000000000000E7    -7.208572030067444E-1  -6.862049698829651E-1  -2.776402980089188E-4   6.098839640617371E-2  -2.159704454243183E-4   6.099035963416100E-2  -7.237671613693237E-1   6.812044382095337E-1  
 5.470000000000000E7    -7.421663403511047E-1  -6.635447144508362E-1   1.497327350080013E-3   5.924145132303238E-2   1.545559149235487E-3   5.931296199560165E-2  -7.070876955986023E-1   6.989878416061401E-1  
 5.500000000000000E7    -7.648834586143494E-1  -6.380171179771423E-1   2.955488860607147E-3   5.770378932356834E-2   2.929331734776497E-3   5.751802772283554E-2  -6.916574239730835E-1   7.155224680900574E-1  
 5.530000000000000E7    -7.853541970252991E-1  -6.124204993247986E-1   4.310726188123226E-3   5.571839958429337E-2   4.580725450068712E-3   5.586365982890129E-2  -6.747852563858032E-1   7.300751209259033E-1  
 5.560000000000000E7    -8.060553073883057E-1  -5.850849747657776E-1   5.950950551778078E-3   5.407484620809555E-2   5.813794210553169E-3   5.401967093348503E-2  -6.591557264328003E-1   7.445484995841980E-1  
 5.590000000000000E7    -8.250946998596191E-1  -5.594748854637146E-1   7.065711077302694E-3   5.228719860315323E-2   7.151193916797638E-3   5.220395699143410E-2  -6.428430080413818E-1   7.594187259674072E-1  
 5.620000000000000E7    -8.430759310722351E-1  -5.299084186553955E-1   8.150966838002205E-3   5.044254660606384E-2   8.155537769198418E-3   5.024896934628487E-2  -6.272737979888916E-1   7.727323174476624E-1  
 5.650000000000000E7    -8.594675660133362E-1  -5.034018754959106E-1   9.236927144229412E-3   4.855154827237129E-2   9.183435700833798E-3   4.851145297288895E-2  -6.107673048973084E-1   7.852743268013001E-1  
 5.680000000000000E7    -8.758710622787476E-1  -4.743364155292511E-1   1.022580731660128E-2   4.662004858255386E-2   1.025514770299196E-2   4.664248973131180E-2  -5.943459272384644E-1   7.975893020629883E-1  
 5.710000000000000E7    -8.918843269348145E-1  -4.434915781021118E-1   1.109508145600557E-2   4.488973692059517E-2   1.114236563444138E-2   4.480708763003349E-2  -5.789877176284790E-1   8.094009757041931E-1  
 5.740000000000000E7    -9.068760871887207E-1  -4.140403866767883E-1   1.187970861792564E-2   4.303236305713654E-2   1.177563052624464E-2   4.294956475496292E-2  -5.626952052116394E-1   8.209860324859619E-1  
 5.770000000000000E7    -9.189438819885254E-1  -3.848040997982025E-1   1.242298446595669E-2   4.114992171525955E-2   1.235568430274725E-2   4.096720740199089E-2  -5.473524928092957E-1   8.299986124038696E-1  
 5.800000000000000E7    -9.314209222793579E-1  -3.529140353202820E-1   1.304117217659950E-2   3.939381614327431E-2   1.311630569398403E-2   3.908674791455269E-2  -5.315469503402710E-1   8.423253297805786E-1  
 5.830000000000000E7    -9.425781965255737E-1  -3.218772113323212E-1   1.340609788894653E-2   3.735831007361412E-2   1.343848742544651E-2   3.731235489249229E-2  -5.162538886070252E-1   8.513889908790588E-1  
 5.860000000000000E7    -9.541251063346863E-1  -2.906976938247681E-1   1.395686902105808E-2   3.555654361844063E-2   1.391735300421715E-2   3.555222973227501E-2  -4.999428987503052E-1   8.609477281570435E-1  
 5.890000000000000E7    -9.621431827545166E-1  -2.589163780212402E-1   1.425056345760822E-2   3.377776220440865E-2   1.415820699185133E-2   3.378087282180786E-2  -4.849052131175995E-1   8.694072365760803E-1  
 5.920000000000000E7    -9.702718257904053E-1  -2.257099747657776E-1   1.436563581228256E-2   3.205852583050728E-2   1.435505133122206E-2   3.187859430909157E-2  -4.691351354122162E-1   8.788368105888367E-1  
 5.950000000000000E7    -9.773115515708923E-1  -1.935873627662659E-1   1.447515375912190E-2   3.020057268440723E-2   1.445920765399933E-2   2.994301542639732E-2  -4.527171850204468E-1   8.855502009391785E-1  
 5.980000000000000E7    -9.834174513816834E-1  -1.604476720094681E-1   1.459266059100628E-2   2.828398346900940E-2   1.446775905787945E-2   2.826067246496677E-2  -4.369536340236664E-1   8.944398760795593E-1  
 6.010000000000000E7    -9.872413277626038E-1  -1.288758516311646E-1   1.441734842956066E-2   2.656182833015919E-2   1.435911748558283E-2   2.652155235409737E-2  -4.227604866027832E-1   9.019340276718140E-1  
 6.040000000000000E7    -9.913626909255981E-1  -9.450617432594299E-2   1.436773780733347E-2   2.491202577948570E-2   1.429335307329893E-2   2.478857710957527E-2  -4.072483181953430E-1   9.096313714981079E-1  
 6.070000000000000E7    -9.950575232505798E-1  -6.246821582317352E-2   1.415621489286423E-2   2.311314083635807E-2   1.398723945021629E-2   2.310245856642723E-2  -3.920608758926392E-1   9.154799580574036E-1  
 6.100000000000000E7    -9.963696002960205E-1  -2.932755649089813E-2   1.390924304723740E-2   2.142896130681038E-2   1.377798896282911E-2   2.138715609908104E-2  -3.760913610458374E-1   9.230113625526428E-1  
 6.130000000000000E7    -9.971293210983276E-1   5.189493298530579E-3   1.344624906778336E-2   1.972646638751030E-2   1.341543719172478E-2   1.975544728338718E-2  -3.606627583503723E-1   9.293999671936035E-1  
 6.160000000000000E7    -9.959820508956909E-1   3.778587281703949E-2   1.292249094694853E-2   1.800635084509850E-2   1.296216249465942E-2   1.807719096541405E-2  -3.457916676998138E-1   9.339926242828369E-1  
 6.190000000000000E7    -9.938151836395264E-1   7.049879431724548E-2   1.233227923512459E-2   1.645334810018539E-2   1.236884295940399E-2   1.643795706331730E-2  -3.305200338363648E-1   9.385622739791870E-1  
 6.220000000000000E7    -9.913735389709473E-1   1.039687916636467E-1   1.178104523569346E-2   1.489588245749474E-2   1.181151904165745E-2   1.493227574974299E-2  -3.168962895870209E-1   9.450537562370300E-1  
 6.250000000000000E7    -9.876415133476257E-1   1.372639983892441E-1   1.109432335942984E-2   1.340659055858851E-2   1.112041994929314E-2   1.338381879031658E-2  -3.020259737968445E-1   9.498404860496521E-1  
 6.280000000000000E7    -9.815573096275330E-1   1.700431704521179E-1   1.038132887333632E-2   1.193468458950520E-2   1.032818481326103E-2   1.191055774688721E-2  -2.867177128791809E-1   9.546886086463928E-1  
 6.310000000000000E7    -9.751489162445068E-1   2.038744240999222E-1   9.597552008926868E-3   1.050013210624456E-2   9.524435736238957E-3   1.044871471822262E-2  -2.718027234077454E-1   9.593638181686401E-1  
 6.340000000000000E7    -9.676569700241089E-1   2.361771017313004E-1   8.686127141118050E-3   9.093738161027432E-3   8.678903803229332E-3   9.063943289220333E-3  -2.567353248596191E-1   9.640903472900391E-1  
 6.370000000000000E7    -9.596212506294251E-1   2.685635983943939E-1   7.717141881585121E-3   7.699507288634777E-3   7.704973220825195E-3   7.680279668420553E-3  -2.418547868728638E-1   9.665036201477051E-1  
 6.400000000000000E7    -9.492281079292297E-1   3.002914786338806E-1   6.696208380162716E-3   6.379733793437481E-3   6.680344697088003E-3   6.392002105712891E-3  -2.271089851856232E-1   9.711565375328064E-1  
 6.430000000000000E7    -9.384390711784363E-1   3.330850899219513E-1   5.597510375082493E-3   5.148592870682478E-3   5.609333049505949E-3   5.099523812532425E-3  -2.121500074863434E-1   9.743031263351440E-1  
 6.460000000000000E7    -9.271546006202698E-1   3.644663691520691E-1   4.454341251403093E-3   3.925397992134094E-3   4.445441998541355E-3   3.926087636500597E-3  -1.981075704097748E-1   9.760605096817017E-1  
 6.490000000000000E7    -9.156769514083862E-1   3.955218791961670E-1   3.217138117179275E-3   2.784667070955038E-3   3.229410387575626E-3   2.778699388727546E-3  -1.841623336076737E-1   9.799754619598389E-1  
 6.520000000000000E7    -9.009284377098084E-1   4.255464971065521E-1   1.970971701666713E-3   1.682030735537410E-3   1.952259219251573E-3   1.651094527915120E-3  -1.693557500839233E-1   9.829897284507752E-1  
 6.550000000000000E7    -8.866491317749023E-1   4.553953409194946E-1   6.208597333170474E-4   6.247629644349217E-4   6.088945083320141E-4   6.213051965460181E-4  -1.545746177434921E-1   9.838637709617615E-1  
 6.580000000000000E7    -8.701131939888001E-1   4.851514995098114E-1  -7.548370631411672E-4  -3.699587541632354E-4  -7.640256662853062E-4  -3.810265916399658E-4  -1.400929987430573E-1   9.876668453216553E-1  
 6.610000000000000E7    -8.522742986679077E-1   5.144916772842407E-1  -2.241216367110610E-3  -1.282724435441196E-3  -2.234770916402340E-3  -1.253998605534434E-3  -1.242828965187073E-1   9.888842105865479E-1  
 6.640000000000000E7    -8.361864089965820E-1   5.432389974594116E-1  -3.788182511925697E-3  -2.134911250323057E-3  -3.742157481610775E-3  -2.124323043972254E-3  -1.102340221405029E-1   9.908196330070496E-1  
 6.670000000000000E7    -8.164376616477966E-1   5.709421038627625E-1  -5.325953010469675E-3  -2.934843767434359E-3  -5.318908020853996E-3  -2.939899219200015E-3  -9.707660973072052E-2   9.924870133399963E-1  
 6.700000000000000E7    -7.965718507766724E-1   5.986088514328003E-1  -6.911658681929112E-3  -3.639537841081619E-3  -6.888098549097776E-3  -3.627450903877616E-3  -8.254207670688629E-2   9.927164316177368E-1  
 6.730000000000000E7    -7.755530476570129E-1   6.250671744346619E-1  -8.572792634367943E-3  -4.314144141972065E-3  -8.590489625930786E-3  -4.306672606617212E-3  -6.823599338531494E-2   9.952013492584229E-1  
 6.760000000000000E7    -7.540385127067566E-1   6.514721512794495E-1  -1.033020671457052E-2  -4.880668595433235E-3  -1.031066756695509E-2  -4.886526614427567E-3  -5.332581698894501E-2   9.954046607017517E-1  
 6.790000000000000E7    -7.310447692871094E-1   6.769870519638062E-1  -1.208296790719032E-2  -5.396066233515739E-3  -1.206696964800358E-2  -5.369366612285376E-3  -3.982877731323242E-2   9.952898621559143E-1  
 6.820000000000000E7    -7.073554992675781E-1   7.003312110900879E-1  -1.386466901749373E-2  -5.801512859761715E-3  -1.385931391268969E-2  -5.829282104969025E-3  -2.606725692749023E-2   9.961277246475220E-1  
 6.850000000000000E7    -6.835532188415527E-1   7.251802682876587E-1  -1.575906947255135E-2  -6.232766900211573E-3  -1.568468660116196E-2  -6.195043213665485E-3  -1.229917258024216E-2   9.965180754661560E-1  
 6.880000000000000E7    -6.579685211181641E-1   7.473961114883423E-1  -1.764533482491970E-2  -6.452296394854784E-3  -1.754983700811863E-2  -6.432795897126198E-3   2.338018268346787E-3   9.964254498481751E-1  
 6.910000000000000E7    -6.323090791702271E-1   7.696970701217651E-1  -1.961675658822060E-2  -6.636743433773518E-3  -1.953326165676117E-2  -6.627996452152729E-3   1.680832728743553E-2   9.965942502021790E-1  
 6.940000000000000E7    -6.057361364364624E-1   7.912045717239380E-1  -2.153340727090836E-2  -6.779706105589867E-3  -2.153407409787178E-2  -6.763934157788754E-3   2.986414358019829E-2   9.959600567817688E-1  
 6.970000000000000E7    -5.772372484207153E-1   8.110619187355042E-1  -2.354571036994457E-2  -6.784191820770502E-3  -2.354840561747551E-2  -6.737198214977980E-3   4.418246820569038E-2   9.953308105468750E-1  
 7.000000000000000E7    -5.490307211875916E-1   8.314107060432434E-1  -2.558225952088833E-2  -6.727075204253197E-3  -2.557129599153996E-2  -6.701977923512459E-3   5.760812759399414E-2   9.954767227172852E-1  
