#  HZ   S   RI   R     50.00 
! Rohde & Schwarz ZVT8 8Ports - Version 4.11 - 1300.0000k08 SN: 100242
! Date: 2026-07-31 15:06:06
! Measurements: S11 S21 S12 S22 
! 
 1.000000000000000E7    -4.008575677871704E-1   9.119668006896973E-1   5.196451768279076E-2   5.253848806023598E-2   5.163106322288513E-2   5.250827595591545E-2  -9.197561144828796E-1   3.828610181808472E-1  
 1.030000000000000E7    -3.683302104473114E-1   9.243951439857483E-1   5.512505769729614E-2   5.279527604579926E-2   5.477342009544373E-2   5.301848798990250E-2  -9.145020842552185E-1   3.948662579059601E-1  
 1.060000000000000E7    -3.316354751586914E-1   9.374259710311890E-1   5.845279991626740E-2   5.375580489635468E-2   5.844237282872200E-2   5.354288965463638E-2  -9.103500247001648E-1   4.061194062232971E-1  
 1.090000000000000E7    -2.997599244117737E-1   9.478682279586792E-1   6.197145208716393E-2   5.405303835868835E-2   6.190461292862892E-2   5.410250648856163E-2  -9.045891165733337E-1   4.182522594928742E-1  
 1.120000000000000E7    -2.637740075588226E-1   9.572950005531311E-1   6.558701395988464E-2   5.486353486776352E-2   6.530670821666718E-2   5.465872213244438E-2  -8.990283608436585E-1   4.293838143348694E-1  
 1.150000000000000E7    -2.275031208992004E-1   9.674037694931030E-1   6.918105483055115E-2   5.467335507273674E-2   6.905660033226013E-2   5.488090217113495E-2  -8.925184011459351E-1   4.383504986763001E-1  
 1.180000000000000E7    -1.920108795166016E-1   9.727402329444885E-1   7.275617867708206E-2   5.492124706506729E-2   7.275971770286560E-2   5.491523072123528E-2  -8.878595829010010E-1   4.492225944995880E-1  
 1.210000000000000E7    -1.574968993663788E-1   9.795630574226379E-1   7.694486528635025E-2   5.527502298355103E-2   7.672187685966492E-2   5.512567237019539E-2  -8.807683587074280E-1   4.610827863216400E-1  
 1.240000000000000E7    -1.208480000495911E-1   9.836063981056213E-1   8.085478097200394E-2   5.530187860131264E-2   8.101102709770203E-2   5.485478788614273E-2  -8.744407892227173E-1   4.709396362304688E-1  
 1.270000000000000E7    -8.426944166421890E-2   9.871643185615540E-1   8.541453629732132E-2   5.471926927566528E-2   8.494153618812561E-2   5.452167615294457E-2  -8.677895665168762E-1   4.842863082885742E-1  
 1.300000000000000E7    -4.795255511999130E-2   9.896876215934753E-1   8.942820131778717E-2   5.440598353743553E-2   8.940081298351288E-2   5.429787933826447E-2  -8.603599667549133E-1   4.945006370544434E-1  
 1.330000000000000E7    -1.082080788910389E-2   9.912218451499939E-1   9.407028555870056E-2   5.384745448827744E-2   9.395348280668259E-2   5.357990041375160E-2  -8.537324070930481E-1   5.060874819755554E-1  
 1.360000000000000E7     2.740819379687309E-2   9.904637336730957E-1   9.857923537492752E-2   5.350221320986748E-2   9.882247447967529E-2   5.283857882022858E-2  -8.465709090232849E-1   5.152738690376282E-1  
 1.390000000000000E7     6.307082623243332E-2   9.877650737762451E-1   1.036615222692490E-1   5.234858393669128E-2   1.031135842204094E-1   5.256450176239014E-2  -8.396157622337341E-1   5.264397263526917E-1  
 1.420000000000000E7     1.018886789679527E-1   9.847270846366882E-1   1.081227362155914E-1   5.161071941256523E-2   1.080071926116943E-1   5.156621336936951E-2  -8.338276147842407E-1   5.366197228431702E-1  
 1.450000000000000E7     1.390486061573029E-1   9.786489009857178E-1   1.132486313581467E-1   5.019681155681610E-2   1.130428686738014E-1   5.026817321777344E-2  -8.230963349342346E-1   5.486400127410889E-1  
 1.480000000000000E7     1.782243400812149E-1   9.722626209259033E-1   1.184164360165596E-1   4.863749444484711E-2   1.183224022388458E-1   4.920947179198265E-2  -8.168134689331055E-1   5.585682988166809E-1  
 1.510000000000000E7     2.153007686138153E-1   9.632887840270996E-1   1.235078573226929E-1   4.712050408124924E-2   1.233731284737587E-1   4.702303931117058E-2  -8.058920502662659E-1   5.698754787445068E-1  
 1.540000000000000E7     2.519108057022095E-1   9.541497230529785E-1   1.289148032665253E-1   4.622052609920502E-2   1.287529468536377E-1   4.561652988195419E-2  -8.008741736412048E-1   5.791333317756653E-1  
 1.570000000000000E7     2.901255190372467E-1   9.442223906517029E-1   1.346106082201004E-1   4.378966987133026E-2   1.345472037792206E-1   4.356648027896881E-2  -7.910389304161072E-1   5.912634730339050E-1  
 1.600000000000000E7     3.282755613327026E-1   9.295558333396912E-1   1.401923894882202E-1   4.123865440487862E-2   1.405151486396790E-1   4.118980467319489E-2  -7.828329205513001E-1   5.998948812484741E-1  
 1.630000000000000E7     3.647283017635346E-1   9.148195981979370E-1   1.467470079660416E-1   3.841608017683029E-2   1.460365802049637E-1   3.855958208441734E-2  -7.733575105667114E-1   6.117486953735352E-1  
 1.660000000000000E7     4.014397859573364E-1   8.971565365791321E-1   1.526852548122406E-1   3.538826107978821E-2   1.523969322443008E-1   3.512909263372421E-2  -7.622279524803162E-1   6.223814487457275E-1  
 1.690000000000000E7     4.374132156372070E-1   8.794956803321838E-1   1.592087745666504E-1   3.282746672630310E-2   1.586807072162628E-1   3.237951919436455E-2  -7.534479498863220E-1   6.319533586502075E-1  
 1.720000000000000E7     4.757174253463745E-1   8.598301410675049E-1   1.649133712053299E-1   2.851618453860283E-2   1.649280786514282E-1   2.888041734695435E-2  -7.432342171669006E-1   6.412818431854248E-1  
 1.750000000000000E7     5.072813630104065E-1   8.405255079269409E-1   1.723589897155762E-1   2.591906487941742E-2   1.722450554370880E-1   2.549061179161072E-2  -7.341579198837280E-1   6.529629230499268E-1  
 1.780000000000000E7     5.447914600372315E-1   8.132662773132324E-1   1.780386418104172E-1   2.082789130508900E-2   1.785199493169785E-1   2.146407961845398E-2  -7.229653596878052E-1   6.603316068649292E-1  
 1.810000000000000E7     5.781741142272949E-1   7.893748283386231E-1   1.863959133625031E-1   1.666703820228577E-2   1.850420236587524E-1   1.612773351371288E-2  -7.118541002273560E-1   6.733908057212830E-1  
 1.840000000000000E7     6.134508848190308E-1   7.618210315704346E-1   1.937440037727356E-1   1.043310388922691E-2   1.927440762519836E-1   1.069133728742600E-2  -7.001365423202515E-1   6.826283931732178E-1  
 1.870000000000000E7     6.445689201354981E-1   7.332187891006470E-1   2.008756399154663E-1   5.465149879455566E-3   1.999643892049789E-1   4.995256662368774E-3  -6.880752444267273E-1   6.919786930084229E-1  
 1.900000000000000E7     6.765160560607910E-1   7.020617723464966E-1   2.084798216819763E-1  -4.547201097011566E-4   2.079860866069794E-1  -9.031221270561218E-4  -6.760370135307312E-1   7.013942003250122E-1  
 1.930000000000000E7     7.075725793838501E-1   6.675391197204590E-1   2.157443165779114E-1  -8.190615102648735E-3   2.161410003900528E-1  -7.358207367360592E-3  -6.638607382774353E-1   7.123791575431824E-1  
 1.960000000000000E7     7.377585768699646E-1   6.313735246658325E-1   2.236301153898239E-1  -1.549456175416708E-2   2.235697209835053E-1  -1.504246518015862E-2  -6.521584391593933E-1   7.205207943916321E-1  
 1.990000000000000E7     7.640336751937866E-1   5.939696431159973E-1   2.318498194217682E-1  -2.372489124536514E-2   2.319761812686920E-1  -2.357637882232666E-2  -6.367897987365723E-1   7.312445044517517E-1  
 2.020000000000000E7     7.910794019699097E-1   5.536224246025085E-1   2.404895871877670E-1  -3.226209804415703E-2   2.396233826875687E-1  -3.206944465637207E-2  -6.238393187522888E-1   7.374790906906128E-1  
 2.050000000000000E7     8.180790543556213E-1   5.104665160179138E-1   2.488356679677963E-1  -4.193624854087830E-2   2.472071051597595E-1  -4.203269630670548E-2  -6.099157333374023E-1   7.467725276947022E-1  
 2.080000000000000E7     8.402396440505981E-1   4.645608067512512E-1   2.577631175518036E-1  -5.270129069685936E-2   2.575997710227966E-1  -5.256110429763794E-2  -5.952857136726379E-1   7.564200162887573E-1  
 2.110000000000000E7     8.622143268585205E-1   4.169890284538269E-1   2.665773630142212E-1  -6.544424593448639E-2   2.662831842899323E-1  -6.509944796562195E-2  -5.793713927268982E-1   7.642596960067749E-1  
 2.140000000000000E7     8.807809948921204E-1   3.669534921646118E-1   2.754512727260590E-1  -7.892768830060959E-2   2.743455767631531E-1  -7.751779258251190E-2  -5.633077025413513E-1   7.714189291000366E-1  
 2.170000000000000E7     8.963053822517395E-1   3.154985308647156E-1   2.843635082244873E-1  -9.259098768234253E-2   2.841627895832062E-1  -9.150900691747665E-2  -5.473664402961731E-1   7.786769866943359E-1  
 2.200000000000000E7     9.105024933815002E-1   2.580199837684631E-1   2.927421629428864E-1  -1.086934506893158E-1   2.927215099334717E-1  -1.082604676485062E-1  -5.281348228454590E-1   7.853242754936218E-1  
 2.230000000000000E7     9.191638231277466E-1   1.995990574359894E-1   3.014708757400513E-1  -1.261116713285446E-1   3.010126948356628E-1  -1.253627687692642E-1  -5.104086995124817E-1   7.912589907646179E-1  
 2.260000000000000E7     9.250259399414063E-1   1.379591375589371E-1   3.092429637908936E-1  -1.453232169151306E-1   3.110061287879944E-1  -1.453247368335724E-1  -4.922502934932709E-1   7.960804700851440E-1  
 2.290000000000000E7     9.262108206748962E-1   7.325311750173569E-2   3.174303770065308E-1  -1.666232645511627E-1   3.186253905296326E-1  -1.660769134759903E-1  -4.711712300777435E-1   8.003885746002197E-1  
 2.320000000000000E7     9.210137128829956E-1   6.466478109359741E-3   3.254309296607971E-1  -1.911449879407883E-1   3.245618939399719E-1  -1.910525411367416E-1  -4.513798654079437E-1   8.057363033294678E-1  
 2.350000000000000E7     9.098937511444092E-1  -6.464943289756775E-2   3.315983414649963E-1  -2.181829065084457E-1   3.313170075416565E-1  -2.169818729162216E-1  -4.305176734924316E-1   8.080880045890808E-1  
 2.380000000000000E7     8.926826119422913E-1  -1.366540938615799E-1   3.367286026477814E-1  -2.461769133806229E-1   3.369314670562744E-1  -2.459086477756500E-1  -4.084576666355133E-1   8.087081909179688E-1  
 2.410000000000000E7     8.667017221450806E-1  -2.121007740497589E-1   3.393758535385132E-1  -2.791487276554108E-1   3.390426933765411E-1  -2.782033681869507E-1  -3.855119645595551E-1   8.077563643455505E-1  
 2.440000000000000E7     8.303065299987793E-1  -2.874583303928375E-1   3.405621051788330E-1  -3.154852092266083E-1   3.402485847473145E-1  -3.152678608894348E-1  -3.632919490337372E-1   8.044537901878357E-1  
 2.470000000000000E7     7.839264869689941E-1  -3.634042441844940E-1   3.380079865455627E-1  -3.551594018936157E-1   3.383753299713135E-1  -3.527024090290070E-1  -3.377773761749268E-1   7.985048890113831E-1  
 2.500000000000000E7     7.249134778976440E-1  -4.403099119663239E-1   3.308857679367065E-1  -3.971434533596039E-1   3.306216597557068E-1  -3.977240324020386E-1  -3.137122392654419E-1   7.920306921005249E-1  
 2.530000000000000E7     6.512033939361572E-1  -5.127667188644409E-1   3.200766146183014E-1  -4.437119662761688E-1   3.198806047439575E-1  -4.432545602321625E-1  -2.898578047752380E-1   7.800920605659485E-1  
 2.560000000000000E7     5.625163912773132E-1  -5.793977379798889E-1   3.010716736316681E-1  -4.931764602661133E-1   3.014634549617767E-1  -4.941133260726929E-1  -2.670441269874573E-1   7.652443051338196E-1  
 2.590000000000000E7     4.566304981708527E-1  -6.328494548797607E-1   2.727906405925751E-1  -5.465214848518372E-1   2.735024690628052E-1  -5.466269850730896E-1  -2.453367561101914E-1   7.493200898170471E-1  
 2.620000000000000E7     3.328665494918823E-1  -6.737567186355591E-1   2.343904227018356E-1  -6.009798645973206E-1   2.350978106260300E-1  -5.994862318038940E-1  -2.244746685028076E-1   7.262710928916931E-1  
 2.650000000000000E7     1.938409805297852E-1  -6.951395869255066E-1   1.856023818254471E-1  -6.521128416061401E-1   1.848474293947220E-1  -6.528965830802918E-1  -2.103302627801895E-1   6.985908746719360E-1  
 2.680000000000000E7     4.264102131128311E-2  -6.864975094795227E-1   1.222843155264854E-1  -7.008402347564697E-1   1.208606958389282E-1  -7.005496025085449E-1  -2.017215937376022E-1   6.679261326789856E-1  
 2.710000000000000E7    -1.113090515136719E-1  -6.439785361289978E-1   4.329591244459152E-2  -7.388216853141785E-1   4.418555647134781E-2  -7.380084991455078E-1  -1.980172097682953E-1   6.378712654113770E-1  
 2.740000000000000E7    -2.657915949821472E-1  -5.639739036560059E-1  -4.435716196894646E-2  -7.645410299301148E-1  -4.709389805793762E-2  -7.633466124534607E-1  -2.055110633373261E-1   6.026312112808228E-1  
 2.770000000000000E7    -3.983628451824188E-1  -4.460619986057282E-1  -1.439139395952225E-1  -7.712954282760620E-1  -1.445226967334747E-1  -7.708559632301331E-1  -2.202099114656448E-1   5.737208127975464E-1  
 2.800000000000000E7    -5.058259367942810E-1  -2.946763038635254E-1  -2.455482929944992E-1  -7.566545009613037E-1  -2.457072138786316E-1  -7.572022676467896E-1  -2.435951530933380E-1   5.452470183372498E-1  
 2.830000000000000E7    -5.711340308189392E-1  -1.194770187139511E-1  -3.415991067886353E-1  -7.202702164649963E-1  -3.410942554473877E-1  -7.195133566856384E-1  -2.727771997451782E-1   5.305918455123901E-1  
 2.860000000000000E7    -5.890052914619446E-1   6.739594042301178E-2  -4.277692735195160E-1  -6.637360453605652E-1  -4.298394024372101E-1  -6.624846458435059E-1  -3.055286109447479E-1   5.230375528335571E-1  
 2.890000000000000E7    -5.612633228302002E-1   2.462536096572876E-1  -4.994999766349793E-1  -5.921403169631958E-1  -4.987072646617889E-1  -5.911123752593994E-1  -3.395174741744995E-1   5.257901549339294E-1  
 2.920000000000000E7    -4.966349005699158E-1   4.109333157539368E-1  -5.499006509780884E-1  -5.119717121124268E-1  -5.505310297012329E-1  -5.099680423736572E-1  -3.708919584751129E-1   5.373439788818359E-1  
 2.950000000000000E7    -3.989227116107941E-1   5.447000265121460E-1  -5.835880041122437E-1  -4.270753860473633E-1  -5.830441713333130E-1  -4.262816905975342E-1  -3.973557054996491E-1   5.586895346641541E-1  
 2.980000000000000E7    -2.851991653442383E-1   6.502789258956909E-1  -5.975112318992615E-1  -3.449379205703735E-1  -5.979385375976563E-1  -3.444397151470184E-1  -4.178933501243591E-1   5.848399996757507E-1  
 3.010000000000000E7    -1.604457497596741E-1   7.244396805763245E-1  -6.001595854759216E-1  -2.675549983978272E-1  -5.988426804542542E-1  -2.674989700317383E-1  -4.318693280220032E-1   6.133577227592468E-1  
 3.040000000000000E7    -3.374202549457550E-2   7.702717185020447E-1  -5.889233946800232E-1  -2.008080482482910E-1  -5.885945558547974E-1  -1.997623294591904E-1  -4.372038245201111E-1   6.443819999694824E-1  
 3.070000000000000E7     8.958603441715241E-2   7.933074235916138E-1  -5.731405019760132E-1  -1.378438770771027E-1  -5.718348026275635E-1  -1.391865909099579E-1  -4.382103085517883E-1   6.735651493072510E-1  
 3.100000000000000E7     2.041505575180054E-1   7.960113286972046E-1  -5.510927438735962E-1  -8.675829321146011E-2  -5.501517057418823E-1  -8.604110777378082E-2  -4.347525238990784E-1   7.029826045036316E-1  
 3.130000000000000E7     3.090618550777435E-1   7.824673652648926E-1  -5.241346359252930E-1  -4.142653197050095E-2  -5.232400298118591E-1  -4.241375625133514E-2  -4.266319274902344E-1   7.310578227043152E-1  
 3.160000000000000E7     4.068396091461182E-1   7.576553821563721E-1  -4.977544248104096E-1  -4.524042829871178E-3  -4.975461363792419E-1  -5.458890460431576E-3  -4.160946607589722E-1   7.577884793281555E-1  
 3.190000000000000E7     4.920376539230347E-1   7.242338657379150E-1  -4.693521857261658E-1   2.687817439436913E-2  -4.685047566890717E-1   2.705717273056507E-2  -4.021914601325989E-1   7.819072008132935E-1  
 3.220000000000000E7     5.693733692169190E-1   6.843594312667847E-1  -4.410745203495026E-1   5.215871706604958E-2  -4.407654702663422E-1   5.296820774674416E-2  -3.873801231384277E-1   8.036780953407288E-1  
 3.250000000000000E7     6.369553804397583E-1   6.388910412788391E-1  -4.145563542842865E-1   7.394395768642426E-2  -4.144820868968964E-1   7.438136637210846E-2  -3.699160516262054E-1   8.259132504463196E-1  
 3.280000000000000E7     6.958492994308472E-1   5.881199836730957E-1  -3.884897530078888E-1   9.176312386989594E-2  -3.867594301700592E-1   9.272500127553940E-2  -3.507876396179199E-1   8.448227643966675E-1  
 3.310000000000000E7     7.473829984664917E-1   5.378834009170532E-1  -3.619429171085358E-1   1.067348569631577E-1  -3.615688979625702E-1   1.069891899824143E-1  -3.294485807418823E-1   8.620163798332214E-1  
 3.340000000000000E7     7.920839190483093E-1   4.857819676399231E-1  -3.386314213275909E-1   1.195294335484505E-1  -3.373630344867706E-1   1.190726310014725E-1  -3.081070780754089E-1   8.773083686828613E-1  
 3.370000000000000E7     8.297960758209229E-1   4.310291707515717E-1  -3.146848082542419E-1   1.283541619777679E-1  -3.143672049045563E-1   1.280738264322281E-1  -2.867681384086609E-1   8.931148648262024E-1  
 3.400000000000000E7     8.626103401184082E-1   3.774122595787048E-1  -2.934157848358154E-1   1.362206339836121E-1  -2.933476269245148E-1   1.356253772974014E-1  -2.636499404907227E-1   9.049427509307861E-1  
 3.430000000000000E7     8.901945352554321E-1   3.235901296138763E-1  -2.725349664688110E-1   1.425851881504059E-1  -2.722269594669342E-1   1.421174854040146E-1  -2.405751347541809E-1   9.169536828994751E-1  
 3.460000000000000E7     9.130788445472717E-1   2.686345875263214E-1  -2.531945109367371E-1   1.471549570560455E-1  -2.536922693252564E-1   1.466312557458878E-1  -2.161511182785034E-1   9.287739992141724E-1  
 3.490000000000000E7     9.315465688705444E-1   2.154785990715027E-1  -2.343484908342362E-1   1.513370722532272E-1  -2.344126254320145E-1   1.503336280584335E-1  -1.927983760833740E-1   9.362072348594666E-1  
 3.520000000000000E7     9.467440247535706E-1   1.631622463464737E-1  -2.174919396638870E-1   1.528015732765198E-1  -2.175305932760239E-1   1.524667292833328E-1  -1.664624810218811E-1   9.466770887374878E-1  
 3.550000000000000E7     9.562528729438782E-1   1.095164269208908E-1  -2.015937715768814E-1   1.536940336227417E-1  -2.016340941190720E-1   1.536872088909149E-1  -1.421264857053757E-1   9.545883536338806E-1  
 3.580000000000000E7     9.649983644485474E-1   5.881884694099426E-2  -1.857136338949204E-1   1.544205844402313E-1  -1.857495605945587E-1   1.541631370782852E-1  -1.154323816299439E-1   9.596015214920044E-1  
 3.610000000000000E7     9.699773788452148E-1   8.895337581634522E-3  -1.716473400592804E-1   1.549026966094971E-1  -1.709020435810089E-1   1.542884558439255E-1  -8.767607808113098E-2   9.672259092330933E-1  
 3.640000000000000E7     9.717440009117127E-1  -4.088911414146423E-2  -1.577115654945374E-1   1.534624099731445E-1  -1.576548963785172E-1   1.528898030519486E-1  -6.220815330743790E-2   9.708051085472107E-1  
 3.670000000000000E7     9.710291028022766E-1  -8.804781734943390E-2  -1.450769752264023E-1   1.521369516849518E-1  -1.443758755922318E-1   1.516612768173218E-1  -3.509499132633209E-2   9.751307368278503E-1  
 3.700000000000000E7     9.673813581466675E-1  -1.353339254856110E-1  -1.322077065706253E-1   1.501746624708176E-1  -1.318842619657517E-1   1.498785167932510E-1  -5.800306797027588E-3   9.772919416427612E-1  
 3.730000000000000E7     9.615166783332825E-1  -1.823085397481918E-1  -1.199816837906838E-1   1.470969915390015E-1  -1.204413846135140E-1   1.471547484397888E-1   2.037474513053894E-2   9.776551127433777E-1  
 3.760000000000000E7     9.535724520683289E-1  -2.248422503471375E-1  -1.088080331683159E-1   1.446005403995514E-1  -1.092696338891983E-1   1.449190378189087E-1   5.098465085029602E-2   9.795156121253967E-1  
 3.790000000000000E7     9.437656402587891E-1  -2.698169946670532E-1  -9.859238564968109E-2   1.416409611701965E-1  -9.831111878156662E-2   1.416105479001999E-1   8.036055415868759E-2   9.779078364372253E-1  
 3.820000000000000E7     9.330986738204956E-1  -3.125318288803101E-1  -8.882303535938263E-2   1.383538991212845E-1  -8.888332545757294E-2   1.378578543663025E-1   1.084659770131111E-1   9.766595363616943E-1  
 3.850000000000000E7     9.189343452453613E-1  -3.547835350036621E-1  -7.949379831552506E-2   1.343517601490021E-1  -7.906019687652588E-2   1.342559009790421E-1   1.387276351451874E-1   9.760448932647705E-1  
 3.880000000000000E7     9.037563204765320E-1  -3.941551744937897E-1  -6.993688642978668E-2   1.303693950176239E-1  -6.999166309833527E-2   1.299393326044083E-1   1.711379289627075E-1   9.715928435325623E-1  
 3.910000000000000E7     8.879139423370361E-1  -4.339445829391480E-1  -6.197690591216087E-2   1.256583780050278E-1  -6.174113601446152E-2   1.258873641490936E-1   2.028936743736267E-1   9.669954180717468E-1  
 3.940000000000000E7     8.686285018920898E-1  -4.699235260486603E-1  -5.423476174473763E-2   1.209510266780853E-1  -5.388449877500534E-2   1.206302866339684E-1   2.333199232816696E-1   9.599370956420898E-1  
 3.970000000000000E7     8.502153158187866E-1  -5.070542693138123E-1  -4.704476147890091E-2   1.158767193555832E-1  -4.691131412982941E-2   1.157725602388382E-1   2.643728852272034E-1   9.517078995704651E-1  
 4.000000000000000E7     8.284785747528076E-1  -5.422075390815735E-1  -4.001672938466072E-2   1.106946021318436E-1  -3.968382254242897E-2   1.105292141437531E-1   2.985467314720154E-1   9.437007904052734E-1  
 4.030000000000000E7     8.068014979362488E-1  -5.759443640708923E-1  -3.339426591992378E-2   1.054549068212509E-1  -3.338199108839035E-2   1.051789820194244E-1   3.304176032543182E-1   9.342846274375916E-1  
 4.060000000000000E7     7.834962606430054E-1  -6.083750724792481E-1  -2.772660553455353E-2   9.967241436243057E-2  -2.768113464117050E-2   9.929347038269043E-2   3.639263808727264E-1   9.219960570335388E-1  
 4.090000000000000E7     7.587766051292419E-1  -6.406190395355225E-1  -2.221541106700897E-2   9.356357157230377E-2  -2.216899953782558E-2   9.349168837070465E-2   3.965150713920593E-1   9.088842272758484E-1  
 4.120000000000000E7     7.338448762893677E-1  -6.709461808204651E-1  -1.756191998720169E-2   8.758226037025452E-2  -1.754325628280640E-2   8.731090277433395E-2   4.309411644935608E-1   8.934504389762878E-1  
 4.150000000000000E7     7.073272466659546E-1  -6.982789635658264E-1  -1.272340118885040E-2   8.139985054731369E-2  -1.316704135388136E-2   8.106838166713715E-2   4.657909870147705E-1   8.757950067520142E-1  
 4.180000000000000E7     6.797140836715698E-1  -7.271529436111450E-1  -8.685825392603874E-3   7.472516596317291E-2  -8.783758617937565E-3   7.466994225978851E-2   5.001540184020996E-1   8.581968545913696E-1  
 4.210000000000000E7     6.514799594879150E-1  -7.530415654182434E-1  -5.308741703629494E-3   6.829824298620224E-2  -5.348179489374161E-3   6.823925673961639E-2   5.360848903656006E-1   8.363780975341797E-1  
 4.240000000000000E7     6.219370365142822E-1  -7.766143083572388E-1  -2.402243902906776E-3   6.148637831211090E-2  -2.438344061374664E-3   6.140271946787834E-2   5.714383125305176E-1   8.137909173965454E-1  
 4.270000000000000E7     5.912616252899170E-1  -8.006734251976013E-1   1.659365370869637E-4   5.467638000845909E-2   1.362746115773916E-4   5.458066612482071E-2   6.063175797462463E-1   7.878263592720032E-1  
 4.300000000000000E7     5.601114630699158E-1  -8.238312602043152E-1   2.172043081372976E-3   4.764269664883614E-2   2.042029052972794E-3   4.754205048084259E-2   6.415094137191773E-1   7.601066231727600E-1  
 4.330000000000000E7     5.314396619796753E-1  -8.443933129310608E-1   3.323457203805447E-3   4.054656624794006E-2   3.317654831334949E-3   4.048460349440575E-2   6.755019426345825E-1   7.294848561286926E-1  
 4.360000000000000E7     4.977797865867615E-1  -8.638310432434082E-1   4.191679880023003E-3   3.359599411487579E-2   4.153144545853138E-3   3.332967683672905E-2   7.095649838447571E-1   6.972609162330627E-1  
 4.390000000000000E7     4.646027088165283E-1  -8.833478093147278E-1   4.368087276816368E-3   2.635817602276802E-2   4.240091424435377E-3   2.637378312647343E-2   7.433088421821594E-1   6.606749892234802E-1  
 4.420000000000000E7     4.314584732055664E-1  -8.989651203155518E-1   3.827774897217751E-3   1.916158571839333E-2   3.909398335963488E-3   1.919812522828579E-2   7.760568857192993E-1   6.221183538436890E-1  
 4.450000000000000E7     3.976006507873535E-1  -9.146328568458557E-1   2.844556234776974E-3   1.204667333513498E-2   2.774995751678944E-3   1.200973708182573E-2   8.082681894302368E-1   5.816710591316223E-1  
 4.480000000000000E7     3.634996414184570E-1  -9.289552569389343E-1   1.027216436341405E-3   4.977323580533266E-3   1.178744714707136E-3   4.978774581104517E-3   8.384085893630981E-1   5.362447500228882E-1  
 4.510000000000000E7     3.306580483913422E-1  -9.419556856155396E-1  -1.234058639965951E-3  -1.980556175112724E-3  -1.274179667234421E-3  -1.919973175972700E-3   8.676865696907044E-1   4.876330494880676E-1  
 4.540000000000000E7     2.952315211296082E-1  -9.526091814041138E-1  -4.315315745770931E-3  -8.723569102585316E-3  -4.227952100336552E-3  -8.590550161898136E-3   8.939808011054993E-1   4.350784718990326E-1  
 4.570000000000000E7     2.598556876182556E-1  -9.630268812179565E-1  -8.073866367340088E-3  -1.517266873270273E-2  -8.037882857024670E-3  -1.517860777676106E-2   9.181661009788513E-1   3.805647790431976E-1  
 4.600000000000000E7     2.269481867551804E-1  -9.710403680801392E-1  -1.246304251253605E-2  -2.154100686311722E-2  -1.243235915899277E-2  -2.155145071446896E-2   9.408582448959351E-1   3.232363760471344E-1  
 4.630000000000000E7     1.889048963785172E-1  -9.791728854179382E-1  -1.769998297095299E-2  -2.734527364373207E-2  -1.771283522248268E-2  -2.734728157520294E-2   9.596688747406006E-1   2.600615024566650E-1  
 4.660000000000000E7     1.528933942317963E-1  -9.862281084060669E-1  -2.355441451072693E-2  -3.278748318552971E-2  -2.351575344800949E-2  -3.282665461301804E-2   9.731043577194214E-1   1.943811178207398E-1  
 4.690000000000000E7     1.185491979122162E-1  -9.896308183670044E-1  -3.007214516401291E-2  -3.777648508548737E-2  -2.999963797628880E-2  -3.766752406954765E-2   9.850997328758240E-1   1.252549439668655E-1  
 4.720000000000000E7     8.190470933914185E-2  -9.921967387199402E-1  -3.715290129184723E-2  -4.200759530067444E-2  -3.718488663434982E-2  -4.187649115920067E-2   9.896316528320313E-1   5.482347309589386E-2  
 4.750000000000000E7     4.732820391654968E-2  -9.950578212738037E-1  -4.500753432512283E-2  -4.543177038431168E-2  -4.494062438607216E-2  -4.545443132519722E-2   9.916322231292725E-1  -1.974920928478241E-2  
 4.780000000000000E7     1.247873902320862E-2  -9.954220652580261E-1  -5.322621762752533E-2  -4.844401031732559E-2  -5.322120338678360E-2  -4.843341931700707E-2   9.862422943115234E-1  -9.366202354431152E-2  
 4.810000000000000E7    -2.322136610746384E-2  -9.944942593574524E-1  -6.234396994113922E-2  -5.044929683208466E-2  -6.219634041190147E-2  -5.025267228484154E-2   9.751328229904175E-1  -1.727297455072403E-1  
 4.840000000000000E7    -5.831254273653030E-2  -9.929116964340210E-1  -7.155565917491913E-2  -5.140182748436928E-2  -7.159726321697235E-2  -5.110391601920128E-2   9.568586945533752E-1  -2.515390515327454E-1  
 4.870000000000000E7    -9.358242154121399E-2  -9.891063570976257E-1  -8.124913275241852E-2  -5.102056637406349E-2  -8.114369213581085E-2  -5.119012296199799E-2   9.319718480110169E-1  -3.298266828060150E-1  
 4.900000000000000E7    -1.282889246940613E-1  -9.852313399314880E-1  -9.075824171304703E-2  -4.987606778740883E-2  -9.087266027927399E-2  -4.985057562589645E-2   8.999468088150024E-1  -4.078908860683441E-1  
 4.930000000000000E7    -1.628914177417755E-1  -9.791297316551209E-1  -1.007649451494217E-1  -4.776773229241371E-2  -1.008483171463013E-1  -4.784162715077400E-2   8.599597215652466E-1  -4.848572015762329E-1  
 4.960000000000000E7    -1.957466006278992E-1  -9.699452519416809E-1  -1.103514805436134E-1  -4.416040703654289E-2  -1.102458015084267E-1  -4.380255192518234E-2   8.121673464775085E-1  -5.591742396354675E-1  
 4.990000000000000E7    -2.286325693130493E-1  -9.621430039405823E-1  -1.196033060550690E-1  -3.960450738668442E-2  -1.195861920714378E-1  -3.951522707939148E-2   7.579429745674133E-1  -6.294320225715637E-1  
 5.020000000000000E7    -2.607648968696594E-1  -9.544610977172852E-1  -1.290187984704971E-1  -3.376687690615654E-2  -1.290882378816605E-1  -3.393589705228806E-2   6.953959465026856E-1  -6.966181397438049E-1  
 5.050000000000000E7    -2.939251065254211E-1  -9.434465169906616E-1  -1.373928785324097E-1  -2.677696943283081E-2  -1.371592432260513E-1  -2.656953409314156E-2   6.268095374107361E-1  -7.571761012077332E-1  
 5.080000000000000E7    -3.248135149478912E-1  -9.326301217079163E-1  -1.451301872730255E-1  -1.855610869824886E-2  -1.452994942665100E-1  -1.891217753291130E-2   5.517134070396423E-1  -8.133596777915955E-1  
 5.110000000000000E7    -3.567407727241516E-1  -9.194167256355286E-1  -1.521600037813187E-1  -9.602006524801254E-3  -1.519715189933777E-1  -9.553556330502033E-3   4.709858000278473E-1  -8.607224225997925E-1  
 5.140000000000000E7    -3.870685696601868E-1  -9.054666161537170E-1  -1.581247299909592E-1   1.994622871279717E-4  -1.578402370214462E-1   3.460105508565903E-4   3.874095976352692E-1  -9.008451104164124E-1  
 5.170000000000000E7    -4.163826704025269E-1  -8.916197419166565E-1  -1.628086715936661E-1   1.020234264433384E-2  -1.626809984445572E-1   1.039269752800465E-2   3.001274466514587E-1  -9.327664971351624E-1  
 5.200000000000000E7    -4.459990859031677E-1  -8.776575326919556E-1  -1.667047739028931E-1   2.178730256855488E-2  -1.670579910278320E-1   2.159533090889454E-2   2.082067430019379E-1  -9.573827385902405E-1  
 5.230000000000000E7    -4.746946394443512E-1  -8.605661392211914E-1  -1.688707619905472E-1   3.322454541921616E-2  -1.686765104532242E-1   3.325787931680679E-2   1.176779270172119E-1  -9.703541398048401E-1  
 5.260000000000000E7    -5.024116039276123E-1  -8.425412178039551E-1  -1.700007319450378E-1   4.455816745758057E-2  -1.701970398426056E-1   4.477516934275627E-2   2.673582732677460E-2  -9.775268435478210E-1  
 5.290000000000000E7    -5.304170250892639E-1  -8.253718614578247E-1  -1.706686317920685E-1   5.665526539087296E-2  -1.701998263597488E-1   5.631809681653976E-2  -6.315353512763977E-2  -9.761909246444702E-1  
 5.320000000000000E7    -5.567680597305298E-1  -8.081240653991699E-1  -1.691541373729706E-1   6.797454506158829E-2  -1.692422628402710E-1   6.788754463195801E-2  -1.509819328784943E-1  -9.661297202110291E-1  
 5.350000000000000E7    -5.818345546722412E-1  -7.887446880340576E-1  -1.663874089717865E-1   7.906855642795563E-2  -1.662915050983429E-1   7.875528186559677E-2  -2.352990210056305E-1  -9.463081955909729E-1  
 5.380000000000000E7    -6.061506867408752E-1  -7.686588764190674E-1  -1.632328331470490E-1   8.948186039924622E-2  -1.629410535097122E-1   8.937717974185944E-2  -3.178330659866333E-1  -9.226298928260803E-1  
 5.410000000000000E7    -6.335921287536621E-1  -7.483385205268860E-1  -1.590941697359085E-1   1.001817509531975E-1  -1.590620726346970E-1   9.990859031677246E-2  -3.940979838371277E-1  -8.936880230903626E-1  
 5.440000000000000E7    -6.570730209350586E-1  -7.258870601654053E-1  -1.537407785654068E-1   1.095359772443771E-1  -1.538954228162766E-1   1.095089763402939E-1  -4.669642746448517E-1  -8.570355176925659E-1  
 5.470000000000000E7    -6.789140701293945E-1  -7.049605250358582E-1  -1.484799385070801E-1   1.187810748815537E-1  -1.481516808271408E-1   1.186744272708893E-1  -5.336834192276001E-1  -8.174117803573608E-1  
 5.500000000000000E7    -7.029263973236084E-1  -6.821453571319580E-1  -1.418210566043854E-1   1.267493367195129E-1  -1.415516883134842E-1   1.262728571891785E-1  -5.950362086296082E-1  -7.727162241935730E-1  
 5.530000000000000E7    -7.246980667114258E-1  -6.586703062057495E-1  -1.346647739410400E-1   1.341956406831741E-1  -1.344448179006577E-1   1.345380246639252E-1  -6.523452401161194E-1  -7.255016565322876E-1  
 5.560000000000000E7    -7.465288043022156E-1  -6.337605714797974E-1  -1.275069266557694E-1   1.415480375289917E-1  -1.270428895950317E-1   1.409844756126404E-1  -7.043840885162354E-1  -6.748996973037720E-1  
 5.590000000000000E7    -7.667627334594727E-1  -6.099498271942139E-1  -1.195249632000923E-1   1.473748683929443E-1  -1.192773431539536E-1   1.473419219255447E-1  -7.501157522201538E-1  -6.245372295379639E-1  
 5.620000000000000E7    -7.865580916404724E-1  -5.829004049301148E-1  -1.113897413015366E-1   1.523868590593338E-1  -1.112357825040817E-1   1.519809216260910E-1  -7.913765311241150E-1  -5.710790157318115E-1  
 5.650000000000000E7    -8.045585155487061E-1  -5.583711266517639E-1  -1.031198501586914E-1   1.571884602308273E-1  -1.032741218805313E-1   1.566769033670425E-1  -8.276232481002808E-1  -5.173189640045166E-1  
 5.680000000000000E7    -8.230251073837280E-1  -5.315018296241760E-1  -9.494934231042862E-2   1.611275076866150E-1  -9.476272761821747E-2   1.610647588968277E-1  -8.606837987899780E-1  -4.631790816783905E-1  
 5.710000000000000E7    -8.408238291740418E-1  -5.031917095184326E-1  -8.660995215177536E-2   1.645140498876572E-1  -8.645565062761307E-2   1.643000692129135E-1  -8.862392306327820E-1  -4.103313088417053E-1  
 5.740000000000000E7    -8.573259115219116E-1  -4.757354855537415E-1  -7.825291901826859E-2   1.670822352170944E-1  -7.843905687332153E-2   1.666344106197357E-1  -9.104024767875671E-1  -3.574956059455872E-1  
 5.770000000000000E7    -8.717582225799561E-1  -4.483693540096283E-1  -7.043414562940598E-2   1.686039417982101E-1  -7.031874358654022E-2   1.682413369417191E-1  -9.282991290092468E-1  -3.035114109516144E-1  
 5.800000000000000E7    -8.863754272460938E-1  -4.180105626583099E-1  -6.246944889426231E-2   1.702450364828110E-1  -6.164640560746193E-2   1.698812842369080E-1  -9.447220563888550E-1  -2.523761093616486E-1  
 5.830000000000000E7    -8.998900055885315E-1  -3.890859484672546E-1  -5.420729517936707E-2   1.710488796234131E-1  -5.404629185795784E-2   1.708779335021973E-1  -9.569118022918701E-1  -2.010512053966522E-1  
 5.860000000000000E7    -9.137648344039917E-1  -3.598181307315826E-1  -4.638218134641647E-2   1.716570705175400E-1  -4.640679806470871E-2   1.717760413885117E-1  -9.673177599906921E-1  -1.516718119382858E-1  
 5.890000000000000E7    -9.245733618736267E-1  -3.294665217399597E-1  -3.904655948281288E-2   1.716025918722153E-1  -3.917951136827469E-2   1.716628223657608E-1  -9.734590649604797E-1  -1.025436371564865E-1  
 5.920000000000000E7    -9.354107975959778E-1  -2.974529266357422E-1  -3.161253780126572E-2   1.714740097522736E-1  -3.097928874194622E-2   1.708771437406540E-1  -9.780452847480774E-1  -5.606181919574738E-2  
 5.950000000000000E7    -9.448410272598267E-1  -2.666613161563873E-1  -2.438557334244251E-2   1.703734844923019E-1  -2.426783554255962E-2   1.701444685459137E-1  -9.793061017990112E-1  -9.298895485699177E-3  
 5.980000000000000E7    -9.536447525024414E-1  -2.349471151828766E-1  -1.716508343815804E-2   1.697157919406891E-1  -1.734037138521671E-2   1.688714772462845E-1  -9.801701903343201E-1   3.492552042007446E-2  
 6.010000000000000E7    -9.599351882934570E-1  -2.047331035137177E-1  -1.128467544913292E-2   1.678517609834671E-1  -1.119080092757940E-2   1.673474907875061E-1  -9.774060249328613E-1   7.676125317811966E-2  
 6.040000000000000E7    -9.672710895538330E-1  -1.712304353713989E-1  -4.493709653615952E-3   1.658855378627777E-1  -4.512260667979717E-3   1.660398095846176E-1  -9.741371273994446E-1   1.185870021581650E-1  
 6.070000000000000E7    -9.737551212310791E-1  -1.405596286058426E-1   1.487866975367069E-3   1.642698496580124E-1   1.149647869169712E-3   1.639821827411652E-1  -9.679712653160095E-1   1.576175540685654E-1  
 6.100000000000000E7    -9.773567318916321E-1  -1.081626713275909E-1   7.665585726499558E-3   1.624703854322434E-1   7.554085925221443E-3   1.618761122226715E-1  -9.628431797027588E-1   1.965794563293457E-1  
 6.130000000000000E7    -9.812277555465698E-1  -7.470186799764633E-2   1.322194933891296E-2   1.597155332565308E-1   1.300942432135344E-2   1.596626639366150E-1  -9.548289179801941E-1   2.339684069156647E-1  
 6.160000000000000E7    -9.831778407096863E-1  -4.275687038898468E-2   1.868090592324734E-2   1.570072770118713E-1   1.866227760910988E-2   1.568891257047653E-1  -9.450744986534119E-1   2.697519063949585E-1  
 6.190000000000000E7    -9.841628670692444E-1  -9.986549615859985E-3   2.366759628057480E-2   1.540537178516388E-1   2.378674410283566E-2   1.535906940698624E-1  -9.340401291847229E-1   3.046222627162933E-1  
 6.220000000000000E7    -9.850181937217712E-1   2.250826358795166E-2   2.865867875516415E-2   1.511905491352081E-1   2.843179367482662E-2   1.512908637523651E-1  -9.235398769378662E-1   3.360519409179688E-1  
 6.250000000000000E7    -9.838038086891174E-1   5.524878203868866E-2   3.304662927985191E-2   1.483126133680344E-1   3.300134092569351E-2   1.481053829193115E-1  -9.126858115196228E-1   3.676459193229675E-1  
 6.280000000000000E7    -9.812479019165039E-1   8.825054764747620E-2   3.739584609866142E-2   1.451219618320465E-1   3.693644702434540E-2   1.449136435985565E-1  -8.995858430862427E-1   3.974676132202148E-1  
 6.310000000000000E7    -9.777519702911377E-1   1.219259351491928E-1   4.173523932695389E-2   1.419619619846344E-1   4.149729758501053E-2   1.417319029569626E-1  -8.868911862373352E-1   4.281397461891174E-1  
 6.340000000000000E7    -9.731605052947998E-1   1.543436646461487E-1   4.570918530225754E-2   1.384669244289398E-1   4.548314213752747E-2   1.384439766407013E-1  -8.737031817436218E-1   4.562935829162598E-1  
 6.370000000000000E7    -9.682333469390869E-1   1.866519153118134E-1   4.934179782867432E-2   1.352033168077469E-1   4.943943023681641E-2   1.349959373474121E-1  -8.580511808395386E-1   4.828820228576660E-1  
 6.400000000000000E7    -9.607759714126587E-1   2.182620763778687E-1   5.291333049535751E-2   1.319374591112137E-1   5.287349969148636E-2   1.311838030815125E-1  -8.445782065391541E-1   5.083974599838257E-1  
 6.430000000000000E7    -9.532905817031860E-1   2.518510520458221E-1   5.612599104642868E-2   1.281349956989288E-1   5.640263110399246E-2   1.277229338884354E-1  -8.292870521545410E-1   5.340987443923950E-1  
 6.460000000000000E7    -9.451792836189270E-1   2.836751341819763E-1   5.942869186401367E-2   1.243338733911514E-1   5.925689637660980E-2   1.242673993110657E-1  -8.126927614212036E-1   5.570788383483887E-1  
 6.490000000000000E7    -9.365112781524658E-1   3.148222565650940E-1   6.218123063445091E-2   1.207870990037918E-1   6.197952479124069E-2   1.210961937904358E-1  -7.983072400093079E-1   5.791234970092773E-1  
 6.520000000000000E7    -9.246580004692078E-1   3.457590341567993E-1   6.464752554893494E-2   1.173248440027237E-1   6.475014984607697E-2   1.169671341776848E-1  -7.822275757789612E-1   6.019423007965088E-1  
 6.550000000000000E7    -9.130458235740662E-1   3.762902319431305E-1   6.733362376689911E-2   1.136841177940369E-1   6.735782325267792E-2   1.135248839855194E-1  -7.653393149375916E-1   6.224380135536194E-1  
 6.580000000000000E7    -8.995829820632935E-1   4.076005816459656E-1   6.989468634128571E-2   1.099895015358925E-1   6.959842145442963E-2   1.099297702312470E-1  -7.501201033592224E-1   6.430516242980957E-1  
 6.610000000000000E7    -8.849642872810364E-1   4.374082088470459E-1   7.193863391876221E-2   1.063202023506165E-1   7.197669893503189E-2   1.055751591920853E-1  -7.323577404022217E-1   6.635466814041138E-1  
 6.640000000000000E7    -8.716564774513245E-1   4.672932028770447E-1   7.404765486717224E-2   1.025815159082413E-1   7.393249869346619E-2   1.027424708008766E-1  -7.158265709877014E-1   6.816598176956177E-1  
 6.670000000000000E7    -8.547467589378357E-1   4.964200258255005E-1   7.584852725267410E-2   9.883096069097519E-2   7.545579224824905E-2   9.882959723472595E-2  -6.994067430496216E-1   6.982532739639282E-1  
 6.700000000000000E7    -8.373879790306091E-1   5.251139998435974E-1   7.737626880407333E-2   9.498207271099091E-2   7.706564664840698E-2   9.484604746103287E-2  -6.818093061447144E-1   7.152180671691895E-1  
 6.730000000000000E7    -8.195748329162598E-1   5.530534386634827E-1   7.855893671512604E-2   9.119299799203873E-2   7.874403148889542E-2   9.103449434041977E-2  -6.654201745986939E-1   7.317205667495728E-1  
 6.760000000000000E7    -8.008574247360230E-1   5.805445313453674E-1   8.042974770069122E-2   8.775620907545090E-2   7.992462813854218E-2   8.755417168140411E-2  -6.474615335464478E-1   7.473279237747192E-1  
 6.790000000000000E7    -7.805700898170471E-1   6.076998710632324E-1   8.126312494277954E-2   8.394702523946762E-2   8.137729763984680E-2   8.386413753032684E-2  -6.302975416183472E-1   7.621169686317444E-1  
 6.820000000000000E7    -7.599074244499207E-1   6.328033208847046E-1   8.236505091190338E-2   8.027350902557373E-2   8.200344443321228E-2   8.026056736707687E-2  -6.132165789604187E-1   7.759473323822022E-1  
 6.850000000000000E7    -7.385929822921753E-1   6.596967577934265E-1   8.305297791957855E-2   7.681779563426971E-2   8.299911767244339E-2   7.666788995265961E-2  -5.957720279693604E-1   7.892669439315796E-1  
 6.880000000000000E7    -7.160325050354004E-1   6.837353110313416E-1   8.388729393482208E-2   7.320935279130936E-2   8.357304334640503E-2   7.273729145526886E-2  -5.778497457504273E-1   8.028269410133362E-1  
 6.910000000000000E7    -6.922761201858521E-1   7.081087231636047E-1   8.464094251394272E-2   6.981475651264191E-2   8.437213301658630E-2   6.953240931034088E-2  -5.608664155006409E-1   8.159273862838745E-1  
 6.940000000000000E7    -6.685140132904053E-1   7.312542796134949E-1   8.490554988384247E-2   6.635002046823502E-2   8.494530618190765E-2   6.620390713214874E-2  -5.440928339958191E-1   8.272552490234375E-1  
 6.970000000000000E7    -6.420280933380127E-1   7.538013458251953E-1   8.506246656179428E-2   6.275840103626251E-2   8.529856055974960E-2   6.252754479646683E-2  -5.265429615974426E-1   8.387249708175659E-1  
 7.000000000000000E7    -6.166424751281738E-1   7.760549783706665E-1   8.543668687343597E-2   5.938811600208283E-2   8.522083610296249E-2   5.917022004723549E-2  -5.093434453010559E-1   8.500172495841980E-1  
