#  HZ   S   RI   R     50.00 
! Rohde & Schwarz ZVT8 8Ports - Version 4.11 - 1300.0000k08 SN: 100242
! Date: 2026-07-31 15:10:20
! Measurements: S11 S21 S12 S22 
! 
 1.000000000000000E7    -4.075035452842712E-1   9.092035889625549E-1   4.963669180870056E-2   5.062205344438553E-2   4.938198998570442E-2   5.054087191820145E-2  -9.204528927803040E-1   3.814712762832642E-1  
 1.030000000000000E7    -3.757745027542114E-1   9.217178821563721E-1   5.252053961157799E-2   5.085063353180885E-2   5.229007825255394E-2   5.111829563975334E-2  -9.147059917449951E-1   3.935304880142212E-1  
 1.060000000000000E7    -3.402228951454163E-1   9.350423812866211E-1   5.577184259891510E-2   5.172105506062508E-2   5.568356812000275E-2   5.136847496032715E-2  -9.110824465751648E-1   4.050901532173157E-1  
 1.090000000000000E7    -3.087172508239746E-1   9.454680085182190E-1   5.885703489184380E-2   5.193785578012466E-2   5.876913294196129E-2   5.182019993662834E-2  -9.052604436874390E-1   4.167569279670715E-1  
 1.120000000000000E7    -2.741728127002716E-1   9.548653364181519E-1   6.209211051464081E-2   5.249122902750969E-2   6.164099648594856E-2   5.221091210842133E-2  -9.001775383949280E-1   4.278930425643921E-1  
 1.150000000000000E7    -2.392545789480209E-1   9.651491045951843E-1   6.515214592218399E-2   5.229360982775688E-2   6.502498686313629E-2   5.220853909850121E-2  -8.936864733695984E-1   4.368977844715118E-1  
 1.180000000000000E7    -2.053968012332916E-1   9.705600142478943E-1   6.826061010360718E-2   5.248983576893807E-2   6.840257346630096E-2   5.238284543156624E-2  -8.893399238586426E-1   4.473265707492828E-1  
 1.210000000000000E7    -1.711454987525940E-1   9.777866005897522E-1   7.191825658082962E-2   5.255375429987907E-2   7.181738317012787E-2   5.223465710878372E-2  -8.821992874145508E-1   4.595946371555328E-1  
 1.240000000000000E7    -1.361176520586014E-1   9.819942116737366E-1   7.515770196914673E-2   5.252749845385552E-2   7.548395544290543E-2   5.203195288777351E-2  -8.762736916542053E-1   4.689680933952332E-1  
 1.270000000000000E7    -1.009384840726852E-1   9.865759611129761E-1   7.939951866865158E-2   5.192105844616890E-2   7.883843779563904E-2   5.178839340806007E-2  -8.696957826614380E-1   4.822520315647125E-1  
 1.300000000000000E7    -6.640090793371201E-2   9.894720315933228E-1   8.255148679018021E-2   5.162519961595535E-2   8.247496932744980E-2   5.144309997558594E-2  -8.626947999000549E-1   4.922000467777252E-1  
 1.330000000000000E7    -3.101111762225628E-2   9.915506839752197E-1   8.637619763612747E-2   5.108008161187172E-2   8.641932904720306E-2   5.072748661041260E-2  -8.561616539955139E-1   5.039215087890625E-1  
 1.360000000000000E7     5.657445639371872E-3   9.917043447494507E-1   9.021177142858505E-2   5.066377669572830E-2   9.019225090742111E-2   4.994136467576027E-2  -8.492795228958130E-1   5.128517746925354E-1  
 1.390000000000000E7     4.000694677233696E-2   9.901139140129089E-1   9.438402950763702E-2   4.931444302201271E-2   9.399542957544327E-2   4.954131692647934E-2  -8.425061702728272E-1   5.239902138710022E-1  
 1.420000000000000E7     7.634489238262177E-2   9.881716370582581E-1   9.796869754791260E-2   4.862416908144951E-2   9.782569855451584E-2   4.865574836730957E-2  -8.365297913551331E-1   5.340399146080017E-1  
 1.450000000000000E7     1.113764792680740E-1   9.832176566123962E-1   1.021635979413986E-1   4.727587848901749E-2   1.019517406821251E-1   4.721967130899429E-2  -8.272590041160584E-1   5.459674596786499E-1  
 1.480000000000000E7     1.477898806333542E-1   9.787068367004395E-1   1.061347275972366E-1   4.596467316150665E-2   1.061416789889336E-1   4.636104404926300E-2  -8.208473324775696E-1   5.559511780738831E-1  
 1.510000000000000E7     1.828301399946213E-1   9.719851613044739E-1   1.101494953036308E-1   4.461102560162544E-2   1.101106330752373E-1   4.463763907551765E-2  -8.108317255973816E-1   5.664429068565369E-1  
 1.540000000000000E7     2.170775681734085E-1   9.645382165908814E-1   1.141746044158936E-1   4.365895316004753E-2   1.142784655094147E-1   4.317858070135117E-2  -8.057280778884888E-1   5.755500197410584E-1  
 1.570000000000000E7     2.527343928813934E-1   9.568703174591065E-1   1.185372993350029E-1   4.160939157009125E-2   1.185934841632843E-1   4.149335250258446E-2  -7.967140674591065E-1   5.871853828430176E-1  
 1.600000000000000E7     2.882214486598969E-1   9.454470276832581E-1   1.225994899868965E-1   3.943414986133575E-2   1.228183060884476E-1   3.931980207562447E-2  -7.886099815368652E-1   5.952296853065491E-1  
 1.630000000000000E7     3.224003612995148E-1   9.337032437324524E-1   1.275896131992340E-1   3.722133859992027E-2   1.271053254604340E-1   3.738279268145561E-2  -7.800150513648987E-1   6.072697043418884E-1  
 1.660000000000000E7     3.564139902591705E-1   9.195913672447205E-1   1.318497955799103E-1   3.491016104817390E-2   1.316850781440735E-1   3.438451141119003E-2  -7.701504230499268E-1   6.179752349853516E-1  
 1.690000000000000E7     3.898951411247253E-1   9.057011604309082E-1   1.363265961408615E-1   3.286819159984589E-2   1.360453665256500E-1   3.233228996396065E-2  -7.619526982307434E-1   6.272190809249878E-1  
 1.720000000000000E7     4.250921010971069E-1   8.904602527618408E-1   1.402194350957871E-1   2.944086119532585E-2   1.403525322675705E-1   2.972273156046867E-2  -7.521132230758667E-1   6.362261176109314E-1  
 1.750000000000000E7     4.533216953277588E-1   8.756864070892334E-1   1.454472392797470E-1   2.777089923620224E-2   1.454370915889740E-1   2.729698829352856E-2  -7.445987462997437E-1   6.476880908012390E-1  
 1.780000000000000E7     4.891079962253571E-1   8.541291356086731E-1   1.492707580327988E-1   2.375171333551407E-2   1.495689451694489E-1   2.395831048488617E-2  -7.340251803398132E-1   6.555848717689514E-1  
 1.810000000000000E7     5.191832184791565E-1   8.358773589134216E-1   1.547206789255142E-1   2.071752957999706E-2   1.539373248815537E-1   2.032820135354996E-2  -7.245939970016480E-1   6.681857109069824E-1  
 1.840000000000000E7     5.519214272499085E-1   8.151866197586060E-1   1.596007794141769E-1   1.650039851665497E-2   1.587710231542587E-1   1.653931289911270E-2  -7.138773798942566E-1   6.773517131805420E-1  
 1.870000000000000E7     5.804291963577271E-1   7.936422824859619E-1   1.638913154602051E-1   1.320847403258085E-2   1.634072512388229E-1   1.290039904415608E-2  -7.032927870750427E-1   6.863514184951782E-1  
 1.900000000000000E7     6.098548173904419E-1   7.705205082893372E-1   1.684704273939133E-1   9.389705955982208E-3   1.682063192129135E-1   8.911579847335815E-3  -6.926702857017517E-1   6.953619122505188E-1  
 1.930000000000000E7     6.390420198440552E-1   7.459068894386292E-1   1.729084253311157E-1   4.155568778514862E-3   1.731647700071335E-1   4.852978512644768E-3  -6.820922493934631E-1   7.067610025405884E-1  
 1.960000000000000E7     6.672860980033875E-1   7.190688252449036E-1   1.774927079677582E-1  -3.493260592222214E-4   1.775510609149933E-1   1.611653715372086E-4  -6.726964712142944E-1   7.147811055183411E-1  
 1.990000000000000E7     6.922509670257568E-1   6.924346685409546E-1   1.821928322315216E-1  -5.201003514230251E-3   1.823132783174515E-1  -5.040721036493778E-3  -6.592196822166443E-1   7.259626984596252E-1  
 2.020000000000000E7     7.182846069335938E-1   6.643525362014771E-1   1.870727241039276E-1  -9.947048500180244E-3   1.864709705114365E-1  -9.986829012632370E-3  -6.488254070281982E-1   7.325354218482971E-1  
 2.050000000000000E7     7.446378469467163E-1   6.348267793655396E-1   1.914371550083160E-1  -1.516565307974815E-2   1.903432756662369E-1  -1.559121347963810E-2  -6.369189620018005E-1   7.417959570884705E-1  
 2.080000000000000E7     7.678506374359131E-1   6.032226681709290E-1   1.963813602924347E-1  -2.118332497775555E-2   1.962689012289047E-1  -2.098094485700131E-2  -6.252762079238892E-1   7.523091435432434E-1  
 2.110000000000000E7     7.909829616546631E-1   5.720694661140442E-1   2.012326270341873E-1  -2.782111614942551E-2   2.010423839092255E-1  -2.764380350708962E-2  -6.122850179672241E-1   7.611492872238159E-1  
 2.140000000000000E7     8.123142123222351E-1   5.398911237716675E-1   2.057252079248428E-1  -3.452008217573166E-2   2.049012780189514E-1  -3.375476598739624E-2  -5.999563336372376E-1   7.693144679069519E-1  
 2.170000000000000E7     8.307442665100098E-1   5.074294209480286E-1   2.101198285818100E-1  -4.079815372824669E-2   2.099038064479828E-1  -4.005231708288193E-2  -5.873336791992188E-1   7.776384949684143E-1  
 2.200000000000000E7     8.514634370803833E-1   4.712391197681427E-1   2.142698466777802E-1  -4.810963571071625E-2   2.142368704080582E-1  -4.783617705106735E-2  -5.726020336151123E-1   7.858600616455078E-1  
 2.230000000000000E7     8.675735592842102E-1   4.356168508529663E-1   2.185541540384293E-1  -5.570482462644577E-2   2.181788831949234E-1  -5.510495603084564E-2  -5.591921210289002E-1   7.936438918113709E-1  
 2.260000000000000E7     8.838775157928467E-1   3.992446660995483E-1   2.225695401430130E-1  -6.355093419551849E-2   2.238095104694367E-1  -6.307815015316010E-2  -5.462858080863953E-1   8.014776110649109E-1  
 2.290000000000000E7     8.987103700637817E-1   3.617708086967468E-1   2.266862690448761E-1  -7.168094813823700E-2   2.271856218576431E-1  -7.099051773548126E-2  -5.303457975387573E-1   8.085470199584961E-1  
 2.320000000000000E7     9.104887843132019E-1   3.235204219818115E-1   2.312008440494537E-1  -8.080013096332550E-2   2.306775599718094E-1  -8.102007210254669E-2  -5.164116024971008E-1   8.179545402526856E-1  
 2.350000000000000E7     9.220442771911621E-1   2.830643951892853E-1   2.351686060428619E-1  -9.057589620351791E-2   2.345347851514816E-1  -8.980803936719894E-2  -5.017372965812683E-1   8.250235319137573E-1  
 2.380000000000000E7     9.311912059783936E-1   2.438243031501770E-1   2.385228872299194E-1  -9.944152832031250E-2   2.384933978319168E-1  -9.918484836816788E-2  -4.873209893703461E-1   8.318535089492798E-1  
 2.410000000000000E7     9.391724467277527E-1   2.022219896316528E-1   2.416241616010666E-1  -1.101009696722031E-1   2.413961738348007E-1  -1.097767055034638E-1  -4.707109332084656E-1   8.384395837783814E-1  
 2.440000000000000E7     9.444917440414429E-1   1.613040566444397E-1   2.453574687242508E-1  -1.209981665015221E-1   2.452801018953323E-1  -1.209909170866013E-1  -4.559200406074524E-1   8.445320725440979E-1  
 2.470000000000000E7     9.485824704170227E-1   1.192492991685867E-1   2.482450306415558E-1  -1.326565742492676E-1   2.476407140493393E-1  -1.309438198804855E-1  -4.382463693618774E-1   8.493825197219849E-1  
 2.500000000000000E7     9.513015747070313E-1   7.655662298202515E-2   2.503972947597504E-1  -1.437157541513443E-1   2.503249645233154E-1  -1.441636532545090E-1  -4.212356805801392E-1   8.564833998680115E-1  
 2.530000000000000E7     9.514146447181702E-1   3.358842805027962E-2   2.532230317592621E-1  -1.556966304779053E-1   2.533785104751587E-1  -1.552086919546127E-1  -4.047952592372894E-1   8.610441088676453E-1  
 2.560000000000000E7     9.494615793228149E-1  -8.614800870418549E-3   2.551702857017517E-1  -1.679101735353470E-1   2.558885812759399E-1  -1.678067445755005E-1  -3.878246545791626E-1   8.660516738891602E-1  
 2.590000000000000E7     9.442716240882874E-1  -5.204671993851662E-2   2.566453218460083E-1  -1.823421120643616E-1   2.571535706520081E-1  -1.820279061794281E-1  -3.704922199249268E-1   8.723627328872681E-1  
 2.620000000000000E7     9.375441670417786E-1  -9.652417898178101E-2   2.579325735569000E-1  -1.968601942062378E-1   2.577019035816193E-1  -1.959373354911804E-1  -3.499398529529572E-1   8.767930269241333E-1  
 2.650000000000000E7     9.285077452659607E-1  -1.393873542547226E-1   2.589022815227509E-1  -2.099995315074921E-1   2.589002847671509E-1  -2.106752842664719E-1  -3.324063420295715E-1   8.797715306282044E-1  
 2.680000000000000E7     9.164347052574158E-1  -1.826931983232498E-1   2.595357894897461E-1  -2.250965982675552E-1   2.594787478446960E-1  -2.259355336427689E-1  -3.140437602996826E-1   8.826907277107239E-1  
 2.710000000000000E7     9.026522636413574E-1  -2.270986139774323E-1   2.581361234188080E-1  -2.422034442424774E-1   2.575422525405884E-1  -2.417342662811279E-1  -2.946069836616516E-1   8.867068290710449E-1  
 2.740000000000000E7     8.866294622421265E-1  -2.704049050807953E-1   2.583864331245422E-1  -2.576387226581574E-1   2.576077580451965E-1  -2.586057484149933E-1  -2.744522690773010E-1   8.864722251892090E-1  
 2.770000000000000E7     8.679108619689941E-1  -3.120068609714508E-1   2.558543086051941E-1  -2.754464447498322E-1   2.555867731571198E-1  -2.764193415641785E-1  -2.539056241512299E-1   8.889874815940857E-1  
 2.800000000000000E7     8.476635813713074E-1  -3.542425632476807E-1   2.533298134803772E-1  -2.925538122653961E-1   2.543807327747345E-1  -2.928412556648254E-1  -2.329824715852737E-1   8.886777162551880E-1  
 2.830000000000000E7     8.221116662025452E-1  -3.958775401115418E-1   2.495232075452805E-1  -3.103779852390289E-1   2.487956732511520E-1  -3.114073276519775E-1  -2.142953723669052E-1   8.890472054481506E-1  
 2.860000000000000E7     7.948918342590332E-1  -4.365359246730804E-1   2.449893504381180E-1  -3.299657404422760E-1   2.441057860851288E-1  -3.312706351280212E-1  -1.901416331529617E-1   8.886178731918335E-1  
 2.890000000000000E7     7.654210925102234E-1  -4.749225974082947E-1   2.388049364089966E-1  -3.509773612022400E-1   2.386878728866577E-1  -3.503500521183014E-1  -1.695189923048019E-1   8.868555426597595E-1  
 2.920000000000000E7     7.332258820533752E-1  -5.131301879882813E-1   2.333558946847916E-1  -3.697858154773712E-1   2.314696311950684E-1  -3.700155317783356E-1  -1.486511379480362E-1   8.834452629089356E-1  
 2.950000000000000E7     6.982804536819458E-1  -5.487110614776611E-1   2.248335033655167E-1  -3.926477730274200E-1   2.238985300064087E-1  -3.916629850864410E-1  -1.250834167003632E-1   8.811311125755310E-1  
 2.980000000000000E7     6.597927212715149E-1  -5.834395885467529E-1   2.151138037443161E-1  -4.128967523574829E-1   2.148252129554749E-1  -4.141708016395569E-1  -1.029188707470894E-1   8.759970068931580E-1  
 3.010000000000000E7     6.190894246101379E-1  -6.157168149948120E-1   2.032869309186935E-1  -4.357326030731201E-1   2.042539864778519E-1  -4.355821609497070E-1  -8.050718903541565E-2   8.703820109367371E-1  
 3.040000000000000E7     5.743483304977417E-1  -6.461496353149414E-1   1.914755851030350E-1  -4.585636258125305E-1   1.905852556228638E-1  -4.595119953155518E-1  -5.794800817966461E-2   8.618383407592773E-1  
 3.070000000000000E7     5.277295708656311E-1  -6.718046069145203E-1   1.755725741386414E-1  -4.806380569934845E-1   1.750986278057098E-1  -4.804047346115112E-1  -3.487964719533920E-2   8.549128770828247E-1  
 3.100000000000000E7     4.773263037204742E-1  -6.950237751007080E-1   1.582173109054565E-1  -5.046642422676086E-1   1.580388993024826E-1  -5.031521320343018E-1  -1.165904290974140E-2   8.454024791717529E-1  
 3.130000000000000E7     4.269371926784515E-1  -7.166708707809448E-1   1.388788372278214E-1  -5.278317928314209E-1   1.397386789321899E-1  -5.274445414543152E-1   1.034559309482575E-2   8.331685662269592E-1  
 3.160000000000000E7     3.712790906429291E-1  -7.311569452285767E-1   1.178225055336952E-1  -5.511991381645203E-1   1.178684085607529E-1  -5.510907769203186E-1   3.224077075719833E-2   8.220777511596680E-1  
 3.190000000000000E7     3.147868514060974E-1  -7.427975535392761E-1   9.384720027446747E-2  -5.737432837486267E-1   9.392318129539490E-2  -5.723182559013367E-1   5.528392270207405E-2   8.077411651611328E-1  
 3.220000000000000E7     2.560314238071442E-1  -7.523784041404724E-1   6.850736588239670E-2  -5.962199568748474E-1   6.767150759696960E-2  -5.950213670730591E-1   7.463829964399338E-2   7.919164896011353E-1  
 3.250000000000000E7     1.960901618003845E-1  -7.538259029388428E-1   3.888646513223648E-2  -6.185432076454163E-1   3.794842213392258E-2  -6.178314089775085E-1   9.545783698558807E-2   7.762807607650757E-1  
 3.280000000000000E7     1.349982023239136E-1  -7.494119405746460E-1   6.711908616125584E-3  -6.398809552192688E-1   7.219891063869000E-3  -6.371392011642456E-1   1.156608015298843E-1   7.568457722663879E-1  
 3.310000000000000E7     7.377924770116806E-2  -7.425826787948608E-1  -2.793640270829201E-2  -6.576021313667297E-1  -2.942419983446598E-2  -6.571087241172791E-1   1.340138614177704E-1   7.358469963073731E-1  
 3.340000000000000E7     1.261008903384209E-2  -7.278155088424683E-1  -6.821405142545700E-2  -6.755127906799316E-1  -6.691203266382217E-2  -6.738154888153076E-1   1.508981883525848E-1   7.140654921531677E-1  
 3.370000000000000E7    -4.852319508790970E-2  -7.068839073181152E-1  -1.082570850849152E-1  -6.900298595428467E-1  -1.079646050930023E-1  -6.904513835906982E-1   1.661867350339890E-1   6.903151869773865E-1  
 3.400000000000000E7    -1.079505681991577E-1  -6.789189577102661E-1  -1.531155258417130E-1  -7.020727396011353E-1  -1.534068584442139E-1  -7.024779319763184E-1   1.789309829473496E-1   6.647970080375671E-1  
 3.430000000000000E7    -1.644504517316818E-1  -6.454463005065918E-1  -2.007479965686798E-1  -7.108232378959656E-1  -1.993938982486725E-1  -7.113332748413086E-1   1.911371350288391E-1   6.399449706077576E-1  
 3.460000000000000E7    -2.188547402620316E-1  -6.040910482406616E-1  -2.502933740615845E-1  -7.167990803718567E-1  -2.508152127265930E-1  -7.161431312561035E-1   1.991758495569229E-1   6.133589744567871E-1  
 3.490000000000000E7    -2.666662633419037E-1  -5.581366419792175E-1  -3.038395345211029E-1  -7.164057493209839E-1  -3.008741438388825E-1  -7.171613574028015E-1   2.065168023109436E-1   5.853518843650818E-1  
 3.520000000000000E7    -3.122584819793701E-1  -5.037742853164673E-1  -3.570679128170013E-1  -7.138515710830689E-1  -3.555233478546143E-1  -7.147294878959656E-1   2.110861837863922E-1   5.566034317016602E-1  
 3.550000000000000E7    -3.504810333251953E-1  -4.426693320274353E-1  -4.121734797954559E-1  -7.067851424217224E-1  -4.124459922313690E-1  -7.056171298027039E-1   2.094798833131790E-1   5.292348265647888E-1  
 3.580000000000000E7    -3.822214305400848E-1  -3.793915808200836E-1  -4.687675535678864E-1  -6.915982961654663E-1  -4.674913287162781E-1  -6.916470527648926E-1   2.077580392360687E-1   5.003861784934998E-1  
 3.610000000000000E7    -4.025313854217529E-1  -3.120123744010925E-1  -5.262982249259949E-1  -6.718804240226746E-1  -5.247173309326172E-1  -6.712189912796021E-1   2.032310664653778E-1   4.735442101955414E-1  
 3.640000000000000E7    -4.180666506290436E-1  -2.400876581668854E-1  -5.808643698692322E-1  -6.458296179771423E-1  -5.817364454269409E-1  -6.461332440376282E-1   1.919386386871338E-1   4.471705555915833E-1  
 3.670000000000000E7    -4.225797951221466E-1  -1.679215282201767E-1  -6.361118555068970E-1  -6.153938770294190E-1  -6.337779760360718E-1  -6.131840348243713E-1   1.821888238191605E-1   4.244165122509003E-1  
 3.700000000000000E7    -4.188572764396668E-1  -9.579192101955414E-2  -6.874107122421265E-1  -5.751628875732422E-1  -6.871113181114197E-1  -5.749835968017578E-1   1.671309769153595E-1   4.011572897434235E-1  
 3.730000000000000E7    -4.066941142082214E-1  -2.395236492156982E-2  -7.342632412910461E-1  -5.310353636741638E-1  -7.341111302375794E-1  -5.310186147689819E-1   1.492857635021210E-1   3.836440742015839E-1  
 3.760000000000000E7    -3.829453587532044E-1   4.172403365373612E-2  -7.790340185165405E-1  -4.810881912708283E-1  -7.794166207313538E-1  -4.812654256820679E-1   1.314274519681931E-1   3.675196468830109E-1  
 3.790000000000000E7    -3.490490913391113E-1   1.062724143266678E-1  -8.201305866241455E-1  -4.283590018749237E-1  -8.172534108161926E-1  -4.288055598735809E-1   1.134672090411186E-1   3.535781204700470E-1  
 3.820000000000000E7    -3.087528347969055E-1   1.634840220212936E-1  -8.531431555747986E-1  -3.702762722969055E-1  -8.523885011672974E-1  -3.695517480373383E-1   9.002204239368439E-2   3.460036814212799E-1  
 3.850000000000000E7    -2.616557478904724E-1   2.171591967344284E-1  -8.815828561782837E-1  -3.112143576145172E-1  -8.814409375190735E-1  -3.089015185832977E-1   7.005535811185837E-2   3.389622569084168E-1  
 3.880000000000000E7    -2.117028832435608E-1   2.596405744552612E-1  -9.032756090164185E-1  -2.452888488769531E-1  -9.028003811836243E-1  -2.465057224035263E-1   4.930179566144943E-2   3.349734842777252E-1  
 3.910000000000000E7    -1.526920348405838E-1   2.981161773204804E-1  -9.181465506553650E-1  -1.812462359666824E-1  -9.187140464782715E-1  -1.819860637187958E-1   3.028581477701664E-2   3.386757671833038E-1  
 3.940000000000000E7    -9.133784472942352E-2   3.243337869644165E-1  -9.270815253257752E-1  -1.162693798542023E-1  -9.278693795204163E-1  -1.169392317533493E-1   9.747503325343132E-3   3.423863351345062E-1  
 3.970000000000000E7    -2.838791906833649E-2   3.447163999080658E-1  -9.297933578491211E-1  -5.152853578329086E-2  -9.290403127670288E-1  -5.138769745826721E-2  -7.008707150816917E-3   3.527463078498840E-1  
 4.000000000000000E7     3.326478600502014E-2   3.561933338642120E-1  -9.267621636390686E-1   1.173955202102661E-2  -9.264308810234070E-1   1.254069060087204E-2  -2.162095159292221E-2   3.626740574836731E-1  
 4.030000000000000E7     9.383052587509155E-2   3.574651181697846E-1  -9.197399020195007E-1   7.522761076688767E-2  -9.193195700645447E-1   7.323379814624786E-2  -3.360228240489960E-2   3.738932907581329E-1  
 4.060000000000000E7     1.568406969308853E-1   3.545210063457489E-1  -9.055844545364380E-1   1.343178153038025E-1  -9.043003916740418E-1   1.349723637104034E-1  -4.496815428137779E-2   3.909985125064850E-1  
 4.090000000000000E7     2.165350019931793E-1   3.449973464012146E-1  -8.872954249382019E-1   1.914016306400299E-1  -8.872887492179871E-1   1.919293850660324E-1  -5.222621560096741E-2   4.048890471458435E-1  
 4.120000000000000E7     2.740312516689301E-1   3.252548277378082E-1  -8.652654886245728E-1   2.446577847003937E-1  -8.635920286178589E-1   2.468075752258301E-1  -5.673066526651382E-2   4.256595969200134E-1  
 4.150000000000000E7     3.224903345108032E-1   3.016104698181152E-1  -8.394071459770203E-1   2.988532185554504E-1  -8.369708657264710E-1   2.958905696868897E-1  -5.688167735934258E-2   4.439818263053894E-1  
 4.180000000000000E7     3.712655305862427E-1   2.748768329620361E-1  -8.100274801254273E-1   3.460115194320679E-1  -8.098937869071960E-1   3.452451229095459E-1  -5.622629076242447E-2   4.605912566184998E-1  
 4.210000000000000E7     4.130945801734924E-1   2.423998266458511E-1  -7.782391905784607E-1   3.908012211322784E-1  -7.793885469436646E-1   3.907386064529419E-1  -5.032702535390854E-2   4.795844852924347E-1  
 4.240000000000000E7     4.522997140884399E-1   2.058511972427368E-1  -7.450996041297913E-1   4.318982064723969E-1  -7.451647520065308E-1   4.316868185997009E-1  -4.219482839107513E-2   4.984144568443298E-1  
 4.270000000000000E7     4.852915704250336E-1   1.692285686731339E-1  -7.095423936843872E-1   4.706977605819702E-1  -7.090896368026733E-1   4.699556529521942E-1  -3.145203739404678E-2   5.156225562095642E-1  
 4.300000000000000E7     5.154756307601929E-1   1.287832856178284E-1  -6.730589866638184E-1   5.060567855834961E-1  -6.722400784492493E-1   5.045656561851502E-1  -1.818499341607094E-2   5.331060886383057E-1  
 4.330000000000000E7     5.411570072174072E-1   8.651310205459595E-2  -6.339052915573120E-1   5.350387692451477E-1  -6.346334218978882E-1   5.367100238800049E-1  -2.053948119282723E-3   5.488136410713196E-1  
 4.360000000000000E7     5.603366494178772E-1   4.077640920877457E-2  -5.973027944564819E-1   5.648910999298096E-1  -5.947955846786499E-1   5.641985535621643E-1   1.437944639474154E-2   5.638623237609863E-1  
 4.390000000000000E7     5.758044123649597E-1  -1.398915424942970E-3  -5.575150847434998E-1   5.909647941589356E-1  -5.566812157630920E-1   5.897087454795837E-1   3.836023062467575E-2   5.755881667137146E-1  
 4.420000000000000E7     5.886033773422241E-1  -4.509942606091499E-2  -5.154522061347961E-1   6.132807731628418E-1  -5.158102512359619E-1   6.120901703834534E-1   6.074121966958046E-2   5.866281986236572E-1  
 4.450000000000000E7     5.957161188125610E-1  -8.901163190603256E-2  -4.765943884849548E-1   6.332182884216309E-1  -4.751074016094208E-1   6.330526471138001E-1   8.413115888834000E-2   5.978201627731323E-1  
 4.480000000000000E7     6.003324985504150E-1  -1.318843066692352E-1  -4.356833696365356E-1   6.505790352821350E-1  -4.351806938648224E-1   6.502493619918823E-1   1.115296855568886E-1   6.042731404304504E-1  
 4.510000000000000E7     6.009685397148132E-1  -1.740560233592987E-1  -3.956458568572998E-1   6.662279367446899E-1  -3.948883116245270E-1   6.650505661964417E-1   1.409084796905518E-1   6.097416281700134E-1  
 4.540000000000000E7     5.998965501785278E-1  -2.134663909673691E-1  -3.520836830139160E-1   6.789290308952332E-1  -3.534197211265564E-1   6.792497634887695E-1   1.708351671695709E-1   6.134802699089050E-1  
 4.570000000000000E7     5.954170823097229E-1  -2.551971971988678E-1  -3.114266693592072E-1   6.899156570434570E-1  -3.126732707023621E-1   6.877381801605225E-1   2.040983140468597E-1   6.139734387397766E-1  
 4.600000000000000E7     5.858069658279419E-1  -2.938014566898346E-1  -2.733437120914459E-1   6.979194879531860E-1  -2.739047408103943E-1   6.974505782127380E-1   2.371249943971634E-1   6.108791828155518E-1  
 4.630000000000000E7     5.762630701065064E-1  -3.318369686603546E-1  -2.318827509880066E-1   7.051944732666016E-1  -2.308535277843475E-1   7.045174837112427E-1   2.712734341621399E-1   6.051048040390015E-1  
 4.660000000000000E7     5.657148957252502E-1  -3.673579692840576E-1  -1.890532225370407E-1   7.089243531227112E-1  -1.899583637714386E-1   7.082209587097168E-1   3.082347214221954E-1   5.955085754394531E-1  
 4.690000000000000E7     5.498885512351990E-1  -4.021720588207245E-1  -1.494202166795731E-1   7.116428017616272E-1  -1.485838741064072E-1   7.097231149673462E-1   3.459537029266357E-1   5.864307284355164E-1  
 4.720000000000000E7     5.342423319816589E-1  -4.355582892894745E-1  -1.080187782645226E-1   7.111884951591492E-1  -1.077984496951103E-1   7.108135819435120E-1   3.814931809902191E-1   5.693811178207398E-1  
 4.750000000000000E7     5.175503492355347E-1  -4.656642675399780E-1  -6.684841960668564E-2   7.095391750335693E-1  -6.725924462080002E-2   7.091488242149353E-1   4.214055538177490E-1   5.529599189758301E-1  
 4.780000000000000E7     4.998481869697571E-1  -4.961768090724945E-1  -2.690476924180985E-2   7.048830389976502E-1  -2.824575453996658E-2   7.043747305870056E-1   4.590379595756531E-1   5.277200937271118E-1  
 4.810000000000000E7     4.778790771961212E-1  -5.240023136138916E-1   1.250165700912476E-2   6.999595761299133E-1   1.243221759796143E-2   6.987980604171753E-1   4.985801279544830E-1   5.012044906616211E-1  
 4.840000000000000E7     4.571850001811981E-1  -5.497883558273315E-1   5.214480310678482E-2   6.918115615844727E-1   5.335657298564911E-2   6.912477016448975E-1   5.360743403434753E-1   4.688929319381714E-1  
 4.870000000000000E7     4.360844492912293E-1  -5.748577713966370E-1   9.391841292381287E-2   6.815357208251953E-1   9.213853627443314E-2   6.809223890304565E-1   5.735847949981690E-1   4.324380457401276E-1  
 4.900000000000000E7     4.141194820404053E-1  -5.988216400146484E-1   1.323240250349045E-1   6.679170131683350E-1   1.325617432594299E-1   6.680004596710205E-1   6.085237860679627E-1   3.916459083557129E-1  
 4.930000000000000E7     3.904722929000855E-1  -6.217620968818665E-1   1.705102622509003E-1   6.525249481201172E-1   1.704649329185486E-1   6.528275609016419E-1   6.436038613319397E-1   3.434602916240692E-1  
 4.960000000000000E7     3.661443591117859E-1  -6.423871517181397E-1   2.098676264286041E-1   6.339074969291687E-1   2.100551128387451E-1   6.337838768959045E-1   6.740874648094177E-1   2.934050559997559E-1  
 4.990000000000000E7     3.435983061790466E-1  -6.625825166702271E-1   2.464686632156372E-1   6.123856306076050E-1   2.459880709648132E-1   6.122281551361084E-1   7.034696936607361E-1   2.359899580478668E-1  
 5.020000000000000E7     3.193959593772888E-1  -6.809893846511841E-1   2.825323641300201E-1   5.893141031265259E-1   2.813780009746552E-1   5.906525850296021E-1   7.278102636337280E-1   1.721952110528946E-1  
 5.050000000000000E7     2.943736314773560E-1  -6.994612812995911E-1   3.175422251224518E-1   5.629516243934631E-1   3.179591894149780E-1   5.622493624687195E-1   7.469351887702942E-1   1.054470837116242E-1  
 5.080000000000000E7     2.696980535984039E-1  -7.164061665534973E-1   3.508884012699127E-1   5.330482721328735E-1   3.494313955307007E-1   5.337189435958862E-1   7.599966526031494E-1   3.100793808698654E-2  
 5.110000000000000E7     2.438904941082001E-1  -7.333036065101624E-1   3.814299106597900E-1   5.003682374954224E-1   3.817180097103119E-1   5.003109574317932E-1   7.668313980102539E-1  -4.525756835937500E-2  
 5.140000000000000E7     2.172533720731735E-1  -7.491798996925354E-1   4.102161526679993E-1   4.655757248401642E-1   4.105567038059235E-1   4.643101692199707E-1   7.653303742408752E-1  -1.270319223403931E-1  
 5.170000000000000E7     1.915502846240997E-1  -7.653448581695557E-1   4.334483742713928E-1   4.257413148880005E-1   4.346616864204407E-1   4.261200726032257E-1   7.546306252479553E-1  -2.109300792217255E-1  
 5.200000000000000E7     1.645093411207199E-1  -7.803828716278076E-1   4.573285877704620E-1   3.860476911067963E-1   4.567595720291138E-1   3.877862095832825E-1   7.336283922195435E-1  -2.982221245765686E-1  
 5.230000000000000E7     1.371533125638962E-1  -7.942628860473633E-1   4.753312468528748E-1   3.424443602561951E-1   4.755530357360840E-1   3.418544232845306E-1   7.030668258666992E-1  -3.831184208393097E-1  
 5.260000000000000E7     1.080546304583550E-1  -8.084515929222107E-1   4.880413711071014E-1   2.971557378768921E-1   4.887302219867706E-1   2.980390787124634E-1   6.617856025695801E-1  -4.683448970317841E-1  
 5.290000000000000E7     7.761408388614655E-2  -8.216643333435059E-1   4.980291426181793E-1   2.536271810531616E-1   4.972259998321533E-1   2.520734667778015E-1   6.091559529304504E-1  -5.509766340255737E-1  
 5.320000000000000E7     4.756951332092285E-2  -8.350109457969666E-1   5.018514990806580E-1   2.061994969844818E-1   5.017668008804321E-1   2.061732709407806E-1   5.453304052352905E-1  -6.275272965431213E-1  
 5.350000000000000E7     1.583680510520935E-2  -8.465552926063538E-1   5.000674128532410E-1   1.589911580085754E-1   4.991853535175324E-1   1.589778661727905E-1   4.711749553680420E-1  -6.971782445907593E-1  
 5.380000000000000E7    -1.811796426773071E-2  -8.572743535041809E-1   4.929912090301514E-1   1.145881414413452E-1   4.916096627712250E-1   1.143033057451248E-1   3.876966834068298E-1  -7.601183056831360E-1  
 5.410000000000000E7    -5.413381755352020E-2  -8.684105873107910E-1   4.827245771884918E-1   7.161103188991547E-2   4.817452132701874E-1   7.178653031587601E-2   2.981406450271606E-1  -8.113602399826050E-1  
 5.440000000000000E7    -9.154501557350159E-2  -8.753456473350525E-1   4.656907320022583E-1   3.110360354185104E-2   4.659277796745300E-1   3.134879097342491E-2   2.003126740455627E-1  -8.525748252868652E-1  
 5.470000000000000E7    -1.284469813108444E-1  -8.810580968856812E-1   4.471090734004974E-1  -5.077086389064789E-3   4.463756978511810E-1  -5.383037030696869E-3   9.990181028842926E-2  -8.809665441513062E-1  
 5.500000000000000E7    -1.684300601482391E-1  -8.860870003700256E-1   4.228182435035706E-1  -3.888791054487228E-2   4.221709966659546E-1  -3.857333213090897E-2  -3.115460276603699E-3  -8.962792754173279E-1  
 5.530000000000000E7    -2.085995078086853E-1  -8.872818350791931E-1   3.970228731632233E-1  -6.826338917016983E-2   3.972432911396027E-1  -6.854861229658127E-2  -1.062925010919571E-1  -8.998232483863831E-1  
 5.560000000000000E7    -2.504237890243530E-1  -8.862345218658447E-1   3.699532151222229E-1  -9.354752302169800E-2   3.690226674079895E-1  -9.310281276702881E-2  -2.082367241382599E-1  -8.918256163597107E-1  
 5.590000000000000E7    -2.905376553535461E-1  -8.834679126739502E-1   3.411301374435425E-1  -1.139698252081871E-1   3.410298824310303E-1  -1.140059679746628E-1  -3.045942485332489E-1  -8.731192350387573E-1  
 5.620000000000000E7    -3.331106901168823E-1  -8.760228753089905E-1   3.111359179019928E-1  -1.305473446846008E-1   3.105855286121368E-1  -1.301420480012894E-1  -3.976319134235382E-1  -8.439673781394959E-1  
 5.650000000000000E7    -3.728221654891968E-1  -8.680791854858398E-1   2.826977968215942E-1  -1.434847116470337E-1   2.821951508522034E-1  -1.427018940448761E-1  -4.841003715991974E-1  -8.064603209495544E-1  
 5.680000000000000E7    -4.139850735664368E-1  -8.569976091384888E-1   2.543530464172363E-1  -1.519768983125687E-1   2.542425692081451E-1  -1.522537320852280E-1  -5.643275976181030E-1  -7.619880437850952E-1  
 5.710000000000000E7    -4.547460675239563E-1  -8.426157236099243E-1   2.270921021699905E-1  -1.578381806612015E-1   2.270501554012299E-1  -1.577379405498505E-1  -6.341108083724976E-1  -7.110590934753418E-1  
 5.740000000000000E7    -4.944731295108795E-1  -8.269321322441101E-1   2.011903971433640E-1  -1.605903357267380E-1   2.012472599744797E-1  -1.601377576589584E-1  -6.996809840202332E-1  -6.574854254722595E-1  
 5.770000000000000E7    -5.309606194496155E-1  -8.086706399917603E-1   1.767453253269196E-1  -1.599527597427368E-1   1.763962507247925E-1  -1.596321314573288E-1  -7.558552622795105E-1  -5.970934033393860E-1  
 5.800000000000000E7    -5.689884424209595E-1  -7.877063751220703E-1   1.547805368900299E-1  -1.584770679473877E-1   1.536673009395599E-1  -1.585289686918259E-1  -8.048659563064575E-1  -5.377420783042908E-1  
 5.830000000000000E7    -6.039686799049377E-1  -7.652178406715393E-1   1.335479617118835E-1  -1.549763679504395E-1   1.334443092346191E-1  -1.550363600254059E-1  -8.476456999778748E-1  -4.750537872314453E-1  
 5.860000000000000E7    -6.388428211212158E-1  -7.426832318305969E-1   1.149890571832657E-1  -1.500248312950134E-1   1.150285005569458E-1  -1.501733213663101E-1  -8.839231729507446E-1  -4.135364294052124E-1  
 5.890000000000000E7    -6.712517142295837E-1  -7.161026597023010E-1   9.789818525314331E-2  -1.437010467052460E-1   9.815020114183426E-2  -1.436028033494949E-1  -9.132889509201050E-1  -3.502476811408997E-1  
 5.920000000000000E7    -7.029066085815430E-1  -6.887868046760559E-1   8.284469693899155E-2  -1.371298134326935E-1   8.221279829740524E-2  -1.370664983987808E-1  -9.371060132980347E-1  -2.898429036140442E-1  
 5.950000000000000E7    -7.318003177642822E-1  -6.601392030715942E-1   6.909558176994324E-2  -1.296405345201492E-1   6.889830529689789E-2  -1.295075863599777E-1  -9.557038545608521E-1  -2.283020317554474E-1  
 5.980000000000000E7    -7.603592872619629E-1  -6.304118633270264E-1   5.723772197961807E-2  -1.222699210047722E-1   5.711684003472328E-2  -1.216034665703774E-1  -9.707819223403931E-1  -1.700824797153473E-1  
 6.010000000000000E7    -7.847914099693298E-1  -5.999021530151367E-1   4.684422165155411E-2  -1.135423481464386E-1   4.672117903828621E-2  -1.132389083504677E-1  -9.798308610916138E-1  -1.133388876914978E-1  
 6.040000000000000E7    -8.108779191970825E-1  -5.677313804626465E-1   3.746345266699791E-2  -1.053491532802582E-1   3.744352236390114E-2  -1.055365651845932E-1  -9.868449568748474E-1  -5.777766928076744E-2  
 6.070000000000000E7    -8.339701294898987E-1  -5.373586416244507E-1   2.964111231267452E-2  -9.744971245527268E-2   2.975828386843205E-2  -9.731121361255646E-2  -9.886664748191834E-1  -5.671808496117592E-3  
 6.100000000000000E7    -8.546528220176697E-1  -5.037823319435120E-1   2.285877987742424E-2  -8.978835493326187E-2   2.275440841913223E-2  -8.947634696960449E-2  -9.899641275405884E-1   4.553256183862686E-2  
 6.130000000000000E7    -8.757845163345337E-1  -4.695963859558106E-1   1.697414740920067E-2  -8.184361457824707E-2   1.714727655053139E-2  -8.169068396091461E-2  -9.869335889816284E-1   9.524179995059967E-2  
 6.160000000000000E7    -8.933792710304260E-1  -4.353807866573334E-1   1.200609840452671E-2  -7.425276935100555E-2   1.215948257595301E-2  -7.416561245918274E-2  -9.817490577697754E-1   1.419482380151749E-1  
 6.190000000000000E7    -9.100696444511414E-1  -4.002570509910584E-1   8.020220324397087E-3  -6.674041599035263E-2   7.847430184483528E-3  -6.674430519342423E-2  -9.738908410072327E-1   1.881414353847504E-1  
 6.220000000000000E7    -9.251880645751953E-1  -3.652972579002380E-1   4.740811884403229E-3  -5.979461595416069E-2   4.862055648118258E-3  -5.993393808603287E-2  -9.659534692764282E-1   2.290625125169754E-1  
 6.250000000000000E7    -9.393040537834168E-1  -3.293961584568024E-1   2.125652972608805E-3  -5.331119522452354E-2   2.137499395757914E-3  -5.333755165338516E-2  -9.566214680671692E-1   2.694024741649628E-1  
 6.280000000000000E7    -9.507946372032166E-1  -2.931069731712341E-1   1.648841425776482E-4  -4.696060717105866E-2   1.521948724985123E-4  -4.700150713324547E-2  -9.442686438560486E-1   3.078895211219788E-1  
 6.310000000000000E7    -9.625419974327087E-1  -2.555019259452820E-1  -1.464063301682472E-3  -4.125649109482765E-2  -1.450925134122372E-3  -4.108314216136932E-2  -9.321821928024292E-1   3.465307056903839E-1  
 6.340000000000000E7    -9.708870649337769E-1  -2.192391306161881E-1  -2.684156876057386E-3  -3.559510782361031E-2  -2.604408655315638E-3  -3.548390790820122E-2  -9.192084074020386E-1   3.815921545028687E-1  
 6.370000000000000E7    -9.787626862525940E-1  -1.825551837682724E-1  -3.386617405340076E-3  -3.039199300110340E-2  -3.383544972166419E-3  -3.036731109023094E-2  -9.033917188644409E-1   4.152382612228394E-1  
 6.400000000000000E7    -9.843440055847168E-1  -1.456694006919861E-1  -3.665848169475794E-3  -2.552776224911213E-2  -3.699994180351496E-3  -2.534058876335621E-2  -8.893732428550720E-1   4.470221996307373E-1  
 6.430000000000000E7    -9.897338747978210E-1  -1.076976656913757E-1  -3.782389219850302E-3  -2.098172716796398E-2  -3.795244265347719E-3  -2.085782960057259E-2  -8.730201721191406E-1   4.782250523567200E-1  
 6.460000000000000E7    -9.939603805541992E-1  -7.128417491912842E-2  -3.592706285417080E-3  -1.664728485047817E-2  -3.577901283279061E-3  -1.666578091681004E-2  -8.558137416839600E-1   5.063503384590149E-1  
 6.490000000000000E7    -9.963477849960327E-1  -3.530447185039520E-2  -3.152360208332539E-3  -1.278997492045164E-2  -3.109472338110209E-3  -1.278118416666985E-2  -8.402759432792664E-1   5.329129695892334E-1  
 6.520000000000000E7    -9.962827563285828E-1   1.507967710494995E-3  -2.504831179976463E-3  -9.179184213280678E-3  -2.516093896701932E-3  -9.187204763293266E-3  -8.231532573699951E-1   5.602629184722900E-1  
 6.550000000000000E7    -9.959123134613037E-1   3.758980333805084E-2  -1.734443474560976E-3  -5.909976083785296E-3  -1.757123391143978E-3  -5.873659159988165E-3  -8.048530220985413E-1   5.851312279701233E-1  
 6.580000000000000E7    -9.933816790580750E-1   7.514646649360657E-2  -8.054063073359430E-4  -2.865978283807635E-3  -8.148090564645827E-4  -2.882065717130899E-3  -7.880168557167053E-1   6.091055274009705E-1  
 6.610000000000000E7    -9.890527725219727E-1   1.116287410259247E-1   2.437876682961360E-4  -1.514558534836397E-4   2.101167483488098E-4  -1.342532632406801E-4  -7.692989110946655E-1   6.331752538681030E-1  
 6.640000000000000E7    -9.861590266227722E-1   1.467308104038239E-1   1.322496216744185E-3   2.358356257900596E-3   1.334214350208640E-3   2.354839816689491E-3  -7.510846257209778E-1   6.544294953346252E-1  
 6.670000000000000E7    -9.791666865348816E-1   1.829259097576141E-1   2.529932651668787E-3   4.608275368809700E-3   2.521465532481670E-3   4.591994453221560E-3  -7.336440086364746E-1   6.736567020416260E-1  
 6.700000000000000E7    -9.718831777572632E-1   2.184322029352188E-1   3.780629718676209E-3   6.624215282499790E-3   3.762389067560434E-3   6.567458156496286E-3  -7.140920162200928E-1   6.930316686630249E-1  
 6.730000000000000E7    -9.632613062858582E-1   2.534479498863220E-1   5.093502812087536E-3   8.395099081099033E-3   5.086964927613735E-3   8.365104906260967E-3  -6.966491341590881E-1   7.119485735893250E-1  
 6.760000000000000E7    -9.539886713027954E-1   2.875581979751587E-1   6.426868960261345E-3   9.969199076294899E-3   6.418340839445591E-3   9.956202469766140E-3  -6.773608922958374E-1   7.301043868064880E-1  
 6.790000000000000E7    -9.425107836723328E-1   3.221643269062042E-1   7.750343531370163E-3   1.132331043481827E-2   7.766388356685638E-3   1.131617277860642E-2  -6.588758826255798E-1   7.464590668678284E-1  
 6.820000000000000E7    -9.300581812858582E-1   3.553209900856018E-1   9.118326008319855E-3   1.252771820873022E-2   9.048867039382458E-3   1.250228192657232E-2  -6.403052806854248E-1   7.622220516204834E-1  
 6.850000000000000E7    -9.175816774368286E-1   3.890191912651062E-1   1.039320789277554E-2   1.354500465095043E-2   1.043715700507164E-2   1.350772287696600E-2  -6.218038797378540E-1   7.772527933120728E-1  
 6.880000000000000E7    -9.023137092590332E-1   4.212352633476257E-1   1.176035217940807E-2   1.438720431178808E-2   1.173057407140732E-2   1.430997624993324E-2  -6.025245785713196E-1   7.917561531066895E-1  
 6.910000000000000E7    -8.864665031433106E-1   4.533153772354126E-1   1.309280097484589E-2   1.511634234338999E-2   1.302876789122820E-2   1.505218818783760E-2  -5.842634439468384E-1   8.065849542617798E-1  
 6.940000000000000E7    -8.708409667015076E-1   4.846395254135132E-1   1.432181242853403E-2   1.563704758882523E-2   1.433825585991144E-2   1.561248954385519E-2  -5.664150118827820E-1   8.191541433334351E-1  
 6.970000000000000E7    -8.519074916839600E-1   5.157200098037720E-1   1.555322390049696E-2   1.603848487138748E-2   1.560232695192099E-2   1.598183438181877E-2  -5.473629236221314E-1   8.318840265274048E-1  
 7.000000000000000E7    -8.331697583198547E-1   5.462217330932617E-1   1.674182340502739E-2   1.634586043655872E-2   1.673411764204502E-2   1.625671610236168E-2  -5.291028022766113E-1   8.442898988723755E-1  
