#  HZ   S   RI   R     50.00 
! Rohde & Schwarz ZVT8 8Ports - Version 4.11 - 1300.0000k08 SN: 100242
! Date: 2026-07-31 14:49:59
! Measurements: S11 S21 S12 S22 
! 
 1.000000000000000E7    -4.041948616504669E-1   9.106805920600891E-1   5.164020881056786E-2   5.217828974127770E-2   5.115562304854393E-2   5.231933295726776E-2  -9.194285869598389E-1   3.841215074062347E-1  
 1.030000000000000E7    -3.719291687011719E-1   9.231684803962708E-1   5.477137863636017E-2   5.270121619105339E-2   5.452283844351769E-2   5.258793383836746E-2  -9.134737849235535E-1   3.972523212432861E-1  
 1.060000000000000E7    -3.360384702682495E-1   9.365093111991882E-1   5.808154121041298E-2   5.342009663581848E-2   5.793908238410950E-2   5.332639068365097E-2  -9.098214507102966E-1   4.088685810565949E-1  
 1.090000000000000E7    -3.040517270565033E-1   9.468256831169128E-1   6.143326312303543E-2   5.372093990445137E-2   6.129145994782448E-2   5.349789932370186E-2  -9.036774635314941E-1   4.202956855297089E-1  
 1.120000000000000E7    -2.684124708175659E-1   9.562235474586487E-1   6.529687345027924E-2   5.441658943891525E-2   6.469830125570297E-2   5.418786779046059E-2  -8.983616828918457E-1   4.321747124195099E-1  
 1.150000000000000E7    -2.329226285219193E-1   9.666185975074768E-1   6.843246519565582E-2   5.427671968936920E-2   6.830423325300217E-2   5.426003038883209E-2  -8.913612365722656E-1   4.410262107849121E-1  
 1.180000000000000E7    -1.981212347745895E-1   9.715698361396790E-1   7.194465398788452E-2   5.441603437066078E-2   7.202472537755966E-2   5.442130938172340E-2  -8.866207599639893E-1   4.522145092487335E-1  
 1.210000000000000E7    -1.638007164001465E-1   9.789422750473023E-1   7.611537724733353E-2   5.499535799026489E-2   7.594953477382660E-2   5.468761548399925E-2  -8.792434334754944E-1   4.643698334693909E-1  
 1.240000000000000E7    -1.281671226024628E-1   9.831414818763733E-1   7.988034933805466E-2   5.473328754305840E-2   7.984252274036408E-2   5.448079109191895E-2  -8.729676604270935E-1   4.740470349788666E-1  
 1.270000000000000E7    -9.209641814231873E-2   9.864944815635681E-1   8.424893021583557E-2   5.411121621727943E-2   8.378094434738159E-2   5.397162586450577E-2  -8.660545349121094E-1   4.883375465869904E-1  
 1.300000000000000E7    -5.685883760452271E-2   9.897223114967346E-1   8.810873329639435E-2   5.390417948365212E-2   8.819420635700226E-2   5.385074019432068E-2  -8.585216999053955E-1   4.985329508781433E-1  
 1.330000000000000E7    -2.026983350515366E-2   9.913606047630310E-1   9.273393452167511E-2   5.351527035236359E-2   9.260081499814987E-2   5.299847200512886E-2  -8.510360717773438E-1   5.101718902587891E-1  
 1.360000000000000E7     1.698960736393929E-2   9.908810257911682E-1   9.698602557182312E-2   5.308306589722633E-2   9.722676128149033E-2   5.244030058383942E-2  -8.443009853363037E-1   5.200877785682678E-1  
 1.390000000000000E7     5.181708931922913E-2   9.886587262153626E-1   1.014393940567970E-1   5.181086063385010E-2   1.012890636920929E-1   5.202886089682579E-2  -8.364006876945496E-1   5.315755009651184E-1  
 1.420000000000000E7     8.981208503246307E-2   9.862032532691956E-1   1.059456691145897E-1   5.120113492012024E-2   1.059183701872826E-1   5.101799592375755E-2  -8.301427960395813E-1   5.420523881912231E-1  
 1.450000000000000E7     1.256259828805924E-1   9.804476499557495E-1   1.108592078089714E-1   4.966892302036285E-2   1.106748878955841E-1   4.949098080396652E-2  -8.197210431098938E-1   5.540844202041626E-1  
 1.480000000000000E7     1.632513850927353E-1   9.748645424842835E-1   1.157879009842873E-1   4.832876101136208E-2   1.157975420355797E-1   4.856632277369499E-2  -8.133990764617920E-1   5.647624731063843E-1  
 1.510000000000000E7     1.993623226881027E-1   9.674311876296997E-1   1.206157207489014E-1   4.671365395188332E-2   1.205012202262878E-1   4.682002216577530E-2  -8.022980093955994E-1   5.762214064598084E-1  
 1.540000000000000E7     2.347439229488373E-1   9.588207602500916E-1   1.256834715604782E-1   4.578682407736778E-2   1.255614608526230E-1   4.512375220656395E-2  -7.965837717056274E-1   5.856053233146668E-1  
 1.570000000000000E7     2.716057002544403E-1   9.501176476478577E-1   1.309615075588226E-1   4.337440803647041E-2   1.310971677303314E-1   4.296797513961792E-2  -7.863283157348633E-1   5.983241200447083E-1  
 1.600000000000000E7     3.083145618438721E-1   9.371978044509888E-1   1.362416446208954E-1   4.091238230466843E-2   1.366095691919327E-1   4.072518646717072E-2  -7.777162790298462E-1   6.072047948837280E-1  
 1.630000000000000E7     3.433081805706024E-1   9.238911867141724E-1   1.420653313398361E-1   3.824349492788315E-2   1.417268663644791E-1   3.851906582713127E-2  -7.680996060371399E-1   6.198302507400513E-1  
 1.660000000000000E7     3.789827227592468E-1   9.078537225723267E-1   1.478688567876816E-1   3.549108654260635E-2   1.473669856786728E-1   3.527393192052841E-2  -7.568930983543396E-1   6.306856870651245E-1  
 1.690000000000000E7     4.133932888507843E-1   8.923782706260681E-1   1.534962952136993E-1   3.298583626747131E-2   1.530993878841400E-1   3.268101811408997E-2  -7.476990818977356E-1   6.404122114181519E-1  
 1.720000000000000E7     4.502133429050446E-1   8.748075366020203E-1   1.587914079427719E-1   2.894651889801025E-2   1.588218957185745E-1   2.937741950154305E-2  -7.369584441184998E-1   6.506053209304810E-1  
 1.750000000000000E7     4.799444079399109E-1   8.580839037895203E-1   1.655393838882446E-1   2.671534940600395E-2   1.655066758394241E-1   2.616934664547443E-2  -7.270849943161011E-1   6.630031466484070E-1  
 1.780000000000000E7     5.159918665885925E-1   8.336616158485413E-1   1.707322150468826E-1   2.198202535510063E-2   1.709870845079422E-1   2.236994355916977E-2  -7.155236005783081E-1   6.709390282630920E-1  
 1.810000000000000E7     5.477700829505920E-1   8.129569292068481E-1   1.781280636787415E-1   1.811455190181732E-2   1.769025325775147E-1   1.770155690610409E-2  -7.040020227432251E-1   6.842972040176392E-1  
 1.840000000000000E7     5.815832614898682E-1   7.890292406082153E-1   1.845736503601074E-1   1.251520030200481E-2   1.838325858116150E-1   1.288633979856968E-2  -6.912807822227478E-1   6.942634582519531E-1  
 1.870000000000000E7     6.107097864151001E-1   7.643553018569946E-1   1.907005459070206E-1   8.357921615242958E-3   1.899063587188721E-1   7.966352626681328E-3  -6.786060929298401E-1   7.038000226020813E-1  
 1.900000000000000E7     6.413885354995728E-1   7.379501461982727E-1   1.971153169870377E-1   3.192503005266190E-3   1.967934519052506E-1   2.500545233488083E-3  -6.658711433410645E-1   7.141002416610718E-1  
 1.930000000000000E7     6.710870265960693E-1   7.085421085357666E-1   2.035615146160126E-1  -3.910116851329804E-3   2.037683725357056E-1  -3.019094467163086E-3  -6.533554196357727E-1   7.255837321281433E-1  
 1.960000000000000E7     7.001780867576599E-1   6.777539849281311E-1   2.101854830980301E-1  -1.010991539806128E-2   2.102803289890289E-1  -9.440823458135128E-3  -6.412329673767090E-1   7.344376444816589E-1  
 1.990000000000000E7     7.255526781082153E-1   6.469474434852600E-1   2.170198410749435E-1  -1.677587814629078E-2   2.173192799091339E-1  -1.674763485789299E-2  -6.251934766769409E-1   7.461602091789246E-1  
 2.020000000000000E7     7.517968416213989E-1   6.132626533508301E-1   2.243956625461578E-1  -2.402998879551888E-2   2.236338853836060E-1  -2.382494136691093E-2  -6.116663217544556E-1   7.532181739807129E-1  
 2.050000000000000E7     7.782089114189148E-1   5.783374309539795E-1   2.310937494039536E-1  -3.149999678134918E-2   2.296613603830338E-1  -3.208737820386887E-2  -5.968500375747681E-1   7.632192373275757E-1  
 2.080000000000000E7     8.006782531738281E-1   5.403966903686523E-1   2.383256256580353E-1  -4.058440029621124E-2   2.383797466754913E-1  -4.030699282884598E-2  -5.818787217140198E-1   7.742425203323364E-1  
 2.110000000000000E7     8.232008218765259E-1   5.027479529380798E-1   2.455383241176605E-1  -5.049030482769013E-2   2.454798817634583E-1  -5.039384961128235E-2  -5.649278759956360E-1   7.833146452903748E-1  
 2.140000000000000E7     8.433349132537842E-1   4.638257622718811E-1   2.528961300849915E-1  -6.096733361482620E-2   2.519028186798096E-1  -5.998495221138001E-2  -5.489144921302795E-1   7.913375496864319E-1  
 2.170000000000000E7     8.606537580490112E-1   4.240330457687378E-1   2.598263919353485E-1  -7.122264802455902E-2   2.595989406108856E-1  -7.034190744161606E-2  -5.319650769233704E-1   7.999086976051331E-1  
 2.200000000000000E7     8.785992860794067E-1   3.797702193260193E-1   2.665747702121735E-1  -8.316480368375778E-2   2.666107714176178E-1  -8.284026384353638E-2  -5.125246047973633E-1   8.080272078514099E-1  
 2.230000000000000E7     8.920441269874573E-1   3.358411788940430E-1   2.734875380992889E-1  -9.565604478120804E-2   2.729798853397369E-1  -9.506681561470032E-2  -4.942517280578613E-1   8.156470060348511E-1  
 2.260000000000000E7     9.049639105796814E-1   2.901194691658020E-1   2.798091769218445E-1  -1.093154996633530E-1   2.815312147140503E-1  -1.090166121721268E-1  -4.760258197784424E-1   8.226227164268494E-1  
 2.290000000000000E7     9.149268269538879E-1   2.426879405975342E-1   2.866567373275757E-1  -1.238511800765991E-1   2.875730097293854E-1  -1.231409385800362E-1  -4.545701444149017E-1   8.291814923286438E-1  
 2.320000000000000E7     9.214404225349426E-1   1.949516683816910E-1   2.935978174209595E-1  -1.401331722736359E-1   2.930295169353485E-1  -1.402377486228943E-1  -4.348251223564148E-1   8.371316194534302E-1  
 2.350000000000000E7     9.256883859634399E-1   1.437686979770660E-1   2.995786964893341E-1  -1.579822599887848E-1   2.990607917308807E-1  -1.569474339485169E-1  -4.133998453617096E-1   8.425819873809815E-1  
 2.380000000000000E7     9.269486069679260E-1   9.326041489839554E-2   3.049117028713226E-1  -1.753679364919663E-1   3.052252829074860E-1  -1.750811934471130E-1  -3.917025327682495E-1   8.475025892257690E-1  
 2.410000000000000E7     9.255954027175903E-1   3.994556516408920E-2   3.096669018268585E-1  -1.959826797246933E-1   3.089989423751831E-1  -1.953405141830444E-1  -3.677884340286255E-1   8.512030839920044E-1  
 2.440000000000000E7     9.192834496498108E-1  -1.242474466562271E-2   3.142508268356323E-1  -2.177823781967163E-1   3.141323029994965E-1  -2.179211974143982E-1  -3.452156782150269E-1   8.542757034301758E-1  
 2.470000000000000E7     9.098734259605408E-1  -6.661988794803619E-2   3.173673450946808E-1  -2.414253801107407E-1   3.175063431262970E-1  -2.390330135822296E-1  -3.194723129272461E-1   8.553229570388794E-1  
 2.500000000000000E7     8.972029089927673E-1  -1.224861443042755E-1   3.191725015640259E-1  -2.654361128807068E-1   3.191127479076386E-1  -2.659340500831604E-1  -2.936221063137054E-1   8.576226234436035E-1  
 2.530000000000000E7     8.793956041336060E-1  -1.777169853448868E-1   3.212787508964539E-1  -2.918349504470825E-1   3.211659193038940E-1  -2.913963496685028E-1  -2.672331333160400E-1   8.563503026962280E-1  
 2.560000000000000E7     8.564655184745789E-1  -2.324214279651642E-1   3.204329311847687E-1  -3.195510506629944E-1   3.213103711605072E-1  -3.198578357696533E-1  -2.409018576145172E-1   8.539031147956848E-1  
 2.590000000000000E7     8.277332782745361E-1  -2.860687673091888E-1   3.175402581691742E-1  -3.513669371604919E-1   3.180391490459442E-1  -3.511902689933777E-1  -2.128497064113617E-1   8.523301482200623E-1  
 2.620000000000000E7     7.929574847221375E-1  -3.405290842056274E-1   3.124927580356598E-1  -3.847550749778748E-1   3.126317560672760E-1  -3.833463490009308E-1  -1.824985146522522E-1   8.462542295455933E-1  
 2.650000000000000E7     7.535719871520996E-1  -3.928807079792023E-1   3.063029348850250E-1  -4.177334606647492E-1   3.058271110057831E-1  -4.185386300086975E-1  -1.542658954858780E-1   8.376633524894714E-1  
 2.680000000000000E7     7.067959308624268E-1  -4.427528083324432E-1   2.962720990180969E-1  -4.547399282455444E-1   2.955014109611511E-1  -4.554944932460785E-1  -1.255718171596527E-1   8.271898031234741E-1  
 2.710000000000000E7     6.531175374984741E-1  -4.890442192554474E-1   2.795673906803131E-1  -4.934574365615845E-1   2.793850004673004E-1  -4.927011132240295E-1  -9.576797485351563E-2   8.157801628112793E-1  
 2.740000000000000E7     5.923156738281250E-1  -5.329908132553101E-1   2.629417777061462E-1  -5.334458947181702E-1   2.609537541866303E-1  -5.339486598968506E-1  -6.665588170289993E-2   7.967072725296021E-1  
 2.770000000000000E7     5.268917083740234E-1  -5.687811374664307E-1   2.374923676252365E-1  -5.747803449630737E-1   2.366338074207306E-1  -5.753354430198669E-1  -3.787753731012344E-2   7.780123949050903E-1  
 2.800000000000000E7     4.543025493621826E-1  -6.004294753074646E-1   2.083881497383118E-1  -6.163396835327148E-1   2.094116061925888E-1  -6.169376373291016E-1  -9.548524394631386E-3   7.532692551612854E-1  
 2.830000000000000E7     3.739943802356720E-1  -6.221081018447876E-1   1.725562810897827E-1  -6.565860509872437E-1   1.707573086023331E-1  -6.571268439292908E-1   1.383377425372601E-2   7.292022705078125E-1  
 2.860000000000000E7     2.879347801208496E-1  -6.324266791343689E-1   1.284619569778442E-1  -6.973937153816223E-1   1.262931823730469E-1  -6.978739500045776E-1   3.913135454058647E-2   6.974886655807495E-1  
 2.890000000000000E7     2.005690783262253E-1  -6.306385993957520E-1   7.626423239707947E-2  -7.359052300453186E-1   7.604622840881348E-2  -7.349235415458679E-1   5.819604173302651E-2   6.640858054161072E-1  
 2.920000000000000E7     1.080267056822777E-1  -6.178423166275024E-1   2.019904181361198E-2  -7.696242928504944E-1   1.768546178936958E-2  -7.684808969497681E-1   7.278744876384735E-2   6.274967789649963E-1  
 2.950000000000000E7     1.817888207733631E-2  -5.875203609466553E-1  -4.935805499553680E-2  -7.990046143531799E-1  -4.909381642937660E-2  -7.970337271690369E-1   8.346389979124069E-2   5.875437855720520E-1  
 2.980000000000000E7    -7.075101882219315E-2  -5.439556241035461E-1  -1.218089908361435E-1  -8.183078765869141E-1  -1.235655173659325E-1  -8.190196752548218E-1   8.620421588420868E-2   5.461953282356262E-1  
 3.010000000000000E7    -1.509737670421600E-1  -4.843632876873016E-1  -2.033604234457016E-1  -8.291761279106140E-1  -2.027577012777329E-1  -8.297201395034790E-1   8.341838419437408E-2   5.040404200553894E-1  
 3.040000000000000E7    -2.220855951309204E-1  -4.066810905933380E-1  -2.869471013545990E-1  -8.285391330718994E-1  -2.888678312301636E-1  -8.279232382774353E-1   7.110290229320526E-2   4.640001356601715E-1  
 3.070000000000000E7    -2.786687612533569E-1  -3.212628662586212E-1  -3.737532198429108E-1  -8.158366084098816E-1  -3.726411163806915E-1  -8.137977719306946E-1   5.661449208855629E-2   4.278134405612946E-1  
 3.100000000000000E7    -3.168133199214935E-1  -2.229390889406204E-1  -4.593152701854706E-1  -7.894245386123657E-1  -4.585023522377014E-1  -7.883031368255615E-1   3.423872962594032E-2   3.940977454185486E-1  
 3.130000000000000E7    -3.389803767204285E-1  -1.212793886661530E-1  -5.423486232757568E-1  -7.484080791473389E-1  -5.413650274276733E-1  -7.485383152961731E-1   2.739408053457737E-3   3.672177195549011E-1  
 3.160000000000000E7    -3.381176888942719E-1  -1.537197176367044E-2  -6.177273988723755E-1  -6.980631947517395E-1  -6.169838905334473E-1  -6.978417038917542E-1  -2.920972183346748E-2   3.489446640014648E-1  
 3.190000000000000E7    -3.207569718360901E-1   8.619645982980728E-2  -6.849498152732849E-1  -6.358618736267090E-1  -6.836678981781006E-1  -6.352661252021790E-1  -6.351941823959351E-2   3.353642523288727E-1  
 3.220000000000000E7    -2.859640419483185E-1   1.823290437459946E-1  -7.414200305938721E-1  -5.662595629692078E-1  -7.405067086219788E-1  -5.652847886085510E-1  -9.958668053150177E-2   3.316322267055512E-1  
 3.250000000000000E7    -2.337285131216049E-1   2.656657099723816E-1  -7.871747016906738E-1  -4.908458590507507E-1  -7.869431376457214E-1  -4.902181625366211E-1  -1.333789527416229E-1   3.374260365962982E-1  
 3.280000000000000E7    -1.685580015182495E-1   3.362558782100678E-1  -8.213751316070557E-1  -4.116526246070862E-1  -8.207663297653198E-1  -4.103656411170960E-1  -1.661412119865418E-1   3.463141322135925E-1  
 3.310000000000000E7    -1.003277674317360E-1   3.951672017574310E-1  -8.435041308403015E-1  -3.306394219398499E-1  -8.422483205795288E-1  -3.296815752983093E-1  -1.927356272935867E-1   3.656710386276245E-1  
 3.340000000000000E7    -2.356889471411705E-2   4.366421997547150E-1  -8.566527962684631E-1  -2.509384155273438E-1  -8.551738262176514E-1  -2.506084144115448E-1  -2.140647321939468E-1   3.870198130607605E-1  
 3.370000000000000E7     5.663820356130600E-2   4.661944210529327E-1  -8.574388623237610E-1  -1.740890592336655E-1  -8.567590117454529E-1  -1.741190105676651E-1  -2.328487187623978E-1   4.146388471126556E-1  
 3.400000000000000E7     1.348634660243988E-1   4.814970791339874E-1  -8.523132205009460E-1  -1.017430946230888E-1  -8.510913252830505E-1  -1.018426269292831E-1  -2.414271831512451E-1   4.431636333465576E-1  
 3.430000000000000E7     2.108619660139084E-1   4.856086075305939E-1  -8.400333523750305E-1  -3.233692795038223E-2  -8.393700718879700E-1  -3.284011781215668E-2  -2.471976131200790E-1   4.717274904251099E-1  
 3.460000000000000E7     2.847415208816528E-1   4.798164367675781E-1  -8.230969309806824E-1   3.110041283071041E-2  -8.221429586410523E-1   2.926455438137054E-2  -2.445509135723114E-1   5.038013458251953E-1  
 3.490000000000000E7     3.509379625320435E-1   4.642182886600494E-1  -8.003972768783569E-1   9.156028926372528E-2  -8.001231551170349E-1   8.996938169002533E-2  -2.402688860893250E-1   5.315203666687012E-1  
 3.520000000000000E7     4.160151779651642E-1   4.417620599269867E-1  -7.745684981346130E-1   1.442410349845886E-1  -7.752777934074402E-1   1.434553712606430E-1  -2.285524904727936E-1   5.635096430778503E-1  
 3.550000000000000E7     4.738416671752930E-1   4.108602404594421E-1  -7.471396923065186E-1   1.925384998321533E-1  -7.469532489776611E-1   1.921987384557724E-1  -2.116034924983978E-1   5.930556654930115E-1  
 3.580000000000000E7     5.254226326942444E-1   3.789267241954804E-1  -7.162107229232788E-1   2.386291325092316E-1  -7.165672779083252E-1   2.381795346736908E-1  -1.908320188522339E-1   6.194342374801636E-1  
 3.610000000000000E7     5.692640542984009E-1   3.418343663215637E-1  -6.872521042823792E-1   2.808336913585663E-1  -6.849993467330933E-1   2.805081605911255E-1  -1.649779975414276E-1   6.454122662544251E-1  
 3.640000000000000E7     6.105975508689880E-1   3.014122843742371E-1  -6.537682414054871E-1   3.177006542682648E-1  -6.526905298233032E-1   3.171076774597168E-1  -1.350989043712616E-1   6.685595512390137E-1  
 3.670000000000000E7     6.448595523834229E-1   2.595117092132568E-1  -6.212267279624939E-1   3.524785637855530E-1  -6.194912195205689E-1   3.521065711975098E-1  -1.028282344341278E-1   6.875035166740418E-1  
 3.700000000000000E7     6.733817458152771E-1   2.172456979751587E-1  -5.859532356262207E-1   3.846603929996491E-1  -5.848574638366699E-1   3.846698105335236E-1  -6.372343748807907E-2   7.054724693298340E-1  
 3.730000000000000E7     6.996440887451172E-1   1.727550029754639E-1  -5.494784116744995E-1   4.131529331207275E-1  -5.509107112884522E-1   4.131336212158203E-1  -2.379577606916428E-2   7.175816297531128E-1  
 3.760000000000000E7     7.174109816551209E-1   1.310817748308182E-1  -5.141708254814148E-1   4.409148991107941E-1  -5.154239535331726E-1   4.412830173969269E-1   2.189271152019501E-2   7.280604243278503E-1  
 3.790000000000000E7     7.323477864265442E-1   8.599073439836502E-2  -4.788399934768677E-1   4.666894376277924E-1  -4.785993695259094E-1   4.670592844486237E-1   6.951452791690826E-2   7.326877117156982E-1  
 3.820000000000000E7     7.444778680801392E-1   4.343983158469200E-2  -4.426136314868927E-1   4.907380044460297E-1  -4.425223469734192E-1   4.895275533199310E-1   1.215316653251648E-1   7.340418696403503E-1  
 3.850000000000000E7     7.531751990318298E-1  -2.009049057960510E-4  -4.056898057460785E-1   5.121487379074097E-1  -4.035484194755554E-1   5.125520825386047E-1   1.758112758398056E-1   7.310748696327210E-1  
 3.880000000000000E7     7.580527067184448E-1  -3.978130221366882E-2  -3.637292087078095E-1   5.327212810516357E-1  -3.642916381359100E-1   5.319424271583557E-1   2.353671789169312E-1   7.202274203300476E-1  
 3.910000000000000E7     7.610857486724854E-1  -8.105891942977905E-2  -3.249744474887848E-1   5.500693321228027E-1  -3.244820237159729E-1   5.512852668762207E-1   2.970609366893768E-1   7.019094824790955E-1  
 3.940000000000000E7     7.589274048805237E-1  -1.183828040957451E-1  -2.829903960227966E-1   5.664123296737671E-1  -2.826179862022400E-1   5.658273100852966E-1   3.606232404708862E-1   6.764403581619263E-1  
 3.970000000000000E7     7.576465606689453E-1  -1.561549603939056E-1  -2.401508092880249E-1   5.799810290336609E-1  -2.401064932346344E-1   5.798013806343079E-1   4.260988831520081E-1   6.400257349014282E-1  
 4.000000000000000E7     7.533714771270752E-1  -1.913932859897614E-1  -1.939986944198608E-1   5.917987823486328E-1  -1.931122243404388E-1   5.919169187545776E-1   4.940382838249207E-1   5.948227047920227E-1  
 4.030000000000000E7     7.483384609222412E-1  -2.232130169868469E-1  -1.445288062095642E-1   6.012724041938782E-1  -1.454958170652390E-1   6.012632846832275E-1   5.591436028480530E-1   5.391294360160828E-1  
 4.060000000000000E7     7.424012422561646E-1  -2.564613819122315E-1  -9.547634422779083E-2   6.058067679405212E-1  -9.599785506725311E-2   6.054153442382813E-1   6.245980858802795E-1   4.678308069705963E-1  
 4.090000000000000E7     7.355422973632813E-1  -2.883386313915253E-1  -4.336427152156830E-2   6.060817241668701E-1  -4.213796555995941E-2   6.060808897018433E-1   6.828440427780151E-1   3.843959569931030E-1  
 4.120000000000000E7     7.273102998733521E-1  -3.178397119045258E-1   1.073544379323721E-2   6.028099656105042E-1   1.076781563460827E-2   6.008321046829224E-1   7.360458374023438E-1   2.830228805541992E-1  
 4.150000000000000E7     7.213526368141174E-1  -3.444890975952148E-1   6.861947476863861E-2   5.900641679763794E-1   6.553695350885391E-2   5.891757607460022E-1   7.747843265533447E-1   1.673049479722977E-1  
 4.180000000000000E7     7.153030633926392E-1  -3.741899132728577E-1   1.242541223764420E-1   5.713172554969788E-1   1.242265179753304E-1   5.705779194831848E-1   7.987448573112488E-1   3.885544463992119E-2  
 4.210000000000000E7     7.099493741989136E-1  -4.018069505691528E-1   1.797326952219009E-1   5.427599549293518E-1   1.796786487102509E-1   5.441723465919495E-1   8.003829121589661E-1  -1.043242216110230E-1  
 4.240000000000000E7     7.038186192512512E-1  -4.297845661640167E-1   2.319636791944504E-1   5.075049996376038E-1   2.316345572471619E-1   5.077949762344360E-1   7.760657072067261E-1  -2.531323134899139E-1  
 4.270000000000000E7     6.984057426452637E-1  -4.605395793914795E-1   2.781165540218353E-1   4.628752470016480E-1   2.790709435939789E-1   4.631015360355377E-1   7.233580350875855E-1  -4.034793376922607E-1  
 4.300000000000000E7     6.925817131996155E-1  -4.938264787197113E-1   3.182933926582336E-1   4.106664359569550E-1   3.176679909229279E-1   4.107758104801178E-1   6.392112374305725E-1  -5.465047359466553E-1  
 4.330000000000000E7     6.857374310493469E-1  -5.269398689270020E-1   3.460927009582520E-1   3.540377914905548E-1   3.468777239322662E-1   3.533233702182770E-1   5.260920524597168E-1  -6.740388870239258E-1  
 4.360000000000000E7     6.758873462677002E-1  -5.624750256538391E-1   3.658419847488403E-1   2.913858294487000E-1   3.642736077308655E-1   2.919457852840424E-1   3.897460401058197E-1  -7.797034382820129E-1  
 4.390000000000000E7     6.635738015174866E-1  -6.020301580429077E-1   3.715513646602631E-1   2.310341298580170E-1   3.719982802867889E-1   2.320196181535721E-1   2.325862497091293E-1  -8.545141220092773E-1  
 4.420000000000000E7     6.460411548614502E-1  -6.397526264190674E-1   3.674497306346893E-1   1.738791763782501E-1   3.674309253692627E-1   1.736738085746765E-1   6.990696489810944E-2  -8.988840579986572E-1  
 4.450000000000000E7     6.267456412315369E-1  -6.782821416854858E-1   3.535542488098145E-1   1.211190074682236E-1   3.535917997360230E-1   1.203265339136124E-1  -9.291074424982071E-2  -9.120616912841797E-1  
 4.480000000000000E7     6.026827692985535E-1  -7.157384753227234E-1   3.329379558563232E-1   7.498691231012344E-2   3.331196904182434E-1   7.509171962738037E-2  -2.482546269893646E-1  -8.950812220573425E-1  
 4.510000000000000E7     5.767739415168762E-1  -7.523130774497986E-1   3.078362941741943E-1   3.663618117570877E-2   3.075249493122101E-1   3.734663873910904E-2  -3.916954100131989E-1  -8.545712828636169E-1  
 4.540000000000000E7     5.448151826858521E-1  -7.857515811920166E-1   2.797720432281494E-1   6.910685449838638E-3   2.796375155448914E-1   6.641674786806107E-3  -5.170220136642456E-1  -7.980743646621704E-1  
 4.570000000000000E7     5.113274455070496E-1  -8.178505897521973E-1   2.513747215270996E-1  -1.710531488060951E-2   2.507003247737885E-1  -1.646508090198040E-2  -6.268614530563355E-1  -7.269972562789917E-1  
 4.600000000000000E7     4.781364798545837E-1  -8.454315066337585E-1   2.220076173543930E-1  -3.427114710211754E-2   2.229282259941101E-1  -3.417468816041946E-2  -7.176899313926697E-1  -6.470739841461182E-1  
 4.630000000000000E7     4.388537406921387E-1  -8.726122379302979E-1   1.954832524061203E-1  -4.671025648713112E-2   1.953404545783997E-1  -4.674099758267403E-2  -7.904362678527832E-1  -5.640350580215454E-1  
 4.660000000000000E7     4.007255136966705E-1  -8.964024782180786E-1   1.710537523031235E-1  -5.467697232961655E-2   1.707397550344467E-1  -5.440038070082665E-2  -8.509828448295593E-1  -4.821150898933411E-1  
 4.690000000000000E7     3.614064157009125E-1  -9.157788157463074E-1   1.473341286182404E-1  -5.895812809467316E-2   1.471984088420868E-1  -5.852439627051354E-2  -8.965551257133484E-1  -3.975098133087158E-1  
 4.720000000000000E7     3.209288716316223E-1  -9.329482913017273E-1   1.267183572053909E-1  -6.091908365488052E-2   1.266904771327972E-1  -6.098504364490509E-2  -9.321612715721130E-1  -3.167849183082581E-1  
 4.750000000000000E7     2.816364169120789E-1  -9.487540125846863E-1   1.085447296500206E-1  -6.072544306516647E-2   1.081725209951401E-1  -6.043309345841408E-2  -9.566569924354553E-1  -2.383403629064560E-1  
 4.780000000000000E7     2.420712709426880E-1  -9.614105224609375E-1   9.244140982627869E-2  -5.947654321789742E-2   9.226319938898087E-2  -5.904370546340942E-2  -9.746304154396057E-1  -1.649374663829804E-1  
 4.810000000000000E7     2.008470445871353E-1  -9.718668460845947E-1   7.793320715427399E-2  -5.648018047213554E-2   7.789369672536850E-2  -5.623102188110352E-2  -9.846012592315674E-1  -9.574818611145020E-2  
 4.840000000000000E7     1.609208285808563E-1  -9.811527729034424E-1   6.575458496809006E-2  -5.295344069600105E-2   6.554541736841202E-2  -5.304403230547905E-2  -9.898529648780823E-1  -3.112184628844261E-2  
 4.870000000000000E7     1.201452314853668E-1  -9.876212477684021E-1   5.490563064813614E-2  -4.918967187404633E-2   5.484365299344063E-2  -4.908260330557823E-2  -9.913674592971802E-1   2.999544888734818E-2  
 4.900000000000000E7     8.011891692876816E-2  -9.932754039764404E-1   4.570096731185913E-2  -4.503329098224640E-2   4.550469294190407E-2  -4.505772888660431E-2  -9.890134334564209E-1   8.729356527328491E-2  
 4.930000000000000E7     3.983134776353836E-2  -9.958953261375427E-1   3.754838183522224E-2  -4.081955552101135E-2   3.766694664955139E-2  -4.078431427478790E-2  -9.840172529220581E-1   1.407538503408432E-1  
 4.960000000000000E7     1.778751611709595E-4  -9.952787160873413E-1   3.061008825898171E-2  -3.639747574925423E-2   3.053288348019123E-2  -3.647413849830627E-2  -9.755441546440125E-1   1.906619966030121E-1  
 4.990000000000000E7    -3.787042200565338E-2  -9.954543113708496E-1   2.476143836975098E-2  -3.229443356394768E-2   2.478120289742947E-2  -3.215657547116280E-2  -9.662082195281982E-1   2.360678315162659E-1  
 5.020000000000000E7    -7.591763138771057E-2  -9.947996139526367E-1   1.976155862212181E-2  -2.810047753155232E-2   1.990170590579510E-2  -2.798367850482464E-2  -9.548949599266052E-1   2.805209159851074E-1  
 5.050000000000000E7    -1.151525229215622E-1  -9.905874729156494E-1   1.570175960659981E-2  -2.412486635148525E-2   1.562700979411602E-2  -2.400445565581322E-2  -9.427546858787537E-1   3.206074535846710E-1  
 5.080000000000000E7    -1.520543247461319E-1  -9.863154888153076E-1   1.206881739199162E-2  -2.014110237360001E-2   1.211802847683430E-2  -2.019419893622398E-2  -9.278204441070557E-1   3.592342436313629E-1  
 5.110000000000000E7    -1.901036649942398E-1  -9.793332815170288E-1   9.067805483937264E-3  -1.661659590899944E-2   9.143487550318241E-3  -1.658790372312069E-2  -9.141945242881775E-1   3.942073285579681E-1  
 5.140000000000000E7    -2.269605249166489E-1  -9.712184667587280E-1   6.651178468018770E-3  -1.320413965731859E-2   6.699231453239918E-3  -1.324743591248989E-2  -9.004036784172058E-1   4.288241267204285E-1  
 5.170000000000000E7    -2.621418833732605E-1  -9.621015191078186E-1   4.657857120037079E-3  -1.005245745182037E-2   4.677356220781803E-3  -1.006063632667065E-2  -8.833986520767212E-1   4.598500132560730E-1  
 5.200000000000000E7    -2.983640730381012E-1  -9.532721638679504E-1   3.046063939109445E-3  -7.105227559804916E-3   3.061832860112190E-3  -7.079984992742539E-3  -8.659664392471314E-1   4.895234704017639E-1  
 5.230000000000000E7    -3.335237503051758E-1  -9.402447342872620E-1   1.776512013748288E-3  -4.362211562693119E-3   1.776717370375991E-3  -4.376801662147045E-3  -8.510432839393616E-1   5.173920989036560E-1  
 5.260000000000000E7    -3.673618137836456E-1  -9.265939593315125E-1   8.181419107131660E-4  -1.851694076322019E-3   7.901958306320012E-4  -1.887194928713143E-3  -8.344674110412598E-1   5.443198680877686E-1  
 5.290000000000000E7    -4.021198153495789E-1  -9.131402969360352E-1   4.638452810468152E-5   4.399792524054647E-4   4.394741699798033E-5   4.414829891175032E-4  -8.177769184112549E-1   5.682215094566345E-1  
 5.320000000000000E7    -4.344192147254944E-1  -8.987956047058106E-1  -4.609919560607523E-4   2.549168886616826E-3  -4.589666787069291E-4   2.527739387005568E-3  -8.015372753143311E-1   5.923159122467041E-1  
 5.350000000000000E7    -4.660239815711975E-1  -8.818138837814331E-1  -7.984750554896891E-4   4.425297491252422E-3  -8.055713260546327E-4   4.427063278853893E-3  -7.847483158111572E-1   6.134710311889648E-1  
 5.380000000000000E7    -4.963022470474243E-1  -8.642910718917847E-1  -9.982028277590871E-4   6.189999170601368E-3  -9.948498336598277E-4   6.134331226348877E-3  -7.664514183998108E-1   6.353626251220703E-1  
 5.410000000000000E7    -5.296871066093445E-1  -8.465540409088135E-1  -1.056145993061364E-3   7.705328054726124E-3  -1.058170921169221E-3   7.671858184039593E-3  -7.507088184356690E-1   6.549412608146668E-1  
 5.440000000000000E7    -5.589139461517334E-1  -8.260124921798706E-1  -9.710543090477586E-4   9.069339372217655E-3  -9.853905066847801E-4   9.043639525771141E-3  -7.336379289627075E-1   6.734073162078857E-1  
 5.470000000000000E7    -5.868248343467712E-1  -8.065826296806335E-1  -8.026736322790384E-4   1.026689540594816E-2  -8.118083933368325E-4   1.027681212872267E-2  -7.165071964263916E-1   6.921499967575073E-1  
 5.500000000000000E7    -6.157634258270264E-1  -7.847808003425598E-1  -5.892378394491971E-4   1.133896782994270E-2  -5.646090139634907E-4   1.131649315357208E-2  -6.998475790023804E-1   7.096697092056274E-1  
 5.530000000000000E7    -6.431258320808411E-1  -7.624982595443726E-1  -2.861383836716414E-4   1.223647035658360E-2  -2.439066884107888E-4   1.223829109221697E-2  -6.824877858161926E-1   7.252959012985230E-1  
 5.560000000000000E7    -6.703829169273377E-1  -7.385614514350891E-1   1.076675252988935E-4   1.302599627524614E-2   7.052195724099875E-5   1.295716129243374E-2  -6.660058498382568E-1   7.402930259704590E-1  
 5.590000000000000E7    -6.958181858062744E-1  -7.158465981483460E-1   4.597568185999990E-4   1.365172397345305E-2   4.689483903348446E-4   1.364043261855841E-2  -6.491891741752625E-1   7.559431791305542E-1  
 5.620000000000000E7    -7.207610607147217E-1  -6.887162923812866E-1   8.879578090272844E-4   1.416814047843218E-2   8.921927073970437E-4   1.406524237245321E-2  -6.329151391983032E-1   7.694885730743408E-1  
 5.650000000000000E7    -7.438539862632752E-1  -6.643809080123901E-1   1.314536901190877E-3   1.456619054079056E-2   1.296097412705421E-3   1.452902052551508E-2  -6.160888671875000E-1   7.824855446815491E-1  
 5.680000000000000E7    -7.669035792350769E-1  -6.380684375762940E-1   1.779446261934936E-3   1.488738320767880E-2   1.797168748453260E-3   1.486361958086491E-2  -5.991464853286743E-1   7.956105470657349E-1  
 5.710000000000000E7    -7.892029881477356E-1  -6.099861860275269E-1   2.210989594459534E-3   1.505041867494583E-2   2.184601267799735E-3   1.509085483849049E-2  -5.836160778999329E-1   8.076388239860535E-1  
 5.740000000000000E7    -8.104065656661987E-1  -5.822231769561768E-1   2.643003594130278E-3   1.517717633396387E-2   2.624759217724204E-3   1.512809656560421E-2  -5.666753053665161E-1   8.193680644035339E-1  
 5.770000000000000E7    -8.288784623146057E-1  -5.543431639671326E-1   3.021358046680689E-3   1.519638579338789E-2   3.010788699612021E-3   1.516798418015242E-2  -5.508800745010376E-1   8.288792371749878E-1  
 5.800000000000000E7    -8.480048179626465E-1  -5.241966247558594E-1   3.509513800963759E-3   1.516423095017672E-2   3.503637621179223E-3   1.507448870688677E-2  -5.346819162368774E-1   8.413544893264771E-1  
 5.830000000000000E7    -8.655741214752197E-1  -4.943306148052216E-1   3.830153727903962E-3   1.495086587965488E-2   3.869488136842847E-3   1.497119758278132E-2  -5.192791819572449E-1   8.505470752716065E-1  
 5.860000000000000E7    -8.834807276725769E-1  -4.647949337959290E-1   4.209525417536497E-3   1.474295835942030E-2   4.219222813844681E-3   1.474275998771191E-2  -5.028012990951538E-1   8.602609634399414E-1  
 5.890000000000000E7    -8.978500366210938E-1  -4.334919750690460E-1   4.528970457613468E-3   1.447673607617617E-2   4.514681641012430E-3   1.446050591766834E-2  -4.870233833789825E-1   8.688215017318726E-1  
 5.920000000000000E7    -9.130205512046814E-1  -4.013670384883881E-1   4.880249965935946E-3   1.412110496312380E-2   4.860488232225180E-3   1.410605385899544E-2  -4.712285101413727E-1   8.787977695465088E-1  
 5.950000000000000E7    -9.256188869476318E-1  -3.697012066841126E-1   5.129398312419653E-3   1.369982399046421E-2   5.069673061370850E-3   1.371008716523647E-2  -4.544490873813629E-1   8.854268789291382E-1  
 5.980000000000000E7    -9.382481575012207E-1  -3.373941779136658E-1   5.383003503084183E-3   1.323529146611691E-2   5.340401083230972E-3   1.322875078767538E-2  -4.385533630847931E-1   8.944627046585083E-1  
 6.010000000000000E7    -9.480162858963013E-1  -3.059028983116150E-1   5.489370319992304E-3   1.279118284583092E-2   5.515193566679955E-3   1.272720843553543E-2  -4.241902828216553E-1   9.018468260765076E-1  
 6.040000000000000E7    -9.586645960807800E-1  -2.713792622089386E-1   5.687328521162272E-3   1.223367173224688E-2   5.661908071488142E-3   1.222361717373133E-2  -4.082356691360474E-1   9.095746874809265E-1  
 6.070000000000000E7    -9.684671759605408E-1  -2.399684041738510E-1   5.748507566750050E-3   1.168387848883867E-2   5.726688075810671E-3   1.168021559715271E-2  -3.931792378425598E-1   9.154390692710877E-1  
 6.100000000000000E7    -9.750596880912781E-1  -2.063805758953095E-1   5.828381981700659E-3   1.106545049697161E-2   5.830755457282066E-3   1.101457700133324E-2  -3.768434226512909E-1   9.231018424034119E-1  
 6.130000000000000E7    -9.826132059097290E-1  -1.720299720764160E-1   5.828368011862040E-3   1.044056378304958E-2   5.803625099360943E-3   1.043283287435770E-2  -3.615579307079315E-1   9.295573830604553E-1  
 6.160000000000000E7    -9.870799779891968E-1  -1.385074406862259E-1   5.759102758020163E-3   9.731703437864780E-3   5.756836850196123E-3   9.745210409164429E-3  -3.464695215225220E-1   9.339335560798645E-1  
 6.190000000000000E7    -9.912728667259216E-1  -1.046663075685501E-1   5.671852268278599E-3   9.052135981619358E-3   5.642872303724289E-3   9.014411829411984E-3  -3.307471275329590E-1   9.390785098075867E-1  
 6.220000000000000E7    -9.943621158599854E-1  -7.071483135223389E-2   5.500867031514645E-3   8.353009819984436E-3   5.500358529388905E-3   8.356318809092045E-3  -3.171604275703430E-1   9.447930455207825E-1  
 6.250000000000000E7    -9.962496161460877E-1  -3.677588701248169E-2   5.297688301652670E-3   7.629094645380974E-3   5.328156519681215E-3   7.657621055841446E-3  -3.023061454296112E-1   9.499519467353821E-1  
 6.280000000000000E7    -9.962450265884399E-1  -2.097561955451965E-3   5.037137307226658E-3   6.906276103109121E-3   5.016209091991186E-3   6.936199031770229E-3  -2.870030999183655E-1   9.545977115631104E-1  
 6.310000000000000E7    -9.958920478820801E-1   3.289750218391419E-2   4.755265545099974E-3   6.212239619344473E-3   4.730962216854096E-3   6.187906023114920E-3  -2.716915607452393E-1   9.593051075935364E-1  
 6.340000000000000E7    -9.940503239631653E-1   6.680871546268463E-2   4.375815391540527E-3   5.455151665955782E-3   4.387435968965292E-3   5.439070053398609E-3  -2.566804289817810E-1   9.639331698417664E-1  
 6.370000000000000E7    -9.914425611495972E-1   1.004477366805077E-1   3.975209314376116E-3   4.699600860476494E-3   3.977918531745672E-3   4.700447898358107E-3  -2.417946904897690E-1   9.664266109466553E-1  
 6.400000000000000E7    -9.865269064903259E-1   1.342875659465790E-1   3.495966782793403E-3   3.946086857467890E-3   3.490902483463287E-3   3.916932269930840E-3  -2.272533327341080E-1   9.713302850723267E-1  
 6.430000000000000E7    -9.814547896385193E-1   1.690830588340759E-1   2.973742317408323E-3   3.214179771021009E-3   2.982854610309005E-3   3.196524921804667E-3  -2.120449542999268E-1   9.743369817733765E-1  
 6.460000000000000E7    -9.760016798973084E-1   2.022848725318909E-1   2.397760981693864E-3   2.485299250110984E-3   2.374801784753799E-3   2.491561695933342E-3  -1.979938745498657E-1   9.763754606246948E-1  
 6.490000000000000E7    -9.692073464393616E-1   2.350034713745117E-1   1.754149561747909E-3   1.750478637404740E-3   1.749313320033252E-3   1.798371784389019E-3  -1.840395629405975E-1   9.798591732978821E-1  
 6.520000000000000E7    -9.598366618156433E-1   2.678507566452026E-1   1.050568069331348E-3   1.073781750164926E-3   1.056083361618221E-3   1.101942849345505E-3  -1.691477596759796E-1   9.832674860954285E-1  
 6.550000000000000E7    -9.503096938133240E-1   2.999466359615326E-1   3.173790755681694E-4   3.911710518877953E-4   3.160762717016041E-4   3.976952284574509E-4  -1.541151702404022E-1   9.839702844619751E-1  
 6.580000000000000E7    -9.390928745269775E-1   3.329144120216370E-1  -5.026797298341990E-4  -2.780842478387058E-4  -4.652024072129279E-4  -2.639724407345057E-4  -1.401190459728241E-1   9.875152707099915E-1  
 6.610000000000000E7    -9.259326457977295E-1   3.649397492408752E-1  -1.320002600550652E-3  -9.139183675870299E-4  -1.327424775809050E-3  -9.259654907509685E-4  -1.242252886295319E-1   9.889603853225708E-1  
 6.640000000000000E7    -9.150904417037964E-1   3.965140581130981E-1  -2.213960513472557E-3  -1.517597702331841E-3  -2.225531497970223E-3  -1.503724604845047E-3  -1.099350303411484E-1   9.908584356307983E-1  
 6.670000000000000E7    -8.998625278472900E-1   4.274358749389648E-1  -3.176213242113590E-3  -2.094529801979661E-3  -3.186425659805536E-3  -2.136739669367671E-3  -9.707394242286682E-2   9.927415847778320E-1  
 6.700000000000000E7    -8.845274448394775E-1   4.579389691352844E-1  -4.171719774603844E-3  -2.694947877898812E-3  -4.147827625274658E-3  -2.661179983988404E-3  -8.218911290168762E-2   9.927779436111450E-1  
 6.730000000000000E7    -8.682922720909119E-1   4.880234301090241E-1  -5.219498649239540E-3  -3.183790016919375E-3  -5.213676951825619E-3  -3.176284022629261E-3  -6.820589303970337E-2   9.949699044227600E-1  
 6.760000000000000E7    -8.515319228172302E-1   5.177610516548157E-1  -6.347466260194778E-3  -3.659967798739672E-3  -6.319132633507252E-3  -3.651509294286370E-3  -5.328679084777832E-2   9.955369234085083E-1  
 6.790000000000000E7    -8.327309489250183E-1   5.466183423995972E-1  -7.496513426303864E-3  -4.111873917281628E-3  -7.463401649147272E-3  -4.096712451428175E-3  -3.965239226818085E-2   9.953914284706116E-1  
 6.820000000000000E7    -8.133870959281921E-1   5.743079185485840E-1  -8.681120350956917E-3  -4.502624738961458E-3  -8.639792911708355E-3  -4.512913990765810E-3  -2.587433904409409E-2   9.963826537132263E-1  
 6.850000000000000E7    -7.937893867492676E-1   6.028165817260742E-1  -9.935530833899975E-3  -4.909428767859936E-3  -9.921808727085590E-3  -4.865845199674368E-3  -1.264140754938126E-2   9.967077374458313E-1  
 6.880000000000000E7    -7.723604440689087E-1   6.291998028755188E-1  -1.123263500630856E-2  -5.181218497455120E-3  -1.119187287986279E-2  -5.157791078090668E-3   2.195708453655243E-3   9.961935877799988E-1  
 6.910000000000000E7    -7.501471638679504E-1   6.554028987884522E-1  -1.259561441838741E-2  -5.467401817440987E-3  -1.252497918903828E-2  -5.406922660768032E-3   1.663830131292343E-2   9.967015385627747E-1  
 6.940000000000000E7    -7.276487946510315E-1   6.809316873550415E-1  -1.394168753176928E-2  -5.675822030752897E-3  -1.395312137901783E-2  -5.678962450474501E-3   2.933339774608612E-2   9.963244795799255E-1  
 6.970000000000000E7    -7.026792168617249E-1   7.056373357772827E-1  -1.537156943231821E-2  -5.815264303237200E-3  -1.537527423352003E-2  -5.787830799818039E-3   4.395984113216400E-2   9.955908656120300E-1  
 7.000000000000000E7    -6.781017184257507E-1   7.298704385757446E-1  -1.680823042988777E-2  -5.923214834183455E-3  -1.679878309369087E-2  -5.878425203263760E-3   5.725008994340897E-2   9.952456951141357E-1  
