#  HZ   S   RI   R     50.00 
! Rohde & Schwarz ZVT8 8Ports - Version 4.11 - 1300.0000k08 SN: 100242
! Date: 2026-07-31 15:11:46
! Measurements: S11 S21 S12 S22 
! 
 1.000000000000000E7    -4.104791581630707E-1   9.079860448837280E-1   4.892166703939438E-2   5.005770921707153E-2   4.873783513903618E-2   4.991161450743675E-2  -9.205368161201477E-1   3.815493583679199E-1  
 1.030000000000000E7    -3.782981634140015E-1   9.204574823379517E-1   5.181378498673439E-2   5.015257373452187E-2   5.149500444531441E-2   5.023797228932381E-2  -9.149237275123596E-1   3.934330046176910E-1  
 1.060000000000000E7    -3.433206677436829E-1   9.343113899230957E-1   5.469289049506187E-2   5.078469216823578E-2   5.471417680382729E-2   5.078011378645897E-2  -9.115462899208069E-1   4.049305617809296E-1  
 1.090000000000000E7    -3.121929764747620E-1   9.441447257995606E-1   5.775176733732224E-2   5.115751549601555E-2   5.746236443519592E-2   5.107440799474716E-2  -9.059252738952637E-1   4.161841571331024E-1  
 1.120000000000000E7    -2.775706946849823E-1   9.539719223976135E-1   6.094578281044960E-2   5.173914134502411E-2   6.047591194510460E-2   5.143971741199493E-2  -9.008302092552185E-1   4.276323318481445E-1  
 1.150000000000000E7    -2.433354109525681E-1   9.643645882606506E-1   6.389275193214417E-2   5.146386101841927E-2   6.363790482282639E-2   5.146732553839684E-2  -8.938040137290955E-1   4.361451268196106E-1  
 1.180000000000000E7    -2.095534056425095E-1   9.698192477226257E-1   6.674043089151382E-2   5.157410725951195E-2   6.686941534280777E-2   5.145141109824181E-2  -8.896626234054565E-1   4.471689462661743E-1  
 1.210000000000000E7    -1.759315729141235E-1   9.773499965667725E-1   7.024776190519333E-2   5.168795585632324E-2   7.020980119705200E-2   5.147772654891014E-2  -8.824358582496643E-1   4.587360024452210E-1  
 1.240000000000000E7    -1.416224241256714E-1   9.819579720497131E-1   7.350856065750122E-2   5.156347155570984E-2   7.333125174045563E-2   5.112379416823387E-2  -8.764697909355164E-1   4.685082435607910E-1  
 1.270000000000000E7    -1.066702306270599E-1   9.856784343719482E-1   7.720606774091721E-2   5.089165270328522E-2   7.678887993097305E-2   5.064310505986214E-2  -8.700159192085266E-1   4.815611839294434E-1  
 1.300000000000000E7    -7.261134684085846E-2   9.893290996551514E-1   8.019919693470001E-2   5.053474754095078E-2   8.030673116445541E-2   5.048942565917969E-2  -8.633147478103638E-1   4.918977618217468E-1  
 1.330000000000000E7    -3.771722689270973E-2   9.915925264358521E-1   8.381509780883789E-2   4.999439790844917E-2   8.392237126827240E-2   4.967578873038292E-2  -8.568770885467529E-1   5.028853416442871E-1  
 1.360000000000000E7    -1.798562705516815E-3   9.922279715538025E-1   8.760441094636917E-2   4.948833212256432E-2   8.757841587066650E-2   4.895598068833351E-2  -8.500672578811646E-1   5.120906829833984E-1  
 1.390000000000000E7     3.196443617343903E-2   9.906291961669922E-1   9.134189039468765E-2   4.825577884912491E-2   9.079146385192871E-2   4.858594387769699E-2  -8.431379199028015E-1   5.231253504753113E-1  
 1.420000000000000E7     6.772669404745102E-2   9.892563223838806E-1   9.473471343517304E-2   4.784579202532768E-2   9.471745043992996E-2   4.761404916644096E-2  -8.377615809440613E-1   5.332047939300537E-1  
 1.450000000000000E7     1.024572551250458E-1   9.847505688667297E-1   9.846528619527817E-2   4.637387394905090E-2   9.844800084829330E-2   4.617233946919441E-2  -8.280591964721680E-1   5.451741814613342E-1  
 1.480000000000000E7     1.387016326189041E-1   9.805698394775391E-1   1.021462976932526E-1   4.485305771231651E-2   1.022982746362686E-1   4.528027400374413E-2  -8.224319219589233E-1   5.547653436660767E-1  
 1.510000000000000E7     1.723334938287735E-1   9.741598367691040E-1   1.059905812144280E-1   4.364510998129845E-2   1.058010384440422E-1   4.359664767980576E-2  -8.120452165603638E-1   5.654516220092773E-1  
 1.540000000000000E7     2.061694562435150E-1   9.675664901733398E-1   1.097405403852463E-1   4.291895031929016E-2   1.096682325005531E-1   4.229504987597466E-2  -8.070814013481140E-1   5.744231939315796E-1  
 1.570000000000000E7     2.412283569574356E-1   9.608398079872131E-1   1.135196238756180E-1   4.078312218189240E-2   1.136390194296837E-1   4.078513011336327E-2  -7.981326580047607E-1   5.855557918548584E-1  
 1.600000000000000E7     2.761737108230591E-1   9.493122100830078E-1   1.173548698425293E-1   3.875330835580826E-2   1.175902709364891E-1   3.858396038413048E-2  -7.906839251518250E-1   5.947149395942688E-1  
 1.630000000000000E7     3.092520833015442E-1   9.385678172111511E-1   1.216277927160263E-1   3.679848462343216E-2   1.214019730687141E-1   3.670904040336609E-2  -7.818483114242554E-1   6.059727072715759E-1  
 1.660000000000000E7     3.428781032562256E-1   9.252700209617615E-1   1.257094442844391E-1   3.429834544658661E-2   1.254103183746338E-1   3.400332108139992E-2  -7.722322940826416E-1   6.164768338203430E-1  
 1.690000000000000E7     3.755610585212708E-1   9.127165675163269E-1   1.297615617513657E-1   3.238523751497269E-2   1.294396966695786E-1   3.214692324399948E-2  -7.640944123268127E-1   6.257191896438599E-1  
 1.720000000000000E7     4.106551110744476E-1   8.980655670166016E-1   1.332357823848724E-1   2.927512302994728E-2   1.331988871097565E-1   2.968738973140717E-2  -7.552602887153626E-1   6.348085403442383E-1  
 1.750000000000000E7     4.380864500999451E-1   8.847298622131348E-1   1.377767771482468E-1   2.768604457378388E-2   1.379557847976685E-1   2.722526341676712E-2  -7.471657991409302E-1   6.468263864517212E-1  
 1.780000000000000E7     4.726805388927460E-1   8.643344640731812E-1   1.412905752658844E-1   2.422093600034714E-2   1.413612216711044E-1   2.465691789984703E-2  -7.370065450668335E-1   6.534676551818848E-1  
 1.810000000000000E7     5.023670792579651E-1   8.477637171745300E-1   1.460871100425720E-1   2.146327868103981E-2   1.451450884342194E-1   2.082576975226402E-2  -7.273991107940674E-1   6.666743159294128E-1  
 1.840000000000000E7     5.347135663032532E-1   8.283976316452026E-1   1.501812338829041E-1   1.742543652653694E-2   1.496140658855438E-1   1.762630790472031E-2  -7.176756262779236E-1   6.756749153137207E-1  
 1.870000000000000E7     5.624172091484070E-1   8.080178499221802E-1   1.541378647089005E-1   1.451150700449944E-2   1.535235643386841E-1   1.413145288825035E-2  -7.072176933288574E-1   6.848832964897156E-1  
 1.900000000000000E7     5.910432338714600E-1   7.871333360671997E-1   1.580114811658859E-1   1.125724334269762E-2   1.577676385641098E-1   1.077216211706400E-2  -6.966513395309448E-1   6.938524246215820E-1  
 1.930000000000000E7     6.198346614837647E-1   7.637279629707336E-1   1.619355827569962E-1   6.429899483919144E-3   1.620374321937561E-1   7.094031199812889E-3  -6.866946220397949E-1   7.046226263046265E-1  
 1.960000000000000E7     6.479902267456055E-1   7.393602132797241E-1   1.657960861921310E-1   2.540903165936470E-3   1.658707708120346E-1   2.951502799987793E-3  -6.777089834213257E-1   7.127031087875366E-1  
 1.990000000000000E7     6.726315021514893E-1   7.144849300384522E-1   1.697052270174027E-1  -1.879064366221428E-3   1.700582206249237E-1  -1.667708158493042E-3  -6.645031571388245E-1   7.244604825973511E-1  
 2.020000000000000E7     6.985298991203308E-1   6.887385845184326E-1   1.738555729389191E-1  -5.954573862254620E-3   1.733787357807159E-1  -6.020943634212017E-3  -6.542637944221497E-1   7.306376695632935E-1  
 2.050000000000000E7     7.246711850166321E-1   6.616408824920654E-1   1.777044981718063E-1  -1.057410333305597E-2   1.764538884162903E-1  -1.108365785330534E-2  -6.429336667060852E-1   7.399459481239319E-1  
 2.080000000000000E7     7.478664517402649E-1   6.324282884597778E-1   1.816552430391312E-1  -1.567836478352547E-2   1.816084384918213E-1  -1.535103470087051E-2  -6.324226856231690E-1   7.503384947776794E-1  
 2.110000000000000E7     7.711904048919678E-1   6.043910980224609E-1   1.857218295335770E-1  -2.131600677967072E-2   1.855294555425644E-1  -2.124863117933273E-2  -6.193500757217407E-1   7.590641379356384E-1  
 2.140000000000000E7     7.922205328941345E-1   5.750003457069397E-1   1.894953548908234E-1  -2.703211456537247E-2   1.886067241430283E-1  -2.641243301331997E-2  -6.075931191444397E-1   7.671390175819397E-1  
 2.170000000000000E7     8.112326264381409E-1   5.453441739082336E-1   1.930803060531616E-1  -3.241122141480446E-2   1.928194016218185E-1  -3.172830492258072E-2  -5.959514379501343E-1   7.762551903724670E-1  
 2.200000000000000E7     8.325028419494629E-1   5.122912526130676E-1   1.965142339468002E-1  -3.845478594303131E-2   1.964232623577118E-1  -3.821386396884918E-2  -5.818525552749634E-1   7.845454216003418E-1  
 2.230000000000000E7     8.491491675376892E-1   4.801477491855621E-1   1.999638527631760E-1  -4.468124359846115E-2   1.994814872741699E-1  -4.426513612270355E-2  -5.692527294158936E-1   7.925297021865845E-1  
 2.260000000000000E7     8.663979768753052E-1   4.471585452556610E-1   2.029671669006348E-1  -5.119311809539795E-2   2.041905820369721E-1  -5.081369727849960E-2  -5.562225580215454E-1   8.003565669059753E-1  
 2.290000000000000E7     8.822491765022278E-1   4.133878350257874E-1   2.064552456140518E-1  -5.775362253189087E-2   2.067899852991104E-1  -5.720110982656479E-2  -5.417093634605408E-1   8.077366948127747E-1  
 2.320000000000000E7     8.954843282699585E-1   3.786685168743134E-1   2.099729776382446E-1  -6.516724824905396E-2   2.096362411975861E-1  -6.541585922241211E-2  -5.286121368408203E-1   8.175874948501587E-1  
 2.350000000000000E7     9.086757898330689E-1   3.419747650623322E-1   2.130689322948456E-1  -7.310985028743744E-2   2.127210646867752E-1  -7.242597639560700E-2  -5.148686170578003E-1   8.246084451675415E-1  
 2.380000000000000E7     9.196579456329346E-1   3.070429861545563E-1   2.157365083694458E-1  -8.008788526058197E-2   2.158613055944443E-1  -7.989905774593353E-2  -5.009822845458984E-1   8.318259119987488E-1  
 2.410000000000000E7     9.304247498512268E-1   2.702224850654602E-1   2.184381783008575E-1  -8.857049793004990E-2   2.178992331027985E-1  -8.823853731155396E-2  -4.855756163597107E-1   8.387538194656372E-1  
 2.440000000000000E7     9.384704828262329E-1   2.336052060127258E-1   2.212772518396378E-1  -9.709118306636810E-2   2.213227748870850E-1  -9.711374342441559E-2  -4.717999398708344E-1   8.455970287322998E-1  
 2.470000000000000E7     9.456575512886047E-1   1.960356235504150E-1   2.235587239265442E-1  -1.062390282750130E-1   2.230516672134399E-1  -1.046790629625320E-1  -4.553219377994537E-1   8.510054349899292E-1  
 2.500000000000000E7     9.522672295570374E-1   1.580616086721420E-1   2.253101766109467E-1  -1.147014200687408E-1   2.252874672412872E-1  -1.150959730148315E-1  -4.393140971660614E-1   8.590198159217835E-1  
 2.530000000000000E7     9.560825824737549E-1   1.200084164738655E-1   2.276240885257721E-1  -1.235164180397987E-1   2.275925576686859E-1  -1.233822032809258E-1  -4.237018823623657E-1   8.643689751625061E-1  
 2.560000000000000E7     9.583967328071594E-1   8.242604881525040E-2   2.290508598089218E-1  -1.328278481960297E-1   2.297339290380478E-1  -1.326824724674225E-1  -4.082959294319153E-1   8.700544238090515E-1  
 2.590000000000000E7     9.581027626991272E-1   4.380290582776070E-2   2.304490953683853E-1  -1.436472088098526E-1   2.309352010488510E-1  -1.435413360595703E-1  -3.921664953231812E-1   8.778374195098877E-1  
 2.620000000000000E7     9.577081203460693E-1   4.136011004447937E-3   2.317823171615601E-1  -1.544388085603714E-1   2.314622849225998E-1  -1.538330465555191E-1  -3.732951581478119E-1   8.830540776252747E-1  
 2.650000000000000E7     9.547168612480164E-1  -3.375389426946640E-2   2.326642423868179E-1  -1.638442575931549E-1   2.327922433614731E-1  -1.645083576440811E-1  -3.571800589561462E-1   8.875824213027954E-1  
 2.680000000000000E7     9.498493671417236E-1  -7.242654263973236E-2   2.336441278457642E-1  -1.748578995466232E-1   2.336392402648926E-1  -1.755722314119339E-1  -3.403934836387634E-1   8.920168280601502E-1  
 2.710000000000000E7     9.436914324760437E-1  -1.122421994805336E-1   2.330264449119568E-1  -1.873474717140198E-1   2.325213700532913E-1  -1.869777888059616E-1  -3.223845660686493E-1   8.972095847129822E-1  
 2.740000000000000E7     9.360981583595276E-1  -1.506150364875794E-1   2.337056994438171E-1  -1.979160159826279E-1   2.333396971225739E-1  -1.987604796886444E-1  -3.038264811038971E-1   8.990315794944763E-1  
 2.770000000000000E7     9.270575046539307E-1  -1.879577785730362E-1   2.327507585287094E-1  -2.104797959327698E-1   2.326226681470871E-1  -2.113120257854462E-1  -2.848624587059021E-1   9.036995768547058E-1  
 2.800000000000000E7     9.166396856307983E-1  -2.254311144351959E-1   2.314346134662628E-1  -2.221142947673798E-1   2.325443774461746E-1  -2.224207371473312E-1  -2.656298279762268E-1   9.058352708816528E-1  
 2.830000000000000E7     9.026867747306824E-1  -2.642486989498138E-1   2.297073006629944E-1  -2.346897423267365E-1   2.295431494712830E-1  -2.356227487325668E-1  -2.486802637577057E-1   9.089354276657105E-1  
 2.860000000000000E7     8.879953026771545E-1  -3.014658391475678E-1   2.277928441762924E-1  -2.480853348970413E-1   2.273459285497665E-1  -2.491645365953445E-1  -2.262960821390152E-1   9.115003943443298E-1  
 2.890000000000000E7     8.712145090103149E-1  -3.371614515781403E-1   2.248672693967819E-1  -2.624264955520630E-1   2.247161120176315E-1  -2.620421350002289E-1  -2.074257582426071E-1   9.127700328826904E-1  
 2.920000000000000E7     8.534955978393555E-1  -3.733902871608734E-1   2.225453257560730E-1  -2.747942209243774E-1   2.211876660585403E-1  -2.754200696945190E-1  -1.883034855127335E-1   9.131814837455750E-1  
 2.950000000000000E7     8.342431783676148E-1  -4.075335264205933E-1   2.187641113996506E-1  -2.903038859367371E-1   2.180621474981308E-1  -2.897446155548096E-1  -1.663343608379364E-1   9.149313569068909E-1  
 2.980000000000000E7     8.124790787696838E-1  -4.420379996299744E-1   2.142550349235535E-1  -3.036957383155823E-1   2.142421752214432E-1  -3.047504127025604E-1  -1.458145529031754E-1   9.144551753997803E-1  
 3.010000000000000E7     7.893987894058228E-1  -4.758011996746063E-1   2.084714919328690E-1  -3.191352486610413E-1   2.094481885433197E-1  -3.187759518623352E-1  -1.247757077217102E-1   9.138647913932800E-1  
 3.040000000000000E7     7.641098499298096E-1  -5.087269544601440E-1   2.038127779960632E-1  -3.341557383537293E-1   2.030646204948425E-1  -3.350190222263336E-1  -1.025394648313522E-1   9.108819961547852E-1  
 3.070000000000000E7     7.363346219062805E-1  -5.388234853744507E-1   1.957886517047882E-1  -3.489789366722107E-1   1.953239589929581E-1  -3.489016592502594E-1  -8.045706897974014E-2   9.095589518547058E-1  
 3.100000000000000E7     7.074589133262634E-1  -5.689237117767334E-1   1.882414072751999E-1  -3.653441965579987E-1   1.875877231359482E-1  -3.644840121269226E-1  -5.756792798638344E-2   9.072921872138977E-1  
 3.130000000000000E7     6.784336566925049E-1  -5.977442860603333E-1   1.792598813772202E-1  -3.809644877910614E-1   1.799715161323547E-1  -3.804894387722015E-1  -3.586204349994659E-2   9.018126726150513E-1  
 3.160000000000000E7     6.455250978469849E-1  -6.240869164466858E-1   1.705693900585175E-1  -3.972635567188263E-1   1.704293787479401E-1  -3.971952199935913E-1  -1.360483467578888E-2   8.988263010978699E-1  
 3.190000000000000E7     6.118959188461304E-1  -6.487763524055481E-1   1.598070263862610E-1  -4.132632911205292E-1   1.594664901494980E-1  -4.121076464653015E-1   1.018550992012024E-2   8.931924700737000E-1  
 3.220000000000000E7     5.777381062507629E-1  -6.743999719619751E-1   1.493081152439117E-1  -4.291956424713135E-1   1.481274068355560E-1  -4.285933077335358E-1   3.197967633605003E-2   8.865793943405151E-1  
 3.250000000000000E7     5.413142442703247E-1  -6.949974298477173E-1   1.365809291601181E-1  -4.459549188613892E-1   1.357879787683487E-1  -4.456234574317932E-1   5.536190420389175E-2   8.808231949806213E-1  
 3.280000000000000E7     5.029864311218262E-1  -7.140303254127502E-1   1.231238842010498E-1  -4.626703262329102E-1   1.225819140672684E-1  -4.604369997978210E-1   7.873184978961945E-2   8.719510436058044E-1  
 3.310000000000000E7     4.653161466121674E-1  -7.322725653648377E-1   1.082794815301895E-1  -4.773825705051422E-1   1.070933192968369E-1  -4.774661064147949E-1   1.025961637496948E-1   8.620417714118958E-1  
 3.340000000000000E7     4.256355166435242E-1  -7.480953335762024E-1   9.047883003950119E-2  -4.943633377552033E-1   9.108951687812805E-2  -4.927951991558075E-1   1.257639825344086E-1   8.512545228004456E-1  
 3.370000000000000E7     3.850473165512085E-1  -7.611347436904907E-1   7.406055927276611E-2  -5.092381238937378E-1   7.450918853282929E-2  -5.094593763351440E-1   1.492343544960022E-1   8.404856920242310E-1  
 3.400000000000000E7     3.429688513278961E-1  -7.720632553100586E-1   5.444730073213577E-2  -5.249830484390259E-1   5.491242930293083E-2  -5.252925753593445E-1   1.719705760478973E-1   8.266460895538330E-1  
 3.430000000000000E7     3.014425635337830E-1  -7.809899449348450E-1   3.355099260807037E-2  -5.398942828178406E-1   3.466896340250969E-2  -5.394639968872070E-1   1.953472495079041E-1   8.134602904319763E-1  
 3.460000000000000E7     2.577088475227356E-1  -7.860696315765381E-1   1.212202571332455E-2  -5.546535253524780E-1   1.174887455999851E-2  -5.548747777938843E-1   2.184273153543472E-1   7.983222603797913E-1  
 3.490000000000000E7     2.160082906484604E-1  -7.891710400581360E-1  -1.303315162658691E-2  -5.677304863929749E-1  -1.061854511499405E-2  -5.673332214355469E-1   2.395613938570023E-1   7.819553017616272E-1  
 3.520000000000000E7     1.719871312379837E-1  -7.898836135864258E-1  -3.662253543734551E-2  -5.816766023635864E-1  -3.556166961789131E-2  -5.814493894577026E-1   2.638451755046845E-1   7.641978859901428E-1  
 3.550000000000000E7     1.275194287300110E-1  -7.860610485076904E-1  -6.220875680446625E-2  -5.952435135841370E-1  -6.281294673681259E-2  -5.948536992073059E-1   2.841318547725678E-1   7.455917000770569E-1  
 3.580000000000000E7     8.425211906433106E-2  -7.804812788963318E-1  -9.072495996952057E-2  -6.053598523139954E-1  -9.019439667463303E-2  -6.054027080535889E-1   3.050897121429443E-1   7.240163683891296E-1  
 3.610000000000000E7     4.213433712720871E-2  -7.711389064788818E-1  -1.222874671220779E-1  -6.166621446609497E-1  -1.208058521151543E-1  -6.152111887931824E-1   3.271520435810089E-1   7.023282051086426E-1  
 3.640000000000000E7    -7.466487586498261E-4  -7.598415613174439E-1  -1.519646495580673E-1  -6.254252195358276E-1  -1.517047733068466E-1  -6.261030435562134E-1   3.451244235038757E-1   6.781185269355774E-1  
 3.670000000000000E7    -4.104393720626831E-2  -7.453508973121643E-1  -1.847673356533051E-1  -6.341953873634338E-1  -1.844027042388916E-1  -6.316755414009094E-1   3.634823858737946E-1   6.549689769744873E-1  
 3.700000000000000E7    -8.161608874797821E-2  -7.280259728431702E-1  -2.197616100311279E-1  -6.382917761802673E-1  -2.194235473871231E-1  -6.377893686294556E-1   3.815127611160278E-1   6.265487074851990E-1  
 3.730000000000000E7    -1.207771673798561E-1  -7.086275219917297E-1  -2.539326548576355E-1  -6.409246921539307E-1  -2.549878358840942E-1  -6.414013504981995E-1   3.948124647140503E-1   5.995724797248840E-1  
 3.760000000000000E7    -1.555041521787643E-1  -6.858334541320801E-1  -2.920837402343750E-1  -6.419641375541687E-1  -2.929703891277313E-1  -6.428074836730957E-1   4.101992547512054E-1   5.704208612442017E-1  
 3.790000000000000E7    -1.892579942941666E-1  -6.595245003700256E-1  -3.308793008327484E-1  -6.424996852874756E-1  -3.296647965908051E-1  -6.406645774841309E-1   4.229805171489716E-1   5.409944057464600E-1  
 3.820000000000000E7    -2.212373018264771E-1  -6.309903860092163E-1  -3.707990944385529E-1  -6.383701562881470E-1  -3.705365359783173E-1  -6.387173533439636E-1   4.326623380184174E-1   5.093582272529602E-1  
 3.850000000000000E7    -2.513247132301331E-1  -5.995781421661377E-1  -4.099742174148560E-1  -6.335052847862244E-1  -4.105848968029022E-1  -6.318737864494324E-1   4.436311423778534E-1   4.783206284046173E-1  
 3.880000000000000E7    -2.767488658428192E-1  -5.691331624984741E-1  -4.520263075828552E-1  -6.218527555465698E-1  -4.502360224723816E-1  -6.226770877838135E-1   4.520831704139710E-1   4.435435831546783E-1  
 3.910000000000000E7    -3.014886081218720E-1  -5.338178873062134E-1  -4.926325976848602E-1  -6.103650927543640E-1  -4.929831326007843E-1  -6.098291277885437E-1   4.560001492500305E-1   4.112992584705353E-1  
 3.940000000000000E7    -3.196932971477509E-1  -4.976034164428711E-1  -5.348715782165527E-1  -5.956131815910339E-1  -5.331321954727173E-1  -5.961226224899292E-1   4.585239887237549E-1   3.760780394077301E-1  
 3.970000000000000E7    -3.374630510807037E-1  -4.612282812595367E-1  -5.762259960174561E-1  -5.778853893280029E-1  -5.763344168663025E-1  -5.770851969718933E-1   4.560668170452118E-1   3.424772620201111E-1  
 4.000000000000000E7    -3.501051366329193E-1  -4.237868785858154E-1  -6.167677044868469E-1  -5.553779602050781E-1  -6.174369454383850E-1  -5.539144873619080E-1   4.552946090698242E-1   3.074376285076141E-1  
 4.030000000000000E7    -3.580047488212585E-1  -3.878211081027985E-1  -6.591286659240723E-1  -5.291411876678467E-1  -6.564610004425049E-1  -5.296892523765564E-1   4.525111317634583E-1   2.745685279369354E-1  
 4.060000000000000E7    -3.641626238822937E-1  -3.488653302192688E-1  -6.971541047096252E-1  -5.016646981239319E-1  -6.980174183845520E-1  -5.014670491218567E-1   4.426519274711609E-1   2.389844208955765E-1  
 4.090000000000000E7    -3.674705326557159E-1  -3.105569481849670E-1  -7.341558337211609E-1  -4.703319668769836E-1  -7.337064146995544E-1  -4.697608649730682E-1   4.350867867469788E-1   2.065722048282623E-1  
 4.120000000000000E7    -3.644493818283081E-1  -2.722508907318115E-1  -7.715566754341126E-1  -4.358749389648438E-1  -7.723776698112488E-1  -4.350289404392242E-1   4.200395047664642E-1   1.728976368904114E-1  
 4.150000000000000E7    -3.586950600147247E-1  -2.401241511106491E-1  -8.067415356636047E-1  -3.944240212440491E-1  -8.047852516174316E-1  -3.963581025600433E-1   4.051626920700073E-1   1.425999850034714E-1  
 4.180000000000000E7    -3.515469133853912E-1  -2.061344683170319E-1  -8.367089629173279E-1  -3.537393510341644E-1  -8.360927700996399E-1  -3.548201918601990E-1   3.912718892097473E-1   1.119701415300369E-1  
 4.210000000000000E7    -3.401282429695129E-1  -1.763670593500137E-1  -8.649414777755737E-1  -3.087391555309296E-1  -8.663453459739685E-1  -3.105654120445252E-1   3.717724680900574E-1   8.384067565202713E-2  
 4.240000000000000E7    -3.245417773723602E-1  -1.469451040029526E-1  -8.916260600090027E-1  -2.632370591163635E-1  -8.916474580764771E-1  -2.629630565643311E-1   3.509983122348785E-1   5.812255293130875E-2  
 4.270000000000000E7    -3.103471994400024E-1  -1.209166422486305E-1  -9.136148095130920E-1  -2.137871533632278E-1  -9.133447408676148E-1  -2.133778333663940E-1   3.294452428817749E-1   3.369742631912231E-2  
 4.300000000000000E7    -2.911112308502197E-1  -9.721919149160385E-2  -9.329167604446411E-1  -1.624206006526947E-1  -9.327176213264465E-1  -1.629604846239090E-1   3.051545917987824E-1   1.162044983357191E-2  
 4.330000000000000E7    -2.718060314655304E-1  -7.575590163469315E-2  -9.476616978645325E-1  -1.104757115244865E-1  -9.495172500610352E-1  -1.107196286320686E-1   2.796958684921265E-1  -8.514304645359516E-3  
 4.360000000000000E7    -2.467891424894333E-1  -6.038668751716614E-2  -9.613908529281616E-1  -5.618068575859070E-2  -9.601845145225525E-1  -5.691204220056534E-2   2.530027925968170E-1  -2.754946053028107E-2  
 4.390000000000000E7    -2.272483259439468E-1  -4.714940488338471E-2  -9.681152105331421E-1  -1.383299939334393E-3  -9.673103094100952E-1  -1.171426847577095E-4   2.279167026281357E-1  -3.815418109297752E-2  
 4.420000000000000E7    -2.059765011072159E-1  -3.410593047738075E-2  -9.720543026924133E-1   5.397093668580055E-2  -9.712028503417969E-1   5.433914065361023E-2   2.010984569787979E-1  -5.210322886705399E-2  
 4.450000000000000E7    -1.829660087823868E-1  -2.775207161903381E-2  -9.721962809562683E-1   1.085353195667267E-1  -9.718164205551148E-1   1.096883863210678E-1   1.726770102977753E-1  -6.356550753116608E-2  
 4.480000000000000E7    -1.609137505292893E-1  -2.253417298197746E-2  -9.677364826202393E-1   1.641660779714584E-1  -9.680960178375244E-1   1.646828055381775E-1   1.463171541690826E-1  -7.027214020490646E-2  
 4.510000000000000E7    -1.393431574106216E-1  -2.173037268221378E-2  -9.606544971466065E-1   2.199181318283081E-1  -9.599125385284424E-1   2.192163914442062E-1   1.192059367895126E-1  -7.499386370182037E-2  
 4.540000000000000E7    -1.233593076467514E-1  -2.050044387578964E-2  -9.478777647018433E-1   2.724335789680481E-1  -9.505375623703003E-1   2.723799347877502E-1   9.216283261775971E-2  -8.004243671894074E-2  
 4.570000000000000E7    -1.040694266557694E-1  -2.281924709677696E-2  -9.348769187927246E-1   3.264894485473633E-1  -9.345723986625671E-1   3.259550631046295E-1   6.551826745271683E-2  -7.826178520917893E-2  
 4.600000000000000E7    -8.536056429147720E-2  -3.159851208329201E-2  -9.170882701873779E-1   3.774023950099945E-1  -9.168217182159424E-1   3.773546516895294E-1   4.345208033919334E-2  -7.698842138051987E-2  
 4.630000000000000E7    -7.172961533069611E-2  -3.709657117724419E-2  -8.960863351821899E-1   4.275027513504028E-1  -8.940806984901428E-1   4.278135895729065E-1   2.039769850671291E-2  -7.624633610248566E-2  
 4.660000000000000E7    -6.042480096220970E-2  -4.218328371644020E-2  -8.715679645538330E-1   4.764671325683594E-1  -8.709275722503662E-1   4.760352969169617E-1  -1.536712865345180E-3  -7.156285643577576E-2  
 4.690000000000000E7    -4.912872612476349E-2  -5.468342453241348E-2  -8.449533581733704E-1   5.222946405410767E-1  -8.438750505447388E-1   5.228016376495361E-1  -2.589228935539722E-2  -6.441182643175125E-2  
 4.720000000000000E7    -4.019243642687798E-2  -6.377395987510681E-2  -8.147369027137756E-1   5.675855875015259E-1  -8.140523433685303E-1   5.669986009597778E-1  -4.372177273035049E-2  -6.011909991502762E-2  
 4.750000000000000E7    -3.531438857316971E-2  -7.415929436683655E-2  -7.823969721794128E-1   6.095875501632690E-1  -7.831476926803589E-1   6.097663640975952E-1  -6.403195858001709E-2  -5.000218376517296E-2  
 4.780000000000000E7    -2.933660335838795E-2  -8.302015811204910E-2  -7.495948076248169E-1   6.506206393241882E-1  -7.488802671432495E-1   6.488125920295715E-1  -7.791840285062790E-2  -4.088265448808670E-2  
 4.810000000000000E7    -2.786536514759064E-2  -9.708515554666519E-2  -7.135901451110840E-1   6.879674196243286E-1  -7.120246291160584E-1   6.873978376388550E-1  -9.293629229068756E-2  -2.983404509723187E-2  
 4.840000000000000E7    -2.877493202686310E-2  -1.073019877076149E-1  -6.757939457893372E-1   7.233728766441345E-1  -6.737527847290039E-1   7.228531837463379E-1  -1.048611328005791E-1  -2.106165513396263E-2  
 4.870000000000000E7    -3.193581104278565E-2  -1.159059628844261E-1  -6.360905766487122E-1   7.575305700302124E-1  -6.360967159271240E-1   7.555438876152039E-1  -1.166180968284607E-1  -1.012191642075777E-2  
 4.900000000000000E7    -3.543441742658615E-2  -1.241776198148727E-1  -5.958409309387207E-1   7.872586250305176E-1  -5.946578383445740E-1   7.880406379699707E-1  -1.280609369277954E-1   3.709297161549330E-4  
 4.930000000000000E7    -3.925359994173050E-2  -1.331650763750076E-1  -5.528476834297180E-1   8.159930109977722E-1  -5.526371002197266E-1   8.169198632240295E-1  -1.343092322349548E-1   1.274625211954117E-2  
 4.960000000000000E7    -4.591630399227142E-2  -1.395172178745270E-1  -5.096976757049561E-1   8.433713912963867E-1  -5.083603858947754E-1   8.418823480606079E-1  -1.444833427667618E-1   2.168378047645092E-2  
 4.990000000000000E7    -5.277131125330925E-2  -1.433110684156418E-1  -4.657483994960785E-1   8.665521740913391E-1  -4.650883972644806E-1   8.660643696784973E-1  -1.493340879678726E-1   3.423586487770081E-2  
 5.020000000000000E7    -6.250247359275818E-2  -1.481642574071884E-1  -4.193417429924011E-1   8.883768320083618E-1  -4.208219647407532E-1   8.883253335952759E-1  -1.508189737796783E-1   4.498500376939774E-2  
 5.050000000000000E7    -7.207208126783371E-2  -1.495257914066315E-1  -3.738582134246826E-1   9.084638953208923E-1  -3.735209703445435E-1   9.073637723922730E-1  -1.561849862337112E-1   5.375321209430695E-2  
 5.080000000000000E7    -8.298967778682709E-2  -1.502572000026703E-1  -3.258475661277771E-1   9.249053001403809E-1  -3.261375427246094E-1   9.249952435493469E-1  -1.551198363304138E-1   6.440448760986328E-2  
 5.110000000000000E7    -9.213233739137650E-2  -1.481268703937531E-1  -2.774580419063568E-1   9.396322965621948E-1  -2.779122591018677E-1   9.393266439437866E-1  -1.572798788547516E-1   7.211597263813019E-2  
 5.140000000000000E7    -1.031464561820030E-1  -1.451452821493149E-1  -2.296802103519440E-1   9.524903297424316E-1  -2.288278341293335E-1   9.527700543403626E-1  -1.565126031637192E-1   7.934185117483139E-2  
 5.170000000000000E7    -1.101979389786720E-1  -1.383223831653595E-1  -1.793410032987595E-1   9.618660211563110E-1  -1.798747777938843E-1   9.630162715911865E-1  -1.544618755578995E-1   8.711683750152588E-2  
 5.200000000000000E7    -1.220897436141968E-1  -1.325714588165283E-1  -1.283787190914154E-1   9.703816175460815E-1  -1.295792162418366E-1   9.710593223571777E-1  -1.486239433288574E-1   9.091330319643021E-2  
 5.230000000000000E7    -1.315232217311859E-1  -1.210133880376816E-1  -7.901249080896378E-2   9.754768013954163E-1  -7.815611362457275E-2   9.759019613265991E-1  -1.487154662609100E-1   9.632088989019394E-2  
 5.260000000000000E7    -1.370962709188461E-1  -1.090226396918297E-1  -2.711488679051399E-2   9.789505004882813E-1  -2.716211602091789E-2   9.788702130317688E-1  -1.437181830406189E-1   9.915480017662048E-2  
 5.290000000000000E7    -1.445056647062302E-1  -9.897693246603012E-2   2.469669282436371E-2   9.791169762611389E-1   2.494231238961220E-2   9.792405366897583E-1  -1.390745937824249E-1   1.008274853229523E-1  
 5.320000000000000E7    -1.493347138166428E-1  -8.297959715127945E-2   7.700082659721375E-2   9.774760603904724E-1   7.759584486484528E-2   9.776394367218018E-1  -1.346827894449234E-1   9.954100847244263E-2  
 5.350000000000000E7    -1.521649211645126E-1  -6.492666900157929E-2   1.295334845781326E-1   9.724036455154419E-1   1.288104653358460E-1   9.723938703536987E-1  -1.301434189081192E-1   1.004532054066658E-1  
 5.380000000000000E7    -1.508206129074097E-1  -4.748464748263359E-2   1.826552748680115E-1   9.656763076782227E-1   1.837109774351120E-1   9.638436436653137E-1  -1.222568005323410E-1   9.849304705858231E-2  
 5.410000000000000E7    -1.486702710390091E-1  -2.911932207643986E-2   2.370122224092484E-1   9.551024436950684E-1   2.368995994329453E-1   9.542847275733948E-1  -1.197324097156525E-1   9.198419004678726E-2  
 5.440000000000000E7    -1.419200450181961E-1  -9.681733325123787E-3   2.906330823898315E-1   9.403710365295410E-1   2.908786535263062E-1   9.403789043426514E-1  -1.136412099003792E-1   8.540262281894684E-2  
 5.470000000000000E7    -1.339222043752670E-1   6.845620460808277E-3   3.440067172050476E-1   9.238200783729553E-1   3.444270491600037E-1   9.232669472694397E-1  -1.091000288724899E-1   7.633647322654724E-2  
 5.500000000000000E7    -1.196675971150398E-1   2.907613664865494E-2   3.987292945384979E-1   9.031891226768494E-1   3.977856934070587E-1   9.025874733924866E-1  -1.049236208200455E-1   6.825576722621918E-2  
 5.530000000000000E7    -1.046758145093918E-1   4.841648414731026E-2   4.512045085430145E-1   8.792874217033386E-1   4.523687064647675E-1   8.769989609718323E-1  -1.035232394933701E-1   5.430815368890762E-2  
 5.560000000000000E7    -8.479119092226028E-2   6.472665071487427E-2   5.054404735565186E-1   8.505122065544128E-1   5.037192106246948E-1   8.489002585411072E-1  -1.013966724276543E-1   4.147022962570190E-2  
 5.590000000000000E7    -6.244530156254768E-2   8.080774545669556E-2   5.570236444473267E-1   8.173332214355469E-1   5.563019514083862E-1   8.168489336967468E-1  -1.035749539732933E-1   2.594944834709168E-2  
 5.620000000000000E7    -3.392420709133148E-2   9.592163562774658E-2   6.073236465454102E-1   7.799454927444458E-1   6.068127751350403E-1   7.797276377677918E-1  -1.034713760018349E-1   1.169898360967636E-2  
 5.650000000000000E7    -5.803255364298821E-3   1.060735657811165E-1   6.559770107269287E-1   7.391723394393921E-1   6.563534736633301E-1   7.383661270141602E-1  -1.087067723274231E-1  -9.394250810146332E-3  
 5.680000000000000E7     2.950606495141983E-2   1.122647151350975E-1   7.027049064636231E-1   6.932384967803955E-1   7.021520733833313E-1   6.920535564422607E-1  -1.192470341920853E-1  -2.865543588995934E-2  
 5.710000000000000E7     6.578107923269272E-2   1.139255464076996E-1   7.463935017585754E-1   6.420065164566040E-1   7.453129291534424E-1   6.419042348861694E-1  -1.312774717807770E-1  -4.911657795310020E-2  
 5.740000000000000E7     1.062103062868118E-1   1.115589216351509E-1   7.871575355529785E-1   5.868957042694092E-1   7.856748104095459E-1   5.873622894287109E-1  -1.428626626729965E-1  -7.023347169160843E-2  
 5.770000000000000E7     1.487542986869812E-1   1.028601676225662E-1   8.212416172027588E-1   5.279587507247925E-1   8.217455744743347E-1   5.262413620948792E-1  -1.585358530282974E-1  -9.216761589050293E-2  
 5.800000000000000E7     1.908605545759201E-1   8.518375456333160E-2   8.534593582153320E-1   4.645061790943146E-1   8.516716361045837E-1   4.630461931228638E-1  -1.824110746383667E-1  -1.082684919238091E-1  
 5.830000000000000E7     2.327835857868195E-1   6.466307491064072E-2   8.770753741264343E-1   3.963230550289154E-1   8.773462176322937E-1   3.965273797512054E-1  -2.080589234828949E-1  -1.283675432205200E-1  
 5.860000000000000E7     2.733030617237091E-1   3.445743396878243E-2   8.959037661552429E-1   3.268468081951141E-1   8.963217139244080E-1   3.269260227680206E-1  -2.377616465091705E-1  -1.462519913911820E-1  
 5.890000000000000E7     3.124444186687470E-1  -4.312563687562943E-3   9.077268242835999E-1   2.541956305503845E-1   9.070887565612793E-1   2.534250915050507E-1  -2.713661193847656E-1  -1.629454940557480E-1  
 5.920000000000000E7     3.452008664608002E-1  -4.920614510774612E-2   9.116486310958862E-1   1.811292320489883E-1   9.119779467582703E-1   1.807132512331009E-1  -3.055670559406281E-1  -1.699456870555878E-1  
 5.950000000000000E7     3.738342523574829E-1  -1.000098362565041E-1   9.073706269264221E-1   1.065596118569374E-1   9.080520868301392E-1   1.059243902564049E-1  -3.454461991786957E-1  -1.795262247323990E-1  
 5.980000000000000E7     3.944813907146454E-1  -1.575256288051605E-1   8.970258831977844E-1   3.416347503662109E-2   8.958997130393982E-1   3.378419950604439E-2  -3.874640464782715E-1  -1.822924166917801E-1  
 6.010000000000000E7     4.103002846240997E-1  -2.210260182619095E-1   8.758249282836914E-1  -3.543840348720551E-2   8.741273880004883E-1  -3.741243481636047E-2  -4.316142797470093E-1  -1.817625612020493E-1  
 6.040000000000000E7     4.153359234333038E-1  -2.874627709388733E-1   8.479410409927368E-1  -1.030180305242539E-1   8.494908213615418E-1  -1.024855226278305E-1  -4.752427041530609E-1  -1.713811457157135E-1  
 6.070000000000000E7     4.114145338535309E-1  -3.549906909465790E-1   8.145672082901001E-1  -1.645293831825256E-1   8.139194846153259E-1  -1.644996106624603E-1  -5.207360982894898E-1  -1.601921916007996E-1  
 6.100000000000000E7     3.948898315429688E-1  -4.211708605289459E-1   7.756164669990540E-1  -2.222062200307846E-1   7.748386263847351E-1  -2.220847606658936E-1  -5.634303689002991E-1  -1.410092115402222E-1  
 6.130000000000000E7     3.728772699832916E-1  -4.894722104072571E-1   7.304799556732178E-1  -2.727522850036621E-1   7.302923798561096E-1  -2.720336019992828E-1  -6.054986715316773E-1  -1.166873648762703E-1  
 6.160000000000000E7     3.409993052482605E-1  -5.524896979331970E-1   6.815919876098633E-1  -3.168170154094696E-1   6.815872192382813E-1  -3.163107037544251E-1  -6.439577937126160E-1  -8.828978240489960E-2  
 6.190000000000000E7     2.990021109580994E-1  -6.125869154930115E-1   6.300311088562012E-1  -3.536231219768524E-1   6.302616596221924E-1  -3.546875119209290E-1  -6.783438324928284E-1  -5.626512318849564E-2  
 6.220000000000000E7     2.506522536277771E-1  -6.649518609046936E-1   5.767322182655335E-1  -3.829062283039093E-1   5.778894424438477E-1  -3.831982016563416E-1  -7.111703753471375E-1  -2.083530463278294E-2  
 6.250000000000000E7     1.946280449628830E-1  -7.130685448646545E-1   5.251935720443726E-1  -4.057401716709137E-1   5.247060656547546E-1  -4.065597057342529E-1  -7.395055890083313E-1   1.729847863316536E-2  
 6.280000000000000E7     1.342104375362396E-1  -7.529773712158203E-1   4.720645248889923E-1  -4.219583868980408E-1   4.725800752639771E-1  -4.218904376029968E-1  -7.627539038658142E-1   5.727167427539825E-2  
 6.310000000000000E7     6.914466619491577E-2  -7.857097387313843E-1   4.225437045097351E-1  -4.340550899505615E-1   4.208414852619171E-1  -4.335021674633026E-1  -7.832977771759033E-1   1.013150662183762E-1  
 6.340000000000000E7     2.901938743889332E-3  -8.094958066940308E-1   3.725817501544952E-1  -4.390452206134796E-1   3.723643124103546E-1  -4.389786124229431E-1  -7.982359528541565E-1   1.436878293752670E-1  
 6.370000000000000E7    -6.558899581432343E-2  -8.262534737586975E-1   3.259840309619904E-1  -4.395946860313416E-1   3.258344233036041E-1  -4.401914179325104E-1  -8.081778883934021E-1   1.872899383306503E-1  
 6.400000000000000E7    -1.345004141330719E-1  -8.359248638153076E-1   2.831907272338867E-1  -4.376834928989410E-1   2.816059589385986E-1  -4.372930824756622E-1  -8.160504102706909E-1   2.294582575559616E-1  
 6.430000000000000E7    -2.036639451980591E-1  -8.390549421310425E-1   2.417789250612259E-1  -4.300012290477753E-1   2.407478988170624E-1  -4.303138852119446E-1  -8.196282386779785E-1   2.731748819351196E-1  
 6.460000000000000E7    -2.698952853679657E-1  -8.355086445808411E-1   2.034624814987183E-1  -4.203141927719116E-1   2.034405320882797E-1  -4.197696745395660E-1  -8.190593123435974E-1   3.143933117389679E-1  
 6.490000000000000E7    -3.343407511711121E-1  -8.249251246452332E-1   1.692887544631958E-1  -4.079040288925171E-1   1.698786467313767E-1  -4.077489078044891E-1  -8.172209262847900E-1   3.539378643035889E-1  
 6.520000000000000E7    -3.979368209838867E-1  -8.101345896720886E-1   1.391810178756714E-1  -3.946252167224884E-1   1.381935924291611E-1  -3.948117494583130E-1  -8.124426007270813E-1   3.931545019149780E-1  
 6.550000000000000E7    -4.573045372962952E-1  -7.882240414619446E-1   1.106600463390350E-1  -3.798903524875641E-1   1.102025285363197E-1  -3.798430263996124E-1  -8.045083880424500E-1   4.307106137275696E-1  
 6.580000000000000E7    -5.152971148490906E-1  -7.634865641593933E-1   8.517755568027496E-2  -3.650680482387543E-1   8.465202152729034E-2  -3.641783297061920E-1  -7.956423759460449E-1   4.662368893623352E-1  
 6.610000000000000E7    -5.696713924407959E-1  -7.333600521087647E-1   6.256659328937531E-2  -3.485324382781982E-1   6.068550050258637E-2  -3.481556475162506E-1  -7.841340899467468E-1   5.011441111564636E-1  
 6.640000000000000E7    -6.194650530815125E-1  -7.030898928642273E-1   4.256008937954903E-2  -3.315036892890930E-1   4.290263354778290E-2  -3.308469355106354E-1  -7.712094783782959E-1   5.339256525039673E-1  
 6.670000000000000E7    -6.676534414291382E-1  -6.665695309638977E-1   2.436881512403488E-2  -3.150657713413239E-1   2.487478777766228E-2  -3.139365613460541E-1  -7.574668526649475E-1   5.632137060165405E-1  
 6.700000000000000E7    -7.110253572463989E-1  -6.280272006988525E-1   9.212210774421692E-3  -2.975577712059021E-1   8.615858852863312E-3  -2.970936894416809E-1  -7.415226697921753E-1   5.921640396118164E-1  
 6.730000000000000E7    -7.515403032302856E-1  -5.879630446434021E-1  -4.432100802659988E-3  -2.806365787982941E-1  -5.232930183410645E-3  -2.811483144760132E-1  -7.265047430992127E-1   6.200628280639648E-1  
 6.760000000000000E7    -7.874353528022766E-1  -5.462995171546936E-1  -1.647387817502022E-2  -2.654419541358948E-1  -1.634951680898666E-2  -2.644235789775848E-1  -7.086374759674072E-1   6.463041901588440E-1  
 6.790000000000000E7    -8.210239410400391E-1  -5.025448799133301E-1  -2.614066377282143E-2  -2.488921582698822E-1  -2.670151926577091E-2  -2.488879710435867E-1  -6.915475726127625E-1   6.704210042953491E-1  
 6.820000000000000E7    -8.511356711387634E-1  -4.574800133705139E-1  -3.522109985351563E-2  -2.337201535701752E-1  -3.510193154215813E-2  -2.331206053495407E-1  -6.734839677810669E-1   6.934624314308167E-1  
 6.850000000000000E7    -8.787119984626770E-1  -4.117436707019806E-1  -4.183077439665794E-2  -2.188956439495087E-1  -4.198017716407776E-2  -2.185207903385162E-1  -6.551793813705444E-1   7.148563861846924E-1  
 6.880000000000000E7    -9.016472101211548E-1  -3.651150465011597E-1  -4.838410019874573E-2  -2.046785950660706E-1  -4.839953780174255E-2  -2.041911333799362E-1  -6.358866691589356E-1   7.353944182395935E-1  
 6.910000000000000E7    -9.212498664855957E-1  -3.174597322940826E-1  -5.333129316568375E-2  -1.914204359054565E-1  -5.319621041417122E-2  -1.908008009195328E-1  -6.170467138290405E-1   7.557159662246704E-1  
 6.940000000000000E7    -9.395328164100647E-1  -2.709394395351410E-1  -5.683444067835808E-2  -1.781922727823257E-1  -5.719073116779327E-2  -1.779433488845825E-1  -5.986155271530151E-1   7.732200026512146E-1  
 6.970000000000000E7    -9.539117217063904E-1  -2.219052463769913E-1  -6.030537933111191E-2  -1.656605452299118E-1  -6.065247952938080E-2  -1.656208336353302E-1  -5.789239406585693E-1   7.901911139488220E-1  
 7.000000000000000E7    -9.660902619361877E-1  -1.744917929172516E-1  -6.266471743583679E-2  -1.538319140672684E-1  -6.303135305643082E-2  -1.536893695592880E-1  -5.595541596412659E-1   8.070056438446045E-1  
