#  HZ   S   RI   R     50.00 
! Rohde & Schwarz ZVT8 8Ports - Version 4.11 - 1300.0000k08 SN: 100242
! Date: 2026-07-31 14:58:56
! Measurements: S11 S21 S12 S22 
! 
 1.000000000000000E7    -4.062917530536652E-1   9.098829627037048E-1   5.051947012543678E-2   5.118479207158089E-2   5.015651136636734E-2   5.132687091827393E-2  -9.201168417930603E-1   3.825635910034180E-1  
 1.030000000000000E7    -3.738378584384918E-1   9.225043654441834E-1   5.362448096275330E-2   5.156556889414787E-2   5.313355848193169E-2   5.156467482447624E-2  -9.146149158477783E-1   3.950556814670563E-1  
 1.060000000000000E7    -3.383281528949738E-1   9.356603026390076E-1   5.670999363064766E-2   5.250619724392891E-2   5.656217038631439E-2   5.221145600080490E-2  -9.109407067298889E-1   4.066813588142395E-1  
 1.090000000000000E7    -3.065188825130463E-1   9.459110498428345E-1   5.987390875816345E-2   5.255039408802986E-2   5.973915010690689E-2   5.257932841777802E-2  -9.052659273147583E-1   4.180194735527039E-1  
 1.120000000000000E7    -2.716078758239746E-1   9.557095170021057E-1   6.334030628204346E-2   5.329658836126328E-2   6.303000450134277E-2   5.300985649228096E-2  -8.998766541481018E-1   4.291651546955109E-1  
 1.150000000000000E7    -2.363859862089157E-1   9.659903049468994E-1   6.650935858488083E-2   5.312310159206390E-2   6.633532047271729E-2   5.303986743092537E-2  -8.929441571235657E-1   4.382702708244324E-1  
 1.180000000000000E7    -2.017166912555695E-1   9.711934328079224E-1   6.992988288402557E-2   5.322550982236862E-2   6.969388574361801E-2   5.323720723390579E-2  -8.882054090499878E-1   4.489860534667969E-1  
 1.210000000000000E7    -1.676632165908814E-1   9.783955216407776E-1   7.369704544544220E-2   5.348304659128189E-2   7.347121089696884E-2   5.338294059038162E-2  -8.809735178947449E-1   4.610083699226379E-1  
 1.240000000000000E7    -1.322555840015411E-1   9.827287793159485E-1   7.727935910224915E-2   5.338967964053154E-2   7.724563032388687E-2   5.302015319466591E-2  -8.750686049461365E-1   4.708687961101532E-1  
 1.270000000000000E7    -9.719140827655792E-2   9.867386221885681E-1   8.153423666954041E-2   5.280287936329842E-2   8.085455000400543E-2   5.255092307925224E-2  -8.683988451957703E-1   4.843710958957672E-1  
 1.300000000000000E7    -6.223264336585999E-2   9.897202253341675E-1   8.491547405719757E-2   5.264658108353615E-2   8.460719883441925E-2   5.241569876670837E-2  -8.611978292465210E-1   4.944964349269867E-1  
 1.330000000000000E7    -2.582606673240662E-2   9.912238121032715E-1   8.913934975862503E-2   5.210763961076737E-2   8.898866176605225E-2   5.161019787192345E-2  -8.546839952468872E-1   5.061802864074707E-1  
 1.360000000000000E7     1.081886887550354E-2   9.916016459465027E-1   9.306702017784119E-2   5.153050273656845E-2   9.306395053863525E-2   5.100142583251000E-2  -8.475233316421509E-1   5.151004791259766E-1  
 1.390000000000000E7     4.544195532798767E-2   9.897609353065491E-1   9.740888327360153E-2   5.053007602691650E-2   9.675116091966629E-2   5.057013407349587E-2  -8.407834172248840E-1   5.266372561454773E-1  
 1.420000000000000E7     8.264070004224777E-2   9.879304170608521E-1   1.011271625757217E-1   4.966532438993454E-2   1.013327687978745E-1   4.969008266925812E-2  -8.346191644668579E-1   5.370124578475952E-1  
 1.450000000000000E7     1.177260726690292E-1   9.821949005126953E-1   1.057381331920624E-1   4.825498536229134E-2   1.055670678615570E-1   4.820211231708527E-2  -8.247669935226440E-1   5.489341020584106E-1  
 1.480000000000000E7     1.549585163593292E-1   9.772165417671204E-1   1.100674942135811E-1   4.700287804007530E-2   1.101804748177528E-1   4.728090390563011E-2  -8.180626630783081E-1   5.588039159774780E-1  
 1.510000000000000E7     1.904318481683731E-1   9.695759415626526E-1   1.144134700298309E-1   4.548712447285652E-2   1.143340542912483E-1   4.527480527758598E-2  -8.077586889266968E-1   5.701243281364441E-1  
 1.540000000000000E7     2.253060191869736E-1   9.623767733573914E-1   1.187688112258911E-1   4.451537132263184E-2   1.187536269426346E-1   4.398076608777046E-2  -8.024381995201111E-1   5.790556073188782E-1  
 1.570000000000000E7     2.614246606826782E-1   9.536002278327942E-1   1.235489696264267E-1   4.218834638595581E-2   1.235078498721123E-1   4.223078861832619E-2  -7.928887009620667E-1   5.909855365753174E-1  
 1.600000000000000E7     2.973364591598511E-1   9.417482018470764E-1   1.281072199344635E-1   4.017719253897667E-2   1.283518821001053E-1   3.990980982780457E-2  -7.848249077796936E-1   5.995544791221619E-1  
 1.630000000000000E7     3.316745460033417E-1   9.292386770248413E-1   1.335256397724152E-1   3.772652149200440E-2   1.328527331352234E-1   3.802920132875443E-2  -7.760168313980103E-1   6.115040183067322E-1  
 1.660000000000000E7     3.664989173412323E-1   9.145277142524719E-1   1.384349763393402E-1   3.496089205145836E-2   1.378394663333893E-1   3.481699153780937E-2  -7.655866146087647E-1   6.222487092018127E-1  
 1.690000000000000E7     4.004523456096649E-1   8.997096419334412E-1   1.432408690452576E-1   3.305706381797791E-2   1.428640335798264E-1   3.266475349664688E-2  -7.569908499717712E-1   6.315189599990845E-1  
 1.720000000000000E7     4.366592168807983E-1   8.838424682617188E-1   1.476614922285080E-1   2.929123863577843E-2   1.476241648197174E-1   2.971854992210865E-2  -7.473589777946472E-1   6.413658857345581E-1  
 1.750000000000000E7     4.652935266494751E-1   8.679458498954773E-1   1.533305943012238E-1   2.737105637788773E-2   1.533604115247726E-1   2.696508169174194E-2  -7.389770150184631E-1   6.527757644653320E-1  
 1.780000000000000E7     5.010163784027100E-1   8.454231023788452E-1   1.576361358165741E-1   2.335385233163834E-2   1.578815281391144E-1   2.349678054451942E-2  -7.276656031608582E-1   6.605353355407715E-1  
 1.810000000000000E7     5.322432518005371E-1   8.261361122131348E-1   1.640749871730804E-1   1.983551494777203E-2   1.630813032388687E-1   1.936147361993790E-2  -7.175826430320740E-1   6.736953258514404E-1  
 1.840000000000000E7     5.653572082519531E-1   8.040152788162231E-1   1.694750040769577E-1   1.490414049476385E-2   1.685423403978348E-1   1.518901251256466E-2  -7.060678005218506E-1   6.831606626510620E-1  
 1.870000000000000E7     5.939719080924988E-1   7.812525033950806E-1   1.744546443223953E-1   1.161598414182663E-2   1.737779229879379E-1   1.113637350499630E-2  -6.951786279678345E-1   6.921158432960510E-1  
 1.900000000000000E7     6.239174008369446E-1   7.568922638893127E-1   1.797010600566864E-1   7.100388407707214E-3   1.793402880430222E-1   6.756516173481941E-3  -6.833361983299255E-1   7.017891407012940E-1  
 1.930000000000000E7     6.533785462379456E-1   7.299545407295227E-1   1.848859637975693E-1   1.344203948974609E-3   1.849175244569778E-1   1.820432022213936E-3  -6.720770597457886E-1   7.131576538085938E-1  
 1.960000000000000E7     6.822764873504639E-1   7.018489837646484E-1   1.902088969945908E-1  -3.720534965395927E-3   1.902487277984619E-1  -3.207001835107803E-3  -6.620508432388306E-1   7.214441299438477E-1  
 1.990000000000000E7     7.073042392730713E-1   6.728211641311646E-1   1.956982165575028E-1  -9.455427527427673E-3   1.958002746105194E-1  -9.347299113869667E-3  -6.474904417991638E-1   7.330822944641113E-1  
 2.020000000000000E7     7.334080934524536E-1   6.430429220199585E-1   2.015240788459778E-1  -1.484353840351105E-2   2.006701976060867E-1  -1.483671646565199E-2  -6.361492276191711E-1   7.390936017036438E-1  
 2.050000000000000E7     7.600451111793518E-1   6.114641427993774E-1   2.068606466054916E-1  -2.089011296629906E-2   2.053858339786530E-1  -2.134793438017368E-2  -6.236819624900818E-1   7.490282058715820E-1  
 2.080000000000000E7     7.829565405845642E-1   5.772850513458252E-1   2.125173211097717E-1  -2.802588604390621E-2   2.122808247804642E-1  -2.782260067760944E-2  -6.109535098075867E-1   7.594343423843384E-1  
 2.110000000000000E7     8.060003519058228E-1   5.434344410896301E-1   2.180692106485367E-1  -3.571815043687820E-2   2.180025279521942E-1  -3.564053773880005E-2  -5.964709520339966E-1   7.682179212570190E-1  
 2.140000000000000E7     8.270361423492432E-1   5.084806680679321E-1   2.238626182079315E-1  -4.380379244685173E-2   2.227234691381455E-1  -4.285591840744019E-2  -5.831072926521301E-1   7.763450145721436E-1  
 2.170000000000000E7     8.451877832412720E-1   4.732696115970612E-1   2.292050123214722E-1  -5.137755721807480E-2   2.288330048322678E-1  -5.058202520012856E-2  -5.691922903060913E-1   7.853183746337891E-1  
 2.200000000000000E7     8.650323748588562E-1   4.336990416049957E-1   2.342805862426758E-1  -6.034994870424271E-2   2.341659665107727E-1  -5.988925695419312E-2  -5.534625649452210E-1   7.932265996932983E-1  
 2.230000000000000E7     8.801999688148499E-1   3.954132497310638E-1   2.396960556507111E-1  -6.937083601951599E-2   2.391022890806198E-1  -6.890448927879334E-2  -5.383480191230774E-1   8.013820648193359E-1  
 2.260000000000000E7     8.955264687538147E-1   3.550019264221191E-1   2.443698197603226E-1  -7.918744534254074E-2   2.456850111484528E-1  -7.873948663473129E-2  -5.234871506690979E-1   8.086329698562622E-1  
 2.290000000000000E7     9.087336659431458E-1   3.138015866279602E-1   2.496323138475418E-1  -8.933670073747635E-2   2.500586509704590E-1  -8.857710659503937E-2  -5.061808824539185E-1   8.153759837150574E-1  
 2.320000000000000E7     9.186542034149170E-1   2.715778350830078E-1   2.550173401832581E-1  -1.009286642074585E-1   2.544944286346436E-1  -1.010126173496246E-1  -4.904929995536804E-1   8.248810768127441E-1  
 2.350000000000000E7     9.277876019477844E-1   2.275230884552002E-1   2.598494291305542E-1  -1.131986826658249E-1   2.591476142406464E-1  -1.123949140310288E-1  -4.737589061260223E-1   8.311802744865418E-1  
 2.380000000000000E7     9.346131086349487E-1   1.838667094707489E-1   2.640661895275116E-1  -1.247529760003090E-1   2.640488147735596E-1  -1.244548112154007E-1  -4.569752812385559E-1   8.377370238304138E-1  
 2.410000000000000E7     9.400090575218201E-1   1.379328519105911E-1   2.681759595870972E-1  -1.386025696992874E-1   2.674442827701569E-1  -1.381601542234421E-1  -4.382131695747376E-1   8.438315987586975E-1  
 2.440000000000000E7     9.415714144706726E-1   9.227580577135086E-2   2.723797261714935E-1  -1.529720276594162E-1   2.722199559211731E-1  -1.529307216405869E-1  -4.212106466293335E-1   8.491971492767334E-1  
 2.470000000000000E7     9.413667321205139E-1   4.573308676481247E-2   2.757524251937866E-1  -1.682113856077194E-1   2.751678228378296E-1  -1.662267446517944E-1  -4.008229672908783E-1   8.528809547424316E-1  
 2.500000000000000E7     9.394575953483582E-1  -2.360530197620392E-3   2.783074676990509E-1  -1.831964254379273E-1   2.781763672828674E-1  -1.836822777986527E-1  -3.817526996135712E-1   8.589178919792175E-1  
 2.530000000000000E7     9.340849518775940E-1  -5.021284148097038E-2   2.816234529018402E-1  -1.994765102863312E-1   2.814559936523438E-1  -1.990613043308258E-1  -3.618567585945129E-1   8.621764183044434E-1  
 2.560000000000000E7     9.257924556732178E-1  -9.795704483985901E-2   2.832119464874268E-1  -2.166263759136200E-1   2.839913368225098E-1  -2.165353000164032E-1  -3.422467708587647E-1   8.656414747238159E-1  
 2.590000000000000E7     9.133950471878052E-1  -1.458907723426819E-1   2.842851579189301E-1  -2.362801134586334E-1   2.848127484321594E-1  -2.361454814672470E-1  -3.215104341506958E-1   8.702390789985657E-1  
 2.620000000000000E7     8.982278704643250E-1  -1.954362690448761E-1   2.846473455429077E-1  -2.566353976726532E-1   2.845439016819000E-1  -2.555148005485535E-1  -2.979357540607452E-1   8.721368312835693E-1  
 2.650000000000000E7     8.809399604797363E-1  -2.432831525802612E-1   2.850380539894104E-1  -2.758273184299469E-1   2.846746742725372E-1  -2.764456272125244E-1  -2.769253849983215E-1   8.724611997604370E-1  
 2.680000000000000E7     8.587498664855957E-1  -2.910089492797852E-1   2.840996980667114E-1  -2.975580394268036E-1   2.836156487464905E-1  -2.984849810600281E-1  -2.549245059490204E-1   8.726320266723633E-1  
 2.710000000000000E7     8.326746821403503E-1  -3.391839563846588E-1   2.798984050750732E-1  -3.217671215534210E-1   2.793647646903992E-1  -3.209616839885712E-1  -2.321060150861740E-1   8.731083273887634E-1  
 2.740000000000000E7     8.035664558410645E-1  -3.866690397262573E-1   2.774498462677002E-1  -3.450036048889160E-1   2.761527895927429E-1  -3.459695577621460E-1  -2.080077677965164E-1   8.687509298324585E-1  
 2.770000000000000E7     7.710546255111694E-1  -4.309072792530060E-1   2.710713148117065E-1  -3.707215189933777E-1   2.703785896301270E-1  -3.714769780635834E-1  -1.841797679662705E-1   8.665366172790527E-1  
 2.800000000000000E7     7.348456978797913E-1  -4.753853082656860E-1   2.636675834655762E-1  -3.964959383010864E-1   2.648921906948090E-1  -3.967412710189819E-1  -1.591251492500305E-1   8.606984615325928E-1  
 2.830000000000000E7     6.922195553779602E-1  -5.175198912620544E-1   2.541093528270721E-1  -4.230897724628449E-1   2.531175017356873E-1  -4.239925146102905E-1  -1.370508074760437E-1   8.556814193725586E-1  
 2.860000000000000E7     6.454874277114868E-1  -5.570803880691528E-1   2.424138039350510E-1  -4.520944058895111E-1   2.406338304281235E-1  -4.531350135803223E-1  -1.092928946018219E-1   8.476592898368835E-1  
 2.890000000000000E7     5.952259302139282E-1  -5.920101404190064E-1   2.267977446317673E-1  -4.823738932609558E-1   2.267364710569382E-1  -4.816029071807861E-1  -8.574434369802475E-2   8.384446501731873E-1  
 2.920000000000000E7     5.405941009521484E-1  -6.260269880294800E-1   2.115532457828522E-1  -5.112483501434326E-1   2.094163596630096E-1  -5.110314488410950E-1  -6.235687434673309E-2   8.268443346023560E-1  
 2.950000000000000E7     4.812234044075012E-1  -6.537265181541443E-1   1.895898878574371E-1  -5.438783764839172E-1   1.892298460006714E-1  -5.424675941467285E-1  -3.624745458364487E-2   8.140552043914795E-1  
 2.980000000000000E7     4.178231656551361E-1  -6.777056455612183E-1   1.660384386777878E-1  -5.734152197837830E-1   1.653414964675903E-1  -5.746852755546570E-1  -1.304732449352741E-2   7.982913851737976E-1  
 3.010000000000000E7     3.508619368076325E-1  -6.955715417861939E-1   1.368011236190796E-1  -6.049720048904419E-1   1.379967629909515E-1  -6.049509048461914E-1   1.017534732818604E-2   7.804242372512817E-1  
 3.040000000000000E7     2.780666351318359E-1  -7.056815624237061E-1   1.053236871957779E-1  -6.357646584510803E-1   1.035520657896996E-1  -6.362341046333313E-1   3.154989704489708E-2   7.587702870368958E-1  
 3.070000000000000E7     2.057275474071503E-1  -7.085078954696655E-1   6.766064465045929E-2  -6.641293764114380E-1   6.722947210073471E-2  -6.628933548927307E-1   5.243959650397301E-2   7.381771206855774E-1  
 3.100000000000000E7     1.296420544385910E-1  -7.014701962471008E-1   2.532399632036686E-2  -6.919624805450440E-1   2.546137198805809E-2  -6.902803778648377E-1   7.182453572750092E-2   7.140396833419800E-1  
 3.130000000000000E7     5.336833745241165E-2  -6.883001923561096E-1  -2.220919169485569E-2  -7.163096070289612E-1  -2.124104276299477E-2  -7.157906293869019E-1   8.653245121240616E-2   6.853361129760742E-1  
 3.160000000000000E7    -2.305400557816029E-2  -6.607367992401123E-1  -7.333412021398544E-2  -7.378994822502136E-1  -7.308051735162735E-2  -7.373684048652649E-1   9.949292242527008E-2   6.583235859870911E-1  
 3.190000000000000E7    -9.724925458431244E-2  -6.247053146362305E-1  -1.297044605016708E-1  -7.543320655822754E-1  -1.288404613733292E-1  -7.528653144836426E-1   1.109830439090729E-1   6.278773546218872E-1  
 3.220000000000000E7    -1.697998344898224E-1  -5.793262124061585E-1  -1.895748972892761E-1  -7.664069533348084E-1  -1.895219981670380E-1  -7.646236419677734E-1   1.158386617898941E-1   5.963162183761597E-1  
 3.250000000000000E7    -2.335533797740936E-1  -5.211963057518005E-1  -2.541883587837219E-1  -7.719815373420715E-1  -2.549517750740051E-1  -7.705394029617310E-1   1.179372593760490E-1   5.660924315452576E-1  
 3.280000000000000E7    -2.899810969829559E-1  -4.526028335094452E-1  -3.225543498992920E-1  -7.701611518859863E-1  -3.207829594612122E-1  -7.681501507759094E-1   1.165852397680283E-1   5.325458049774170E-1  
 3.310000000000000E7    -3.395870029926300E-1  -3.787124156951904E-1  -3.909362256526947E-1  -7.586975097656250E-1  -3.917827010154724E-1  -7.566318511962891E-1   1.083336025476456E-1   5.015278458595276E-1  
 3.340000000000000E7    -3.744557201862335E-1  -2.955681085586548E-1  -4.626406729221344E-1  -7.388476133346558E-1  -4.605412185192108E-1  -7.378025650978088E-1   9.799005836248398E-2   4.728160798549652E-1  
 3.370000000000000E7    -3.981745541095734E-1  -2.056875675916672E-1  -5.303907394409180E-1  -7.098758220672607E-1  -5.305060744285584E-1  -7.097518444061279E-1   8.046369999647141E-2   4.454861879348755E-1  
 3.400000000000000E7    -4.062563180923462E-1  -1.142007783055306E-1  -5.961476564407349E-1  -6.719729304313660E-1  -5.963172316551209E-1  -6.711128354072571E-1   6.077845022082329E-2   4.238952398300171E-1  
 3.430000000000000E7    -4.003955721855164E-1  -2.306407876312733E-2  -6.584585309028626E-1  -6.250823140144348E-1  -6.575518846511841E-1  -6.256662011146545E-1   4.012935608625412E-2   4.046017825603485E-1  
 3.460000000000000E7    -3.802845478057861E-1   6.755115836858749E-2  -7.145733237266541E-1  -5.720149874687195E-1  -7.128659486770630E-1  -5.705415606498718E-1   1.505514234304428E-2   3.936236500740051E-1  
 3.490000000000000E7    -3.459919393062592E-1   1.492059081792831E-1  -7.638020515441895E-1  -5.096508264541626E-1  -7.621062397956848E-1  -5.117545723915100E-1  -9.317081421613693E-3   3.819190263748169E-1  
 3.520000000000000E7    -2.986839711666107E-1   2.283012717962265E-1  -8.042191863059998E-1  -4.447551667690277E-1  -8.035729527473450E-1  -4.465798437595367E-1  -3.620354086160660E-2   3.794305324554443E-1  
 3.550000000000000E7    -2.386082857847214E-1   2.961964607238770E-1  -8.362994790077210E-1  -3.762550055980682E-1  -8.350184559822083E-1  -3.759762346744537E-1  -6.240262836217880E-2   3.841482102870941E-1  
 3.580000000000000E7    -1.739909201860428E-1   3.535862267017365E-1  -8.596404194831848E-1  -3.038749396800995E-1  -8.589455485343933E-1  -3.049463629722595E-1  -8.578981459140778E-2   3.897140324115753E-1  
 3.610000000000000E7    -1.021791473031044E-1   3.952986896038055E-1  -8.757206797599793E-1  -2.327970564365387E-1  -8.742990493774414E-1  -2.317325472831726E-1  -1.069175675511360E-1   4.018030464649200E-1  
 3.640000000000000E7    -2.520549669861794E-2   4.294483959674835E-1  -8.809017539024353E-1  -1.612042188644409E-1  -8.798890113830566E-1  -1.605265736579895E-1  -1.263653486967087E-1   4.187530577182770E-1  
 3.670000000000000E7     5.276270955801010E-2   4.501663744449616E-1  -8.811562061309815E-1  -9.206716716289520E-2  -8.787810206413269E-1  -9.190006554126740E-2  -1.395870894193649E-1   4.360831081867218E-1  
 3.700000000000000E7     1.283807754516602E-1   4.597118198871613E-1  -8.714355230331421E-1  -2.455384284257889E-2  -8.711405992507935E-1  -2.379504591226578E-2  -1.507412493228912E-1   4.582631289958954E-1  
 3.730000000000000E7     2.045685648918152E-1   4.604810774326325E-1  -8.557374477386475E-1   3.936181217432022E-2  -8.560644984245300E-1   3.773657977581024E-2  -1.569194048643112E-1   4.806272387504578E-1  
 3.760000000000000E7     2.734535634517670E-1   4.494071006774902E-1  -8.370011448860169E-1   9.931420534849167E-2  -8.376287221908569E-1   9.836555272340775E-2  -1.587555855512619E-1   5.053645968437195E-1  
 3.790000000000000E7     3.424290418624878E-1   4.292762875556946E-1  -8.147866129875183E-1   1.544123888015747E-1  -8.145934343338013E-1   1.539041101932526E-1  -1.571886390447617E-1   5.276611447334290E-1  
 3.820000000000000E7     4.036133587360382E-1   4.035747945308685E-1  -7.885234355926514E-1   2.051000148057938E-1  -7.864435315132141E-1   2.042110562324524E-1  -1.515239775180817E-1   5.538412928581238E-1  
 3.850000000000000E7     4.624958038330078E-1   3.718152344226837E-1  -7.592903375625610E-1   2.512277364730835E-1  -7.575705051422119E-1   2.529940605163574E-1  -1.437574326992035E-1   5.778718590736389E-1  
 3.880000000000000E7     5.117154121398926E-1   3.371868729591370E-1  -7.259363532066345E-1   2.966646552085877E-1  -7.256809473037720E-1   2.954125404357910E-1  -1.307180225849152E-1   6.009862422943115E-1  
 3.910000000000000E7     5.590447783470154E-1   2.961677908897400E-1  -6.925328969955444E-1   3.336140513420105E-1  -6.930908560752869E-1   3.345713913440704E-1  -1.128131002187729E-1   6.232613921165466E-1  
 3.940000000000000E7     5.974270105361939E-1   2.516910731792450E-1  -6.578683853149414E-1   3.688195049762726E-1  -6.572643518447876E-1   3.685781657695770E-1  -9.424073249101639E-2   6.438447833061218E-1  
 3.970000000000000E7     6.327738165855408E-1   2.063854336738586E-1  -6.226384043693543E-1   3.990662693977356E-1  -6.216531991958618E-1   3.987582027912140E-1  -7.024875283241272E-2   6.624412536621094E-1  
 4.000000000000000E7     6.617562770843506E-1   1.600585877895355E-1  -5.866009593009949E-1   4.278507530689240E-1  -5.855572819709778E-1   4.282635748386383E-1  -4.472456872463226E-2   6.800888180732727E-1  
 4.030000000000000E7     6.842804551124573E-1   1.128304302692413E-1  -5.506478548049927E-1   4.551732242107391E-1  -5.505688190460205E-1   4.537193179130554E-1  -1.805412024259567E-2   6.948297023773193E-1  
 4.060000000000000E7     7.046689391136169E-1   6.374238431453705E-2  -5.138112902641296E-1   4.758659899234772E-1  -5.130843520164490E-1   4.751077592372894E-1   1.403914391994476E-2   7.085553407669067E-1  
 4.090000000000000E7     7.209242582321167E-1   1.498185470700264E-2  -4.769070744514465E-1   4.950727820396423E-1  -4.763783812522888E-1   4.958248734474182E-1   4.478989541530609E-2   7.182709574699402E-1  
 4.120000000000000E7     7.312327027320862E-1  -3.457169979810715E-2  -4.418381452560425E-1   5.118449926376343E-1  -4.396203160285950E-1   5.113364458084106E-1   8.210262656211853E-2   7.271733283996582E-1  
 4.150000000000000E7     7.364780306816101E-1  -7.984814047813416E-2  -4.039239883422852E-1   5.288578867912293E-1  -4.042463898658752E-1   5.252128839492798E-1   1.197616606950760E-1   7.315348982810974E-1  
 4.180000000000000E7     7.407876849174500E-1  -1.270771324634552E-1  -3.673154413700104E-1   5.409319996833801E-1  -3.670809864997864E-1   5.402193069458008E-1   1.570115983486176E-1   7.343007326126099E-1  
 4.210000000000000E7     7.401693463325501E-1  -1.721814423799515E-1  -3.303706049919128E-1   5.523387193679810E-1  -3.311670720577240E-1   5.522287487983704E-1   1.997429132461548E-1   7.324696779251099E-1  
 4.240000000000000E7     7.363121509552002E-1  -2.163669466972351E-1  -2.949802875518799E-1   5.613747239112854E-1  -2.949654757976532E-1   5.609833002090454E-1   2.429132610559464E-1   7.280682325363159E-1  
 4.270000000000000E7     7.308833599090576E-1  -2.588535547256470E-1  -2.582368552684784E-1   5.693372488021851E-1  -2.582865059375763E-1   5.684667229652405E-1   2.871530354022980E-1   7.192459106445313E-1  
 4.300000000000000E7     7.229481339454651E-1  -3.013244569301605E-1  -2.214837074279785E-1   5.756798982620239E-1  -2.221515923738480E-1   5.738215446472168E-1   3.335139751434326E-1   7.070136666297913E-1  
 4.330000000000000E7     7.128357887268066E-1  -3.413392901420593E-1  -1.864978671073914E-1   5.770680904388428E-1  -1.864523738622665E-1   5.782277584075928E-1   3.804944157600403E-1   6.897194981575012E-1  
 4.360000000000000E7     6.981397867202759E-1  -3.807536363601685E-1  -1.509165465831757E-1   5.816527009010315E-1  -1.497578173875809E-1   5.791723728179932E-1   4.282759428024292E-1   6.693593263626099E-1  
 4.390000000000000E7     6.845818758010864E-1  -4.175114929676056E-1  -1.140524446964264E-1   5.819068551063538E-1  -1.147760078310967E-1   5.809434652328491E-1   4.770272374153137E-1   6.401979327201843E-1  
 4.420000000000000E7     6.680184006690979E-1  -4.533993601799011E-1  -7.745280861854553E-2   5.785610675811768E-1  -7.834244519472122E-2   5.784413218498230E-1   5.257010459899902E-1   6.082245707511902E-1  
 4.450000000000000E7     6.500363945960999E-1  -4.871199429035187E-1  -4.158870130777359E-2   5.757234692573547E-1  -4.108026251196861E-2   5.745475888252258E-1   5.749295353889465E-1   5.716269612312317E-1  
 4.480000000000000E7     6.314514875411987E-1  -5.194842219352722E-1  -5.324166268110275E-3   5.696284770965576E-1  -5.378972738981247E-3   5.691519379615784E-1   6.220277547836304E-1   5.262950658798218E-1  
 4.510000000000000E7     6.118738055229187E-1  -5.500254034996033E-1   3.099295124411583E-2   5.623841285705566E-1   3.055923432111740E-2   5.608345270156860E-1   6.684315800666809E-1   4.737498462200165E-1  
 4.540000000000000E7     5.917376875877380E-1  -5.799534320831299E-1   6.825256347656250E-2   5.489952564239502E-1   6.746180355548859E-2   5.496764183044434E-1   7.123651504516602E-1   4.148299992084503E-1  
 4.570000000000000E7     5.694049000740051E-1  -6.094599962234497E-1   1.037667989730835E-1   5.361517667770386E-1   1.019292622804642E-1   5.359097123146057E-1   7.524807453155518E-1   3.475769162178040E-1  
 4.600000000000000E7     5.470212697982788E-1  -6.342265605926514E-1   1.383134424686432E-1   5.216093063354492E-1   1.375461816787720E-1   5.216740965843201E-1   7.879207730293274E-1   2.738351821899414E-1  
 4.630000000000000E7     5.232436656951904E-1  -6.621562242507935E-1   1.733552515506744E-1   5.020461082458496E-1   1.736760884523392E-1   5.011256337165833E-1   8.169155120849609E-1   1.914636343717575E-1  
 4.660000000000000E7     5.002703666687012E-1  -6.886374950408936E-1   2.064384073019028E-1   4.781638383865356E-1   2.059209644794464E-1   4.782318770885468E-1   8.373708724975586E-1   1.013560593128204E-1  
 4.690000000000000E7     4.752785563468933E-1  -7.115470170974731E-1   2.383697926998138E-1   4.526220560073853E-1   2.372418642044067E-1   4.511670172214508E-1   8.506020903587341E-1   4.672259092330933E-3  
 4.720000000000000E7     4.493022561073303E-1  -7.353540658950806E-1   2.674338817596436E-1   4.227521419525147E-1   2.674333453178406E-1   4.222300946712494E-1   8.500596284866333E-1  -9.640967100858688E-2  
 4.750000000000000E7     4.248746335506439E-1  -7.585619688034058E-1   2.939121723175049E-1   3.895423710346222E-1   2.935456037521362E-1   3.894500732421875E-1   8.392654657363892E-1  -2.034045457839966E-1  
 4.780000000000000E7     3.979967832565308E-1  -7.809830307960510E-1   3.158041238784790E-1   3.550263047218323E-1   3.158160448074341E-1   3.550226092338562E-1   8.121403455734253E-1  -3.109789788722992E-1  
 4.810000000000000E7     3.703877031803131E-1  -8.018772602081299E-1   3.360493481159210E-1   3.172586262226105E-1   3.350732922554016E-1   3.162660598754883E-1   7.699790000915527E-1  -4.202738702297211E-1  
 4.840000000000000E7     3.421416282653809E-1  -8.235045671463013E-1   3.500223457813263E-1   2.772841453552246E-1   3.500703275203705E-1   2.758394479751587E-1   7.117604017257690E-1  -5.250243544578552E-1  
 4.870000000000000E7     3.119672238826752E-1  -8.444644212722778E-1   3.592676520347595E-1   2.348557561635971E-1   3.587017357349396E-1   2.352315783500671E-1   6.384035348892212E-1  -6.237161159515381E-1  
 4.900000000000000E7     2.804115116596222E-1  -8.647955060005188E-1   3.621582388877869E-1   1.937480419874191E-1   3.631061315536499E-1   1.933680474758148E-1   5.510973930358887E-1  -7.135050892829895E-1  
 4.930000000000000E7     2.473672032356262E-1  -8.833394050598145E-1   3.612771034240723E-1   1.531613767147064E-1   3.612481355667114E-1   1.535016000270844E-1   4.496657252311707E-1  -7.912794351577759E-1  
 4.960000000000000E7     2.121024131774902E-1  -8.995196819305420E-1   3.543062210083008E-1   1.133996993303299E-1   3.540830612182617E-1   1.126419603824616E-1   3.382250964641571E-1  -8.537282943725586E-1  
 4.990000000000000E7     1.771495044231415E-1  -9.158390164375305E-1   3.424136936664581E-1   7.747826725244522E-2   3.417095541954041E-1   7.687007635831833E-2   2.206429243087769E-1  -9.003333449363709E-1  
 5.020000000000000E7     1.406792402267456E-1  -9.306557178497315E-1   3.268828094005585E-1   4.360328242182732E-2   3.270577788352966E-1   4.428527876734734E-2   9.614385664463043E-2  -9.298784732818604E-1  
 5.050000000000000E7     1.012569218873978E-1  -9.428155422210693E-1   3.081589043140411E-1   1.409847475588322E-2   3.074036836624146E-1   1.360007748007774E-2  -2.641421556472778E-2  -9.414322376251221E-1  
 5.080000000000000E7     6.221283599734306E-2  -9.535576701164246E-1   2.862132191658020E-1  -1.150937750935555E-2   2.864712178707123E-1  -1.104301586747170E-2  -1.498394906520844E-1  -9.376908540725708E-1  
 5.110000000000000E7     2.125285565853119E-2  -9.608540534973145E-1   2.636491060256958E-1  -3.267961740493774E-2   2.629677057266235E-1  -3.285683691501617E-2  -2.657546699047089E-1  -9.171257615089417E-1  
 5.140000000000000E7    -2.040134370326996E-2  -9.662044644355774E-1   2.397036701440811E-1  -4.982666298747063E-2   2.394583225250244E-1  -4.961327090859413E-2  -3.737092614173889E-1  -8.860296607017517E-1  
 5.170000000000000E7    -6.115159392356873E-2  -9.687749147415161E-1   2.160023450851440E-1  -6.217282637953758E-2   2.156822085380554E-1  -6.227950006723404E-2  -4.743816852569580E-1  -8.426756858825684E-1  
 5.200000000000000E7    -1.026868671178818E-1  -9.713068604469299E-1   1.925756037235260E-1  -7.215374708175659E-2   1.930541545152664E-1  -7.169012725353241E-2  -5.674216151237488E-1  -7.884230613708496E-1  
 5.230000000000000E7    -1.444352865219116E-1  -9.686967134475708E-1   1.699110567569733E-1  -7.793186604976654E-2   1.699441820383072E-1  -7.803784310817719E-2  -6.459586024284363E-1  -7.286232709884644E-1  
 5.260000000000000E7    -1.853321790695190E-1  -9.639658927917481E-1   1.492362916469574E-1  -8.136156946420670E-2   1.491215080022812E-1  -8.142668753862381E-2  -7.175474762916565E-1  -6.644261479377747E-1  
 5.290000000000000E7    -2.265685647726059E-1  -9.586406946182251E-1   1.296883076429367E-1  -8.291703462600708E-2   1.296414136886597E-1  -8.252225816249847E-2  -7.784511446952820E-1  -5.979583263397217E-1  
 5.320000000000000E7    -2.656601071357727E-1  -9.515885114669800E-1   1.118833869695664E-1  -8.189985901117325E-2   1.120849400758743E-1  -8.201109617948532E-2  -8.300986289978027E-1  -5.293476581573486E-1  
 5.350000000000000E7    -3.041759729385376E-1  -9.410433173179627E-1   9.571164846420288E-2  -7.919377088546753E-2   9.555055201053619E-2  -7.929883897304535E-2  -8.706805109977722E-1  -4.592287838459015E-1  
 5.380000000000000E7    -3.418479859828949E-1  -9.288305044174194E-1   8.141573518514633E-2  -7.595103234052658E-2   8.122949302196503E-2  -7.571709901094437E-2  -9.065349102020264E-1  -3.895932435989380E-1  
 5.410000000000000E7    -3.817145824432373E-1  -9.172152876853943E-1   6.860925257205963E-2  -7.186564803123474E-2   6.845622509717941E-2  -7.187902182340622E-2  -9.349775910377502E-1  -3.233552575111389E-1  
 5.440000000000000E7    -4.181806445121765E-1  -9.007499217987061E-1   5.712702125310898E-2  -6.685219705104828E-2   5.709583312273026E-2  -6.700963526964188E-2  -9.564440250396729E-1  -2.568434476852417E-1  
 5.470000000000000E7    -4.520196616649628E-1  -8.850689530372620E-1   4.731418564915657E-2  -6.166174635291100E-2   4.724046587944031E-2  -6.153682619333267E-2  -9.723531007766724E-1  -1.929638832807541E-1  
 5.500000000000000E7    -4.877618551254273E-1  -8.674419522285461E-1   3.870763257145882E-2  -5.603154748678207E-2   3.862351924180985E-2  -5.593816563487053E-2  -9.828664660453796E-1  -1.317289769649506E-1  
 5.530000000000000E7    -5.210524201393127E-1  -8.484423160552979E-1   3.131552040576935E-2  -5.031123757362366E-2   3.124882280826569E-2  -5.036868900060654E-2  -9.896669983863831E-1  -7.230451703071594E-2  
 5.560000000000000E7    -5.546602010726929E-1  -8.274306058883667E-1   2.508327737450600E-2  -4.491940513253212E-2   2.496277354657650E-2  -4.470086842775345E-2  -9.924926757812500E-1  -1.575762033462524E-2  
 5.590000000000000E7    -5.857303142547607E-1  -8.069409728050232E-1   1.967075280845165E-2  -3.921194747090340E-2   1.958380639553070E-2  -3.928964212536812E-2  -9.929547309875488E-1   3.757290542125702E-2  
 5.620000000000000E7    -6.166781187057495E-1  -7.825778722763062E-1   1.501450594514608E-2  -3.374662995338440E-2   1.501796953380108E-2  -3.362835571169853E-2  -9.901026487350464E-1   8.926533162593842E-2  
 5.650000000000000E7    -6.444411873817444E-1  -7.601471543312073E-1   1.131972018629313E-2  -2.848936431109905E-2   1.135019026696682E-2  -2.839634008705616E-2  -9.843871593475342E-1   1.373981088399887E-1  
 5.680000000000000E7    -6.731882095336914E-1  -7.356164455413818E-1   8.330294862389565E-3  -2.352179214358330E-2   8.231049403548241E-3  -2.346038445830345E-2  -9.770767688751221E-1   1.850133538246155E-1  
 5.710000000000000E7    -7.008445262908936E-1  -7.089758515357971E-1   5.761349108070135E-3  -1.870925165712833E-2   5.779329687356949E-3  -1.871638186275959E-2  -9.683883190155029E-1   2.272121012210846E-1  
 5.740000000000000E7    -7.274680733680725E-1  -6.832290887832642E-1   3.834319766610861E-3  -1.421978045254946E-2   3.849373664706945E-3  -1.420856453478336E-2  -9.587241411209106E-1   2.694136202335358E-1  
 5.770000000000000E7    -7.505382299423218E-1  -6.563265323638916E-1   2.358869882300496E-3  -9.958715178072453E-3   2.361001446843147E-3  -9.934592992067337E-3  -9.452335834503174E-1   3.079899549484253E-1  
 5.800000000000000E7    -7.749784588813782E-1  -6.274220347404480E-1   1.302497228607535E-3  -6.038829684257507E-3   1.296660862863064E-3  -6.006680894643068E-3  -9.339256882667542E-1   3.456979095935822E-1  
 5.830000000000000E7    -7.969402670860291E-1  -5.985730290412903E-1   5.678563611581922E-4  -2.318266546353698E-3   5.607643397524953E-4  -2.305602189153433E-3  -9.195751547813416E-1   3.808923363685608E-1  
 5.860000000000000E7    -8.197690248489380E-1  -5.701975822448731E-1   1.634111104067415E-4   1.077401335351169E-3   1.518074132036418E-4   1.072511426173151E-3  -9.047163128852844E-1   4.148997366428375E-1  
 5.890000000000000E7    -8.386014103889465E-1  -5.393531322479248E-1  -1.450299350835849E-6   4.208266269415617E-3   4.405894742376404E-6   4.234729800373316E-3  -8.892704248428345E-1   4.469648301601410E-1  
 5.920000000000000E7    -8.581004142761231E-1  -5.077051520347595E-1   1.122249159379862E-4   7.108064368367195E-3   1.098658685805276E-4   7.083915639668703E-3  -8.741354942321777E-1   4.773097932338715E-1  
 5.950000000000000E7    -8.755263686180115E-1  -4.769312739372253E-1   3.763576387427747E-4   9.727234952151775E-3   3.783110296353698E-4   9.724335744976997E-3  -8.562512397766113E-1   5.059613585472107E-1  
 5.980000000000000E7    -8.924459815025330E-1  -4.447718560695648E-1   8.672422263771296E-4   1.212475821375847E-2   8.046856382861733E-4   1.207875367254019E-2  -8.407237529754639E-1   5.340366363525391E-1  
 6.010000000000000E7    -9.062810540199280E-1  -4.128606021404266E-1   1.359267742373049E-3   1.427185721695423E-2   1.331197796389461E-3   1.420398708432913E-2  -8.237123489379883E-1   5.590120553970337E-1  
 6.040000000000000E7    -9.215309023857117E-1  -3.791098296642304E-1   2.106352243572474E-3   1.621768437325954E-2   2.067227382212877E-3   1.618974469602108E-2  -8.071854710578919E-1   5.842502713203430E-1  
 6.070000000000000E7    -9.348286390304565E-1  -3.480160832405090E-1   2.880651038140059E-3   1.795184612274170E-2   2.805869095027447E-3   1.788118481636047E-2  -7.891234159469605E-1   6.063772439956665E-1  
 6.100000000000000E7    -9.458805322647095E-1  -3.142920434474945E-1   3.746853210031986E-3   1.944941468536854E-2   3.706513904035091E-3   1.939374208450317E-2  -7.719705104827881E-1   6.301090717315674E-1  
 6.130000000000000E7    -9.573484659194946E-1  -2.798440754413605E-1   4.644530825316906E-3   2.075565792620182E-2   4.609197378158569E-3   2.075203135609627E-2  -7.540459036827087E-1   6.515719890594482E-1  
 6.160000000000000E7    -9.656355977058411E-1  -2.463464885950089E-1   5.601598881185055E-3   2.186153642833233E-2   5.602845922112465E-3   2.185694500803947E-2  -7.356242537498474E-1   6.710077524185181E-1  
 6.190000000000000E7    -9.735457897186279E-1  -2.121131271123886E-1   6.529743783175945E-3   2.283661812543869E-2   6.584483198821545E-3   2.275002747774124E-2  -7.170435786247253E-1   6.897153854370117E-1  
 6.220000000000000E7    -9.809228181838989E-1  -1.779468506574631E-1   7.533635944128037E-3   2.359653078019619E-2   7.536603137850761E-3   2.366378530859947E-2  -7.004728317260742E-1   7.074121236801148E-1  
 6.250000000000000E7    -9.867027997970581E-1  -1.426464170217514E-1   8.568955585360527E-3   2.428381331264973E-2   8.562375791370869E-3   2.426427602767944E-2  -6.833308339118958E-1   7.248835563659668E-1  
 6.280000000000000E7    -9.901067614555359E-1  -1.083616763353348E-1   9.537648409605026E-3   2.479295805096626E-2   9.453507140278816E-3   2.480760402977467E-2  -6.650571823120117E-1   7.411131858825684E-1  
 6.310000000000000E7    -9.935114979743958E-1  -7.227213680744171E-2   1.059133093804121E-2   2.525126561522484E-2   1.053651329129934E-2   2.517906017601490E-2  -6.465477943420410E-1   7.574750185012817E-1  
 6.340000000000000E7    -9.952601194381714E-1  -3.783750534057617E-2   1.154924929141998E-2   2.547734417021275E-2   1.153328083455563E-2   2.540362812578678E-2  -6.290861964225769E-1   7.728248834609985E-1  
 6.370000000000000E7    -9.962254762649536E-1  -3.036215901374817E-3   1.250149309635162E-2   2.560905553400517E-2   1.250627636909485E-2   2.552829124033451E-2  -6.102526783943176E-1   7.863378524780273E-1  
 6.400000000000000E7    -9.947939515113831E-1   3.192147612571716E-2   1.349597517400980E-2   2.567842230200768E-2   1.344973035156727E-2   2.551172673702240E-2  -5.932147502899170E-1   8.005029559135437E-1  
 6.430000000000000E7    -9.931215047836304E-1   6.760159134864807E-2   1.433491613715887E-2   2.558031864464283E-2   1.433426886796951E-2   2.544190362095833E-2  -5.749982595443726E-1   8.138276338577271E-1  
 6.460000000000000E7    -9.909980893135071E-1   1.016293466091156E-1   1.516087818890810E-2   2.536309510469437E-2   1.513395458459854E-2   2.530607953667641E-2  -5.567288994789124E-1   8.245601654052734E-1  
 6.490000000000000E7    -9.875903129577637E-1   1.355578005313873E-1   1.597402244806290E-2   2.507911436259747E-2   1.594914123415947E-2   2.514062821865082E-2  -5.405198335647583E-1   8.363411426544190E-1  
 6.520000000000000E7    -9.812613725662231E-1   1.698468029499054E-1   1.673041284084320E-2   2.482338435947895E-2   1.670262776315212E-2   2.471410855650902E-2  -5.225502252578735E-1   8.481841683387756E-1  
 6.550000000000000E7    -9.751790761947632E-1   2.034582197666168E-1   1.747502759099007E-2   2.439531497657299E-2   1.741077192127705E-2   2.432474121451378E-2  -5.045316815376282E-1   8.580707311630249E-1  
 6.580000000000000E7    -9.669489860534668E-1   2.377605587244034E-1   1.815473660826683E-2   2.388637512922287E-2   1.810591109097004E-2   2.383584156632423E-2  -4.875560402870178E-1   8.689274787902832E-1  
 6.610000000000000E7    -9.572636485099793E-1   2.713084816932678E-1   1.876313053071499E-2   2.333685755729675E-2   1.874954998493195E-2   2.317011542618275E-2  -4.688739776611328E-1   8.788193464279175E-1  
 6.640000000000000E7    -9.490227103233337E-1   3.039014339447022E-1   1.928943581879139E-2   2.277339994907379E-2   1.928557828068733E-2   2.275753952562809E-2  -4.516659975051880E-1   8.881402015686035E-1  
 6.670000000000000E7    -9.373445510864258E-1   3.367752134799957E-1   1.979759149253368E-2   2.204831875860691E-2   1.971433311700821E-2   2.207683399319649E-2  -4.357154965400696E-1   8.959004878997803E-1  
 6.700000000000000E7    -9.247644543647766E-1   3.692625761032105E-1   2.020090445876122E-2   2.136934176087380E-2   2.011382766067982E-2   2.126242406666279E-2  -4.179801642894745E-1   9.034321308135986E-1  
 6.730000000000000E7    -9.114727973937988E-1   4.009678959846497E-1   2.051537297666073E-2   2.061218768358231E-2   2.053798921406269E-2   2.054080367088318E-2  -4.009456634521484E-1   9.121488928794861E-1  
 6.760000000000000E7    -8.972855210304260E-1   4.323844313621521E-1   2.095840498805046E-2   1.982772909104824E-2   2.080739289522171E-2   1.978483609855175E-2  -3.834096789360046E-1   9.196313023567200E-1  
 6.790000000000000E7    -8.815839290618897E-1   4.635413885116577E-1   2.108117006719112E-2   1.902464032173157E-2   2.108278498053551E-2   1.895828172564507E-2  -3.668600916862488E-1   9.256793260574341E-1  
 6.820000000000000E7    -8.645595908164978E-1   4.930486679077148E-1   2.128777839243412E-2   1.813224516808987E-2   2.118813246488571E-2   1.815689168870449E-2  -3.501841723918915E-1   9.321421980857849E-1  
 6.850000000000000E7    -8.477736115455627E-1   5.236020684242249E-1   2.138033509254456E-2   1.739161647856236E-2   2.133404463529587E-2   1.731002703309059E-2  -3.337260782718658E-1   9.382656812667847E-1  
 6.880000000000000E7    -8.285212516784668E-1   5.520128607749939E-1   2.141142077744007E-2   1.643908768892288E-2   2.132086642086506E-2   1.637179404497147E-2  -3.162349462509155E-1   9.437981843948364E-1  
 6.910000000000000E7    -8.090753555297852E-1   5.807036161422730E-1   2.145979925990105E-2   1.559922378510237E-2   2.134724147617817E-2   1.552979834377766E-2  -2.997066378593445E-1   9.501226544380188E-1  
 6.940000000000000E7    -7.893438935279846E-1   6.082876920700073E-1   2.129340916872025E-2   1.473418343812227E-2   2.127979137003422E-2   1.468675769865513E-2  -2.839765548706055E-1   9.546326398849487E-1  
 6.970000000000000E7    -7.665026783943176E-1   6.353539228439331E-1   2.114655449986458E-2   1.381285209208727E-2   2.115895226597786E-2   1.372238248586655E-2  -2.668258845806122E-1   9.598436355590820E-1  
 7.000000000000000E7    -7.444419264793396E-1   6.621814370155335E-1   2.094711549580097E-2   1.287871226668358E-2   2.087981812655926E-2   1.284565683454275E-2  -2.506908476352692E-1   9.643335938453674E-1  
