#  HZ   S   RI   R     50.00 
! Rohde & Schwarz ZVT8 8Ports - Version 4.11 - 1300.0000k08 SN: 100242
! Date: 2026-07-31 15:02:52
! Measurements: S11 S21 S12 S22 
! 
 1.000000000000000E7    -3.989841639995575E-1   9.128736257553101E-1   5.273358896374703E-2   5.301408469676971E-2   5.241959542036057E-2   5.315309762954712E-2  -9.190925955772400E-1   3.835984766483307E-1  
 1.030000000000000E7    -3.658895492553711E-1   9.252768754959106E-1   5.607266724109650E-2   5.361700430512428E-2   5.580675601959229E-2   5.364069342613220E-2  -9.137954711914063E-1   3.958230614662170E-1  
 1.060000000000000E7    -3.294782042503357E-1   9.385215640068054E-1   5.959076434373856E-2   5.457379668951035E-2   5.950381234288216E-2   5.435922369360924E-2  -9.100130796432495E-1   4.078077375888825E-1  
 1.090000000000000E7    -2.963924407958984E-1   9.487073421478272E-1   6.314510852098465E-2   5.482950061559677E-2   6.314444541931152E-2   5.495432391762734E-2  -9.040449261665344E-1   4.190858304500580E-1  
 1.120000000000000E7    -2.604940533638001E-1   9.580036997795105E-1   6.714834272861481E-2   5.565838888287544E-2   6.660716980695725E-2   5.550426244735718E-2  -8.984353542327881E-1   4.303064942359924E-1  
 1.150000000000000E7    -2.242406457662582E-1   9.683123826980591E-1   7.095022499561310E-2   5.561519041657448E-2   7.054904848337174E-2   5.559037253260613E-2  -8.918657898902893E-1   4.397541284561157E-1  
 1.180000000000000E7    -1.882652193307877E-1   9.733173847198486E-1   7.457141578197479E-2   5.597906559705734E-2   7.473389804363251E-2   5.588501691818237E-2  -8.872961997985840E-1   4.505196809768677E-1  
 1.210000000000000E7    -1.527542769908905E-1   9.802376031875610E-1   7.894527167081833E-2   5.627817288041115E-2   7.875266671180725E-2   5.621801316738129E-2  -8.792977333068848E-1   4.624199867248535E-1  
 1.240000000000000E7    -1.162007004022598E-1   9.837147593498230E-1   8.322369307279587E-2   5.639295279979706E-2   8.319994807243347E-2   5.576134100556374E-2  -8.729880452156067E-1   4.727505445480347E-1  
 1.270000000000000E7    -7.876707613468170E-2   9.871269464492798E-1   8.808510750532150E-2   5.586738511919975E-2   8.752684295177460E-2   5.556261911988258E-2  -8.663709163665772E-1   4.860556721687317E-1  
 1.300000000000000E7    -4.246710240840912E-2   9.892241954803467E-1   9.218722581863403E-2   5.550628900527954E-2   9.225022792816162E-2   5.559691786766052E-2  -8.591135144233704E-1   4.968179166316986E-1  
 1.330000000000000E7    -4.622500389814377E-3   9.908488988876343E-1   9.723351895809174E-2   5.505618080496788E-2   9.711928665637970E-2   5.468959361314774E-2  -8.518973588943481E-1   5.084879994392395E-1  
 1.360000000000000E7     3.419372066855431E-2   9.899832010269165E-1   1.021657660603523E-1   5.471900105476379E-2   1.023453623056412E-1   5.402874201536179E-2  -8.446611166000366E-1   5.178395509719849E-1  
 1.390000000000000E7     7.093560695648193E-2   9.868594408035278E-1   1.074986308813095E-1   5.347979068756104E-2   1.070524752140045E-1   5.378408730030060E-2  -8.375525474548340E-1   5.292477011680603E-1  
 1.420000000000000E7     1.101322770118713E-1   9.834473729133606E-1   1.122987493872643E-1   5.277301743626595E-2   1.124047040939331E-1   5.274659395217896E-2  -8.309394121170044E-1   5.397306680679321E-1  
 1.450000000000000E7     1.482284814119339E-1   9.763646125793457E-1   1.181007623672485E-1   5.134163796901703E-2   1.177113354206085E-1   5.121158063411713E-2  -8.206121325492859E-1   5.520266294479370E-1  
 1.480000000000000E7     1.879983544349670E-1   9.695882201194763E-1   1.237344816327095E-1   4.978232830762863E-2   1.234522610902786E-1   5.027876794338226E-2  -8.135391473770142E-1   5.619785189628601E-1  
 1.510000000000000E7     2.256276905536652E-1   9.601342082023621E-1   1.292722225189209E-1   4.805935174226761E-2   1.292441040277481E-1   4.811125248670578E-2  -8.026386499404907E-1   5.737784504890442E-1  
 1.540000000000000E7     2.636490762233734E-1   9.498426914215088E-1   1.353355646133423E-1   4.716234281659126E-2   1.352522522211075E-1   4.647044464945793E-2  -7.970884442329407E-1   5.832090973854065E-1  
 1.570000000000000E7     3.026885688304901E-1   9.390062093734741E-1   1.416355669498444E-1   4.427557811141014E-2   1.416097730398178E-1   4.439042508602142E-2  -7.865705490112305E-1   5.954780578613281E-1  
 1.600000000000000E7     3.414302766323090E-1   9.235296249389648E-1   1.478421390056610E-1   4.176128655672073E-2   1.482087373733521E-1   4.159549996256828E-2  -7.777374982833862E-1   6.041254401206970E-1  
 1.630000000000000E7     3.789743185043335E-1   9.072540998458862E-1   1.551405489444733E-1   3.872337937355042E-2   1.546163856983185E-1   3.890476375818253E-2  -7.679533958435059E-1   6.166145801544190E-1  
 1.660000000000000E7     4.172105193138123E-1   8.879993557929993E-1   1.620992720127106E-1   3.538699820637703E-2   1.615935713052750E-1   3.491944447159767E-2  -7.566878199577332E-1   6.273785829544067E-1  
 1.690000000000000E7     4.542349576950073E-1   8.688024282455444E-1   1.693165600299835E-1   3.228655457496643E-2   1.689533442258835E-1   3.204585984349251E-2  -7.469757795333862E-1   6.368110179901123E-1  
 1.720000000000000E7     4.936028420925140E-1   8.472388386726379E-1   1.761270314455032E-1   2.760349586606026E-2   1.762116402387619E-1   2.806490100920200E-2  -7.362372279167175E-1   6.467340588569641E-1  
 1.750000000000000E7     5.262266993522644E-1   8.258709311485291E-1   1.847375184297562E-1   2.444059401750565E-2   1.847948282957077E-1   2.398669160902500E-2  -7.266165614128113E-1   6.587331295013428E-1  
 1.780000000000000E7     5.650096535682678E-1   7.962993979454041E-1   1.915547549724579E-1   1.884849369525909E-2   1.920934915542603E-1   1.931739784777165E-2  -7.139640450477600E-1   6.664679050445557E-1  
 1.810000000000000E7     5.995146632194519E-1   7.696787118911743E-1   2.014363408088684E-1   1.388615742325783E-2   1.999531239271164E-1   1.313730515539646E-2  -7.022711634635925E-1   6.795486211776733E-1  
 1.840000000000000E7     6.359298229217529E-1   7.386353611946106E-1   2.098992764949799E-1   6.354477256536484E-3   2.089120298624039E-1   6.983226165175438E-3  -6.893523931503296E-1   6.889573335647583E-1  
 1.870000000000000E7     6.679709553718567E-1   7.065148353576660E-1   2.185138016939163E-1   4.522781819105148E-4   2.175475656986237E-1   2.346169203519821E-4  -6.763345003128052E-1   6.981860399246216E-1  
 1.900000000000000E7     7.004787325859070E-1   6.711700558662415E-1   2.276071012020111E-1  -6.683992221951485E-3   2.273480594158173E-1  -7.444064132869244E-3  -6.629286408424377E-1   7.079094648361206E-1  
 1.930000000000000E7     7.328069806098938E-1   6.321986913681030E-1   2.369590401649475E-1  -1.640644483268261E-2   2.370653301477432E-1  -1.542775984853506E-2  -6.487331390380859E-1   7.184196710586548E-1  
 1.960000000000000E7     7.631716728210449E-1   5.905830264091492E-1   2.466713935136795E-1  -2.545744180679321E-2   2.466264516115189E-1  -2.465651556849480E-2  -6.364712715148926E-1   7.267515659332275E-1  
 1.990000000000000E7     7.899761199951172E-1   5.473665595054627E-1   2.567809820175171E-1  -3.593977913260460E-2   2.569884955883026E-1  -3.587638214230537E-2  -6.187558174133301E-1   7.379374504089356E-1  
 2.020000000000000E7     8.168070316314697E-1   5.001169443130493E-1   2.676557302474976E-1  -4.720833897590637E-2   2.665728628635407E-1  -4.688614606857300E-2  -6.041194200515747E-1   7.438085675239563E-1  
 2.050000000000000E7     8.424478769302368E-1   4.486706852912903E-1   2.781382501125336E-1  -5.986629053950310E-2   2.763601839542389E-1  -5.983647704124451E-2  -5.879937410354614E-1   7.526305317878723E-1  
 2.080000000000000E7     8.632469177246094E-1   3.940418958663940E-1   2.891517877578735E-1  -7.459846138954163E-2   2.891440391540527E-1  -7.443079352378845E-2  -5.706061124801636E-1   7.619696855545044E-1  
 2.110000000000000E7     8.828282952308655E-1   3.365828394889832E-1   3.004305660724640E-1  -9.199537336826325E-2   3.001268804073334E-1  -9.165363758802414E-2  -5.521149039268494E-1   7.690787911415100E-1  
 2.140000000000000E7     8.978388905525208E-1   2.754479348659515E-1   3.116411566734314E-1  -1.110810860991478E-1   3.104748129844666E-1  -1.093617379665375E-1  -5.330073237419128E-1   7.755252122879028E-1  
 2.170000000000000E7     9.084073901176453E-1   2.113389223814011E-1   3.228699564933777E-1  -1.310823708772659E-1   3.227722346782684E-1  -1.298452615737915E-1  -5.135919451713562E-1   7.812301516532898E-1  
 2.200000000000000E7     9.146555662155151E-1   1.397060900926590E-1   3.329379856586456E-1  -1.548295170068741E-1   3.330647349357605E-1  -1.542628109455109E-1  -4.911170303821564E-1   7.855499386787415E-1  
 2.230000000000000E7     9.138430356979370E-1   6.591736525297165E-2   3.431762158870697E-1  -1.813621073961258E-1   3.428367674350739E-1  -1.802288740873337E-1  -4.694518148899078E-1   7.889834046363831E-1  
 2.260000000000000E7     9.061046242713928E-1  -1.268843933939934E-2   3.516553640365601E-1  -2.111184298992157E-1   3.534705638885498E-1  -2.114396840333939E-1  -4.466956853866577E-1   7.901149988174439E-1  
 2.290000000000000E7     8.893451094627380E-1  -9.550504386425018E-2   3.595527708530426E-1  -2.450635731220245E-1   3.609513044357300E-1  -2.447893768548966E-1  -4.208349585533142E-1   7.898005843162537E-1  
 2.320000000000000E7     8.609131574630737E-1  -1.806891262531281E-1   3.652810454368591E-1  -2.845263481140137E-1   3.644218444824219E-1  -2.840080857276917E-1  -3.964936137199402E-1   7.897105216979981E-1  
 2.350000000000000E7     8.191406726837158E-1  -2.698563039302826E-1   3.667610883712769E-1  -3.288487792015076E-1   3.664829134941101E-1  -3.273673951625824E-1  -3.701317608356476E-1   7.842955589294434E-1  
 2.380000000000000E7     7.632240653038025E-1  -3.595621585845947E-1   3.640287518501282E-1  -3.760082721710205E-1   3.644939363002777E-1  -3.759771585464478E-1  -3.440112173557282E-1   7.750637531280518E-1  
 2.410000000000000E7     6.880599856376648E-1  -4.475069940090179E-1   3.535473346710205E-1  -4.306106567382813E-1   3.536256849765778E-1  -4.294180274009705E-1  -3.171544373035431E-1   7.624298334121704E-1  
 2.440000000000000E7     5.914208889007568E-1  -5.282335281372070E-1   3.353203237056732E-1  -4.904079139232636E-1   3.349706828594208E-1  -4.899294674396515E-1  -2.937246263027191E-1   7.447732686996460E-1  
 2.470000000000000E7     4.729267060756683E-1  -5.981740951538086E-1   3.050867617130280E-1  -5.535027980804443E-1   3.059366345405579E-1  -5.511366724967957E-1  -2.681759297847748E-1   7.207689285278320E-1  
 2.500000000000000E7     3.295678198337555E-1  -6.506902575492859E-1   2.599173188209534E-1  -6.162734031677246E-1   2.598108351230621E-1  -6.161811947822571E-1  -2.499559819698334E-1   6.941788196563721E-1  
 2.530000000000000E7     1.646200716495514E-1  -6.721104979515076E-1   2.001765817403793E-1  -6.780820488929749E-1   1.999519765377045E-1  -6.769495606422424E-1  -2.372215688228607E-1   6.595618724822998E-1  
 2.560000000000000E7    -1.428223773837090E-2  -6.551611423492432E-1   1.201328635215759E-1  -7.305240035057068E-1   1.193498447537422E-1  -7.308626770973206E-1  -2.337016761302948E-1   6.217105984687805E-1  
 2.590000000000000E7    -1.930333077907562E-1  -5.874711871147156E-1   2.186389267444611E-2  -7.690749764442444E-1   2.350504323840141E-2  -7.691396474838257E-1  -2.394242286682129E-1   5.859958529472351E-1  
 2.620000000000000E7    -3.585059642791748E-1  -4.699628949165344E-1  -8.805716782808304E-2  -7.849192619323731E-1  -8.638100326061249E-2  -7.839833498001099E-1  -2.559052705764771E-1   5.500921010971069E-1  
 2.650000000000000E7    -4.919224083423615E-1  -3.071171343326569E-1  -2.011338174343109E-1  -7.720292806625366E-1  -2.022090852260590E-1  -7.727419137954712E-1  -2.862380743026733E-1   5.211743116378784E-1  
 2.680000000000000E7    -5.725765824317932E-1  -1.115074455738068E-1  -3.098593354225159E-1  -7.326518893241882E-1  -3.102549314498901E-1  -7.311921715736389E-1  -3.239043653011322E-1   5.041844248771668E-1  
 2.710000000000000E7    -5.955027341842651E-1   9.179212152957916E-2  -4.043460190296173E-1  -6.684195995330811E-1  -4.041499197483063E-1  -6.684215664863586E-1  -3.611479103565216E-1   5.007793307304382E-1  
 2.740000000000000E7    -5.651644468307495E-1   2.909415960311890E-1  -4.755800664424896E-1  -5.880317091941834E-1  -4.752863049507141E-1  -5.853606462478638E-1  -4.013138711452484E-1   5.094033479690552E-1  
 2.770000000000000E7    -4.892651736736298E-1   4.603655338287354E-1  -5.251390337944031E-1  -4.989750385284424E-1  -5.248209238052368E-1  -4.987482428550720E-1  -4.336542189121246E-1   5.296271443367004E-1  
 2.800000000000000E7    -3.836098909378052E-1   5.994822382926941E-1  -5.523024201393127E-1  -4.087682664394379E-1  -5.512586236000061E-1  -4.090714752674103E-1  -4.611473679542542E-1   5.547675490379334E-1  
 2.830000000000000E7    -2.608002424240112E-1   7.013750076293945E-1  -5.608924031257629E-1  -3.260882496833801E-1  -5.609380006790161E-1  -3.271119296550751E-1  -4.773171246051788E-1   5.853625535964966E-1  
 2.860000000000000E7    -1.316207051277161E-1   7.701860666275024E-1  -5.558137893676758E-1  -2.517833411693573E-1  -5.567050576210022E-1  -2.503971755504608E-1  -4.864061474800110E-1   6.194923520088196E-1  
 2.890000000000000E7    -5.232229828834534E-3   8.099380731582642E-1  -5.428048968315125E-1  -1.862682104110718E-1  -5.413497090339661E-1  -1.858871579170227E-1  -4.894245862960815E-1   6.518652439117432E-1  
 2.920000000000000E7     1.168399080634117E-1   8.278447985649109E-1  -5.206585526466370E-1  -1.310495287179947E-1  -5.205254554748535E-1  -1.296151727437973E-1  -4.873979687690735E-1   6.829010248184204E-1  
 2.950000000000000E7     2.265439331531525E-1   8.249760866165161E-1  -4.967909157276154E-1  -8.372469246387482E-2  -4.961327314376831E-1  -8.300353586673737E-2  -4.797132909297943E-1   7.150851488113403E-1  
 2.980000000000000E7     3.276402354240418E-1   8.110527396202087E-1  -4.695425331592560E-1  -4.455715790390968E-2  -4.698396325111389E-1  -4.485993832349777E-2  -4.692271649837494E-1   7.431484460830689E-1  
 3.010000000000000E7     4.191707074642181E-1   7.849039435386658E-1  -4.430023133754730E-1  -1.092994585633278E-2  -4.420592784881592E-1  -1.181343570351601E-2  -4.554063677787781E-1   7.692072391510010E-1  
 3.040000000000000E7     5.000497102737427E-1   7.518334984779358E-1  -4.162542223930359E-1   1.432381384074688E-2  -4.159692823886871E-1   1.462398841977119E-2  -4.376790523529053E-1   7.929853796958923E-1  
 3.070000000000000E7     5.738621354103088E-1   7.113476991653442E-1  -3.899570107460022E-1   3.869852423667908E-2  -3.898586034774780E-1   3.801703453063965E-2  -4.195947349071503E-1   8.154299855232239E-1  
 3.100000000000000E7     6.373834609985352E-1   6.689684391021729E-1  -3.656569719314575E-1   5.679913610219955E-2  -3.647807538509369E-1   5.712443590164185E-2  -4.001174271106720E-1   8.357925415039063E-1  
 3.130000000000000E7     6.923685073852539E-1   6.227009296417236E-1  -3.408561348915100E-1   7.218862324953079E-2  -3.406061530113220E-1   7.122601568698883E-2  -3.789882063865662E-1   8.533171415328980E-1  
 3.160000000000000E7     7.429540753364563E-1   5.745722651481628E-1  -3.190155923366547E-1   8.424460142850876E-2  -3.189511597156525E-1   8.377797901630402E-2  -3.577952682971954E-1   8.710025548934937E-1  
 3.190000000000000E7     7.852979302406311E-1   5.262365937232971E-1  -2.973261773586273E-1   9.428782761096954E-2  -2.964333593845367E-1   9.426189213991165E-2  -3.344208598136902E-1   8.860633373260498E-1  
 3.220000000000000E7     8.238626122474670E-1   4.769353866577148E-1  -2.769768238067627E-1   1.016330122947693E-1  -2.762873172760010E-1   1.022038310766220E-1  -3.122089505195618E-1   8.993661999702454E-1  
 3.250000000000000E7     8.565536737442017E-1   4.266691505908966E-1  -2.582221627235413E-1   1.084007471799851E-1  -2.578431963920593E-1   1.086995303630829E-1  -2.881611287593842E-1   9.139605164527893E-1  
 3.280000000000000E7     8.834357261657715E-1   3.748985528945923E-1  -2.402640432119370E-1   1.134720891714096E-1  -2.387617975473404E-1   1.136080473661423E-1  -2.634407877922058E-1   9.249975085258484E-1  
 3.310000000000000E7     9.066781401634216E-1   3.257665932178497E-1  -2.222238779067993E-1   1.170784607529640E-1  -2.220600396394730E-1   1.173607558012009E-1  -2.369827032089233E-1   9.357759356498718E-1  
 3.340000000000000E7     9.276483058929443E-1   2.762615084648132E-1  -2.063544094562531E-1   1.208028644323349E-1  -2.056432813405991E-1   1.202178224921227E-1  -2.108005881309509E-1   9.438673853874207E-1  
 3.370000000000000E7     9.427552223205566E-1   2.264463603496552E-1  -1.907348334789276E-1   1.218029186129570E-1  -1.905767172574997E-1   1.216723248362541E-1  -1.853006780147553E-1   9.538530111312866E-1  
 3.400000000000000E7     9.565723538398743E-1   1.776992678642273E-1  -1.763752400875092E-1   1.232114583253861E-1  -1.764076948165894E-1   1.229123324155808E-1  -1.573563516139984E-1   9.600990414619446E-1  
 3.430000000000000E7     9.672206640243530E-1   1.298363953828812E-1  -1.626113355159760E-1   1.238428354263306E-1  -1.623722314834595E-1   1.233617439866066E-1  -1.294754743576050E-1   9.667256474494934E-1  
 3.460000000000000E7     9.739495515823364E-1   8.154584467411041E-2  -1.497123390436173E-1   1.235675290226936E-1  -1.499231904745102E-1   1.232860162854195E-1  -1.005781292915344E-1   9.732569456100464E-1  
 3.490000000000000E7     9.792134165763855E-1   3.430420905351639E-2  -1.369155794382095E-1   1.234396249055862E-1  -1.370181739330292E-1   1.225542053580284E-1  -7.297262549400330E-2   9.753989577293396E-1  
 3.520000000000000E7     9.818542003631592E-1  -1.116174459457398E-2  -1.255248188972473E-1   1.214885190129280E-1  -1.257345080375671E-1   1.213106587529182E-1  -4.194181412458420E-2   9.806834459304810E-1  
 3.550000000000000E7     9.802990555763245E-1  -5.797213315963745E-2  -1.149558052420616E-1   1.196273118257523E-1  -1.148927584290505E-1   1.195244491100311E-1  -1.271449029445648E-2   9.835852384567261E-1  
 3.580000000000000E7     9.792472720146179E-1  -1.021152585744858E-1  -1.042280122637749E-1   1.176135316491127E-1  -1.042615324258804E-1   1.172727644443512E-1   1.909334957599640E-2   9.834825396537781E-1  
 3.610000000000000E7     9.756231904029846E-1  -1.458024978637695E-1  -9.451662003993988E-2   1.155449897050858E-1  -9.411174058914185E-2   1.149595379829407E-1   5.244144797325134E-2   9.854516386985779E-1  
 3.640000000000000E7     9.690955281257629E-1  -1.889575570821762E-1  -8.517576009035111E-2   1.120666489005089E-1  -8.507088571786881E-2   1.117789968848229E-1   8.359415829181671E-2   9.839897751808167E-1  
 3.670000000000000E7     9.618232250213623E-1  -2.293215394020081E-1  -7.654958963394165E-2   1.087993010878563E-1  -7.606630772352219E-2   1.084179356694222E-1   1.166590452194214E-1   9.819778800010681E-1  
 3.700000000000000E7     9.518457651138306E-1  -2.707173824310303E-1  -6.790201365947723E-2   1.050871983170509E-1  -6.764771044254303E-2   1.048036441206932E-1   1.521907597780228E-1   9.775476455688477E-1  
 3.730000000000000E7     9.401280283927918E-1  -3.109959065914154E-1  -5.985584110021591E-2   1.005763188004494E-1  -5.991526693105698E-2   1.005995720624924E-1   1.843460053205490E-1   9.718003273010254E-1  
 3.760000000000000E7     9.276371002197266E-1  -3.484674096107483E-1  -5.225507915019989E-2   9.638690948486328E-2  -5.232327431440353E-2   9.661458432674408E-2   2.219928652048111E-1   9.653762578964233E-1  
 3.790000000000000E7     9.132317900657654E-1  -3.872676193714142E-1  -4.524240642786026E-2   9.199657291173935E-2  -4.500943422317505E-2   9.188048541545868E-2   2.582486271858215E-1   9.561114311218262E-1  
 3.820000000000000E7     8.978662490844727E-1  -4.248589277267456E-1  -3.858677297830582E-2   8.728554099798203E-2  -3.878250718116760E-2   8.693504333496094E-2   2.934892177581787E-1   9.465978145599365E-1  
 3.850000000000000E7     8.798164725303650E-1  -4.617356956005096E-1  -3.267562761902809E-2   8.195623755455017E-2  -3.227005898952484E-2   8.171297609806061E-2   3.321676254272461E-1   9.364955425262451E-1  
 3.880000000000000E7     8.615673780441284E-1  -4.960675537586212E-1  -2.649238705635071E-2   7.642251253128052E-2  -2.656444907188416E-2   7.626101374626160E-2   3.726046681404114E-1   9.209519624710083E-1  
 3.910000000000000E7     8.425074815750122E-1  -5.306264758110046E-1  -2.176797576248646E-2   7.068961858749390E-2  -2.135711535811424E-2   7.056878507137299E-2   4.121832251548767E-1   9.049924612045288E-1  
 3.940000000000000E7     8.202338218688965E-1  -5.618348121643066E-1  -1.686545833945274E-2   6.462458521127701E-2  -1.687647402286530E-2   6.439167261123657E-2   4.502726793289185E-1   8.854642510414124E-1  
 3.970000000000000E7     7.995679378509522E-1  -5.940807461738586E-1  -1.285320706665516E-2   5.830376222729683E-2  -1.277105044573546E-2   5.820329487323761E-2   4.895624816417694E-1   8.640403151512146E-1  
 4.000000000000000E7     7.754166126251221E-1  -6.245669722557068E-1  -9.030934423208237E-3   5.183319374918938E-2  -8.853919804096222E-3   5.165053158998489E-2   5.327333211898804E-1   8.398180007934570E-1  
 4.030000000000000E7     7.520395517349243E-1  -6.541324257850647E-1  -5.717553663998842E-3   4.510438442230225E-2  -5.863546393811703E-3   4.501432552933693E-2   5.727240443229675E-1   8.139816522598267E-1  
 4.060000000000000E7     7.267827987670898E-1  -6.825132369995117E-1  -3.262836486101151E-3   3.805455937981606E-2  -3.354078624397516E-3   3.791344165802002E-2   6.139413714408875E-1   7.830012440681458E-1  
 4.090000000000000E7     7.004275918006897E-1  -7.100520133972168E-1  -1.350655569694936E-3   3.091943636536598E-2  -1.426097587682307E-3   3.079937584698200E-2   6.538652181625366E-1   7.495598793029785E-1  
 4.120000000000000E7     6.739590167999268E-1  -7.361822724342346E-1  -1.563289843033999E-4   2.357658930122852E-2  -1.310041698161513E-4   2.346500009298325E-2   6.952554583549500E-1   7.117903828620911E-1  
 4.150000000000000E7     6.463975906372070E-1  -7.596538066864014E-1   4.908569389954209E-4   1.602963358163834E-2   5.753291188739240E-4   1.596949994564056E-2   7.352871298789978E-1   6.692293286323547E-1  
 4.180000000000000E7     6.172657608985901E-1  -7.844455242156982E-1   5.212920368649066E-4   8.460839278995991E-3   4.782595788128674E-4   8.470797911286354E-3   7.746105194091797E-1   6.246677637100220E-1  
 4.210000000000000E7     5.882242918014526E-1  -8.064163327217102E-1  -3.337292873766273E-4   8.986543398350477E-4  -2.939213882200420E-4   7.968134013935924E-4   8.137267827987671E-1   5.723380446434021E-1  
 4.240000000000000E7     5.581020712852478E-1  -8.264953494071960E-1  -1.994296209886670E-3  -6.808800622820854E-3  -2.006881171837449E-3  -6.744161248207092E-3   8.496683835983276E-1   5.169450640678406E-1  
 4.270000000000000E7     5.265259146690369E-1  -8.463729619979858E-1  -4.475687164813280E-3  -1.430462580174208E-2  -4.492931533604860E-3  -1.447223871946335E-2   8.828759193420410E-1   4.564309120178223E-1  
 4.300000000000000E7     4.945131242275238E-1  -8.658615946769714E-1  -7.823651656508446E-3  -2.180015854537487E-2  -7.688969373703003E-3  -2.170635387301445E-2   9.139325022697449E-1   3.912859261035919E-1  
 4.330000000000000E7     4.649651348590851E-1  -8.831501603126526E-1  -1.210538297891617E-2  -2.888388372957707E-2  -1.206330675631762E-2  -2.883556298911572E-2   9.400376677513123E-1   3.204418718814850E-1  
 4.360000000000000E7     4.312619566917419E-1  -8.983901143074036E-1  -1.737333834171295E-2  -3.583172336220741E-2  -1.714744232594967E-2  -3.567992150783539E-2   9.621528983116150E-1   2.460100799798966E-1  
 4.390000000000000E7     3.980789482593536E-1  -9.146468043327332E-1  -2.349637448787689E-2  -4.210598766803742E-2  -2.341839484870434E-2  -4.208128154277802E-2   9.779298305511475E-1   1.647280007600784E-1  
 4.420000000000000E7     3.648498654365540E-1  -9.265049695968628E-1  -3.046788647770882E-2  -4.777628555893898E-2  -3.043509274721146E-2  -4.785612598061562E-2   9.885911941528320E-1   8.051009476184845E-2  
 4.450000000000000E7     3.311679959297180E-1  -9.385463595390320E-1  -3.834077343344688E-2  -5.278525128960609E-2  -3.819520026445389E-2  -5.275283381342888E-2   9.920489192008972E-1  -7.871419191360474E-3  
 4.480000000000000E7     2.974895238876343E-1  -9.495964646339417E-1  -4.703520983457565E-2  -5.690257996320725E-2  -4.701567813754082E-2  -5.688678473234177E-2   9.854478836059570E-1  -9.965328872203827E-2  
 4.510000000000000E7     2.643578648567200E-1  -9.592398405075073E-1  -5.676900222897530E-2  -6.009823083877564E-2  -5.648457258939743E-2  -5.992313474416733E-2   9.697347283363342E-1  -1.952680945396423E-1  
 4.540000000000000E7     2.299424111843109E-1  -9.666541814804077E-1  -6.639265269041061E-2  -6.160172075033188E-2  -6.649251282215118E-2  -6.167475879192352E-2   9.446622133255005E-1  -2.900262475013733E-1  
 4.570000000000000E7     1.953955441713333E-1  -9.737804532051086E-1  -7.711578905582428E-2  -6.223382428288460E-2  -7.701338082551956E-2  -6.250391900539398E-2   9.091938138008118E-1  -3.851752877235413E-1  
 4.600000000000000E7     1.636750698089600E-1  -9.784434437751770E-1  -8.829624950885773E-2  -6.152268499135971E-2  -8.823738992214203E-2  -6.173607707023621E-2   8.632217645645142E-1  -4.791064262390137E-1  
 4.630000000000000E7     1.266597360372543E-1  -9.831324219703674E-1  -9.918317943811417E-2  -5.910816788673401E-2  -9.915256500244141E-2  -5.891461297869682E-2   8.042662739753723E-1  -5.694286823272705E-1  
 4.660000000000000E7     9.220014512538910E-2  -9.868656992912293E-1  -1.097657531499863E-1  -5.538365244865418E-2  -1.096891611814499E-1  -5.541898310184479E-2   7.366764545440674E-1  -6.525445580482483E-1  
 4.690000000000000E7     5.918754637241364E-2  -9.876641631126404E-1  -1.202466189861298E-1  -4.975474625825882E-2  -1.197606027126312E-1  -4.991006851196289E-2   6.570372581481934E-1  -7.314548492431641E-1  
 4.720000000000000E7     2.495913207530975E-2  -9.877612590789795E-1  -1.298698633909226E-1  -4.302504658699036E-2  -1.296494156122208E-1  -4.273567348718643E-2   5.698844790458679E-1  -8.002668023109436E-1  
 4.750000000000000E7    -8.137382566928864E-3  -9.880296587944031E-1  -1.384412646293640E-1  -3.468232601881027E-2  -1.381990909576416E-1  -3.473221510648727E-2   4.736349582672119E-1  -8.598409295082092E-1  
 4.780000000000000E7    -4.105574265122414E-2  -9.862050414085388E-1  -1.464795768260956E-1  -2.595213055610657E-2  -1.463121175765991E-1  -2.568197995424271E-2   3.739159703254700E-1  -9.077147245407105E-1  
 4.810000000000000E7    -7.456392794847488E-2  -9.833253026008606E-1  -1.530612111091614E-1  -1.500980649143457E-2  -1.525623351335526E-1  -1.511245034635067E-2   2.663287222385407E-1  -9.428209066390991E-1  
 4.840000000000000E7    -1.071195304393768E-1  -9.803951978683472E-1  -1.581475436687470E-1  -4.219575785100460E-3  -1.576273590326309E-1  -3.695194143801928E-3   1.589057147502899E-1  -9.656919240951538E-1  
 4.870000000000000E7    -1.402670741081238E-1  -9.750676155090332E-1  -1.614486724138260E-1   7.564834784716368E-3  -1.613331735134125E-1   7.469878531992436E-3   5.113232880830765E-2  -9.773204922676086E-1  
 4.900000000000000E7    -1.727751195430756E-1  -9.699719548225403E-1  -1.635343432426453E-1   1.903198286890984E-2  -1.635341644287109E-1   1.965357549488545E-2  -5.613420531153679E-2  -9.772570133209229E-1  
 4.930000000000000E7    -2.049413025379181E-1  -9.631980061531067E-1  -1.644246429204941E-1   3.108500875532627E-2  -1.646015346050263E-1   3.108730167150497E-2  -1.598204970359802E-1  -9.659687280654907E-1  
 4.960000000000000E7    -2.360795438289642E-1  -9.535909891128540E-1  -1.635829955339432E-1   4.284130781888962E-2  -1.630998849868774E-1   4.299797862768173E-2  -2.593739032745361E-1  -9.435709118843079E-1  
 4.990000000000000E7    -2.671413421630859E-1  -9.456031918525696E-1  -1.618579775094986E-1   5.367491766810417E-2  -1.613114029169083E-1   5.368188023567200E-2  -3.509573340415955E-1  -9.135718941688538E-1  
 5.020000000000000E7    -2.976667881011963E-1  -9.372910261154175E-1  -1.585607975721359E-1   6.462721526622772E-2  -1.588464230298996E-1   6.449775397777557E-2  -4.397251605987549E-1  -8.746592998504639E-1  
 5.050000000000000E7    -3.291458487510681E-1  -9.265502691268921E-1  -1.546347290277481E-1   7.464906573295593E-2  -1.541543900966644E-1   7.461528480052948E-2  -5.186299681663513E-1  -8.295012712478638E-1  
 5.080000000000000E7    -3.588754236698151E-1  -9.158711433410645E-1  -1.493479609489441E-1   8.395867049694061E-2  -1.496403664350510E-1   8.400470018386841E-2  -5.937500000000000E-1  -7.788520455360413E-1  
 5.110000000000000E7    -3.895309269428253E-1  -9.026486873626709E-1  -1.438640803098679E-1   9.280554950237274E-2  -1.435160189867020E-1   9.249027818441391E-2  -6.575532555580139E-1  -7.240199446678162E-1  
 5.140000000000000E7    -4.187525510787964E-1  -8.892383575439453E-1  -1.373717635869980E-1   1.003412604331970E-1  -1.373327970504761E-1   1.003718301653862E-1  -7.164778113365173E-1  -6.685649752616882E-1  
 5.170000000000000E7    -4.474342763423920E-1  -8.752192258834839E-1  -1.310520768165588E-1   1.072015911340714E-1  -1.308316886425018E-1   1.069167032837868E-1  -7.672004103660584E-1  -6.095595955848694E-1  
 5.200000000000000E7    -4.769780337810516E-1  -8.614403605461121E-1  -1.235133111476898E-1   1.136530116200447E-1  -1.240284219384193E-1   1.134702935814858E-1  -8.133209943771362E-1  -5.463941097259522E-1  
 5.230000000000000E7    -5.048241615295410E-1  -8.443322777748108E-1  -1.163397580385208E-1   1.184687837958336E-1  -1.160562932491303E-1   1.184549257159233E-1  -8.498852849006653E-1  -4.866797924041748E-1  
 5.260000000000000E7    -5.318889617919922E-1  -8.263285160064697E-1  -1.089372485876083E-1   1.230512857437134E-1  -1.089246422052383E-1   1.231246441602707E-1  -8.832560181617737E-1  -4.258455038070679E-1  
 5.290000000000000E7    -5.603423118591309E-1  -8.091060519218445E-1  -1.012839078903198E-1   1.273571699857712E-1  -1.013748496770859E-1   1.270419210195541E-1  -9.105656743049622E-1  -3.664414286613464E-1  
 5.320000000000000E7    -5.862820744514465E-1  -7.915681004524231E-1  -9.396602213382721E-2   1.303673386573792E-1  -9.397949278354645E-2   1.303582191467285E-1  -9.329562783241272E-1  -3.077611923217773E-1  
 5.350000000000000E7    -6.115466952323914E-1  -7.715039253234863E-1  -8.653360605239868E-2   1.323636174201965E-1  -8.653506636619568E-2   1.323601752519608E-1  -9.482840895652771E-1  -2.504878938198090E-1  
 5.380000000000000E7    -6.360393166542053E-1  -7.514481544494629E-1  -7.944798469543457E-2   1.344213038682938E-1  -7.931911200284958E-2   1.342396438121796E-1  -9.625331759452820E-1  -1.930709630250931E-1  
 5.410000000000000E7    -6.632729768753052E-1  -7.304470539093018E-1  -7.221066951751709E-2   1.362748742103577E-1  -7.197916507720947E-2   1.359899044036865E-1  -9.732047319412231E-1  -1.401757895946503E-1  
 5.440000000000000E7    -6.865592598915100E-1  -7.070217728614807E-1  -6.526681780815125E-2   1.369962096214294E-1  -6.520038098096848E-2   1.370197236537933E-1  -9.793792963027954E-1  -8.701201528310776E-2  
 5.470000000000000E7    -7.084581851959229E-1  -6.858637332916260E-1  -5.854919552803040E-2   1.377364397048950E-1  -5.848491191864014E-2   1.376585662364960E-1  -9.829255342483521E-1  -3.650569915771484E-2  
 5.500000000000000E7    -7.322592735290527E-1  -6.618096232414246E-1  -5.211978405714035E-2   1.378758847713471E-1  -5.206020921468735E-2   1.374964863061905E-1  -9.842306971549988E-1   1.185101270675659E-2  
 5.530000000000000E7    -7.533949017524719E-1  -6.371868252754211E-1  -4.598287865519524E-2   1.374176442623138E-1  -4.545988887548447E-2   1.375840008258820E-1  -9.823184013366699E-1   5.860488116741180E-2  
 5.560000000000000E7    -7.750056385993958E-1  -6.111986041069031E-1  -3.951325640082359E-2   1.372005045413971E-1  -3.963309526443481E-2   1.366392821073532E-1  -9.788391590118408E-1   1.041162908077240E-1  
 5.590000000000000E7    -7.954338788986206E-1  -5.870312452316284E-1  -3.369503468275070E-2   1.362230181694031E-1  -3.367352113127708E-2   1.361334323883057E-1  -9.744201302528381E-1   1.470493078231812E-1  
 5.620000000000000E7    -8.141847252845764E-1  -5.587015151977539E-1  -2.820764109492302E-2   1.349730938673019E-1  -2.801723591983318E-2   1.345957666635513E-1  -9.675095081329346E-1   1.884913891553879E-1  
 5.650000000000000E7    -8.318645358085632E-1  -5.331212878227234E-1  -2.264495939016342E-2   1.334992349147797E-1  -2.275319024920464E-2   1.334991157054901E-1  -9.590440392494202E-1   2.276169806718826E-1  
 5.680000000000000E7    -8.497850894927979E-1  -5.048196911811829E-1  -1.739840768277645E-2   1.322154700756073E-1  -1.733674854040146E-2   1.320686638355255E-1  -9.499971866607666E-1   2.660583257675171E-1  
 5.710000000000000E7    -8.663982152938843E-1  -4.756438136100769E-1  -1.231683883816004E-2   1.304746419191361E-1  -1.237428002059460E-2   1.303364187479019E-1  -9.394515156745911E-1   3.006125092506409E-1  
 5.740000000000000E7    -8.826875686645508E-1  -4.467522501945496E-1  -7.645064033567905E-3   1.287819445133209E-1  -7.838469929993153E-3   1.284493058919907E-1  -9.289687871932983E-1   3.356329202651978E-1  
 5.770000000000000E7    -8.958529829978943E-1  -4.185683131217957E-1  -3.583396784961224E-3   1.263860166072846E-1  -3.709112061187625E-3   1.261039078235626E-1  -9.151689410209656E-1   3.676843643188477E-1  
 5.800000000000000E7    -9.100006222724915E-1  -3.875184655189514E-1   8.022654801607132E-4   1.245539411902428E-1   1.029163133352995E-3   1.239917948842049E-1  -9.038375616073608E-1   3.999572694301605E-1  
 5.830000000000000E7    -9.223869442939758E-1  -3.571411371231079E-1   5.009522661566734E-3   1.218738257884979E-1   5.014160647988319E-3   1.217084378004074E-1  -8.895747065544128E-1   4.295484423637390E-1  
 5.860000000000000E7    -9.351750016212463E-1  -3.270245492458344E-1   8.889081887900829E-3   1.195879057049751E-1   8.865011855959892E-3   1.195377483963966E-1  -8.755809664726257E-1   4.584517180919647E-1  
 5.890000000000000E7    -9.449412226676941E-1  -2.955053150653839E-1   1.225869078189135E-2   1.170519441366196E-1   1.214287057518959E-2   1.170426234602928E-1  -8.605942130088806E-1   4.856675863265991E-1  
 5.920000000000000E7    -9.546317458152771E-1  -2.629274725914002E-1   1.588128507137299E-2   1.145023256540299E-1   1.609588414430618E-2   1.140820160508156E-1  -8.465078473091126E-1   5.127183198928833E-1  
 5.950000000000000E7    -9.628348946571350E-1  -2.315719127655029E-1   1.907568238675594E-2   1.117210835218430E-1   1.917736977338791E-2   1.114908233284950E-1  -8.293948769569397E-1   5.372684001922607E-1  
 5.980000000000000E7    -9.704881310462952E-1  -1.989417076110840E-1   2.240506187081337E-2   1.091440394520760E-1   2.205860614776611E-2   1.087721660733223E-1  -8.146610260009766E-1   5.619512796401978E-1  
 6.010000000000000E7    -9.753206372261047E-1  -1.678776144981384E-1   2.467620372772217E-2   1.063815802335739E-1   2.470441907644272E-2   1.060395911335945E-1  -7.989780306816101E-1   5.839968919754028E-1  
 6.040000000000000E7    -9.814493656158447E-1  -1.337994635105133E-1   2.753199636936188E-2   1.033760160207748E-1   2.759748697280884E-2   1.034934893250465E-1  -7.831409573554993E-1   6.066692471504211E-1  
 6.070000000000000E7    -9.863830804824829E-1  -1.025252491235733E-1   3.005354478955269E-2   1.006843149662018E-1   2.992420271039009E-2   1.006229072809219E-1  -7.664829492568970E-1   6.264401674270630E-1  
 6.100000000000000E7    -9.890863299369812E-1  -6.928436458110809E-2   3.266900405287743E-2   9.789089858531952E-2   3.240099549293518E-2   9.766519069671631E-2  -7.502847313880920E-1   6.478157639503479E-1  
 6.130000000000000E7    -9.912364482879639E-1  -3.535650670528412E-2   3.485557064414024E-2   9.507421404123306E-2   3.459810465574265E-2   9.499518573284149E-2  -7.334612607955933E-1   6.670380234718323E-1  
 6.160000000000000E7    -9.915989041328430E-1  -3.177225589752197E-3   3.663720935583115E-2   9.191854298114777E-2   3.674250841140747E-2   9.180535376071930E-2  -7.159620523452759E-1   6.845914721488953E-1  
 6.190000000000000E7    -9.910955429077148E-1   2.979098260402679E-2   3.830534964799881E-2   8.891727030277252E-2   3.849153593182564E-2   8.863537013530731E-2  -6.983656883239746E-1   7.023374438285828E-1  
 6.220000000000000E7    -9.903014898300171E-1   6.306627392768860E-2   4.015196487307549E-2   8.595416694879532E-2   4.012802988290787E-2   8.607684075832367E-2  -6.827030181884766E-1   7.185084223747253E-1  
 6.250000000000000E7    -9.879500269889832E-1   9.639526158571243E-2   4.161611944437027E-2   8.325191587209702E-2   4.167257249355316E-2   8.311929553747177E-2  -6.666554212570190E-1   7.346823215484619E-1  
 6.280000000000000E7    -9.834845662117004E-1   1.292564123868942E-1   4.304109513759613E-2   8.029030263423920E-2   4.272269085049629E-2   8.038846403360367E-2  -6.495299935340881E-1   7.495815753936768E-1  
 6.310000000000000E7    -9.786441326141357E-1   1.629537045955658E-1   4.446852579712868E-2   7.754129171371460E-2   4.427298158407211E-2   7.735396176576614E-2  -6.320114135742188E-1   7.653039693832398E-1  
 6.340000000000000E7    -9.727160930633545E-1   1.950469315052033E-1   4.553395137190819E-2   7.450900971889496E-2   4.540198296308518E-2   7.434552162885666E-2  -6.153486371040344E-1   7.793900966644287E-1  
 6.370000000000000E7    -9.660544395446777E-1   2.278139740228653E-1   4.664867371320725E-2   7.171008735895157E-2   4.651610553264618E-2   7.152844220399857E-2  -5.972627401351929E-1   7.920548319816589E-1  
 6.400000000000000E7    -9.573318362236023E-1   2.598921656608582E-1   4.753532260656357E-2   6.889248639345169E-2   4.738227277994156E-2   6.855570524930954E-2  -5.813053846359253E-1   8.055135607719421E-1  
 6.430000000000000E7    -9.480276107788086E-1   2.930276095867157E-1   4.813690483570099E-2   6.607546657323837E-2   4.820492863655090E-2   6.563966721296310E-2  -5.637282133102417E-1   8.179438114166260E-1  
 6.460000000000000E7    -9.384700655937195E-1   3.247573375701904E-1   4.881393164396286E-2   6.306304782629013E-2   4.867588728666306E-2   6.306140869855881E-2  -5.464955568313599E-1   8.280012607574463E-1  
 6.490000000000000E7    -9.284054636955261E-1   3.558301627635956E-1   4.921784251928330E-2   6.035615503787994E-2   4.927060008049011E-2   6.046338379383087E-2  -5.307920575141907E-1   8.396841883659363E-1  
 6.520000000000000E7    -9.149190783500671E-1   3.865892887115479E-1   4.958029091358185E-2   5.772146582603455E-2   4.955519735813141E-2   5.749163776636124E-2  -5.134741067886353E-1   8.508898615837097E-1  
 6.550000000000000E7    -9.022024273872376E-1   4.169298410415649E-1   4.995797947049141E-2   5.497616529464722E-2   4.992420971393585E-2   5.485591292381287E-2  -4.956761002540588E-1   8.601685762405396E-1  
 6.580000000000000E7    -8.871285319328308E-1   4.474276304244995E-1   5.021809786558151E-2   5.226797983050346E-2   5.007707327604294E-2   5.217449367046356E-2  -4.798482060432434E-1   8.709461688995361E-1  
 6.610000000000000E7    -8.707239627838135E-1   4.769610166549683E-1   5.021240189671516E-2   4.963980242609978E-2   5.009245127439499E-2   4.913731664419174E-2  -4.613609313964844E-1   8.806013464927673E-1  
 6.640000000000000E7    -8.560039997100830E-1   5.064797401428223E-1   5.016382038593292E-2   4.702821001410484E-2   5.015543103218079E-2   4.714774712920189E-2  -4.450895786285400E-1   8.890491724014282E-1  
 6.670000000000000E7    -8.377119898796082E-1   5.349777936935425E-1   5.014773830771446E-2   4.438790306448937E-2   4.990537092089653E-2   4.445538669824600E-2  -4.294068813323975E-1   8.970463871955872E-1  
 6.700000000000000E7    -8.186861276626587E-1   5.631175041198731E-1   4.968334361910820E-2   4.194331914186478E-2   4.945646971464157E-2   4.183767735958099E-2  -4.119459390640259E-1   9.043358564376831E-1  
 6.730000000000000E7    -7.994421720504761E-1   5.906192064285278E-1   4.921871423721314E-2   3.939861059188843E-2   4.932961240410805E-2   3.924211114645004E-2  -3.958236575126648E-1   9.124726653099060E-1  
 6.760000000000000E7    -7.795976996421814E-1   6.173423528671265E-1   4.912819340825081E-2   3.706865385174751E-2   4.883809760212898E-2   3.700793161988258E-2  -3.783216774463654E-1   9.195973277091980E-1  
 6.790000000000000E7    -7.579653263092041E-1   6.437249183654785E-1   4.830458015203476E-2   3.476868197321892E-2   4.824407771229744E-2   3.462887182831764E-2  -3.621690273284912E-1   9.258661866188049E-1  
 6.820000000000000E7    -7.354773879051209E-1   6.680607199668884E-1   4.773328080773354E-2   3.235964849591255E-2   4.758712276816368E-2   3.230223432183266E-2  -3.461834192276001E-1   9.322347640991211E-1  
 6.850000000000000E7    -7.129136323928833E-1   6.941770911216736E-1   4.694876819849014E-2   3.026250749826431E-2   4.686605185270309E-2   3.019858524203301E-2  -3.299053907394409E-1   9.379954934120178E-1  
 6.880000000000000E7    -6.887760758399963E-1   7.176046371459961E-1   4.617086797952652E-2   2.795692533254623E-2   4.598726332187653E-2   2.787839807569981E-2  -3.125973939895630E-1   9.437168836593628E-1  
 6.910000000000000E7    -6.639987826347351E-1   7.408080697059631E-1   4.534366354346275E-2   2.591110393404961E-2   4.520929604768753E-2   2.582584880292416E-2  -2.964642643928528E-1   9.499629735946655E-1  
 6.940000000000000E7    -6.388600468635559E-1   7.630131840705872E-1   4.424235597252846E-2   2.398222498595715E-2   4.421088472008705E-2   2.381142415106297E-2  -2.811250686645508E-1   9.546353816986084E-1  
 6.970000000000000E7    -6.113845109939575E-1   7.845212817192078E-1   4.310776665806770E-2   2.189807035028935E-2   4.322791472077370E-2   2.178612910211086E-2  -2.645192444324493E-1   9.590861201286316E-1  
 7.000000000000000E7    -5.842689871788025E-1   8.058016896247864E-1   4.202433302998543E-2   2.001948840916157E-2   4.192605242133141E-2   1.987934485077858E-2  -2.483773231506348E-1   9.637744426727295E-1  
