#  HZ   S   RI   R     50.00 
! Rohde & Schwarz ZVT8 8Ports - Version 4.11 - 1300.0000k08 SN: 100242
! Date: 2026-07-31 14:50:49
! Measurements: S11 S21 S12 S22 
! 
 1.000000000000000E7    -4.059477150440216E-1   9.098020792007446E-1   5.091460794210434E-2   5.169942602515221E-2   5.071675777435303E-2   5.170251429080963E-2  -9.191588163375855E-1   3.842683434486389E-1  
 1.030000000000000E7    -3.735396862030029E-1   9.223755002021790E-1   5.401483550667763E-2   5.204991251230240E-2   5.391771346330643E-2   5.201102420687676E-2  -9.133102297782898E-1   3.966739177703857E-1  
 1.060000000000000E7    -3.377311825752258E-1   9.357774853706360E-1   5.732697993516922E-2   5.280673131346703E-2   5.726371333003044E-2   5.260122194886208E-2  -9.099094867706299E-1   4.085401296615601E-1  
 1.090000000000000E7    -3.060804605484009E-1   9.462479352951050E-1   6.063002347946167E-2   5.314584821462631E-2   6.039497628808022E-2   5.293461307883263E-2  -9.040639400482178E-1   4.198708236217499E-1  
 1.120000000000000E7    -2.712165713310242E-1   9.557012915611267E-1   6.426749378442764E-2   5.394661426544190E-2   6.377951055765152E-2   5.365796387195587E-2  -8.984607458114624E-1   4.318942725658417E-1  
 1.150000000000000E7    -2.360108643770218E-1   9.659514427185059E-1   6.751687824726105E-2   5.350915342569351E-2   6.734031438827515E-2   5.362502112984657E-2  -8.914222717285156E-1   4.413343071937561E-1  
 1.180000000000000E7    -2.013286352157593E-1   9.714481830596924E-1   7.095826417207718E-2   5.400354415178299E-2   7.077149301767349E-2   5.383279919624329E-2  -8.868229985237122E-1   4.516719877719879E-1  
 1.210000000000000E7    -1.671228408813477E-1   9.785023927688599E-1   7.491051405668259E-2   5.409846827387810E-2   7.467626035213471E-2   5.398336052894592E-2  -8.797040581703186E-1   4.639423489570618E-1  
 1.240000000000000E7    -1.319305449724197E-1   9.826506376266480E-1   7.855202257633209E-2   5.411910265684128E-2   7.859630882740021E-2   5.382265150547028E-2  -8.732018470764160E-1   4.738815724849701E-1  
 1.270000000000000E7    -9.631016850471497E-2   9.865103363990784E-1   8.274597674608231E-2   5.356657132506371E-2   8.239596337080002E-2   5.328084155917168E-2  -8.665987253189087E-1   4.876751303672791E-1  
 1.300000000000000E7    -6.131713092327118E-2   9.894564747810364E-1   8.645307272672653E-2   5.324647203087807E-2   8.627045899629593E-2   5.317481234669685E-2  -8.591938018798828E-1   4.979161620140076E-1  
 1.330000000000000E7    -2.539503574371338E-2   9.916304349899292E-1   9.071842581033707E-2   5.279305949807167E-2   9.072449058294296E-2   5.238621681928635E-2  -8.522565960884094E-1   5.098329186439514E-1  
 1.360000000000000E7     1.190095022320747E-2   9.913412332534790E-1   9.485037624835968E-2   5.228407308459282E-2   9.517870843410492E-2   5.157962068915367E-2  -8.448430895805359E-1   5.194806456565857E-1  
 1.390000000000000E7     4.654862731695175E-2   9.892868399620056E-1   9.926456212997437E-2   5.099081620573998E-2   9.884209185838699E-2   5.120092630386353E-2  -8.374422192573547E-1   5.308002233505249E-1  
 1.420000000000000E7     8.339066803455353E-2   9.872784614562988E-1   1.035859957337380E-1   5.025058612227440E-2   1.035457700490952E-1   5.024925619363785E-2  -8.314858078956604E-1   5.411536693572998E-1  
 1.450000000000000E7     1.188684552907944E-1   9.815338253974915E-1   1.081329584121704E-1   4.899743571877480E-2   1.080167740583420E-1   4.894705489277840E-2  -8.211755752563477E-1   5.539839863777161E-1  
 1.480000000000000E7     1.563013792037964E-1   9.764832258224487E-1   1.128795817494392E-1   4.750338941812515E-2   1.127255782485008E-1   4.799095168709755E-2  -8.144209384918213E-1   5.640603303909302E-1  
 1.510000000000000E7     1.913274973630905E-1   9.692327380180359E-1   1.174001842737198E-1   4.606775194406509E-2   1.171055138111115E-1   4.610098153352737E-2  -8.033999800682068E-1   5.751147270202637E-1  
 1.540000000000000E7     2.262596786022186E-1   9.614990353584290E-1   1.220196709036827E-1   4.525388404726982E-2   1.220344007015228E-1   4.463047906756401E-2  -7.976248264312744E-1   5.850021839141846E-1  
 1.570000000000000E7     2.630262374877930E-1   9.532655477523804E-1   1.272249966859818E-1   4.283657297492027E-2   1.270698457956314E-1   4.267219454050064E-2  -7.877790331840515E-1   5.974032878875732E-1  
 1.600000000000000E7     2.988755404949188E-1   9.408953189849854E-1   1.318248957395554E-1   4.052704200148583E-2   1.321604400873184E-1   4.033853486180306E-2  -7.792609930038452E-1   6.061442494392395E-1  
 1.630000000000000E7     3.336982131004334E-1   9.286195039749146E-1   1.375069022178650E-1   3.801850602030754E-2   1.370351910591126E-1   3.822389617562294E-2  -7.697098255157471E-1   6.183872818946838E-1  
 1.660000000000000E7     3.679495453834534E-1   9.132962822914124E-1   1.426065117120743E-1   3.533813729882240E-2   1.423865705728531E-1   3.490022569894791E-2  -7.590464949607849E-1   6.292601227760315E-1  
 1.690000000000000E7     4.018850624561310E-1   8.982837200164795E-1   1.480047702789307E-1   3.310814872384071E-2   1.477948874235153E-1   3.280084207653999E-2  -7.498710155487061E-1   6.393401026725769E-1  
 1.720000000000000E7     4.381383359432221E-1   8.821825981140137E-1   1.527526825666428E-1   2.915162965655327E-2   1.528138220310211E-1   2.947417832911015E-2  -7.390357851982117E-1   6.497428417205811E-1  
 1.750000000000000E7     4.668876528739929E-1   8.661705255508423E-1   1.588997691869736E-1   2.723219618201256E-2   1.589088290929794E-1   2.672562934458256E-2  -7.295618653297424E-1   6.617400646209717E-1  
 1.780000000000000E7     5.028438568115234E-1   8.432192802429199E-1   1.635540276765823E-1   2.280820906162262E-2   1.639476865530014E-1   2.315071970224381E-2  -7.183455228805542E-1   6.696549057960510E-1  
 1.810000000000000E7     5.338486433029175E-1   8.239156603813171E-1   1.704568713903427E-1   1.926851831376553E-2   1.692760437726975E-1   1.862953789532185E-2  -7.071900963783264E-1   6.833245754241943E-1  
 1.840000000000000E7     5.669919848442078E-1   8.012028336524963E-1   1.761622875928879E-1   1.406393293291330E-2   1.755559593439102E-1   1.422883477061987E-2  -6.948390603065491E-1   6.934072375297546E-1  
 1.870000000000000E7     5.958542227745056E-1   7.784026265144348E-1   1.816892176866531E-1   1.016676612198353E-2   1.811144798994064E-1   9.801875799894333E-3  -6.825808286666870E-1   7.029911279678345E-1  
 1.900000000000000E7     6.258341073989868E-1   7.534941434860230E-1   1.875928789377213E-1   5.536152049899101E-3   1.870715320110321E-1   4.975702613592148E-3  -6.704524159431458E-1   7.126296758651733E-1  
 1.930000000000000E7     6.552407145500183E-1   7.262380719184876E-1   1.932205110788345E-1  -9.512342512607575E-4   1.934698671102524E-1  -3.226846456527710E-5  -6.582565903663635E-1   7.244889140129089E-1  
 1.960000000000000E7     6.840249300003052E-1   6.976236104965210E-1   1.990291476249695E-1  -6.369834765791893E-3   1.991275846958160E-1  -5.692249163985252E-3  -6.465295553207398E-1   7.330111861228943E-1  
 1.990000000000000E7     7.089521884918213E-1   6.681511402130127E-1   2.050965726375580E-1  -1.252433657646179E-2   2.052864879369736E-1  -1.252973359078169E-2  -6.305363774299622E-1   7.448600530624390E-1  
 2.020000000000000E7     7.349524497985840E-1   6.381359696388245E-1   2.116398811340332E-1  -1.874553970992565E-2   2.108298689126968E-1  -1.870219968259335E-2  -6.177198886871338E-1   7.519208192825317E-1  
 2.050000000000000E7     7.612984776496887E-1   6.055541038513184E-1   2.175085097551346E-1  -2.521939761936665E-2   2.160954624414444E-1  -2.581900730729103E-2  -6.038896441459656E-1   7.619611024856567E-1  
 2.080000000000000E7     7.836474180221558E-1   5.712475180625916E-1   2.237339615821838E-1  -3.313333541154862E-2   2.237523794174194E-1  -3.295025229454041E-2  -5.892924070358276E-1   7.731052041053772E-1  
 2.110000000000000E7     8.070306777954102E-1   5.368778705596924E-1   2.301873266696930E-1  -4.183940961956978E-2   2.300307601690292E-1  -4.165108501911163E-2  -5.734143257141113E-1   7.824041843414307E-1  
 2.140000000000000E7     8.273195624351502E-1   5.013856291770935E-1   2.363266944885254E-1  -5.067166686058044E-2   2.352932542562485E-1  -4.985743761062622E-2  -5.577593445777893E-1   7.909153103828430E-1  
 2.170000000000000E7     8.453928828239441E-1   4.653355479240418E-1   2.423976063728333E-1  -5.938720703125000E-2   2.421556860208511E-1  -5.858627706766129E-2  -5.418596267700195E-1   7.996218800544739E-1  
 2.200000000000000E7     8.643067479133606E-1   4.253491759300232E-1   2.481144368648529E-1  -6.927685439586639E-2   2.481221705675125E-1  -6.917086243629456E-2  -5.236520171165466E-1   8.080961108207703E-1  
 2.230000000000000E7     8.793607950210571E-1   3.859094679355621E-1   2.542407512664795E-1  -7.977091521024704E-2   2.537674903869629E-1  -7.926399260759354E-2  -5.070480704307556E-1   8.163086175918579E-1  
 2.260000000000000E7     8.940587639808655E-1   3.451286852359772E-1   2.596434354782105E-1  -9.093962609767914E-2   2.610161900520325E-1  -9.063747525215149E-2  -4.892170727252960E-1   8.238565921783447E-1  
 2.290000000000000E7     9.063105583190918E-1   3.028505742549896E-1   2.654531002044678E-1  -1.027476117014885E-1   2.660222649574280E-1  -1.021536141633987E-1  -4.694358706474304E-1   8.308672308921814E-1  
 2.320000000000000E7     9.154874682426453E-1   2.605708241462708E-1   2.715003490447998E-1  -1.160964518785477E-1   2.708201706409454E-1  -1.161924749612808E-1  -4.507408738136292E-1   8.396149277687073E-1  
 2.350000000000000E7     9.235482811927795E-1   2.149813622236252E-1   2.767936289310455E-1  -1.304293572902679E-1   2.761561572551727E-1  -1.294620335102081E-1  -4.309575557708740E-1   8.465114831924439E-1  
 2.380000000000000E7     9.293600320816040E-1   1.706068962812424E-1   2.815679907798767E-1  -1.439960002899170E-1   2.815695405006409E-1  -1.438243985176086E-1  -4.108586907386780E-1   8.524296283721924E-1  
 2.410000000000000E7     9.329606294631958E-1   1.236777231097221E-1   2.858658134937286E-1  -1.602121740579605E-1   2.853842675685883E-1  -1.596809774637222E-1  -3.889995217323303E-1   8.579489588737488E-1  
 2.440000000000000E7     9.330884814262390E-1   7.770772278308868E-2   2.904858887195587E-1  -1.772190630435944E-1   2.903699278831482E-1  -1.772844046354294E-1  -3.680262267589569E-1   8.628021478652954E-1  
 2.470000000000000E7     9.311030507087708E-1   3.062821179628372E-2   2.939509153366089E-1  -1.952296495437622E-1   2.937345504760742E-1  -1.932285279035568E-1  -3.442440629005432E-1   8.659461140632629E-1  
 2.500000000000000E7     9.272165298461914E-1  -1.832725107669830E-2   2.965344190597534E-1  -2.133750915527344E-1   2.962965369224548E-1  -2.137927860021591E-1  -3.204173445701599E-1   8.703982234001160E-1  
 2.530000000000000E7     9.194407463073731E-1  -6.679364293813705E-2   2.996000945568085E-1  -2.330434769392014E-1   2.994765937328339E-1  -2.325919270515442E-1  -2.964255213737488E-1   8.724086880683899E-1  
 2.560000000000000E7     9.085826277732849E-1  -1.149511113762856E-1   3.008483052253723E-1  -2.537138462066650E-1   3.018053472042084E-1  -2.540073990821838E-1  -2.719637751579285E-1   8.743804693222046E-1  
 2.590000000000000E7     8.937981128692627E-1  -1.629069894552231E-1   3.010281026363373E-1  -2.774770855903626E-1   3.015830814838409E-1  -2.774854004383087E-1  -2.459581941366196E-1   8.769621849060059E-1  
 2.620000000000000E7     8.753035068511963E-1  -2.121979594230652E-1   3.002358376979828E-1  -3.022859990596771E-1   3.001210689544678E-1  -3.008495867252350E-1  -2.172627747058868E-1   8.756021261215210E-1  
 2.650000000000000E7     8.537759184837341E-1  -2.600351274013519E-1   2.990141510963440E-1  -3.258462548255920E-1   2.988178431987763E-1  -3.265603482723236E-1  -1.911503225564957E-1   8.732860088348389E-1  
 2.680000000000000E7     8.274390697479248E-1  -3.069739639759064E-1   2.961316108703613E-1  -3.527901172637940E-1   2.954055964946747E-1  -3.536865115165710E-1  -1.632971465587616E-1   8.697514533996582E-1  
 2.710000000000000E7     7.972620725631714E-1  -3.536823987960815E-1   2.887139618396759E-1  -3.819234073162079E-1   2.882576286792755E-1  -3.811869621276856E-1  -1.344526857137680E-1   8.660261631011963E-1  
 2.740000000000000E7     7.632809281349182E-1  -3.992843031883240E-1   2.832802534103394E-1  -4.109014272689819E-1   2.818856537342072E-1  -4.118283987045288E-1  -1.050343737006187E-1   8.565868139266968E-1  
 2.770000000000000E7     7.259279489517212E-1  -4.410228729248047E-1   2.721826434135437E-1  -4.421820640563965E-1   2.715699076652527E-1  -4.429459273815155E-1  -7.496072351932526E-2   8.480955958366394E-1  
 2.800000000000000E7     6.841635704040527E-1  -4.818403720855713E-1   2.599719166755676E-1  -4.736492931842804E-1   2.611376345157623E-1  -4.741556346416473E-1  -4.397594928741455E-2   8.355409502983093E-1  
 2.830000000000000E7     6.360836029052734E-1  -5.198146104812622E-1   2.442011088132858E-1  -5.060694813728333E-1   2.429762482643127E-1  -5.070313215255737E-1  -1.621312648057938E-2   8.234802484512329E-1  
 2.860000000000000E7     5.835095047950745E-1  -5.532221198081970E-1   2.244743108749390E-1  -5.408346056938171E-1   2.228077054023743E-1  -5.418111085891724E-1   1.682546176016331E-2   8.058056831359863E-1  
 2.890000000000000E7     5.284388065338135E-1  -5.810866355895996E-1   2.000949680805206E-1  -5.766551494598389E-1   2.000505477190018E-1  -5.757898688316345E-1   4.573104530572891E-2   7.867007851600647E-1  
 2.920000000000000E7     4.680371582508087E-1  -6.065853834152222E-1   1.747923791408539E-1  -6.107392311096191E-1   1.724838316440582E-1  -6.100429892539978E-1   7.376725226640701E-2   7.643047571182251E-1  
 2.950000000000000E7     4.049476981163025E-1  -6.230992078781128E-1   1.406269222497940E-1  -6.471858024597168E-1   1.401852816343308E-1  -6.454055905342102E-1   1.030282229185104E-1   7.383220195770264E-1  
 2.980000000000000E7     3.378787040710449E-1  -6.350204944610596E-1   1.041438281536102E-1  -6.797084808349609E-1   1.028973907232285E-1  -6.806858777999878E-1   1.283424496650696E-1   7.089103460311890E-1  
 3.010000000000000E7     2.689057588577271E-1  -6.387287974357605E-1   5.949905514717102E-2  -7.124729156494141E-1   6.057307124137878E-2  -7.126273512840271E-1   1.526379585266113E-1   6.765741705894470E-1  
 3.040000000000000E7     1.965414434671402E-1  -6.325527429580689E-1   1.097910664975643E-2  -7.428854703903198E-1   9.506138041615486E-3  -7.427984476089478E-1   1.720137447118759E-1   6.394644379615784E-1  
 3.070000000000000E7     1.271181404590607E-1  -6.182931065559387E-1  -4.390245676040649E-2  -7.680588364601135E-1  -4.382520914077759E-2  -7.662262320518494E-1   1.904339492321014E-1   6.029803156852722E-1  
 3.100000000000000E7     5.808617174625397E-2  -5.923067927360535E-1  -1.047123670578003E-1  -7.895361781120300E-1  -1.038261204957962E-1  -7.879332900047302E-1   2.046405524015427E-1   5.623086690902710E-1  
 3.130000000000000E7    -8.178874850273132E-3  -5.597817897796631E-1  -1.707679927349091E-1  -8.042042255401611E-1  -1.694851070642471E-1  -8.040789365768433E-1   2.109179347753525E-1   5.179492831230164E-1  
 3.160000000000000E7    -6.854332238435745E-2  -5.129449963569641E-1  -2.401328384876251E-1  -8.131181597709656E-1  -2.395822703838348E-1  -8.131145834922791E-1   2.138766944408417E-1   4.758292436599731E-1  
 3.190000000000000E7    -1.232139542698860E-1  -4.597377181053162E-1  -3.135244250297546E-1  -8.131000399589539E-1  -3.120146393775940E-1  -8.119475841522217E-1   2.123769968748093E-1   4.305483102798462E-1  
 3.220000000000000E7    -1.712347418069840E-1  -3.986375629901886E-1  -3.886254131793976E-1  -8.057104349136353E-1  -3.879880607128143E-1  -8.038653731346130E-1   2.024077028036118E-1   3.875691592693329E-1  
 3.250000000000000E7    -2.050183117389679E-1  -3.300567567348480E-1  -4.649426341056824E-1  -7.874604463577271E-1  -4.650112390518189E-1  -7.860094904899597E-1   1.870682984590530E-1   3.476889133453369E-1  
 3.280000000000000E7    -2.272932529449463E-1  -2.563363015651703E-1  -5.413291454315186E-1  -7.594172358512878E-1  -5.391075611114502E-1  -7.584487795829773E-1   1.667335033416748E-1   3.071283698081970E-1  
 3.310000000000000E7    -2.422834783792496E-1  -1.832071095705032E-1  -6.127999424934387E-1  -7.212886214256287E-1  -6.128678321838379E-1  -7.190414071083069E-1   1.392136365175247E-1   2.742077410221100E-1  
 3.340000000000000E7    -2.402903288602829E-1  -1.094977632164955E-1  -6.826043725013733E-1  -6.731660366058350E-1  -6.809665560722351E-1  -6.728285551071167E-1   1.103898361325264E-1   2.456209361553192E-1  
 3.370000000000000E7    -2.274520099163055E-1  -3.581189364194870E-2  -7.439936399459839E-1  -6.165661215782166E-1  -7.439753413200378E-1  -6.165098547935486E-1   7.435600459575653E-2   2.227375060319901E-1  
 3.400000000000000E7    -2.029941529035568E-1   3.080578707158566E-2  -7.984930276870728E-1  -5.535959601402283E-1  -7.985005974769592E-1  -5.532072186470032E-1   3.963743522763252E-2   2.082414627075195E-1  
 3.430000000000000E7    -1.694073826074600E-1   9.088125824928284E-2  -8.460416793823242E-1  -4.844413399696350E-1  -8.453497886657715E-1  -4.847037792205811E-1   5.231212824583054E-3   1.969897747039795E-1  
 3.460000000000000E7    -1.269991248846054E-1   1.445440649986267E-1  -8.846850991249085E-1  -4.124463498592377E-1  -8.823990821838379E-1  -4.118017554283142E-1  -2.903787046670914E-2   1.968153715133667E-1  
 3.490000000000000E7    -7.938463985919952E-2   1.853190958499908E-1  -9.135820269584656E-1  -3.351033926010132E-1  -9.127065539360046E-1  -3.360485434532166E-1  -6.227148696780205E-2   1.958853304386139E-1  
 3.520000000000000E7    -2.426566742360592E-2   2.211360633373261E-1  -9.334276318550110E-1  -2.589825391769409E-1  -9.328877925872803E-1  -2.603023350238800E-1  -9.360698610544205E-2   2.054348587989807E-1  
 3.550000000000000E7     3.396090492606163E-2   2.444946914911270E-1  -9.452435970306397E-1  -1.833839267492294E-1  -9.441499114036560E-1  -1.837586909532547E-1  -1.205193102359772E-1   2.212156504392624E-1  
 3.580000000000000E7     8.961459249258041E-2   2.605806887149811E-1  -9.496215581893921E-1  -1.071965992450714E-1  -9.491242170333862E-1  -1.081306189298630E-1  -1.435188204050064E-1   2.372123897075653E-1  
 3.610000000000000E7     1.441220343112946E-1   2.636756002902985E-1  -9.484912157058716E-1  -3.479469195008278E-2  -9.467228651046753E-1  -3.428239375352860E-2  -1.621046513319016E-1   2.581034004688263E-1  
 3.640000000000000E7     1.993344426155090E-1   2.622736096382141E-1  -9.381660819053650E-1   3.519089892506599E-2  -9.373449683189392E-1   3.553867340087891E-2  -1.759782135486603E-1   2.830234169960022E-1  
 3.670000000000000E7     2.505807876586914E-1   2.526549100875855E-1  -9.248870611190796E-1   1.027987226843834E-1  -9.226113557815552E-1   1.028117686510086E-1  -1.839435994625092E-1   3.053031563758850E-1  
 3.700000000000000E7     2.958554029464722E-1   2.377103418111801E-1  -9.045132398605347E-1   1.676062941551209E-1  -9.041008949279785E-1   1.675880551338196E-1  -1.880181580781937E-1   3.321591019630432E-1  
 3.730000000000000E7     3.402056992053986E-1   2.189082503318787E-1  -8.799322247505188E-1   2.288112044334412E-1  -8.805464506149292E-1   2.273379564285278E-1  -1.856194287538528E-1   3.568550646305084E-1  
 3.760000000000000E7     3.742648363113403E-1   1.948749572038651E-1  -8.538937568664551E-1   2.859919369220734E-1  -8.549146652221680E-1   2.856538593769074E-1  -1.796531528234482E-1   3.826810121536255E-1  
 3.790000000000000E7     4.075658321380615E-1   1.645528525114059E-1  -8.253110051155090E-1   3.408876955509186E-1  -8.250533342361450E-1   3.408155143260956E-1  -1.693928837776184E-1   4.048751294612885E-1  
 3.820000000000000E7     4.340463876724243E-1   1.351115703582764E-1  -7.942612171173096E-1   3.921622037887573E-1  -7.930185794830322E-1   3.911301493644714E-1  -1.530069410800934E-1   4.288673400878906E-1  
 3.850000000000000E7     4.584448635578156E-1   1.027807369828224E-1  -7.605860233306885E-1   4.403610825538635E-1  -7.582423686981201E-1   4.421313405036926E-1  -1.353832185268402E-1   4.497739374637604E-1  
 3.880000000000000E7     4.750984013080597E-1   7.328026741743088E-2  -7.221534848213196E-1   4.887892305850983E-1  -7.219224572181702E-1   4.874638915061951E-1  -1.115706339478493E-1   4.683070480823517E-1  
 3.910000000000000E7     4.904682338237763E-1   3.920605406165123E-2  -6.841429471969605E-1   5.312432050704956E-1  -6.844363808631897E-1   5.326172113418579E-1  -8.187991380691528E-2   4.831136763095856E-1  
 3.940000000000000E7     4.975684285163879E-1   7.021587342023850E-3  -6.434780955314636E-1   5.724593997001648E-1  -6.432242393493652E-1   5.724883079528809E-1  -5.015751719474793E-2   4.957927763462067E-1  
 3.970000000000000E7     5.043787956237793E-1  -2.475049719214439E-2  -6.010156869888306E-1   6.120111346244812E-1  -6.005630493164063E-1   6.116279959678650E-1  -1.189445331692696E-2   5.026198029518127E-1  
 4.000000000000000E7     5.065692663192749E-1  -5.354591831564903E-2  -5.557706356048584E-1   6.503723859786987E-1  -5.546781420707703E-1   6.504135727882385E-1   2.809290587902069E-2   5.061405897140503E-1  
 4.030000000000000E7     5.037925839424133E-1  -7.880209386348724E-2  -5.077383518218994E-1   6.881483793258667E-1  -5.081543326377869E-1   6.868417263031006E-1   6.956008076667786E-2   5.041371583938599E-1  
 4.060000000000000E7     5.014522671699524E-1  -1.053828969597817E-1  -4.573768377304077E-1   7.211679816246033E-1  -4.567760527133942E-1   7.205059528350830E-1   1.194271817803383E-1   4.962861835956574E-1  
 4.090000000000000E7     4.969641566276550E-1  -1.288736164569855E-1  -4.027111232280731E-1   7.523737549781799E-1  -4.019477665424347E-1   7.530192732810974E-1   1.664095520973206E-1   4.810305237770081E-1  
 4.120000000000000E7     4.879921674728394E-1  -1.500200331211090E-1  -3.459151685237885E-1   7.823603749275208E-1  -3.442994356155396E-1   7.810041308403015E-1   2.218855470418930E-1   4.566872119903565E-1  
 4.150000000000000E7     4.804716110229492E-1  -1.624402701854706E-1  -2.804059088230133E-1   8.097352385520935E-1  -2.826457917690277E-1   8.059893250465393E-1   2.754351198673248E-1   4.216104447841644E-1  
 4.180000000000000E7     4.738248586654663E-1  -1.757545024156570E-1  -2.132393270730972E-1   8.308484554290772E-1  -2.134816795587540E-1   8.301293253898621E-1   3.268103003501892E-1   3.786300420761108E-1  
 4.210000000000000E7     4.674360156059265E-1  -1.828275620937347E-1  -1.395370215177536E-1   8.475367426872253E-1  -1.403795927762985E-1   8.487937450408936E-1   3.792458772659302E-1   3.198595345020294E-1  
 4.240000000000000E7     4.620085358619690E-1  -1.880723536014557E-1  -6.167474389076233E-2   8.582223057746887E-1  -6.201418116688728E-2   8.579689264297485E-1   4.258303642272949E-1   2.482651919126511E-1  
 4.270000000000000E7     4.626220464706421E-1  -1.904280334711075E-1   2.225414663553238E-2   8.598933815956116E-1   2.224317938089371E-2   8.597510457038879E-1   4.642835557460785E-1   1.630692183971405E-1  
 4.300000000000000E7     4.664834439754486E-1  -1.911023408174515E-1   1.109389290213585E-1   8.511022329330444E-1   1.099708750844002E-1   8.503026366233826E-1   4.913739562034607E-1   6.359277665615082E-2  
 4.330000000000000E7     4.752934575080872E-1  -1.924933791160584E-1   1.985236853361130E-1   8.283400535583496E-1   1.998582184314728E-1   8.288994431495667E-1   5.013422369956970E-1  -4.927052557468414E-2  
 4.360000000000000E7     4.896587729454041E-1  -1.914125829935074E-1   2.910756468772888E-1   7.926415801048279E-1   2.889910340309143E-1   7.912433147430420E-1   4.911626875400543E-1  -1.702816486358643E-1  
 4.390000000000000E7     5.134561657905579E-1  -1.980118155479431E-1   3.755426406860352E-1   7.388209104537964E-1   3.750316500663757E-1   7.393218278884888E-1   4.497040808200836E-1  -2.979736626148224E-1  
 4.420000000000000E7     5.389120578765869E-1  -2.115050554275513E-1   4.513489902019501E-1   6.702870726585388E-1   4.512105882167816E-1   6.700854301452637E-1   3.846533596515656E-1  -4.204408824443817E-1  
 4.450000000000000E7     5.699430704116821E-1  -2.309883832931519E-1   5.145155787467957E-1   5.875390172004700E-1   5.152367949485779E-1   5.865702629089356E-1   2.921371757984161E-1  -5.325701236724854E-1  
 4.480000000000000E7     6.004506349563599E-1  -2.609473168849945E-1   5.602788925170898E-1   4.948321282863617E-1   5.604276657104492E-1   4.949155151844025E-1   1.726415306329727E-1  -6.235412359237671E-1  
 4.510000000000000E7     6.294654011726379E-1  -3.003558814525604E-1   5.870352387428284E-1   3.977170586585999E-1   5.856125950813294E-1   3.983062505722046E-1   3.488072007894516E-2  -6.885128021240234E-1  
 4.540000000000000E7     6.497458815574646E-1  -3.514493703842163E-1   5.918955206871033E-1   3.028312623500824E-1   5.925163030624390E-1   3.022036850452423E-1  -1.092457696795464E-1  -7.239661216735840E-1  
 4.570000000000000E7     6.625432968139648E-1  -4.071595370769501E-1   5.823044776916504E-1   2.129800021648407E-1   5.803101658821106E-1   2.129962742328644E-1  -2.576409876346588E-1  -7.293454408645630E-1  
 4.600000000000000E7     6.686848998069763E-1  -4.648882746696472E-1   5.550179481506348E-1   1.320820450782776E-1   5.561817288398743E-1   1.334073096513748E-1  -3.970173299312592E-1  -7.046729326248169E-1  
 4.630000000000000E7     6.614432930946350E-1  -5.272043943405151E-1   5.204479694366455E-1   6.464772671461105E-2   5.199165940284729E-1   6.463433057069778E-2  -5.201450586318970E-1  -6.593303680419922E-1  
 4.660000000000000E7     6.459250450134277E-1  -5.871688723564148E-1   4.797564148902893E-1   1.010143384337425E-2   4.786789715290070E-1   1.048124767839909E-2  -6.292961835861206E-1  -5.998406410217285E-1  
 4.690000000000000E7     6.229436397552490E-1  -6.437597870826721E-1   4.330252707004547E-1  -3.349377959966660E-2   4.320911765098572E-1  -3.299262374639511E-2  -7.207321524620056E-1  -5.259408950805664E-1  
 4.720000000000000E7     5.923530459403992E-1  -6.961860060691834E-1   3.882318735122681E-1  -6.636673212051392E-2   3.881385624408722E-1  -6.627301871776581E-2  -7.946285009384155E-1  -4.471062719821930E-1  
 4.750000000000000E7     5.581832528114319E-1  -7.438808679580689E-1   3.446657657623291E-1  -8.915398269891739E-2   3.435154855251312E-1  -8.906637877225876E-2  -8.522738218307495E-1  -3.645830750465393E-1  
 4.780000000000000E7     5.193825364112854E-1  -7.860977649688721E-1   3.045131564140320E-1  -1.053665801882744E-1   3.035994172096252E-1  -1.046075001358986E-1  -8.964420557022095E-1  -2.839711606502533E-1  
 4.810000000000000E7     4.775486886501312E-1  -8.246318101882935E-1   2.661727070808411E-1  -1.146022081375122E-1   2.655758261680603E-1  -1.139065399765968E-1  -9.272928833961487E-1  -2.050901800394058E-1  
 4.840000000000000E7     4.339852333068848E-1  -8.578987717628479E-1   2.325289696455002E-1  -1.194034963846207E-1   2.320946902036667E-1  -1.195980161428452E-1  -9.492054581642151E-1  -1.304257065057755E-1  
 4.870000000000000E7     3.883323371410370E-1  -8.870031237602234E-1   2.021906971931458E-1  -1.212402209639549E-1   2.020455896854401E-1  -1.209501028060913E-1  -9.634332656860352E-1  -5.950077623128891E-2  
 4.900000000000000E7     3.422827720642090E-1  -9.120925664901733E-1   1.753025203943253E-1  -1.201521530747414E-1   1.747626364231110E-1  -1.205249428749085E-1  -9.714515805244446E-1   7.656034082174301E-3  
 4.930000000000000E7     2.956675291061401E-1  -9.332974553108215E-1   1.511386483907700E-1  -1.175349727272987E-1   1.513695865869522E-1  -1.173186004161835E-1  -9.740796089172363E-1   7.055000215768814E-2  
 4.960000000000000E7     2.479299604892731E-1  -9.488606452941895E-1   1.300445050001144E-1  -1.133207902312279E-1   1.297361850738525E-1  -1.133078411221504E-1  -9.711559414863586E-1   1.283461600542069E-1  
 4.990000000000000E7     2.024289071559906E-1  -9.633411169052124E-1   1.120142787694931E-1  -1.080846264958382E-1   1.117314770817757E-1  -1.077210530638695E-1  -9.661706089973450E-1   1.813051402568817E-1  
 5.020000000000000E7     1.569050699472427E-1  -9.747682213783264E-1   9.581007063388825E-2  -1.021488010883331E-1   9.608148038387299E-2  -1.020591855049133E-1  -9.578846096992493E-1   2.323627471923828E-1  
 5.050000000000000E7     1.103158146142960E-1  -9.827506542205811E-1   8.190629631280899E-2  -9.617364406585693E-2   8.168464899063110E-2  -9.605115652084351E-2  -9.479386806488037E-1   2.784426212310791E-1  
 5.080000000000000E7     6.533483415842056E-2  -9.886422157287598E-1   6.965421885251999E-2  -8.963670581579208E-2   6.962965428829193E-2  -8.954905718564987E-2  -9.340983033180237E-1   3.224090337753296E-1  
 5.110000000000000E7     1.985111832618713E-2  -9.916737675666809E-1   5.895953252911568E-2  -8.361535519361496E-2   5.904594436287880E-2  -8.333371579647064E-2  -9.213548898696899E-1   3.618807792663574E-1  
 5.140000000000000E7    -2.480943500995636E-2  -9.920608997344971E-1   4.988219961524010E-2  -7.721725106239319E-2   4.978307336568832E-2  -7.748114317655563E-2  -9.084228277206421E-1   4.004160463809967E-1  
 5.170000000000000E7    -6.731081008911133E-2  -9.908965229988098E-1   4.185419529676437E-2  -7.129728794097900E-2   4.188323020935059E-2  -7.115092128515244E-2  -8.917477726936340E-1   4.351381659507752E-1  
 5.200000000000000E7    -1.103888899087906E-1  -9.894981980323792E-1   3.485984727740288E-2  -6.540630757808685E-2   3.507994860410690E-2  -6.540002673864365E-2  -8.744171857833862E-1   4.681564569473267E-1  
 5.230000000000000E7    -1.526312083005905E-1  -9.831067919731140E-1   2.918656356632710E-2  -5.966678634285927E-2   2.906099334359169E-2  -5.979826673865318E-2  -8.589482307434082E-1   4.985341727733612E-1  
 5.260000000000000E7    -1.935073137283325E-1  -9.752849340438843E-1   2.406357601284981E-2  -5.453636497259140E-2   2.397334948182106E-2  -5.443699285387993E-2  -8.421326875686646E-1   5.277497768402100E-1  
 5.290000000000000E7    -2.346160709857941E-1  -9.678701162338257E-1   1.952297985553742E-2  -4.937060922384262E-2   1.969488710165024E-2  -4.929331317543984E-2  -8.255205154418945E-1   5.540849566459656E-1  
 5.320000000000000E7    -2.733198404312134E-1  -9.585247635841370E-1   1.587052457034588E-2  -4.454191029071808E-2   1.593410596251488E-2  -4.464695230126381E-2  -8.086540699005127E-1   5.797086358070374E-1  
 5.350000000000000E7    -3.114415705204010E-1  -9.462656378746033E-1   1.278018765151501E-2  -4.000383242964745E-2   1.272386685013771E-2  -3.995578363537788E-2  -7.918199300765991E-1   6.020779609680176E-1  
 5.380000000000000E7    -3.481714427471161E-1  -9.327521920204163E-1   1.024560537189245E-2  -3.574685007333756E-2   1.006239093840122E-2  -3.582953661680222E-2  -7.730845212936401E-1   6.256216168403626E-1  
 5.410000000000000E7    -3.875218033790588E-1  -9.196640849113464E-1   7.874100469052792E-3  -3.208660706877708E-2   7.782591972500086E-3  -3.194228932261467E-2  -7.569530606269836E-1   6.468051075935364E-1  
 5.440000000000000E7    -4.232020676136017E-1  -9.023367166519165E-1   6.060186307877302E-3  -2.820792980492115E-2   6.041474174708128E-3  -2.820535749197006E-2  -7.392165660858154E-1   6.662743091583252E-1  
 5.470000000000000E7    -4.560946524143219E-1  -8.860042691230774E-1   4.429963883012533E-3  -2.485514804720879E-2   4.424312151968479E-3  -2.482981421053410E-2  -7.215516567230225E-1   6.855819225311279E-1  
 5.500000000000000E7    -4.915325641632080E-1  -8.680407404899597E-1   3.240509424358606E-3  -2.169485203921795E-2   3.198683727532625E-3  -2.165888808667660E-2  -7.046968340873718E-1   7.044506072998047E-1  
 5.530000000000000E7    -5.240908265113831E-1  -8.483393192291260E-1   2.215333981439471E-3  -1.874002628028393E-2   2.172922017052770E-3  -1.874419301748276E-2  -6.872400641441345E-1   7.204426527023315E-1  
 5.560000000000000E7    -5.570842027664185E-1  -8.269928693771362E-1   1.378270681016147E-3  -1.610185019671917E-2   1.387984142638743E-3  -1.603432185947895E-2  -6.705709099769592E-1   7.362909317016602E-1  
 5.590000000000000E7    -5.876919031143189E-1  -8.065936565399170E-1   7.710759527981281E-4  -1.360328681766987E-2   7.421436021104455E-4  -1.361273322254419E-2  -6.532921791076660E-1   7.523295879364014E-1  
 5.620000000000000E7    -6.182565093040466E-1  -7.820590138435364E-1   2.694249269552529E-4  -1.134838070720434E-2   3.186323447152972E-4  -1.127607841044664E-2  -6.367422342300415E-1   7.666571736335754E-1  
 5.650000000000000E7    -6.461328864097595E-1  -7.598263025283814E-1  -1.196336233988404E-5  -9.278426878154278E-3   1.386192161589861E-5  -9.251425974071026E-3  -6.193033456802368E-1   7.797855138778687E-1  
 5.680000000000000E7    -6.746685504913330E-1  -7.349826693534851E-1  -2.103621081914753E-4  -7.403107360005379E-3  -1.799647579900920E-4  -7.421021815389395E-3  -6.023008823394775E-1   7.931075692176819E-1  
 5.710000000000000E7    -7.019138932228088E-1  -7.083939313888550E-1  -3.125946386717260E-4  -5.738103296607733E-3  -3.110744873993099E-4  -5.744095891714096E-3  -5.863521695137024E-1   8.056520819664002E-1  
 5.740000000000000E7    -7.284682989120483E-1  -6.821575760841370E-1  -3.012020897585899E-4  -4.212870728224516E-3  -3.222634841222316E-4  -4.203149117529392E-3  -5.692205429077148E-1   8.176940679550171E-1  
 5.770000000000000E7    -7.512814402580261E-1  -6.555117964744568E-1  -2.715491573326290E-4  -2.855560742318630E-3  -2.649160160217434E-4  -2.805938245728612E-3  -5.533156394958496E-1   8.273971080780029E-1  
 5.800000000000000E7    -7.754949927330017E-1  -6.265136599540710E-1  -1.551515597384423E-4  -1.629195525310934E-3  -1.778521400410682E-4  -1.622294541448355E-3  -5.366362929344177E-1   8.402796983718872E-1  
 5.830000000000000E7    -7.978182435035706E-1  -5.978118777275085E-1  -2.535918065404985E-5  -5.547884502448142E-4  -3.945649586967193E-5  -5.415743216872215E-4  -5.208656787872315E-1   8.496374487876892E-1  
 5.860000000000000E7    -8.202188611030579E-1  -5.690726637840271E-1   1.676216634223238E-4   3.754841454792768E-4   1.808437664294615E-4   3.719169471878558E-4  -5.040485858917236E-1   8.593853712081909E-1  
 5.890000000000000E7    -8.393390774726868E-1  -5.381681323051453E-1   3.463091852609068E-4   1.242301426827908E-3   3.550329129211605E-4   1.187121262773871E-3  -4.882294237613678E-1   8.681378364562988E-1  
 5.920000000000000E7    -8.590055704116821E-1  -5.071231722831726E-1   5.767652764916420E-4   1.897375332191587E-3   5.782796652056277E-4   1.901707495562732E-3  -4.723503589630127E-1   8.780151605606079E-1  
 5.950000000000000E7    -8.761460185050964E-1  -4.758368432521820E-1   7.817664882168174E-4   2.479794435203075E-3   7.928143022581935E-4   2.483330667018890E-3  -4.556354284286499E-1   8.851320743560791E-1  
 5.980000000000000E7    -8.934544324874878E-1  -4.435963630676270E-1   1.049305312335491E-3   2.979728858917952E-3   1.026307931169868E-3   2.938749967142940E-3  -4.394954442977905E-1   8.938627243041992E-1  
 6.010000000000000E7    -9.067254066467285E-1  -4.120172858238220E-1   1.272725174203515E-3   3.338815178722143E-3   1.267809420824051E-3   3.347472986206412E-3  -4.248451292514801E-1   9.015644788742065E-1  
 6.040000000000000E7    -9.219405651092529E-1  -3.781774938106537E-1   1.473516225814819E-3   3.657161956652999E-3   1.490263966843486E-3   3.625975223258138E-3  -4.089228212833405E-1   9.093183279037476E-1  
 6.070000000000000E7    -9.356334805488586E-1  -3.472308814525604E-1   1.687963027507067E-3   3.874549176543951E-3   1.692358404397965E-3   3.868873463943601E-3  -3.937243223190308E-1   9.152815937995911E-1  
 6.100000000000000E7    -9.466289281845093E-1  -3.129211664199829E-1   1.882871263660491E-3   3.998620435595512E-3   1.864681718870997E-3   3.984233364462853E-3  -3.774434030056000E-1   9.227223992347717E-1  
 6.130000000000000E7    -9.579609632492065E-1  -2.783895730972290E-1   2.006694907322526E-3   4.058111924678087E-3   1.998058520257473E-3   4.078662954270840E-3  -3.620471060276032E-1   9.293303489685059E-1  
 6.160000000000000E7    -9.665912389755249E-1  -2.444926202297211E-1   2.110235858708620E-3   4.052145406603813E-3   2.095765899866819E-3   4.034535493701696E-3  -3.468638062477112E-1   9.339495897293091E-1  
 6.190000000000000E7    -9.741320013999939E-1  -2.102846652269363E-1   2.225219970569015E-3   4.009916912764311E-3   2.231122693046928E-3   3.986471332609654E-3  -3.314288854598999E-1   9.388405084609985E-1  
 6.220000000000000E7    -9.813977479934692E-1  -1.761735975742340E-1   2.255420200526714E-3   3.892812179401517E-3   2.299375832080841E-3   3.887073369696736E-3  -3.175415694713593E-1   9.446209073066711E-1  
 6.250000000000000E7    -9.870172739028931E-1  -1.411757171154022E-1   2.316059777513146E-3   3.724523354321718E-3   2.291837939992547E-3   3.698161803185940E-3  -3.027049303054810E-1   9.498621821403503E-1  
 6.280000000000000E7    -9.905390739440918E-1  -1.062222421169281E-1   2.283280249685049E-3   3.482305677607656E-3   2.269651740789414E-3   3.503042738884687E-3  -2.872285842895508E-1   9.545662999153137E-1  
 6.310000000000000E7    -9.940891861915588E-1  -7.036770880222321E-2   2.242277609184384E-3   3.247101325541735E-3   2.249625977128744E-3   3.218151861801744E-3  -2.717759609222412E-1   9.594889879226685E-1  
 6.340000000000000E7    -9.955735802650452E-1  -3.550150990486145E-2   2.114689908921719E-3   2.977996366098523E-3   2.162534277886152E-3   2.934030257165432E-3  -2.570580542087555E-1   9.639597535133362E-1  
 6.370000000000000E7    -9.963611960411072E-1  -8.123070001602173E-4   2.028704853728414E-3   2.666382351890206E-3   2.010382711887360E-3   2.639956306666136E-3  -2.418552935123444E-1   9.665287137031555E-1  
 6.400000000000000E7    -9.949715137481690E-1   3.420211374759674E-2   1.841074088588357E-3   2.294250531122088E-3   1.824883744120598E-3   2.254630206152797E-3  -2.272753715515137E-1   9.711932539939880E-1  
 6.430000000000000E7    -9.935587644577026E-1   6.999836862087250E-2   1.616202061995864E-3   1.888093771412969E-3   1.589144580066204E-3   1.909162616357207E-3  -2.122995555400848E-1   9.742035865783691E-1  
 6.460000000000000E7    -9.910745620727539E-1   1.045975461602211E-1   1.309849089011550E-3   1.510764937847853E-3   1.301923999562860E-3   1.522179460152984E-3  -1.978481411933899E-1   9.761232137680054E-1  
 6.490000000000000E7    -9.876524806022644E-1   1.384295225143433E-1   9.881579317152500E-4   1.093498663976789E-3   9.854901582002640E-4   1.114504877477884E-3  -1.841185539960861E-1   9.798738956451416E-1  
 6.520000000000000E7    -9.813258647918701E-1   1.726912558078766E-1   6.243831012398005E-4   7.108475547283888E-4   5.827595014125109E-4   6.860091234557331E-4  -1.693047136068344E-1   9.831664562225342E-1  
 6.550000000000000E7    -9.751219153404236E-1   2.061484456062317E-1   1.631730119697750E-4   2.562492736615241E-4   1.614119682926685E-4   2.692257694434375E-4  -1.541580557823181E-1   9.839701652526856E-1  
 6.580000000000000E7    -9.669026732444763E-1   2.407437562942505E-1  -2.801971568260342E-4  -1.775189448380843E-4  -3.106820222456008E-4  -1.355896965833381E-4  -1.400803625583649E-1   9.878600835800171E-1  
 6.610000000000000E7    -9.567492604255676E-1   2.746267914772034E-1  -7.939739734865725E-4  -6.076929857954383E-4  -8.051368058659136E-4  -6.127350497990847E-4  -1.240192055702210E-1   9.885833263397217E-1  
 6.640000000000000E7    -9.483065009117127E-1   3.076099753379822E-1  -1.376472413539887E-3  -1.022916752845049E-3  -1.375926192849875E-3  -1.051452942192555E-3  -1.101480573415756E-1   9.907643198966980E-1  
 6.670000000000000E7    -9.362199902534485E-1   3.403026461601257E-1  -1.989580690860748E-3  -1.502481638453901E-3  -1.998106250539422E-3  -1.475160359404981E-3  -9.699897468090057E-2   9.926670193672180E-1  
 6.700000000000000E7    -9.235812425613403E-1   3.727715611457825E-1  -2.688172971829772E-3  -1.891283551231027E-3  -2.670465037226677E-3  -1.884523080661893E-3  -8.237153291702271E-2   9.927571415901184E-1  
 6.730000000000000E7    -9.100754857063294E-1   4.047247767448425E-1  -3.388355486094952E-3  -2.275690436363220E-3  -3.396361134946346E-3  -2.268971875309944E-3  -6.838352978229523E-2   9.947249293327332E-1  
 6.760000000000000E7    -8.960359096527100E-1   4.360824227333069E-1  -4.185853991657496E-3  -2.673348644748330E-3  -4.177271854132414E-3  -2.664925763383508E-3  -5.351991951465607E-2   9.953415393829346E-1  
 6.790000000000000E7    -8.796499967575073E-1   4.672439694404602E-1  -5.013272166252136E-3  -3.046178724616766E-3  -5.016978830099106E-3  -3.050966886803508E-3  -3.977660834789276E-2   9.954741001129150E-1  
 6.820000000000000E7    -8.630555272102356E-1   4.968757927417755E-1  -5.890799686312676E-3  -3.398547414690256E-3  -5.880352109670639E-3  -3.386336844414473E-3  -2.620622515678406E-2   9.960860610008240E-1  
 6.850000000000000E7    -8.458129763603210E-1   5.276412963867188E-1  -6.818738766014576E-3  -3.749659052118659E-3  -6.753117777407169E-3  -3.731037955731154E-3  -1.261381804943085E-2   9.968276023864746E-1  
 6.880000000000000E7    -8.265035152435303E-1   5.560106039047241E-1  -7.772618439048529E-3  -4.034996032714844E-3  -7.734201382845640E-3  -4.014401696622372E-3   2.052605152130127E-3   9.963943958282471E-1  
 6.910000000000000E7    -8.065930604934692E-1   5.845493078231812E-1  -8.803062140941620E-3  -4.301097244024277E-3  -8.769955486059189E-3  -4.269613418728113E-3   1.636307686567307E-2   9.967986941337585E-1  
 6.940000000000000E7    -7.864598631858826E-1   6.121950149536133E-1  -9.844566695392132E-3  -4.538969602435827E-3  -9.870688430964947E-3  -4.522324539721012E-3   2.920026704668999E-2   9.963370561599731E-1  
 6.970000000000000E7    -7.636572122573853E-1   6.394802927970886E-1  -1.094291917979717E-2  -4.724482074379921E-3  -1.095418911427259E-2  -4.703440703451634E-3   4.384760186076164E-2   9.956610202789307E-1  
 7.000000000000000E7    -7.413154244422913E-1   6.661241054534912E-1  -1.212879549711943E-2  -4.888021852821112E-3  -1.207316387444735E-2  -4.883606918156147E-3   5.706454813480377E-2   9.956821799278259E-1  
