#  HZ   S   RI   R     50.00 
! Rohde & Schwarz ZVT8 8Ports - Version 4.11 - 1300.0000k08 SN: 100242
! Date: 2026-07-31 14:49:19
! Measurements: S11 S21 S12 S22 
! 
 1.000000000000000E7    -4.023469090461731E-1   9.113545417785645E-1   5.207156017422676E-2   5.255905911326408E-2   5.190043896436691E-2   5.265079811215401E-2  -9.191726446151733E-1   3.846096396446228E-1  
 1.030000000000000E7    -3.701191544532776E-1   9.237741827964783E-1   5.540467798709869E-2   5.306889116764069E-2   5.524238198995590E-2   5.296075344085693E-2  -9.132536649703980E-1   3.974233567714691E-1  
 1.060000000000000E7    -3.338384926319122E-1   9.372206926345825E-1   5.888738855719566E-2   5.393236875534058E-2   5.882376432418823E-2   5.376161262392998E-2  -9.098398685455322E-1   4.087309241294861E-1  
 1.090000000000000E7    -3.016001582145691E-1   9.474667310714722E-1   6.235835328698158E-2   5.437580868601799E-2   6.207891553640366E-2   5.423162877559662E-2  -9.039632081985474E-1   4.202859997749329E-1  
 1.120000000000000E7    -2.661424577236176E-1   9.570904374122620E-1   6.602442264556885E-2   5.498425289988518E-2   6.558232754468918E-2   5.471640080213547E-2  -8.981615304946899E-1   4.321368038654327E-1  
 1.150000000000000E7    -2.301150560379028E-1   9.672457575798035E-1   6.945987045764923E-2   5.503563582897186E-2   6.943357735872269E-2   5.490168184041977E-2  -8.907814025878906E-1   4.414240121841431E-1  
 1.180000000000000E7    -1.946929991245270E-1   9.720303416252136E-1   7.308447360992432E-2   5.510885640978813E-2   7.320813089609146E-2   5.513908341526985E-2  -8.865802884101868E-1   4.524723589420319E-1  
 1.210000000000000E7    -1.601676344871521E-1   9.792796373367310E-1   7.735957205295563E-2   5.557386204600334E-2   7.730701565742493E-2   5.540619045495987E-2  -8.790483474731445E-1   4.647599160671234E-1  
 1.240000000000000E7    -1.240375638008118E-1   9.831755161285400E-1   8.133593201637268E-2   5.541700497269630E-2   8.147225528955460E-2   5.502096191048622E-2  -8.722564578056335E-1   4.747897088527679E-1  
 1.270000000000000E7    -8.746636658906937E-2   9.866427183151245E-1   8.606646209955216E-2   5.473560467362404E-2   8.558193594217300E-2   5.480804666876793E-2  -8.653290867805481E-1   4.889299571514130E-1  
 1.300000000000000E7    -5.166286975145340E-2   9.897432327270508E-1   9.000160545110703E-2   5.467671900987625E-2   8.988685160875320E-2   5.450209975242615E-2  -8.579108715057373E-1   4.985630512237549E-1  
 1.330000000000000E7    -1.501704752445221E-2   9.910642504692078E-1   9.475222229957581E-2   5.417966470122337E-2   9.454138576984406E-2   5.377099663019180E-2  -8.508159518241882E-1   5.112999677658081E-1  
 1.360000000000000E7     2.300281450152397E-2   9.907316565513611E-1   9.938260167837143E-2   5.369697511196137E-2   9.943798929452896E-2   5.305420607328415E-2  -8.436022400856018E-1   5.208510160446167E-1  
 1.390000000000000E7     5.849800258874893E-2   9.880160689353943E-1   1.042299047112465E-1   5.230760201811791E-2   1.037770733237267E-1   5.283126235008240E-2  -8.358169198036194E-1   5.321103930473328E-1  
 1.420000000000000E7     9.619453549385071E-2   9.852343797683716E-1   1.087697520852089E-1   5.191927775740624E-2   1.087775826454163E-1   5.176905915141106E-2  -8.296017050743103E-1   5.429779291152954E-1  
 1.450000000000000E7     1.331062167882919E-1   9.788820147514343E-1   1.139965057373047E-1   5.039292201399803E-2   1.138591393828392E-1   5.050805956125259E-2  -8.191407918930054E-1   5.548136234283447E-1  
 1.480000000000000E7     1.714444756507874E-1   9.733167886734009E-1   1.192892268300057E-1   4.884927719831467E-2   1.191841214895248E-1   4.930550977587700E-2  -8.119108080863953E-1   5.651478171348572E-1  
 1.510000000000000E7     2.079758048057556E-1   9.653429985046387E-1   1.244190558791161E-1   4.724562168121338E-2   1.241766288876534E-1   4.739902541041374E-2  -8.011539578437805E-1   5.769177079200745E-1  
 1.540000000000000E7     2.441929727792740E-1   9.563194513320923E-1   1.298185586929321E-1   4.640215262770653E-2   1.297005712985992E-1   4.572960361838341E-2  -7.955950498580933E-1   5.873122811317444E-1  
 1.570000000000000E7     2.815754711627960E-1   9.465240240097046E-1   1.354499310255051E-1   4.389005899429321E-2   1.355820149183273E-1   4.377108812332153E-2  -7.848923802375794E-1   5.995081067085266E-1  
 1.600000000000000E7     3.189249336719513E-1   9.329483509063721E-1   1.409576237201691E-1   4.133383929729462E-2   1.413817703723908E-1   4.108088463544846E-2  -7.760245800018311E-1   6.086125969886780E-1  
 1.630000000000000E7     3.545823395252228E-1   9.189369678497315E-1   1.476012170314789E-1   3.849964216351509E-2   1.469570547342300E-1   3.879075124859810E-2  -7.660714387893677E-1   6.209645271301270E-1  
 1.660000000000000E7     3.907456994056702E-1   9.018704891204834E-1   1.536063551902771E-1   3.562019020318985E-2   1.531555205583572E-1   3.524500131607056E-2  -7.546536326408386E-1   6.321879625320435E-1  
 1.690000000000000E7     4.260383546352387E-1   8.851337432861328E-1   1.597213149070740E-1   3.297003358602524E-2   1.596522927284241E-1   3.262554109096527E-2  -7.447941303253174E-1   6.417442560195923E-1  
 1.720000000000000E7     4.638369381427765E-1   8.664795756340027E-1   1.657065898180008E-1   2.862753346562386E-2   1.657304465770721E-1   2.900180965662003E-2  -7.339306473731995E-1   6.520327925682068E-1  
 1.750000000000000E7     4.938620328903198E-1   8.483802080154419E-1   1.729836314916611E-1   2.613523229956627E-2   1.730786263942719E-1   2.556623518466950E-2  -7.239285111427307E-1   6.646205782890320E-1  
 1.780000000000000E7     5.309792160987854E-1   8.227396607398987E-1   1.789336800575256E-1   2.104289643466473E-2   1.791405975818634E-1   2.135407179594040E-2  -7.117002606391907E-1   6.727469563484192E-1  
 1.810000000000000E7     5.633562803268433E-1   8.000511527061462E-1   1.870623677968979E-1   1.675312966108322E-2   1.856423020362854E-1   1.610004529356957E-2  -7.003598809242249E-1   6.860003471374512E-1  
 1.840000000000000E7     5.978329181671143E-1   7.741486430168152E-1   1.940735727548599E-1   1.050989143550396E-2   1.932994723320007E-1   1.096108928322792E-2  -6.871092915534973E-1   6.958339810371399E-1  
 1.870000000000000E7     6.279684901237488E-1   7.476069927215576E-1   2.012522518634796E-1   5.923321470618248E-3   2.005009055137634E-1   5.396531894803047E-3  -6.744036674499512E-1   7.056865692138672E-1  
 1.900000000000000E7     6.589553952217102E-1   7.185503840446472E-1   2.084821164608002E-1   6.089545786380768E-5   2.081258893013001E-1  -5.715787410736084E-4  -6.610941886901856E-1   7.156651616096497E-1  
 1.930000000000000E7     6.892852187156677E-1   6.868337392807007E-1   2.157186716794968E-1  -7.884906604886055E-3   2.160938084125519E-1  -6.887311115860939E-3  -6.473371982574463E-1   7.269873023033142E-1  
 1.960000000000000E7     7.184981703758240E-1   6.530519723892212E-1   2.232921421527863E-1  -1.482836436480284E-2   2.234456092119217E-1  -1.421908289194107E-2  -6.349140405654907E-1   7.357214689254761E-1  
 1.990000000000000E7     7.445080280303955E-1   6.188147664070129E-1   2.312925606966019E-1  -2.278081700205803E-2   2.316188067197800E-1  -2.279558964073658E-2  -6.177485585212708E-1   7.475310564041138E-1  
 2.020000000000000E7     7.708321809768677E-1   5.819094777107239E-1   2.397194951772690E-1  -3.112619929015636E-2   2.390080988407135E-1  -3.089814633131027E-2  -6.037975549697876E-1   7.546615004539490E-1  
 2.050000000000000E7     7.974538207054138E-1   5.430846214294434E-1   2.477001100778580E-1  -4.012720286846161E-2   2.462180852890015E-1  -4.050008207559586E-2  -5.884467959403992E-1   7.643131017684937E-1  
 2.080000000000000E7     8.198620676994324E-1   5.013811588287354E-1   2.560055553913117E-1  -5.064060911536217E-2   2.560026049613953E-1  -5.046094954013825E-2  -5.721582770347595E-1   7.746671438217163E-1  
 2.110000000000000E7     8.417149782180786E-1   4.591249823570252E-1   2.645626962184906E-1  -6.255780160427094E-2   2.645194828510284E-1  -6.242671981453896E-2  -5.543968081474304E-1   7.833802103996277E-1  
 2.140000000000000E7     8.605940341949463E-1   4.150730967521668E-1   2.730682790279388E-1  -7.516343891620636E-2   2.719402611255646E-1  -7.406681776046753E-2  -5.370219945907593E-1   7.916401624679565E-1  
 2.170000000000000E7     8.769333958625794E-1   3.697088360786438E-1   2.813906669616699E-1  -8.785352110862732E-2   2.811719477176666E-1  -8.690559118986130E-2  -5.190311074256897E-1   7.995695471763611E-1  
 2.200000000000000E7     8.931716084480286E-1   3.189928531646729E-1   2.892681062221527E-1  -1.028062254190445E-1   2.892993986606598E-1  -1.023575812578201E-1  -4.982442259788513E-1   8.067069053649902E-1  
 2.230000000000000E7     9.041056632995606E-1   2.689161598682404E-1   2.975339591503143E-1  -1.186644285917282E-1   2.970676422119141E-1  -1.177933886647224E-1  -4.786639511585236E-1   8.135398030281067E-1  
 2.260000000000000E7     9.137241840362549E-1   2.159570455551148E-1   3.048681020736694E-1  -1.358374208211899E-1   3.067258298397064E-1  -1.357636749744415E-1  -4.583317339420319E-1   8.196774125099182E-1  
 2.290000000000000E7     9.194682240486145E-1   1.610180884599686E-1   3.128068745136261E-1  -1.545116603374481E-1   3.139196634292603E-1  -1.539419144392014E-1  -4.351425468921661E-1   8.244740962982178E-1  
 2.320000000000000E7     9.201655387878418E-1   1.050375476479530E-1   3.204653561115265E-1  -1.759168207645416E-1   3.197596967220306E-1  -1.760944575071335E-1  -4.130823016166687E-1   8.312760591506958E-1  
 2.350000000000000E7     9.180486202239990E-1   4.530055820941925E-2   3.269867300987244E-1  -1.994930207729340E-1   3.265064656734467E-1  -1.984598189592362E-1  -3.896483480930328E-1   8.349156379699707E-1  
 2.380000000000000E7     9.112470746040344E-1  -1.408396661281586E-2   3.325664401054382E-1  -2.230201512575150E-1   3.328327834606171E-1  -2.229672670364380E-1  -3.654496669769287E-1   8.374093174934387E-1  
 2.410000000000000E7     8.992707729339600E-1  -7.705777883529663E-2   3.364433646202087E-1  -2.509243786334992E-1   3.361319005489349E-1  -2.501487731933594E-1  -3.396688997745514E-1   8.380050659179688E-1  
 2.440000000000000E7     8.808838725090027E-1  -1.393574774265289E-1   3.398982286453247E-1  -2.813014388084412E-1   3.399588465690613E-1  -2.812236249446869E-1  -3.145101666450501E-1   8.375430703163147E-1  
 2.470000000000000E7     8.564502000808716E-1  -2.027654945850372E-1   3.408640027046204E-1  -3.138760924339294E-1   3.412562012672424E-1  -3.114326596260071E-1  -2.856510877609253E-1   8.341550827026367E-1  
 2.500000000000000E7     8.260732293128967E-1  -2.681323885917664E-1   3.393686413764954E-1  -3.480437994003296E-1   3.392823636531830E-1  -3.483676314353943E-1  -2.578775286674500E-1   8.309393525123596E-1  
 2.530000000000000E7     7.863606214523315E-1  -3.317991197109222E-1   3.364128470420837E-1  -3.858007788658142E-1   3.363841772079468E-1  -3.852756023406982E-1  -2.292007058858872E-1   8.232058286666870E-1  
 2.560000000000000E7     7.391991019248962E-1  -3.936103880405426E-1   3.287762403488159E-1  -4.258397519588471E-1   3.293182253837585E-1  -4.263896346092224E-1  -2.004970610141754E-1   8.133676052093506E-1  
 2.590000000000000E7     6.811448931694031E-1  -4.507754147052765E-1   3.155764341354370E-1  -4.706214666366577E-1   3.162745535373688E-1  -4.704581201076508E-1  -1.712693870067596E-1   8.029962182044983E-1  
 2.620000000000000E7     6.128809452056885E-1  -5.050611495971680E-1   2.974814474582672E-1  -5.174761414527893E-1   2.980355024337769E-1  -5.159839987754822E-1  -1.405945867300034E-1   7.864325046539307E-1  
 2.650000000000000E7     5.349046587944031E-1  -5.542133450508118E-1   2.746391892433167E-1  -5.644009113311768E-1   2.741962969303131E-1  -5.653885006904602E-1  -1.136640906333923E-1   7.653542160987854E-1  
 2.680000000000000E7     4.455994963645935E-1  -5.921762585639954E-1   2.433292865753174E-1  -6.144701838493347E-1   2.419676482677460E-1  -6.149693727493286E-1  -8.811273425817490E-2   7.406459450721741E-1  
 2.710000000000000E7     3.476530909538269E-1  -6.181344985961914E-1   1.998947560787201E-1  -6.635428071022034E-1   2.003043889999390E-1  -6.625557541847229E-1  -6.421713531017304E-2   7.145257592201233E-1  
 2.740000000000000E7     2.380793541669846E-1  -6.304116845130920E-1   1.513053774833679E-1  -7.114924788475037E-1   1.487257927656174E-1  -7.113363742828369E-1  -4.568544402718544E-2   6.786626577377319E-1  
 2.770000000000000E7     1.266049593687058E-1  -6.231260895729065E-1   8.836199343204498E-2  -7.549500465393066E-1   8.710187673568726E-2  -7.549592256546021E-1  -3.118293546140194E-2   6.433082222938538E-1  
 2.800000000000000E7     9.779833257198334E-3  -5.972500443458557E-1   1.632444560527802E-2  -7.918633222579956E-1   1.704810932278633E-2  -7.927328944206238E-1  -2.253027819097042E-2   6.011659502983093E-1  
 2.830000000000000E7    -1.041845008730888E-1  -5.464262366294861E-1  -6.468893587589264E-2  -8.180031776428223E-1  -6.601761281490326E-2  -8.172163963317871E-1  -2.307426743209362E-2   5.638303160667419E-1  
 2.860000000000000E7    -2.089386433362961E-1  -4.694440364837647E-1  -1.551192402839661E-1  -8.318054676055908E-1  -1.575208902359009E-1  -8.312676548957825E-1  -2.988727390766144E-2   5.218610763549805E-1  
 2.890000000000000E7    -2.968274652957916E-1  -3.721577525138855E-1  -2.519127130508423E-1  -8.307779431343079E-1  -2.516616582870483E-1  -8.291751146316528E-1  -4.669405519962311E-2   4.847785234451294E-1  
 2.920000000000000E7    -3.686612546443939E-1  -2.553782165050507E-1  -3.468668758869171E-1  -8.130264282226563E-1  -3.480822443962097E-1  -8.106324076652527E-1  -7.166755944490433E-2   4.520581066608429E-1  
 2.950000000000000E7    -4.086314439773560E-1  -1.257434785366058E-1  -4.424211978912354E-1  -7.760480642318726E-1  -4.415298402309418E-1  -7.747034430503845E-1  -1.035186573863030E-1   4.271139502525330E-1  
 2.980000000000000E7    -4.246459007263184E-1   9.060589596629143E-3  -5.268301963806152E-1  -7.232840061187744E-1  -5.283340811729431E-1  -7.222752571105957E-1  -1.407265961170197E-1   4.115828871726990E-1  
 3.010000000000000E7    -4.094467759132385E-1   1.409168392419815E-1  -6.029037833213806E-1  -6.565026044845581E-1  -6.023710370063782E-1  -6.563897728919983E-1  -1.793663203716278E-1   4.046933054924011E-1  
 3.040000000000000E7    -3.664763271808624E-1   2.655333578586578E-1  -6.614578366279602E-1  -5.811564326286316E-1  -6.617280840873718E-1  -5.793305635452271E-1  -2.165736407041550E-1   4.107348918914795E-1  
 3.070000000000000E7    -3.048756420612335E-1   3.736119866371155E-1  -7.090063095092773E-1  -4.987458586692810E-1  -7.066876292228699E-1  -4.987940192222595E-1  -2.483112663030624E-1   4.224000573158264E-1  
 3.100000000000000E7    -2.242458462715149E-1   4.628080427646637E-1  -7.395449280738831E-1  -4.155778288841248E-1  -7.389016151428223E-1  -4.150403439998627E-1  -2.773838341236115E-1   4.415625333786011E-1  
 3.130000000000000E7    -1.352010965347290E-1   5.324973464012146E-1  -7.558481693267822E-1  -3.312922120094299E-1  -7.544554471969605E-1  -3.318896591663361E-1  -3.009202480316162E-1   4.691169559955597E-1  
 3.160000000000000E7    -3.721721470355988E-2   5.825092196464539E-1  -7.610294222831726E-1  -2.533963620662689E-1  -7.603150010108948E-1  -2.542603313922882E-1  -3.162826597690582E-1   4.991495609283447E-1  
 3.190000000000000E7     5.911783874034882E-2   6.149219274520874E-1  -7.559547424316406E-1  -1.793467104434967E-1  -7.548199892044067E-1  -1.790408641099930E-1  -3.262920677661896E-1   5.305245518684387E-1  
 3.220000000000000E7     1.555075645446777E-1   6.317415833473206E-1  -7.426403760910034E-1  -1.121790707111359E-1  -7.423411011695862E-1  -1.115816831588745E-1  -3.298527002334595E-1   5.636186003684998E-1  
 3.250000000000000E7     2.464289218187332E-1   6.325644850730896E-1  -7.249672412872315E-1  -5.143580213189125E-2  -7.248644828796387E-1  -5.070688202977181E-2  -3.265921771526337E-1   5.990985035896301E-1  
 3.280000000000000E7     3.329232931137085E-1   6.197026371955872E-1  -7.023202180862427E-1   3.990752156823874E-3  -7.006119489669800E-1   5.804604850709438E-3  -3.195132017135620E-1   6.319257616996765E-1  
 3.310000000000000E7     4.108609557151794E-1   6.015908122062683E-1  -6.749675869941711E-1   5.401561409235001E-2  -6.743253469467163E-1   5.400908738374710E-2  -3.045468330383301E-1   6.642807722091675E-1  
 3.340000000000000E7     4.819928109645844E-1   5.735908746719360E-1  -6.482862830162048E-1   9.855012595653534E-2  -6.462727189064026E-1   9.804735332727432E-2  -2.861045897006989E-1   6.935250759124756E-1  
 3.370000000000000E7     5.469980835914612E-1   5.385340452194214E-1  -6.171272397041321E-1   1.363365203142166E-1  -6.166172623634338E-1   1.359467059373856E-1  -2.649813294410706E-1   7.237685322761536E-1  
 3.400000000000000E7     6.043169498443604E-1   4.996849298477173E-1  -5.876816511154175E-1   1.707184016704559E-1  -5.873265266418457E-1   1.698107123374939E-1  -2.378894388675690E-1   7.484091520309448E-1  
 3.430000000000000E7     6.551071405410767E-1   4.581687152385712E-1  -5.573827624320984E-1   2.013488262891769E-1  -5.567309856414795E-1   2.007275372743607E-1  -2.098536491394043E-1   7.718997001647949E-1  
 3.460000000000000E7     7.004584074020386E-1   4.127377271652222E-1  -5.277121663093567E-1   2.280607968568802E-1  -5.281309485435486E-1   2.269876003265381E-1  -1.763826906681061E-1   7.940807342529297E-1  
 3.490000000000000E7     7.388889193534851E-1   3.662031590938568E-1  -4.968661665916443E-1   2.532906532287598E-1  -4.971676468849182E-1   2.516179084777832E-1  -1.434158831834793E-1   8.111922144889832E-1  
 3.520000000000000E7     7.728689312934876E-1   3.180197477340698E-1  -4.680545628070831E-1   2.726311087608337E-1  -4.684193730354309E-1   2.724462747573853E-1  -1.038417667150497E-1   8.293165564537048E-1  
 3.550000000000000E7     8.003287911415100E-1   2.670503854751587E-1  -4.398363530635834E-1   2.907495200634003E-1  -4.400484561920166E-1   2.907016277313232E-1  -6.325195729732513E-2   8.430669307708740E-1  
 3.580000000000000E7     8.250105977058411E-1   2.191841900348663E-1  -4.106357395648956E-1   3.075254261493683E-1  -4.108654856681824E-1   3.074470758438110E-1  -1.961915940046310E-2   8.525562882423401E-1  
 3.610000000000000E7     8.441008329391480E-1   1.705900579690933E-1  -3.835462927818298E-1   3.240869641304016E-1  -3.822755515575409E-1   3.230671286582947E-1   2.828140556812286E-2   8.612199425697327E-1  
 3.640000000000000E7     8.599083423614502E-1   1.210681870579720E-1  -3.555403947830200E-1   3.361690044403076E-1  -3.552871942520142E-1   3.350860178470612E-1   7.641692459583283E-2   8.646344542503357E-1  
 3.670000000000000E7     8.717013001441956E-1   7.378428429365158E-2  -3.287512362003326E-1   3.479746580123901E-1  -3.274140059947968E-1   3.472916781902313E-1   1.275310069322586E-1   8.649905323982239E-1  
 3.700000000000000E7     8.800615668296814E-1   2.628523111343384E-2  -3.002375364303589E-1   3.584274947643280E-1  -2.994658946990967E-1   3.578574955463409E-1   1.838019788265228E-1   8.601918220520020E-1  
 3.730000000000000E7     8.855666518211365E-1  -2.117158472537994E-2  -2.723637521266937E-1   3.659278750419617E-1  -2.729049324989319E-1   3.664703369140625E-1   2.384309768676758E-1   8.506659269332886E-1  
 3.760000000000000E7     8.878934383392334E-1  -6.481207907199860E-2  -2.442903816699982E-1   3.742412030696869E-1  -2.449371814727783E-1   3.750306963920593E-1   2.997291684150696E-1   8.365577459335327E-1  
 3.790000000000000E7     8.876879215240479E-1  -1.106166020035744E-1  -2.166136801242828E-1   3.818224966526032E-1  -2.163463085889816E-1   3.816642761230469E-1   3.610514104366303E-1   8.153693675994873E-1  
 3.820000000000000E7     8.863531351089478E-1  -1.539163291454315E-1  -1.887304633855820E-1   3.877550959587097E-1  -1.892082840204239E-1   3.866780996322632E-1   4.244683384895325E-1   7.888442873954773E-1  
 3.850000000000000E7     8.810976743698120E-1  -1.976271718740463E-1  -1.607252061367035E-1   3.916198313236237E-1  -1.591964662075043E-1   3.913297653198242E-1   4.911905527114868E-1   7.551841139793396E-1  
 3.880000000000000E7     8.751858472824097E-1  -2.378227710723877E-1  -1.296358406543732E-1   3.937018215656281E-1  -1.300323456525803E-1   3.931822478771210E-1   5.587887763977051E-1   7.100605964660645E-1  
 3.910000000000000E7     8.672342896461487E-1  -2.789604067802429E-1  -1.011406481266022E-1   3.944450914859772E-1  -1.002450585365295E-1   3.947438895702362E-1   6.259222030639648E-1   6.558098793029785E-1  
 3.940000000000000E7     8.558784723281860E-1  -3.164699375629425E-1  -7.034948468208313E-2   3.930951356887817E-1  -7.051190733909607E-2   3.922989070415497E-1   6.906546354293823E-1   5.911362171173096E-1  
 3.970000000000000E7     8.455643653869629E-1  -3.548908531665802E-1  -4.027056694030762E-2   3.894366919994354E-1  -4.056779295206070E-2   3.892315030097961E-1   7.522121071815491E-1   5.138431787490845E-1  
 4.000000000000000E7     8.325566649436951E-1  -3.918235301971436E-1  -8.738323114812374E-3   3.830218911170960E-1  -8.240471594035626E-3   3.828628957271576E-1   8.118560910224915E-1   4.223910570144653E-1  
 4.030000000000000E7     8.197094798088074E-1  -4.269465804100037E-1   2.386714331805706E-2   3.734062612056732E-1   2.312420681118965E-2   3.737678825855255E-1   8.607674837112427E-1   3.199605941772461E-1  
 4.060000000000000E7     8.044854998588562E-1  -4.620067179203033E-1   5.396054312586784E-2   3.603944778442383E-1   5.360362306237221E-2   3.606027960777283E-1   8.993359804153442E-1   2.011280208826065E-1  
 4.090000000000000E7     7.888173460960388E-1  -4.970839321613312E-1   8.386915922164917E-2   3.439612388610840E-1   8.485785126686096E-2   3.435898721218109E-1   9.224386811256409E-1   7.102620601654053E-2  
 4.120000000000000E7     7.720679640769959E-1  -5.305494070053101E-1   1.128989532589912E-1   3.243514597415924E-1   1.122120842337608E-1   3.232151865959168E-1   9.273462891578674E-1  -7.133434712886810E-2  
 4.150000000000000E7     7.546188235282898E-1  -5.622587203979492E-1   1.395720988512039E-1   2.980439066886902E-1   1.376232355833054E-1   2.984269559383392E-1   9.071471095085144E-1  -2.201667428016663E-1  
 4.180000000000000E7     7.355794906616211E-1  -5.959281921386719E-1   1.614044755697250E-1   2.696616351604462E-1   1.614289283752441E-1   2.691479325294495E-1   8.623405694961548E-1  -3.711605668067932E-1  
 4.210000000000000E7     7.157678604125977E-1  -6.281871199607849E-1   1.791491657495499E-1   2.371837496757507E-1   1.792446821928024E-1   2.378092557191849E-1   7.880448102951050E-1  -5.183856487274170E-1  
 4.240000000000000E7     6.937112808227539E-1  -6.585836410522461E-1   1.916526257991791E-1   2.035987228155136E-1   1.916124820709229E-1   2.037343680858612E-1   6.869704723358154E-1  -6.536334753036499E-1  
 4.270000000000000E7     6.700136065483093E-1  -6.902006864547730E-1   1.979086250066757E-1   1.692346334457398E-1   1.982271224260330E-1   1.689723134040833E-1   5.620809793472290E-1  -7.710310816764832E-1  
 4.300000000000000E7     6.446642875671387E-1  -7.217616438865662E-1   1.990479230880737E-1   1.348522305488586E-1   1.988402456045151E-1   1.349965780973434E-1   4.168304800987244E-1  -8.638349771499634E-1  
 4.330000000000000E7     6.197327971458435E-1  -7.505016326904297E-1   1.940537989139557E-1   1.036229431629181E-1   1.941518783569336E-1   1.031336262822151E-1   2.598252594470978E-1  -9.285670518875122E-1  
 4.360000000000000E7     5.902386903762817E-1  -7.787880897521973E-1   1.846027076244354E-1   7.342034578323364E-2   1.840814054012299E-1   7.403965294361115E-2   9.748145937919617E-2  -9.651382565498352E-1  
 4.390000000000000E7     5.597161650657654E-1  -8.070517182350159E-1   1.713149547576904E-1   4.892864823341370E-2   1.716876327991486E-1   4.918793588876724E-2  -6.441511213779450E-2  -9.708878397941589E-1  
 4.420000000000000E7     5.276334285736084E-1  -8.309425115585327E-1   1.559503972530365E-1   2.847028337419033E-2   1.559503227472305E-1   2.832348458468914E-2  -2.170771062374115E-1  -9.535569548606873E-1  
 4.450000000000000E7     4.943054318428040E-1  -8.544172048568726E-1   1.387434303760529E-1   1.198624633252621E-2   1.386684924364090E-1   1.176903210580349E-2  -3.568047881126404E-1  -9.143553972244263E-1  
 4.480000000000000E7     4.605959057807922E-1  -8.761096596717835E-1   1.214705333113670E-1  -5.585942417383194E-4   1.214767619967461E-1  -5.294755101203919E-4  -4.814002513885498E-1  -8.578972816467285E-1  
 4.510000000000000E7     4.270391166210175E-1  -8.959560394287109E-1   1.046316921710968E-1  -9.381061419844627E-3   1.045453026890755E-1  -9.155867621302605E-3  -5.903654098510742E-1  -7.895785570144653E-1  
 4.540000000000000E7     3.908062577247620E-1  -9.129948616027832E-1   8.862933516502380E-2  -1.501130126416683E-2   8.856785297393799E-2  -1.498079672455788E-2  -6.823177337646484E-1  -7.148936390876770E-1  
 4.570000000000000E7     3.540629148483276E-1  -9.294382333755493E-1   7.400657981634140E-2  -1.841566711664200E-2   7.382352650165558E-2  -1.823965273797512E-2  -7.607067823410034E-1  -6.342656612396240E-1  
 4.600000000000000E7     3.199801146984100E-1  -9.425563216209412E-1   6.037896126508713E-2  -1.957841962575913E-2   6.071185320615768E-2  -1.968803815543652E-2  -8.238831758499146E-1  -5.516521334648132E-1  
 4.630000000000000E7     2.810059785842896E-1  -9.557490944862366E-1   4.863898828625679E-2  -1.958943530917168E-2   4.861957579851151E-2  -1.953924819827080E-2  -8.726547360420227E-1  -4.703893959522247E-1  
 4.660000000000000E7     2.437157779932022E-1  -9.678192734718323E-1   3.842592239379883E-2  -1.835093833506107E-2   3.830908983945847E-2  -1.819371618330479E-2  -9.134917855262756E-1  -3.924144208431244E-1  
 4.690000000000000E7     2.071758359670639E-1  -9.754169583320618E-1   2.922003343701363E-2  -1.604247465729713E-2   2.921740896999836E-2  -1.601298712193966E-2  -9.426771402359009E-1  -3.140815794467926E-1  
 4.720000000000000E7     1.697802543640137E-1  -9.823245406150818E-1   2.141425013542175E-2  -1.354026142507792E-2   2.142252586781979E-2  -1.347141526639462E-2  -9.657748341560364E-1  -2.400031089782715E-1  
 4.750000000000000E7     1.333970576524735E-1  -9.889079928398132E-1   1.501738093793392E-2  -1.040384173393250E-2   1.490072719752789E-2  -1.039703655987978E-2  -9.796652197837830E-1  -1.686235070228577E-1  
 4.780000000000000E7     9.700380265712738E-2  -9.930329322814941E-1   9.417438879609108E-3  -7.233130745589733E-3   9.394183754920960E-3  -7.196690887212753E-3  -9.897313117980957E-1  -1.020714640617371E-1  
 4.810000000000000E7     5.957097560167313E-2  -9.961460828781128E-1   4.864236805588007E-3  -3.864535363391042E-3   4.947465378791094E-3  -3.856527386233211E-3  -9.936008453369141E-1  -4.023248329758644E-2  
 4.840000000000000E7     2.308207005262375E-2  -9.980955123901367E-1   1.109567703679204E-3  -6.028303178027272E-4   1.101277419365943E-3  -6.142974016256630E-4  -9.941630959510803E-1   1.816806942224503E-2  
 4.870000000000000E7    -1.371100544929504E-2  -9.982292056083679E-1  -1.934139640070498E-3   2.624403219670057E-3  -2.031209645792842E-3   2.500299829989672E-3  -9.919064044952393E-1   7.389468699693680E-2  
 4.900000000000000E7    -5.060268193483353E-2  -9.975073337554932E-1  -4.330728203058243E-3   5.688435398042202E-3  -4.391072783619165E-3   5.668011959642172E-3  -9.871721267700195E-1   1.261599957942963E-1  
 4.930000000000000E7    -8.727129548788071E-2  -9.946480393409729E-1  -6.387178786098957E-3   8.597613312304020E-3  -6.270037032663822E-3   8.549274876713753E-3  -9.805785417556763E-1   1.754643023014069E-1  
 4.960000000000000E7    -1.222182661294937E-1  -9.890499114990234E-1  -7.719175424426794E-3   1.141163427382708E-2  -7.579644676297903E-3   1.141253486275673E-2  -9.704807996749878E-1   2.206963002681732E-1  
 4.990000000000000E7    -1.572047322988510E-1  -9.844182133674622E-1  -8.806257508695126E-3   1.387035194784403E-2  -8.588362485170364E-3   1.388144120573998E-2  -9.601795673370361E-1   2.626098096370697E-1  
 5.020000000000000E7    -1.917192935943604E-1  -9.793081879615784E-1  -9.392597712576389E-3   1.619880087673664E-2  -9.425227530300617E-3   1.619523949921131E-2  -9.487287998199463E-1   3.037005960941315E-1  
 5.050000000000000E7    -2.272114455699921E-1  -9.716478586196899E-1  -9.769678115844727E-3   1.838279888033867E-2  -9.785874746739864E-3   1.836326904594898E-2  -9.365932345390320E-1   3.411213159561157E-1  
 5.080000000000000E7    -2.610270380973816E-1  -9.634850025177002E-1  -9.901645593345165E-3   2.029703371226788E-2  -9.923906065523624E-3   2.028349973261356E-2  -9.209643602371216E-1   3.771768808364868E-1  
 5.110000000000000E7    -2.956105470657349E-1  -9.527493715286255E-1  -9.799423627555370E-3   2.208524383604527E-2  -9.818270802497864E-3   2.203887701034546E-2  -9.070115089416504E-1   4.100577831268311E-1  
 5.140000000000000E7    -3.288819789886475E-1  -9.415783286094666E-1  -9.554916992783546E-3   2.364240027964115E-2  -9.559051133692265E-3   2.363431453704834E-2  -8.936499953269959E-1   4.424424767494202E-1  
 5.170000000000000E7    -3.611766099929810E-1  -9.294990897178650E-1  -9.161413647234440E-3   2.503628842532635E-2  -9.193134494125843E-3   2.497158944606781E-2  -8.770741820335388E-1   4.714847505092621E-1  
 5.200000000000000E7    -3.940331935882568E-1  -9.177283644676209E-1  -8.574122563004494E-3   2.621052227914333E-2  -8.667431771755219E-3   2.626007795333862E-2  -8.596839904785156E-1   5.001659989356995E-1  
 5.230000000000000E7    -4.258921444416046E-1  -9.022089242935181E-1  -8.008876815438271E-3   2.722251601517201E-2  -7.932564243674278E-3   2.725289762020111E-2  -8.448609709739685E-1   5.260814428329468E-1  
 5.260000000000000E7    -4.562925696372986E-1  -8.856641054153442E-1  -7.268542889505625E-3   2.818037755787373E-2  -7.266044616699219E-3   2.810031548142433E-2  -8.286522626876831E-1   5.521737337112427E-1  
 5.290000000000000E7    -4.880189895629883E-1  -8.697457313537598E-1  -6.423537153750658E-3   2.886476367712021E-2  -6.454110145568848E-3   2.886603958904743E-2  -8.124104142189026E-1   5.754168629646301E-1  
 5.320000000000000E7    -5.171405673027039E-1  -8.534062504768372E-1  -5.664161872118712E-3   2.943229116499424E-2  -5.645483732223511E-3   2.947324886918068E-2  -7.962565422058106E-1   5.983999371528626E-1  
 5.350000000000000E7    -5.452104806900024E-1  -8.343683481216431E-1  -4.853161517530680E-3   2.986051142215729E-2  -4.857682622969151E-3   2.982156723737717E-2  -7.803505659103394E-1   6.186142563819885E-1  
 5.380000000000000E7    -5.732817649841309E-1  -8.150731325149536E-1  -3.999757114797831E-3   3.019468858838081E-2  -3.975249826908112E-3   3.009361028671265E-2  -7.618889808654785E-1   6.397106647491455E-1  
 5.410000000000000E7    -6.033820509910584E-1  -7.952361702919006E-1  -2.986115403473377E-3   3.041590936481953E-2  -2.968427259474993E-3   3.038813360035420E-2  -7.467077970504761E-1   6.592941284179688E-1  
 5.440000000000000E7    -6.294161081314087E-1  -7.730181813240051E-1  -2.156043658033013E-3   3.043877705931664E-2  -2.116585848852992E-3   3.048942983150482E-2  -7.296361923217773E-1   6.772136092185974E-1  
 5.470000000000000E7    -6.543403863906860E-1  -7.520838379859924E-1  -1.217560144141316E-3   3.042759187519550E-2  -1.191843301057816E-3   3.044794686138630E-2  -7.127031087875366E-1   6.951103806495667E-1  
 5.500000000000000E7    -6.808819174766541E-1  -7.289623022079468E-1  -3.709346055984497E-4   3.042585216462612E-2  -4.312149249017239E-4   3.032327257096767E-2  -6.968063712120056E-1   7.123603820800781E-1  
 5.530000000000000E7    -7.052178978919983E-1  -7.052377462387085E-1   4.353937692940235E-4   3.012026287615299E-2   5.499713588505983E-4   3.012506105005741E-2  -6.793121099472046E-1   7.276843190193176E-1  
 5.560000000000000E7    -7.297033667564392E-1  -6.800266504287720E-1   1.371562015265226E-3   2.989459969103336E-2   1.281758071854711E-3   2.981683425605297E-2  -6.636300086975098E-1   7.425042986869812E-1  
 5.590000000000000E7    -7.525129914283752E-1  -6.558514237403870E-1   2.153138164430857E-3   2.948112599551678E-2   2.189853927120566E-3   2.945618145167828E-2  -6.465981602668762E-1   7.575488090515137E-1  
 5.620000000000000E7    -7.741105556488037E-1  -6.276697516441345E-1   2.908839378505945E-3   2.902028337121010E-2   2.867940580472350E-3   2.891201712191105E-2  -6.309339404106140E-1   7.709761261940002E-1  
 5.650000000000000E7    -7.940971255302429E-1  -6.026002764701843E-1   3.622913267463446E-3   2.837952040135860E-2   3.613727400079370E-3   2.838698029518127E-2  -6.142697334289551E-1   7.838785648345947E-1  
 5.680000000000000E7    -8.147428035736084E-1  -5.751752257347107E-1   4.356465768069029E-3   2.789220213890076E-2   4.386733751744032E-3   2.782617323100567E-2  -5.972337126731873E-1   7.966197133064270E-1  
 5.710000000000000E7    -8.341680169105530E-1  -5.456808805465698E-1   5.055456422269344E-3   2.719969302415848E-2   5.034800153225660E-3   2.720949798822403E-2  -5.817228555679321E-1   8.084722757339478E-1  
 5.740000000000000E7    -8.532875776290894E-1  -5.175225138664246E-1   5.666002165526152E-3   2.650394290685654E-2   5.594900343567133E-3   2.644947357475758E-2  -5.650280714035034E-1   8.201487064361572E-1  
 5.770000000000000E7    -8.685924410820007E-1  -4.890127182006836E-1   6.124249193817377E-3   2.577701210975647E-2   6.106621585786343E-3   2.570132538676262E-2  -5.493164658546448E-1   8.296772837638855E-1  
 5.800000000000000E7    -8.853200674057007E-1  -4.580980241298676E-1   6.700641475617886E-3   2.497281506657600E-2   6.744939833879471E-3   2.485818415880203E-2  -5.334537029266357E-1   8.422931432723999E-1  
 5.830000000000000E7    -8.998029828071594E-1  -4.278491139411926E-1   7.127594202756882E-3   2.407344989478588E-2   7.109981961548328E-3   2.408853918313980E-2  -5.179154276847839E-1   8.513202667236328E-1  
 5.860000000000000E7    -9.152488112449646E-1  -3.976182639598846E-1   7.519485894590616E-3   2.320947311818600E-2   7.569923996925354E-3   2.318072132766247E-2  -5.015032291412354E-1   8.605960011482239E-1  
 5.890000000000000E7    -9.272638559341431E-1  -3.663062155246735E-1   7.849996909499168E-3   2.230261452496052E-2   7.838281802833080E-3   2.230045944452286E-2  -4.861189126968384E-1   8.690571784973145E-1  
 5.920000000000000E7    -9.389315247535706E-1  -3.336903750896454E-1   8.198314346373081E-3   2.134934626519680E-2   8.193979039788246E-3   2.125403843820095E-2  -4.704207479953766E-1   8.788511753082275E-1  
 5.950000000000000E7    -9.499121308326721E-1  -3.018976747989655E-1   8.413713425397873E-3   2.034972794353962E-2   8.399268612265587E-3   2.029648795723915E-2  -4.537810087203980E-1   8.854522109031677E-1  
 5.980000000000000E7    -9.598177075386047E-1  -2.692692279815674E-1   8.697201497852802E-3   1.936509646475315E-2   8.585197851061821E-3   1.926093176007271E-2  -4.379917681217194E-1   8.945644497871399E-1  
 6.010000000000000E7    -9.671193361282349E-1  -2.375065982341766E-1   8.677985519170761E-3   1.837592199444771E-2   8.647516369819641E-3   1.829481683671475E-2  -4.234865009784699E-1   9.018304944038391E-1  
 6.040000000000000E7    -9.753752350807190E-1  -2.031763941049576E-1   8.778188377618790E-3   1.727421209216118E-2   8.764628320932388E-3   1.729163900017738E-2  -4.078768193721771E-1   9.097758531570435E-1  
 6.070000000000000E7    -9.828367829322815E-1  -1.717647761106491E-1   8.734149858355522E-3   1.632185652852058E-2   8.698092773556709E-3   1.627301611006260E-2  -3.927011489868164E-1   9.155843257904053E-1  
 6.100000000000000E7    -9.872208833694458E-1  -1.381387114524841E-1   8.755121380090714E-3   1.521573960781097E-2   8.696891367435455E-3   1.518787723034620E-2  -3.767100572586060E-1   9.230746030807495E-1  
 6.130000000000000E7    -9.920032024383545E-1  -1.035636067390442E-1   8.613255806267262E-3   1.418716087937355E-2   8.530899882316589E-3   1.419514697045088E-2  -3.610706329345703E-1   9.294631481170654E-1  
 6.160000000000000E7    -9.942752122879028E-1  -7.084031403064728E-2   8.364262059330940E-3   1.311473175883293E-2   8.353081531822681E-3   1.308593247085810E-2  -3.462483882904053E-1   9.339908361434937E-1  
 6.190000000000000E7    -9.960859417915344E-1  -3.726555407047272E-2   8.093284443020821E-3   1.207653898745775E-2   8.065110072493553E-3   1.200494728982449E-2  -3.308069705963135E-1   9.387654066085815E-1  
 6.220000000000000E7    -9.968833923339844E-1  -3.610983490943909E-3   7.784988265484572E-3   1.098263077437878E-2   7.798779755830765E-3   1.100633572787046E-2  -3.167870342731476E-1   9.447765946388245E-1  
 6.250000000000000E7    -9.964137077331543E-1   3.003375232219696E-2   7.408582605421543E-3   9.974911808967590E-3   7.373737171292305E-3   9.942590259015560E-3  -3.021105527877808E-1   9.499849081039429E-1  
 6.280000000000000E7    -9.943352937698364E-1   6.389367580413818E-2   6.996989250183106E-3   8.958421647548676E-3   6.923320703208447E-3   8.958637714385986E-3  -2.868641018867493E-1   9.545336365699768E-1  
 6.310000000000000E7    -9.916148185729981E-1   9.841980040073395E-2   6.498009432107210E-3   7.944968529045582E-3   6.459461525082588E-3   7.910729385912418E-3  -2.715355753898621E-1   9.595236182212830E-1  
 6.340000000000000E7    -9.874910712242127E-1   1.317749172449112E-1   5.943446885794401E-3   6.907386705279350E-3   5.920011084526777E-3   6.869736127555370E-3  -2.566903233528137E-1   9.638696312904358E-1  
 6.370000000000000E7    -9.827885031700134E-1   1.650196909904480E-1   5.315044894814491E-3   5.903860554099083E-3   5.315749906003475E-3   5.890049505978823E-3  -2.417887151241303E-1   9.666036963462830E-1  
 6.400000000000000E7    -9.754598736763001E-1   1.979640424251556E-1   4.658805206418037E-3   4.928448237478733E-3   4.635769873857498E-3   4.956827033311129E-3  -2.271162271499634E-1   9.713440537452698E-1  
 6.430000000000000E7    -9.685533642768860E-1   2.320018857717514E-1   3.921831957995892E-3   4.008176736533642E-3   3.908677026629448E-3   3.974637482315302E-3  -2.122022956609726E-1   9.742738604545593E-1  
 6.460000000000000E7    -9.606693387031555E-1   2.647112905979157E-1   3.132860176265240E-3   3.077460220083594E-3   3.097711363807321E-3   3.044997109100223E-3  -1.980338841676712E-1   9.763863086700440E-1  
 6.490000000000000E7    -9.523906111717224E-1   2.967197299003601E-1   2.278376836329699E-3   2.168145496398211E-3   2.293609781190753E-3   2.161647891625762E-3  -1.840094625949860E-1   9.797771573066711E-1  
 6.520000000000000E7    -9.407876133918762E-1   3.285101056098938E-1   1.362255774438381E-3   1.324183773249388E-3   1.366247655823827E-3   1.310229417867959E-3  -1.692091226577759E-1   9.830356836318970E-1  
 6.550000000000000E7    -9.296665787696838E-1   3.597527742385864E-1   4.057025653310120E-4   4.956464981660247E-4   4.111637827008963E-4   4.694028466474265E-4  -1.542031168937683E-1   9.838230013847351E-1  
 6.580000000000000E7    -9.160917997360230E-1   3.917671442031860E-1  -5.639399751089513E-4  -2.943216823041439E-4  -6.059570587240160E-4  -3.203297383151949E-4  -1.403958350419998E-1   9.874593019485474E-1  
 6.610000000000000E7    -9.012878537178040E-1   4.224469065666199E-1  -1.643188879825175E-3  -1.042861840687692E-3  -1.647385186515749E-3  -1.065977849066258E-3  -1.241811811923981E-1   9.887428879737854E-1  
 6.640000000000000E7    -8.883455395698547E-1   4.530456066131592E-1  -2.777971327304840E-3  -1.779394340701401E-3  -2.789556747302413E-3  -1.815539668314159E-3  -1.101848632097244E-1   9.907846450805664E-1  
 6.670000000000000E7    -8.712661266326904E-1   4.826966226100922E-1  -3.984977491199970E-3  -2.460419433191419E-3  -3.957176115363836E-3  -2.486933954060078E-3  -9.705272316932678E-2   9.923670887947083E-1  
 6.700000000000000E7    -8.543136119842529E-1   5.123753547668457E-1  -5.192677956074476E-3  -3.076342632994056E-3  -5.176264792680740E-3  -3.075150772929192E-3  -8.239431679248810E-2   9.929368495941162E-1  
 6.730000000000000E7    -8.362203240394592E-1   5.411798954010010E-1  -6.444530561566353E-3  -3.676949301734567E-3  -6.461136974394321E-3  -3.676467342302203E-3  -6.841005384922028E-2   9.950849413871765E-1  
 6.760000000000000E7    -8.179205656051636E-1   5.691208839416504E-1  -7.820657454431057E-3  -4.187149461358786E-3  -7.792096585035324E-3  -4.190657287836075E-3  -5.350439250469208E-2   9.953828454017639E-1  
 6.790000000000000E7    -7.975071668624878E-1   5.970087051391602E-1  -9.169628843665123E-3  -4.690674599260092E-3  -9.144484996795654E-3  -4.685595165938139E-3  -3.977191448211670E-2   9.954586029052734E-1  
 6.820000000000000E7    -7.765619158744812E-1   6.229291558265686E-1  -1.058315951377153E-2  -5.088147707283497E-3  -1.056258752942085E-2  -5.102651193737984E-3  -2.585764974355698E-2   9.963352680206299E-1  
 6.850000000000000E7    -7.552137970924377E-1   6.502373814582825E-1  -1.205814070999622E-2  -5.507853347808123E-3  -1.204482559114695E-2  -5.503284744918346E-3  -1.260582357645035E-2   9.967097043991089E-1  
 6.880000000000000E7    -7.325407862663269E-1   6.750731468200684E-1  -1.359007321298122E-2  -5.796195473521948E-3  -1.353711262345314E-2  -5.753952078521252E-3   2.308204770088196E-3   9.962199926376343E-1  
 6.910000000000000E7    -7.086166143417358E-1   6.997290849685669E-1  -1.517621707171202E-2  -6.031756754964590E-3  -1.511712931096554E-2  -6.037134677171707E-3   1.681561768054962E-2   9.968319535255432E-1  
 6.940000000000000E7    -6.850066781044006E-1   7.238820195198059E-1  -1.673102192580700E-2  -6.253718398511410E-3  -1.672165654599667E-2  -6.195379886776209E-3   2.971245720982552E-2   9.964957237243652E-1  
 6.970000000000000E7    -6.583321690559387E-1   7.467806339263916E-1  -1.838006451725960E-2  -6.351193878799677E-3  -1.836472377181053E-2  -6.285968236625195E-3   4.381386563181877E-2   9.958195090293884E-1  
 7.000000000000000E7    -6.324650049209595E-1   7.697952389717102E-1  -2.007354982197285E-2  -6.389899179339409E-3  -2.001691237092018E-2  -6.358596961945295E-3   5.768918991088867E-2   9.953143596649170E-1  
