#  HZ   S   RI   R     50.00 
! Rohde & Schwarz ZVT8 8Ports - Version 4.11 - 1300.0000k08 SN: 100242
! Date: 2026-07-31 14:57:06
! Measurements: S11 S21 S12 S22 
! 
 1.000000000000000E7    -4.092844426631928E-1   9.087626934051514E-1   4.951280355453491E-2   5.037728324532509E-2   4.915376007556915E-2   5.044733732938767E-2  -9.205257296562195E-1   3.820644915103912E-1  
 1.030000000000000E7    -3.771746158599854E-1   9.211298227310181E-1   5.234790220856667E-2   5.069315060973167E-2   5.204823240637779E-2   5.078385397791863E-2  -9.142071604728699E-1   3.947855830192566E-1  
 1.060000000000000E7    -3.423793315887451E-1   9.342626929283142E-1   5.539892613887787E-2   5.160408839583397E-2   5.523586645722389E-2   5.114291980862618E-2  -9.112390279769898E-1   4.059198796749115E-1  
 1.090000000000000E7    -3.108006417751312E-1   9.449415802955627E-1   5.858197808265686E-2   5.158682540059090E-2   5.834039300680161E-2   5.177591368556023E-2  -9.053707718849182E-1   4.176170229911804E-1  
 1.120000000000000E7    -2.766662538051605E-1   9.544338583946228E-1   6.178872659802437E-2   5.227755755186081E-2   6.135721504688263E-2   5.192902311682701E-2  -9.000995755195618E-1   4.284698963165283E-1  
 1.150000000000000E7    -2.418547421693802E-1   9.649587869644165E-1   6.470634043216705E-2   5.203668400645256E-2   6.451010704040527E-2   5.198947712779045E-2  -8.935374021530151E-1   4.378049373626709E-1  
 1.180000000000000E7    -2.077007740736008E-1   9.704865217208862E-1   6.773491203784943E-2   5.211945623159409E-2   6.775670498609543E-2   5.195605009794235E-2  -8.891427516937256E-1   4.481521844863892E-1  
 1.210000000000000E7    -1.741031408309937E-1   9.774895310401917E-1   7.127037644386292E-2   5.237991735339165E-2   7.123821973800659E-2   5.210472270846367E-2  -8.818712830543518E-1   4.603450596332550E-1  
 1.240000000000000E7    -1.395998895168304E-1   9.819871783256531E-1   7.460936158895493E-2   5.218599736690521E-2   7.470865547657013E-2   5.175808817148209E-2  -8.755195736885071E-1   4.699890315532684E-1  
 1.270000000000000E7    -1.045239791274071E-1   9.858104586601257E-1   7.859423756599426E-2   5.174121260643005E-2   7.813432812690735E-2   5.140681937336922E-2  -8.696457147598267E-1   4.836951196193695E-1  
 1.300000000000000E7    -6.997447460889816E-2   9.898213744163513E-1   8.190074563026428E-2   5.142512172460556E-2   8.196494728326798E-2   5.112456157803536E-2  -8.620259165763855E-1   4.936724007129669E-1  
 1.330000000000000E7    -3.479784727096558E-2   9.917170405387878E-1   8.556432276964188E-2   5.061983317136765E-2   8.554359525442123E-2   5.033586174249649E-2  -8.552960157394409E-1   5.052014589309692E-1  
 1.360000000000000E7     1.650769263505936E-3   9.917248487472534E-1   8.936452865600586E-2   5.013410374522209E-2   8.962937444448471E-2   4.964620620012283E-2  -8.487021327018738E-1   5.143841505050659E-1  
 1.390000000000000E7     3.500607609748840E-2   9.905273318290710E-1   9.328580647706986E-2   4.916806891560555E-2   9.290041029453278E-2   4.913792759180069E-2  -8.417864441871643E-1   5.257005691528320E-1  
 1.420000000000000E7     7.129260897636414E-2   9.892037510871887E-1   9.687697887420654E-2   4.848174005746841E-2   9.680686146020889E-2   4.826065152883530E-2  -8.358023762702942E-1   5.355283617973328E-1  
 1.450000000000000E7     1.059616059064865E-1   9.840574264526367E-1   1.010055392980576E-1   4.700862988829613E-2   1.006705611944199E-1   4.687555134296417E-2  -8.260533809661865E-1   5.473711490631104E-1  
 1.480000000000000E7     1.424517035484314E-1   9.796751737594605E-1   1.047952994704247E-1   4.564338177442551E-2   1.047467514872551E-1   4.592648521065712E-2  -8.198370933532715E-1   5.574656724929810E-1  
 1.510000000000000E7     1.766337752342224E-1   9.732065200805664E-1   1.088722199201584E-1   4.422687739133835E-2   1.085040420293808E-1   4.428213834762573E-2  -8.092921376228333E-1   5.687152743339539E-1  
 1.540000000000000E7     2.106827646493912E-1   9.661318659782410E-1   1.125752404332161E-1   4.338355734944344E-2   1.125657036900520E-1   4.290334507822990E-2  -8.044930100440979E-1   5.776818990707398E-1  
 1.570000000000000E7     2.459977120161057E-1   9.591454863548279E-1   1.167661398649216E-1   4.111786186695099E-2   1.168519631028175E-1   4.112372547388077E-2  -7.951484918594360E-1   5.895837545394898E-1  
 1.600000000000000E7     2.812429368495941E-1   9.476253390312195E-1   1.208860352635384E-1   3.918386623263359E-2   1.210060939192772E-1   3.902767598628998E-2  -7.875554561614990E-1   5.982142090797424E-1  
 1.630000000000000E7     3.146114945411682E-1   9.365432858467102E-1   1.255699098110199E-1   3.688256815075874E-2   1.249896883964539E-1   3.713729605078697E-2  -7.787556052207947E-1   6.098649501800537E-1  
 1.660000000000000E7     3.483590781688690E-1   9.227369427680969E-1   1.297008544206619E-1   3.459178283810616E-2   1.293697506189346E-1   3.433745726943016E-2  -7.684900164604187E-1   6.207318902015686E-1  
 1.690000000000000E7     3.813526332378388E-1   9.098193049430847E-1   1.340362876653671E-1   3.270205110311508E-2   1.337553411722183E-1   3.224350512027741E-2  -7.601056694984436E-1   6.297190189361572E-1  
 1.720000000000000E7     4.162457585334778E-1   8.950266838073731E-1   1.378564536571503E-1   2.926245704293251E-2   1.379318684339523E-1   2.964391186833382E-2  -7.511098384857178E-1   6.392665505409241E-1  
 1.750000000000000E7     4.441507160663605E-1   8.808739781379700E-1   1.427321434020996E-1   2.775627747178078E-2   1.428667902946472E-1   2.722555212676525E-2  -7.426049113273621E-1   6.508042216300964E-1  
 1.780000000000000E7     4.790116548538208E-1   8.602363467216492E-1   1.463251411914825E-1   2.394187264144421E-2   1.466372162103653E-1   2.429777383804321E-2  -7.325114011764526E-1   6.582387685775757E-1  
 1.810000000000000E7     5.091157555580139E-1   8.428649306297302E-1   1.518250852823257E-1   2.110313251614571E-2   1.508144289255142E-1   2.054158039391041E-2  -7.221753597259522E-1   6.713061332702637E-1  
 1.840000000000000E7     5.417649149894714E-1   8.227396607398987E-1   1.563201695680618E-1   1.653987914323807E-2   1.554315835237503E-1   1.700804382562637E-2  -7.113593816757202E-1   6.807398200035095E-1  
 1.870000000000000E7     5.695580244064331E-1   8.022874593734741E-1   1.605118513107300E-1   1.369215734302998E-2   1.599555462598801E-1   1.320911757647991E-2  -7.006282806396484E-1   6.904627084732056E-1  
 1.900000000000000E7     5.985235571861267E-1   7.804555892944336E-1   1.647797822952271E-1   9.829219430685043E-3   1.644878089427948E-1   9.579865261912346E-3  -6.899055242538452E-1   6.996382474899292E-1  
 1.930000000000000E7     6.270192861557007E-1   7.565613985061646E-1   1.691220104694367E-1   5.083946511149406E-3   1.692127734422684E-1   5.731677636504173E-3  -6.789586544036865E-1   7.107071876525879E-1  
 1.960000000000000E7     6.554942131042481E-1   7.312348484992981E-1   1.734070181846619E-1   8.056461811065674E-4   1.732829511165619E-1   1.241458579897881E-3  -6.697224974632263E-1   7.187963128089905E-1  
 1.990000000000000E7     6.799756884574890E-1   7.056765556335449E-1   1.776920855045319E-1  -3.980327397584915E-3   1.779098212718964E-1  -3.842173144221306E-3  -6.558586359024048E-1   7.303496003150940E-1  
 2.020000000000000E7     7.058465480804443E-1   6.790657043457031E-1   1.824176609516144E-1  -8.448545821011066E-3   1.817882955074310E-1  -8.491489104926586E-3  -6.449752449989319E-1   7.369382381439209E-1  
 2.050000000000000E7     7.320338487625122E-1   6.510332226753235E-1   1.864965111017227E-1  -1.345825847238302E-2   1.854611933231354E-1  -1.391669735312462E-2  -6.330104470252991E-1   7.465725541114807E-1  
 2.080000000000000E7     7.549965381622315E-1   6.209468245506287E-1   1.910766512155533E-1  -1.908196322619915E-2   1.907822489738464E-1  -1.893291063606739E-2  -6.211603283882141E-1   7.571419477462769E-1  
 2.110000000000000E7     7.784728407859802E-1   5.914409160614014E-1   1.955608427524567E-1  -2.534878998994827E-2   1.953933537006378E-1  -2.521033771336079E-2  -6.079133749008179E-1   7.659262418746948E-1  
 2.140000000000000E7     7.997448444366455E-1   5.612908601760864E-1   1.998721659183502E-1  -3.169030696153641E-2   1.989258527755737E-1  -3.078906983137131E-2  -5.953341126441956E-1   7.742394804954529E-1  
 2.170000000000000E7     8.181462287902832E-1   5.305726528167725E-1   2.039477527141571E-1  -3.745628893375397E-2   2.035201936960220E-1  -3.694910556077957E-2  -5.823649168014526E-1   7.834384441375732E-1  
 2.200000000000000E7     8.392576575279236E-1   4.959972798824310E-1   2.077662050724030E-1  -4.456352442502976E-2   2.077897042036057E-1  -4.405578970909119E-2  -5.676256418228149E-1   7.919850349426270E-1  
 2.230000000000000E7     8.555754423141480E-1   4.628034234046936E-1   2.118402570486069E-1  -5.140145868062973E-2   2.112447768449783E-1  -5.085853114724159E-2  -5.536162853240967E-1   7.997862696647644E-1  
 2.260000000000000E7     8.721672296524048E-1   4.281969666481018E-1   2.152112871408463E-1  -5.879974365234375E-2   2.165697515010834E-1  -5.831068754196167E-2  -5.402507185935974E-1   8.082176446914673E-1  
 2.290000000000000E7     8.878866434097290E-1   3.929152786731720E-1   2.193297147750855E-1  -6.640385091304779E-2   2.196941822767258E-1  -6.558553874492645E-2  -5.240202546119690E-1   8.157483339309692E-1  
 2.320000000000000E7     9.001207351684570E-1   3.572540581226349E-1   2.233100235462189E-1  -7.469181716442108E-2   2.228391319513321E-1  -7.489031553268433E-2  -5.097072124481201E-1   8.252468109130859E-1  
 2.350000000000000E7     9.129666090011597E-1   3.193567693233490E-1   2.269494980573654E-1  -8.371317386627197E-2   2.263615578413010E-1  -8.299223333597183E-2  -4.946763813495636E-1   8.323283791542053E-1  
 2.380000000000000E7     9.230256676673889E-1   2.829816341400147E-1   2.299667000770569E-1  -9.180563688278198E-2   2.299306541681290E-1  -9.160377085208893E-2  -4.790969789028168E-1   8.396565318107605E-1  
 2.410000000000000E7     9.328196048736572E-1   2.440492212772369E-1   2.331133186817169E-1  -1.016307920217514E-1   2.325730025768280E-1  -1.012430712580681E-1  -4.625593423843384E-1   8.465454578399658E-1  
 2.440000000000000E7     9.396377801895142E-1   2.060479819774628E-1   2.363966852426529E-1  -1.115671396255493E-1   2.362829595804215E-1  -1.114553734660149E-1  -4.473414719104767E-1   8.531020283699036E-1  
 2.470000000000000E7     9.453992843627930E-1   1.668567359447479E-1   2.391121983528137E-1  -1.221316158771515E-1   2.384068071842194E-1  -1.203422546386719E-1  -4.293115735054016E-1   8.582599163055420E-1  
 2.500000000000000E7     9.504960775375366E-1   1.273297816514969E-1   2.410183250904083E-1  -1.319971680641174E-1   2.409442663192749E-1  -1.325727403163910E-1  -4.113688468933106E-1   8.661954402923584E-1  
 2.530000000000000E7     9.528450965881348E-1   8.760982751846314E-2   2.437195926904678E-1  -1.427010595798492E-1   2.435237765312195E-1  -1.422372162342072E-1  -3.943920433521271E-1   8.706936836242676E-1  
 2.560000000000000E7     9.531154632568359E-1   4.812144115567207E-2   2.453170567750931E-1  -1.537086218595505E-1   2.459535896778107E-1  -1.535554081201553E-1  -3.768751025199890E-1   8.763363957405090E-1  
 2.590000000000000E7     9.515484571456909E-1   8.139550685882568E-3   2.470257729291916E-1  -1.666117608547211E-1   2.472845613956451E-1  -1.663844883441925E-1  -3.587365150451660E-1   8.834787011146545E-1  
 2.620000000000000E7     9.483700990676880E-1  -3.299119323492050E-2   2.482745796442032E-1  -1.795336157083511E-1   2.479385733604431E-1  -1.785868555307388E-1  -3.378739356994629E-1   8.881557583808899E-1  
 2.650000000000000E7     9.430378079414368E-1  -7.285435497760773E-2   2.491700053215027E-1  -1.911484450101852E-1   2.491791397333145E-1  -1.915804445743561E-1  -3.197476863861084E-1   8.916767835617065E-1  
 2.680000000000000E7     9.355067610740662E-1  -1.125744283199310E-1   2.500506043434143E-1  -2.043510675430298E-1   2.499498724937439E-1  -2.050255686044693E-1  -3.001033663749695E-1   8.953857421875000E-1  
 2.710000000000000E7     9.265452027320862E-1  -1.541309654712677E-1   2.489283084869385E-1  -2.195134907960892E-1   2.485762387514114E-1  -2.190120220184326E-1  -2.798133790493012E-1   9.001385569572449E-1  
 2.740000000000000E7     9.157777428627014E-1  -1.941978931427002E-1   2.496207654476166E-1  -2.328490912914276E-1   2.489389330148697E-1  -2.337118536233902E-1  -2.585264742374420E-1   9.006401896476746E-1  
 2.770000000000000E7     9.036153554916382E-1  -2.325444668531418E-1   2.479210495948792E-1  -2.482645660638809E-1   2.476432025432587E-1  -2.489824295043945E-1  -2.369650453329086E-1   9.039300680160523E-1  
 2.800000000000000E7     8.894026875495911E-1  -2.714265882968903E-1   2.460442185401917E-1  -2.628844678401947E-1   2.470204234123230E-1  -2.629419565200806E-1  -2.152325212955475E-1   9.044310450553894E-1  
 2.830000000000000E7     8.710787296295166E-1  -3.106145858764648E-1   2.432644814252853E-1  -2.782427072525024E-1   2.428613752126694E-1  -2.792385816574097E-1  -1.956368535757065E-1   9.059150218963623E-1  
 2.860000000000000E7     8.518690466880798E-1  -3.490264117717743E-1   2.401261180639267E-1  -2.951261699199677E-1   2.392603904008865E-1  -2.962147593498230E-1  -1.700085103511810E-1   9.062101244926453E-1  
 2.890000000000000E7     8.308577537536621E-1  -3.849233686923981E-1   2.356462478637695E-1  -3.129695653915405E-1   2.354194074869156E-1  -3.124818801879883E-1  -1.480285525321960E-1   9.056318402290344E-1  
 2.920000000000000E7     8.080855011940002E-1  -4.218687415122986E-1   2.317607998847961E-1  -3.290133178234100E-1   2.301003336906433E-1  -3.292711973190308E-1  -1.258980035781860E-1   9.034845829010010E-1  
 2.950000000000000E7     7.836179733276367E-1  -4.562025666236877E-1   2.258096188306809E-1  -3.485933840274811E-1   2.246412336826325E-1  -3.477548360824585E-1  -1.002299636602402E-1   9.019361734390259E-1  
 2.980000000000000E7     7.561656832695007E-1  -4.904882311820984E-1   2.187339663505554E-1  -3.659093379974365E-1   2.186126410961151E-1  -3.666281402111054E-1  -7.685071229934692E-2   8.987134695053101E-1  
 3.010000000000000E7     7.269296646118164E-1  -5.231693983078003E-1   2.100749164819717E-1  -3.852461874485016E-1   2.109054028987885E-1  -3.848299980163574E-1  -5.221831798553467E-2   8.945600986480713E-1  
 3.040000000000000E7     6.948317885398865E-1  -5.551054477691650E-1   2.018418312072754E-1  -4.046393930912018E-1   2.012115120887756E-1  -4.053866565227509E-1  -2.706144377589226E-2   8.876082897186279E-1  
 3.070000000000000E7     6.611143946647644E-1  -5.833059549331665E-1   1.902786344289780E-1  -4.234233498573303E-1   1.896618455648422E-1  -4.232191145420075E-1  -1.552917063236237E-3   8.822030425071716E-1  
 3.100000000000000E7     6.250095963478088E-1  -6.103943586349487E-1   1.779522597789764E-1  -4.440879523754120E-1   1.776119023561478E-1  -4.427026510238648E-1   2.434367686510086E-2   8.747211694717407E-1  
 3.130000000000000E7     5.893566608428955E-1  -6.364863514900208E-1   1.643108427524567E-1  -4.638932943344116E-1   1.648691594600678E-1  -4.634796977043152E-1   4.976317286491394E-2   8.642820715904236E-1  
 3.160000000000000E7     5.489205121994019E-1  -6.585931181907654E-1   1.496114730834961E-1  -4.845293760299683E-1   1.495945751667023E-1  -4.843847453594208E-1   7.529670000076294E-2   8.554670810699463E-1  
 3.190000000000000E7     5.082121491432190E-1  -6.787682175636292E-1   1.326767802238464E-1  -5.047173500061035E-1   1.327100098133087E-1  -5.031833648681641E-1   1.018246710300446E-1   8.434898257255554E-1  
 3.220000000000000E7     4.659293293952942E-1  -6.988788843154907E-1   1.152748838067055E-1  -5.248016119003296E-1   1.144969686865807E-1  -5.235255360603333E-1   1.262950301170349E-1   8.297770023345947E-1  
 3.250000000000000E7     4.222832620143890E-1  -7.131291627883911E-1   9.487702697515488E-2  -5.454635620117188E-1   9.382282197475433E-2  -5.448966026306152E-1   1.527318060398102E-1   8.164358139038086E-1  
 3.280000000000000E7     3.769707977771759E-1  -7.239599227905273E-1   7.256858050823212E-2  -5.656886696815491E-1   7.259672880172730E-2  -5.627692341804504E-1   1.783347725868225E-1   7.991788387298584E-1  
 3.310000000000000E7     3.317445516586304E-1  -7.347749471664429E-1   4.850341379642487E-2  -5.834646821022034E-1   4.717266559600830E-2  -5.829755067825317E-1   2.037826478481293E-1   7.800832986831665E-1  
 3.340000000000000E7     2.853615581989288E-1  -7.403985857963562E-1   2.017432823777199E-2  -6.027297973632813E-1   2.111908420920372E-2  -6.004692316055298E-1   2.282350361347199E-1   7.597680091857910E-1  
 3.370000000000000E7     2.384177744388580E-1  -7.427249550819397E-1  -7.229637354612351E-3  -6.196399331092835E-1  -6.712399423122406E-3  -6.195193529129028E-1   2.522726953029633E-1   7.383571267127991E-1  
 3.400000000000000E7     1.906367540359497E-1  -7.413867712020874E-1  -3.901365026831627E-2  -6.359684467315674E-1  -3.882217779755592E-2  -6.362330913543701E-1   2.746840119361877E-1   7.136150598526001E-1  
 3.430000000000000E7     1.441149264574051E-1  -7.369718551635742E-1  -7.312300056219101E-2  -6.507317423820496E-1  -7.167077064514160E-2  -6.503539681434631E-1   2.972705066204071E-1   6.889234185218811E-1  
 3.460000000000000E7     9.639766812324524E-2  -7.273724675178528E-1  -1.084173172712326E-1  -6.642208099365234E-1  -1.090255826711655E-1  -6.644554138183594E-1   3.180127739906311E-1   6.617519855499268E-1  
 3.490000000000000E7     5.272440612316132E-2  -7.155323624610901E-1  -1.478723585605621E-1  -6.746008992195129E-1  -1.453449279069901E-1  -6.745508909225464E-1   3.368415534496307E-1   6.325690746307373E-1  
 3.520000000000000E7     7.094306871294975E-3  -6.985400319099426E-1  -1.870555728673935E-1  -6.847342252731323E-1  -1.855776160955429E-1  -6.849251389503479E-1   3.558709025382996E-1   6.012521982192993E-1  
 3.550000000000000E7    -3.654606640338898E-2  -6.763332486152649E-1  -2.292095720767975E-1  -6.929147243499756E-1  -2.294961810112000E-1  -6.922370791435242E-1   3.701941967010498E-1   5.688074827194214E-1  
 3.580000000000000E7    -7.730850577354431E-2  -6.527863740921021E-1  -2.736066877841950E-1  -6.959153413772583E-1  -2.725984454154968E-1  -6.955327987670898E-1   3.839428126811981E-1   5.337452888488770E-1  
 3.610000000000000E7    -1.135210245847702E-1  -6.239950656890869E-1  -3.215424418449402E-1  -6.969161033630371E-1  -3.199572861194611E-1  -6.958582401275635E-1   3.966572880744934E-1   4.979991018772125E-1  
 3.640000000000000E7    -1.498223543167114E-1  -5.923234820365906E-1  -3.683328032493591E-1  -6.942965388298035E-1  -3.677726387977600E-1  -6.947168707847595E-1   4.028894603252411E-1   4.600528478622437E-1  
 3.670000000000000E7    -1.804209500551224E-1  -5.577519536018372E-1  -4.176460802555084E-1  -6.891361474990845E-1  -4.159794151782990E-1  -6.863797903060913E-1   4.093978106975555E-1   4.237811267375946E-1  
 3.700000000000000E7    -2.086486816406250E-1  -5.211850404739380E-1  -4.676212370395660E-1  -6.765256524085999E-1  -4.666624367237091E-1  -6.760194301605225E-1   4.116733074188232E-1   3.831115961074829E-1  
 3.730000000000000E7    -2.335096150636673E-1  -4.823678433895111E-1  -5.162538290023804E-1  -6.611101627349854E-1  -5.170927643775940E-1  -6.605715751647949E-1   4.091154634952545E-1   3.454967737197876E-1  
 3.760000000000000E7    -2.505193948745728E-1  -4.433607757091522E-1  -5.670717358589172E-1  -6.403185129165649E-1  -5.678659677505493E-1  -6.402932405471802E-1   4.052630960941315E-1   3.059652149677277E-1  
 3.790000000000000E7    -2.627321779727936E-1  -4.008446931838989E-1  -6.180502176284790E-1  -6.169570684432983E-1  -6.153989434242249E-1  -6.154821515083313E-1   3.992398381233215E-1   2.679553031921387E-1  
 3.820000000000000E7    -2.711904346942902E-1  -3.592481315135956E-1  -6.664643287658691E-1  -5.868085622787476E-1  -6.665018200874329E-1  -5.869919657707214E-1   3.862156867980957E-1   2.304076701402664E-1  
 3.850000000000000E7    -2.754623591899872E-1  -3.161022663116455E-1  -7.132826447486877E-1  -5.549520254135132E-1  -7.130776643753052E-1  -5.520289540290833E-1   3.743438422679901E-1   1.929932087659836E-1  
 3.880000000000000E7    -2.752266228199005E-1  -2.782065868377686E-1  -7.579160928726196E-1  -5.136480927467346E-1  -7.563352584838867E-1  -5.147339105606079E-1   3.575157523155212E-1   1.563836932182312E-1  
 3.910000000000000E7    -2.695903778076172E-1  -2.367535382509232E-1  -7.998154759407044E-1  -4.718194007873535E-1  -7.990909218788147E-1  -4.712671637535095E-1   3.375549316406250E-1   1.257959753274918E-1  
 3.940000000000000E7    -2.573575675487518E-1  -2.004203349351883E-1  -8.386296629905701E-1  -4.244332611560822E-1  -8.378527760505676E-1  -4.258171021938324E-1   3.138922154903412E-1   9.366923570632935E-2  
 3.970000000000000E7    -2.437481135129929E-1  -1.658150106668472E-1  -8.739331960678101E-1  -3.748325407505035E-1  -8.734225034713745E-1  -3.740288913249970E-1   2.866594493389130E-1   6.862421333789825E-2  
 4.000000000000000E7    -2.268915623426437E-1  -1.350940763950348E-1  -9.045203924179077E-1  -3.210669159889221E-1  -9.034870862960815E-1  -3.197881877422333E-1   2.604850232601166E-1   4.286200180649757E-2  
 4.030000000000000E7    -2.061773389577866E-1  -1.113515347242355E-1  -9.315915703773499E-1  -2.637199163436890E-1  -9.298173785209656E-1  -2.649569511413574E-1   2.338117659091950E-1   2.073236741125584E-2  
 4.060000000000000E7    -1.826386153697968E-1  -8.613183349370956E-2  -9.530890583992004E-1  -2.061906456947327E-1  -9.531531333923340E-1  -2.051553726196289E-1   2.002180367708206E-1   3.396021667867899E-3  
 4.090000000000000E7    -1.584544330835342E-1  -6.466988474130631E-2  -9.700579643249512E-1  -1.461544185876846E-1  -9.689559340476990E-1  -1.458325982093811E-1   1.714619845151901E-1  -1.341693289577961E-2  
 4.120000000000000E7    -1.292403042316437E-1  -4.982767254114151E-2  -9.824631214141846E-1  -8.481323719024658E-2  -9.826711416244507E-1  -8.319787681102753E-2   1.369882971048355E-1  -2.296186424791813E-2  
 4.150000000000000E7    -1.057034879922867E-1  -4.216562211513519E-2  -9.893356561660767E-1  -2.080676332116127E-2  -9.875421524047852E-1  -2.278960123658180E-2   1.065534055233002E-1  -2.980452775955200E-2  
 4.180000000000000E7    -8.023463189601898E-2  -3.378821909427643E-2  -9.912974238395691E-1   4.025916382670403E-2  -9.898548722267151E-1   3.967331349849701E-2   7.712909579277039E-2  -3.797086700797081E-2  
 4.210000000000000E7    -5.610787495970726E-2  -3.284831717610359E-2  -9.874635934829712E-1   1.018650457262993E-1  -9.890331625938416E-1   1.018529906868935E-1   4.758223146200180E-2  -3.897224366664887E-2  
 4.240000000000000E7    -3.057786263525486E-2  -3.421881049871445E-2  -9.813265204429627E-1   1.624389886856079E-1  -9.808102250099182E-1   1.624582558870316E-1   1.940925419330597E-2  -3.751378133893013E-2  
 4.270000000000000E7    -1.093035750091076E-2  -3.712589293718338E-2  -9.699332118034363E-1   2.227569818496704E-1  -9.687809348106384E-1   2.226289808750153E-1  -7.117175031453371E-3  -3.479235246777535E-2  
 4.300000000000000E7     9.901809506118298E-3  -4.464100301265717E-2  -9.543774724006653E-1   2.814214229583740E-1  -9.533878564834595E-1   2.810693979263306E-1  -3.293330594897270E-2  -2.848239243030548E-2  
 4.330000000000000E7     2.918539382517338E-2  -5.372565239667893E-2  -9.340386390686035E-1   3.371304273605347E-1  -9.352225661277771E-1   3.378785848617554E-1  -5.654398724436760E-2  -2.051826193928719E-2  
 4.360000000000000E7     4.494404047727585E-2  -6.975363194942474E-2  -9.119206070899963E-1   3.921192884445190E-1  -9.112491011619568E-1   3.915829658508301E-1  -7.969868183135986E-2  -1.169999968260527E-2  
 4.390000000000000E7     5.511109903454781E-2  -8.180263638496399E-2  -8.856482505798340E-1   4.445503354072571E-1  -8.843947649002075E-1   4.451380670070648E-1  -9.407637268304825E-2   7.092574960552156E-4  
 4.420000000000000E7     6.596561521291733E-2  -9.433485567569733E-2  -8.561305999755859E-1   4.956088662147522E-1  -8.551367521286011E-1   4.945125877857208E-1  -1.117942109704018E-1   1.179632637649775E-2  
 4.450000000000000E7     7.169286161661148E-2  -1.109066605567932E-1  -8.250902891159058E-1   5.419984459877014E-1  -8.235155344009399E-1   5.426739454269409E-1  -1.286457329988480E-1   2.481149509549141E-2  
 4.480000000000000E7     7.606369256973267E-2  -1.262444555759430E-1  -7.900961041450501E-1   5.874584913253784E-1  -7.893698215484619E-1   5.877416133880615E-1  -1.396247595548630E-1   3.808104619383812E-2  
 4.510000000000000E7     7.666998356580734E-2  -1.426573991775513E-1  -7.535523176193237E-1   6.311733722686768E-1  -7.530226111412048E-1   6.298670768737793E-1  -1.493412256240845E-1   5.234128981828690E-2  
 4.540000000000000E7     7.421223819255829E-2  -1.533911973237991E-1  -7.144389748573303E-1   6.711842417716980E-1  -7.157358527183533E-1   6.708956956863403E-1  -1.590754240751267E-1   6.581592559814453E-2  
 4.570000000000000E7     7.128202915191650E-2  -1.678226888179779E-1  -6.743957996368408E-1   7.106126546859741E-1  -6.741659641265869E-1   7.088732719421387E-1  -1.632605046033859E-1   8.147240430116653E-2  
 4.600000000000000E7     6.306785345077515E-2  -1.838021278381348E-1  -6.328710317611694E-1   7.443363070487976E-1  -6.325582861900330E-1   7.443302273750305E-1  -1.650083810091019E-1   9.281989187002182E-2  
 4.630000000000000E7     5.456850305199623E-2  -1.933452188968658E-1  -5.888412594795227E-1   7.783352136611939E-1  -5.868855714797974E-1   7.776377201080322E-1  -1.677314788103104E-1   1.037791594862938E-1  
 4.660000000000000E7     4.557559639215469E-2  -1.997191160917282E-1  -5.424015522003174E-1   8.106136918067932E-1  -5.421279668807983E-1   8.089470267295837E-1  -1.662281751632690E-1   1.155832633376122E-1  
 4.690000000000000E7     3.169288858771324E-2  -2.086347937583923E-1  -4.957521557807922E-1   8.381007313728333E-1  -4.947433173656464E-1   8.371055722236633E-1  -1.649867743253708E-1   1.295700222253799E-1  
 4.720000000000000E7     1.937080360949040E-2  -2.129467576742172E-1  -4.462038874626160E-1   8.646429777145386E-1  -4.455324411392212E-1   8.633764386177063E-1  -1.621619910001755E-1   1.356667280197144E-1  
 4.750000000000000E7     4.700056742876768E-3  -2.135292589664459E-1  -3.955617249011993E-1   8.883035182952881E-1  -3.962826728820801E-1   8.875008821487427E-1  -1.566397845745087E-1   1.470629423856735E-1  
 4.780000000000000E7    -7.441971451044083E-3  -2.131489217281342E-1  -3.442024588584900E-1   9.106606841087341E-1  -3.444501459598541E-1   9.079065322875977E-1  -1.476330906152725E-1   1.508990079164505E-1  
 4.810000000000000E7    -2.514037117362022E-2  -2.105484455823898E-1  -2.916344404220581E-1   9.287859797477722E-1  -2.910573184490204E-1   9.267705678939819E-1  -1.388510316610336E-1   1.559720933437347E-1  
 4.840000000000000E7    -3.971622884273529E-2  -2.030146121978760E-1  -2.376420050859451E-1   9.449956417083740E-1  -2.355666905641556E-1   9.434235095977783E-1  -1.301386654376984E-1   1.567098796367645E-1  
 4.870000000000000E7    -5.327714234590530E-2  -1.918108463287354E-1  -1.800657808780670E-1   9.594865441322327E-1  -1.810047626495361E-1   9.572340250015259E-1  -1.196283549070358E-1   1.568221747875214E-1  
 4.900000000000000E7    -6.494095921516419E-2  -1.789360493421555E-1  -1.230782270431519E-1   9.692654013633728E-1  -1.216856986284256E-1   9.689405560493469E-1  -1.098858192563057E-1   1.549818813800812E-1  
 4.930000000000000E7    -7.573293149471283E-2  -1.644098758697510E-1  -6.286581605672836E-2   9.762088656425476E-1  -6.222665309906006E-2   9.767387509346008E-1  -9.607361257076263E-2   1.486741155385971E-1  
 4.960000000000000E7    -8.338823914527893E-2  -1.456375569105148E-1  -1.235289499163628E-3   9.811868071556091E-1  -1.077981665730476E-3   9.794194102287293E-1  -8.829736709594727E-2   1.424768269062042E-1  
 4.990000000000000E7    -8.668374270200729E-2  -1.243348270654678E-1   6.143531948328018E-2   9.814561605453491E-1   6.121249869465828E-2   9.801706671714783E-1  -7.454639673233032E-2   1.319671869277954E-1  
 5.020000000000000E7    -8.931219577789307E-2  -1.007593199610710E-1   1.264776289463043E-1   9.772125482559204E-1   1.257223784923554E-1   9.774411320686340E-1  -6.310541182756424E-2   1.153757497668266E-1  
 5.050000000000000E7    -8.626846969127655E-2  -7.522656023502350E-2   1.924631893634796E-1   9.696890711784363E-1   1.918005198240280E-1   9.681936502456665E-1  -5.593173950910568E-2   1.001053005456924E-1  
 5.080000000000000E7    -7.876852899789810E-2  -4.759218171238899E-2   2.596799135208130E-1   9.550552964210510E-1   2.596354186534882E-1   9.550025463104248E-1  -4.625563323497772E-2   7.713025808334351E-2  
 5.110000000000000E7    -6.494248658418655E-2  -2.110661752521992E-2   3.280397951602936E-1   9.354092478752136E-1   3.272193372249603E-1   9.353056550025940E-1  -4.291000962257385E-2   5.475822836160660E-2  
 5.140000000000000E7    -4.619938135147095E-2   6.032232195138931E-3   3.959859609603882E-1   9.108464121818543E-1   3.971511721611023E-1   9.099836945533752E-1  -4.103324934840202E-2   2.716719172894955E-2  
 5.170000000000000E7    -1.829930581152439E-2   2.941838465631008E-2   4.642368853092194E-1   8.763908743858337E-1   4.646861255168915E-1   8.773541450500488E-1  -4.153575375676155E-2  -3.588558407500386E-3  
 5.200000000000000E7     1.248949952423573E-2   5.355685204267502E-2   5.321540236473084E-1   8.367701768875122E-1   5.316736102104187E-1   8.368672132492065E-1  -5.020952969789505E-2  -3.986038640141487E-2  
 5.230000000000000E7     5.346983671188355E-2   7.351657748222351E-2   5.958392620086670E-1   7.889754772186279E-1   5.964823961257935E-1   7.883342504501343E-1  -6.222594901919365E-2  -7.066999375820160E-2  
 5.260000000000000E7     9.974743425846100E-2   8.388682454824448E-2   6.568012237548828E-1   7.326924800872803E-1   6.562812924385071E-1   7.321565747261047E-1  -8.110587298870087E-2  -1.072662919759750E-1  
 5.290000000000000E7     1.475840061903000E-1   8.985129743814468E-2   7.125684022903442E-1   6.690748333930969E-1   7.125155329704285E-1   6.679481267929077E-1  -1.062365323305130E-1  -1.434853971004486E-1  
 5.320000000000000E7     2.045773565769196E-1   8.530109375715256E-2   7.614826560020447E-1   5.966662764549255E-1   7.608989477157593E-1   5.965272188186646E-1  -1.407135277986527E-1  -1.770286411046982E-1  
 5.350000000000000E7     2.637134194374085E-1   7.042162120342255E-2   8.011943101882935E-1   5.174662470817566E-1   7.999556064605713E-1   5.187943577766419E-1  -1.778317540884018E-1  -2.068856209516525E-1  
 5.380000000000000E7     3.216800689697266E-1   4.251296818256378E-2   8.313432931900024E-1   4.344206154346466E-1   8.305369019508362E-1   4.323177337646484E-1  -2.240576595067978E-1  -2.360225021839142E-1  
 5.410000000000000E7     3.765930831432343E-1   4.057011567056179E-3   8.503342270851135E-1   3.470812737941742E-1   8.494768142700195E-1   3.472763895988464E-1  -2.780463397502899E-1  -2.546293139457703E-1  
 5.440000000000000E7     4.263818264007568E-1  -4.752751812338829E-2   8.567523956298828E-1   2.578353583812714E-1   8.563803434371948E-1   2.579798102378845E-1  -3.361157774925232E-1  -2.684491872787476E-1  
 5.470000000000000E7     4.672137200832367E-1  -1.066100820899010E-1   8.515987992286682E-1   1.700461506843567E-1   8.504440188407898E-1   1.705003827810288E-1  -3.973796069622040E-1  -2.726146876811981E-1  
 5.500000000000000E7     5.000404119491577E-1  -1.786223351955414E-1   8.336804509162903E-1   8.625353127717972E-2   8.329351544380188E-1   8.620104193687439E-2  -4.586701691150665E-1  -2.686841785907745E-1  
 5.530000000000000E7     5.207683444023132E-1  -2.547679245471954E-1   8.051481842994690E-1   7.331183180212975E-3   8.048549890518189E-1   7.247095927596092E-3  -5.213599801063538E-1  -2.531980276107788E-1  
 5.560000000000000E7     5.275510549545288E-1  -3.342075049877167E-1   7.694501876831055E-1  -6.519396603107452E-2   7.667810320854187E-1  -6.439191102981567E-2  -5.815843343734741E-1  -2.309984117746353E-1  
 5.590000000000000E7     5.225481390953064E-1  -4.145850241184235E-1   7.234408855438232E-1  -1.280193626880646E-1   7.239304780960083E-1  -1.271577626466751E-1  -6.367664933204651E-1  -1.999639123678207E-1  
 5.620000000000000E7     5.044756531715393E-1  -4.948024749755859E-1   6.733752489089966E-1  -1.812164783477783E-1   6.720684766769409E-1  -1.825891435146332E-1  -6.878912448883057E-1  -1.635825634002686E-1  
 5.650000000000000E7     4.765562415122986E-1  -5.692842006683350E-1   6.195982694625855E-1  -2.263566702604294E-1   6.183935403823853E-1  -2.257062345743179E-1  -7.330723404884338E-1  -1.193941682577133E-1  
 5.680000000000000E7     4.365125298500061E-1  -6.390603184700012E-1   5.652964711189270E-1  -2.606640458106995E-1   5.649579763412476E-1  -2.607796192169190E-1  -7.709878683090210E-1  -7.093406468629837E-2  
 5.710000000000000E7     3.880977630615234E-1  -7.020227909088135E-1   5.107012987136841E-1  -2.875513136386871E-1   5.111461877822876E-1  -2.864625751972199E-1  -8.012728095054627E-1  -2.182179689407349E-2  
 5.740000000000000E7     3.330554366111755E-1  -7.581405043601990E-1   4.572620987892151E-1  -3.063241243362427E-1   4.573237299919128E-1  -3.053624927997589E-1  -8.279582262039185E-1   2.911980450153351E-2  
 5.770000000000000E7     2.731260061264038E-1  -8.047875761985779E-1   4.061591029167175E-1  -3.163624107837677E-1   4.042771160602570E-1  -3.159379065036774E-1  -8.458462953567505E-1   8.082092553377152E-2  
 5.800000000000000E7     2.088594287633896E-1  -8.435221910476685E-1   3.591024279594421E-1  -3.233145177364349E-1   3.575857579708099E-1  -3.234040141105652E-1  -8.589536547660828E-1   1.320129334926605E-1  
 5.830000000000000E7     1.438136696815491E-1  -8.744763731956482E-1   3.130603134632111E-1  -3.238044381141663E-1   3.132260739803314E-1  -3.239071965217590E-1  -8.666693568229675E-1   1.829102039337158E-1  
 5.860000000000000E7     7.749349623918533E-2  -8.986312150955200E-1   2.725698351860046E-1  -3.207248151302338E-1   2.729214429855347E-1  -3.210350573062897E-1  -8.707535266876221E-1   2.318326383829117E-1  
 5.890000000000000E7     9.338006377220154E-3  -9.140445590019226E-1   2.349198460578919E-1  -3.146301805973053E-1   2.351389378309250E-1  -3.137125670909882E-1  -8.697510957717896E-1   2.792977094650269E-1  
 5.920000000000000E7    -5.714140087366104E-2  -9.239469170570374E-1   2.015110552310944E-1  -3.066872060298920E-1   2.005692124366760E-1  -3.069223761558533E-1  -8.665628433227539E-1   3.235859274864197E-1  
 5.950000000000000E7    -1.223343908786774E-1  -9.263902306556702E-1   1.705783009529114E-1  -2.957903444766998E-1   1.700863391160965E-1  -2.956331968307495E-1  -8.584288358688355E-1   3.665990829467773E-1  
 5.980000000000000E7    -1.866253465414047E-1  -9.245659708976746E-1   1.433778703212738E-1  -2.851459383964539E-1   1.432075947523117E-1  -2.839420735836029E-1  -8.503150343894959E-1   4.075405299663544E-1  
 6.010000000000000E7    -2.474182546138763E-1  -9.162327647209168E-1   1.200730279088020E-1  -2.712747454643250E-1   1.192850470542908E-1  -2.704729735851288E-1  -8.388424515724182E-1   4.447778761386871E-1  
 6.040000000000000E7    -3.080228567123413E-1  -9.054051637649536E-1   9.840565919876099E-2  -2.584340572357178E-1   9.838674217462540E-2  -2.585770189762116E-1  -8.266714215278626E-1   4.809883832931519E-1  
 6.070000000000000E7    -3.635029494762421E-1  -8.911359906196594E-1   8.004471659660339E-2  -2.449821084737778E-1   7.983496785163879E-2  -2.442431300878525E-1  -8.115587234497070E-1   5.139861106872559E-1  
 6.100000000000000E7    -4.173125326633453E-1  -8.710093498229981E-1   6.309682875871658E-2  -2.320103049278259E-1   6.299060583114624E-2  -2.315678000450134E-1  -7.968399524688721E-1   5.470061302185059E-1  
 6.130000000000000E7    -4.703269600868225E-1  -8.495488762855530E-1   4.897518828511238E-2  -2.185609042644501E-1   4.893713817000389E-2  -2.183319479227066E-1  -7.805857658386231E-1   5.767761468887329E-1  
 6.160000000000000E7    -5.191555619239807E-1  -8.240716457366943E-1   3.614480793476105E-2  -2.050147503614426E-1   3.614051640033722E-2  -2.052204757928848E-1  -7.630492448806763E-1   6.042903661727905E-1  
 6.190000000000000E7    -5.654054880142212E-1  -7.964415550231934E-1   2.548486180603504E-2  -1.922466158866882E-1   2.468067780137062E-2  -1.920673102140427E-1  -7.443903684616089E-1   6.303076744079590E-1  
 6.220000000000000E7    -6.089349985122681E-1  -7.667625546455383E-1   1.589678600430489E-2  -1.796326190233231E-1   1.589555479586124E-2  -1.800679415464401E-1  -7.277529835700989E-1   6.544256806373596E-1  
 6.250000000000000E7    -6.506262421607971E-1  -7.348998188972473E-1   8.046219125390053E-3  -1.681797802448273E-1   7.917927578091621E-3  -1.681115180253983E-1  -7.101719379425049E-1   6.774303913116455E-1  
 6.280000000000000E7    -6.884434819221497E-1  -7.015611529350281E-1   1.189872622489929E-3  -1.568830907344818E-1   1.365132629871368E-3  -1.565885543823242E-1  -6.913516521453857E-1   6.987879276275635E-1  
 6.310000000000000E7    -7.260643243789673E-1  -6.661051511764526E-1  -4.690544679760933E-3  -1.462831646203995E-1  -4.727269522845745E-3  -1.457661986351013E-1  -6.724218130111694E-1   7.203335165977478E-1  
 6.340000000000000E7    -7.587343454360962E-1  -6.299946308135986E-1  -9.617013856768608E-3  -1.358136385679245E-1  -9.747826494276524E-3  -1.356103718280792E-1  -6.537787914276123E-1   7.396877408027649E-1  
 6.370000000000000E7    -7.898257374763489E-1  -5.930080413818359E-1  -1.378422230482101E-2  -1.260277330875397E-1  -1.393008045852184E-2  -1.258853822946549E-1  -6.342129111289978E-1   7.568312883377075E-1  
 6.400000000000000E7    -8.179612159729004E-1  -5.539562702178955E-1  -1.735666394233704E-2  -1.168637499213219E-1  -1.738459058105946E-2  -1.164079979062080E-1  -6.158968210220337E-1   7.742359638214111E-1  
 6.430000000000000E7    -8.453365564346314E-1  -5.145366191864014E-1  -1.978066004812717E-2  -1.080509424209595E-1  -2.014684304594994E-2  -1.077265888452530E-1  -5.966235399246216E-1   7.904908061027527E-1  
 6.460000000000000E7    -8.694186806678772E-1  -4.757983088493347E-1  -2.199243009090424E-2  -9.959752112627029E-2  -2.200209163129330E-2  -9.941163659095764E-2  -5.772694349288940E-1   8.039779663085938E-1  
 6.490000000000000E7    -8.905000686645508E-1  -4.365678727626801E-1  -2.359218522906303E-2  -9.175581485033035E-2  -2.353334613144398E-2  -9.176313877105713E-2  -5.596272349357605E-1   8.183259367942810E-1  
 6.520000000000000E7    -9.099617004394531E-1  -3.954011201858521E-1  -2.471895329654217E-2  -8.462215960025787E-2  -2.489595115184784E-2  -8.440646529197693E-2  -5.407208204269409E-1   8.325456976890564E-1  
 6.550000000000000E7    -9.271592497825623E-1  -3.545858263969421E-1  -2.569355256855488E-2  -7.784510403871536E-2  -2.569728717207909E-2  -7.759534567594528E-2  -5.215117931365967E-1   8.442152142524719E-1  
 6.580000000000000E7    -9.426929950714111E-1  -3.125567734241486E-1  -2.638258785009384E-2  -7.133229821920395E-2  -2.624802850186825E-2  -7.110403478145599E-2  -5.034878849983215E-1   8.566889762878418E-1  
 6.610000000000000E7    -9.550268650054932E-1  -2.695675492286682E-1  -2.662627957761288E-2  -6.528265029191971E-2  -2.669877558946610E-2  -6.478234380483627E-2  -4.836244583129883E-1   8.678160905838013E-1  
 6.640000000000000E7    -9.672404527664185E-1  -2.297180145978928E-1  -2.654641307890415E-2  -5.961846187710762E-2  -2.637898549437523E-2  -5.951429530978203E-2  -4.654137194156647E-1   8.786864280700684E-1  
 6.670000000000000E7    -9.761766195297241E-1  -1.869064718484879E-1  -2.631651423871517E-2  -5.432371050119400E-2  -2.613776922225952E-2  -5.416203290224075E-2  -4.486348628997803E-1   8.877255916595459E-1  
 6.700000000000000E7    -9.832581281661987E-1  -1.449337005615234E-1  -2.579944767057896E-2  -4.946153238415718E-2  -2.569672092795372E-2  -4.928634315729141E-2  -4.296732544898987E-1   8.963896036148071E-1  
 6.730000000000000E7    -9.890661239624023E-1  -1.031447649002075E-1  -2.524738013744354E-2  -4.478721693158150E-2  -2.530795708298683E-2  -4.472687840461731E-2  -4.125932455062866E-1   9.060419201850891E-1  
 6.760000000000000E7    -9.923985004425049E-1  -6.231485307216644E-2  -2.466239780187607E-2  -4.060065746307373E-2  -2.452290430665016E-2  -4.053499549627304E-2  -3.935213088989258E-1   9.139533042907715E-1  
 6.790000000000000E7    -9.944689273834229E-1  -2.055498957633972E-2  -2.366445213556290E-2  -3.672309592366219E-2  -2.377625182271004E-2  -3.660243749618530E-2  -3.762329518795013E-1   9.212378859519959E-1  
 6.820000000000000E7    -9.947170615196228E-1   2.059772610664368E-2  -2.280410937964916E-2  -3.297318145632744E-2  -2.276225388050079E-2  -3.301616013050079E-2  -3.586481809616089E-1   9.285578727722168E-1  
 6.850000000000000E7    -9.939269423484802E-1   6.199706345796585E-2  -2.177785709500313E-2  -2.976671792566776E-2  -2.173115499317646E-2  -2.964373119175434E-2  -3.415818810462952E-1   9.347015023231506E-1  
 6.880000000000000E7    -9.901796579360962E-1   1.018662601709366E-1  -2.086316421627998E-2  -2.660709619522095E-2  -2.076702192425728E-2  -2.646952681243420E-2  -3.233155608177185E-1   9.411393404006958E-1  
 6.910000000000000E7    -9.848820567131043E-1   1.420270055532455E-1  -1.973627880215645E-2  -2.376613952219486E-2  -1.968450658023357E-2  -2.367737330496311E-2  -3.057891130447388E-1   9.477602243423462E-1  
 6.940000000000000E7    -9.794235825538635E-1   1.808943152427673E-1  -1.859616860747337E-2  -2.119020558893681E-2  -1.859399303793907E-2  -2.106310240924358E-2  -2.895875871181488E-1   9.529388546943665E-1  
 6.970000000000000E7    -9.705973267555237E-1   2.210035324096680E-1  -1.739443652331829E-2  -1.878091692924500E-2  -1.747573912143707E-2  -1.872578077018261E-2  -2.723686695098877E-1   9.577765464782715E-1  
 7.000000000000000E7    -9.619935750961304E-1   2.595745027065277E-1  -1.632555574178696E-2  -1.652417704463005E-2  -1.628917828202248E-2  -1.650285720825195E-2  -2.556438446044922E-1   9.632256031036377E-1  
