#  HZ   S   RI   R     50.00 
! Rohde & Schwarz ZVT8 8Ports - Version 4.11 - 1300.0000k08 SN: 100242
! Date: 2026-07-31 14:59:36
! Measurements: S11 S21 S12 S22 
! 
 1.000000000000000E7    -4.046882688999176E-1   9.106856584548950E-1   5.096712708473206E-2   5.180395394563675E-2   5.080529674887657E-2   5.188794434070587E-2  -9.198535680770874E-1   3.828421533107758E-1  
 1.030000000000000E7    -3.723897337913513E-1   9.227898716926575E-1   5.412032455205917E-2   5.211574211716652E-2   5.383961275219917E-2   5.220419168472290E-2  -9.140135049819946E-1   3.954184651374817E-1  
 1.060000000000000E7    -3.362622559070587E-1   9.364895224571228E-1   5.736796557903290E-2   5.300617963075638E-2   5.735734850168228E-2   5.270302295684815E-2  -9.107853770256043E-1   4.067704081535339E-1  
 1.090000000000000E7    -3.042227625846863E-1   9.465872049331665E-1   6.069590523838997E-2   5.323652178049088E-2   6.047609448432922E-2   5.307797342538834E-2  -9.046368598937988E-1   4.181077480316162E-1  
 1.120000000000000E7    -2.689964473247528E-1   9.561463594436646E-1   6.416735053062439E-2   5.388877168297768E-2   6.384195387363434E-2   5.354334414005280E-2  -8.993445634841919E-1   4.295279979705811E-1  
 1.150000000000000E7    -2.335417717695236E-1   9.662006497383118E-1   6.749930977821350E-2   5.381008610129356E-2   6.729710102081299E-2   5.360550805926323E-2  -8.922472596168518E-1   4.387646913528442E-1  
 1.180000000000000E7    -1.989188790321350E-1   9.718127846717835E-1   7.097519934177399E-2   5.392207205295563E-2   7.092121988534927E-2   5.371100082993507E-2  -8.880131840705872E-1   4.494345188140869E-1  
 1.210000000000000E7    -1.643650531768799E-1   9.785054922103882E-1   7.481065392494202E-2   5.412634462118149E-2   7.471431046724320E-2   5.397899448871613E-2  -8.809718489646912E-1   4.616543948650360E-1  
 1.240000000000000E7    -1.285178363323212E-1   9.828193187713623E-1   7.854330539703369E-2   5.406585335731506E-2   7.848282903432846E-2   5.366947501897812E-2  -8.745496273040772E-1   4.714370071887970E-1  
 1.270000000000000E7    -9.308514744043350E-2   9.868191480636597E-1   8.289719372987747E-2   5.372252687811852E-2   8.232498914003372E-2   5.331802740693092E-2  -8.678438663482666E-1   4.848178923130035E-1  
 1.300000000000000E7    -5.801634863018990E-2   9.897180199623108E-1   8.661983162164688E-2   5.346261709928513E-2   8.636248856782913E-2   5.306669697165489E-2  -8.604792356491089E-1   4.949018657207489E-1  
 1.330000000000000E7    -2.092556655406952E-2   9.912326335906982E-1   9.088734537363052E-2   5.272570997476578E-2   9.073665738105774E-2   5.244102701544762E-2  -8.537413477897644E-1   5.069745182991028E-1  
 1.360000000000000E7     1.637251302599907E-2   9.911572337150574E-1   9.500010311603546E-2   5.230977013707161E-2   9.521210938692093E-2   5.171211808919907E-2  -8.467762470245361E-1   5.160685777664185E-1  
 1.390000000000000E7     5.102477222681046E-2   9.891415834426880E-1   9.947232902050018E-2   5.109242722392082E-2   9.928013384342194E-2   5.136817693710327E-2  -8.398735523223877E-1   5.271769165992737E-1  
 1.420000000000000E7     8.862165361642838E-2   9.866276383399963E-1   1.037414222955704E-1   5.041850358247757E-2   1.036219224333763E-1   5.042611807584763E-2  -8.333060741424561E-1   5.374115109443665E-1  
 1.450000000000000E7     1.245762556791306E-1   9.809698462486267E-1   1.083440855145454E-1   4.911122471094132E-2   1.083211377263069E-1   4.889036342501640E-2  -8.235977292060852E-1   5.495144128799439E-1  
 1.480000000000000E7     1.622034609317780E-1   9.755675792694092E-1   1.130370944738388E-1   4.752943292260170E-2   1.130675822496414E-1   4.795017465949059E-2  -8.170598149299622E-1   5.599279403686523E-1  
 1.510000000000000E7     1.976647675037384E-1   9.680860042572022E-1   1.175478845834732E-1   4.605869203805924E-2   1.173299923539162E-1   4.613454639911652E-2  -8.068173527717590E-1   5.708618760108948E-1  
 1.540000000000000E7     2.332084625959396E-1   9.596745967864990E-1   1.223222538828850E-1   4.524803906679153E-2   1.222943291068077E-1   4.465838894248009E-2  -8.016631007194519E-1   5.802347660064697E-1  
 1.570000000000000E7     2.703947126865387E-1   9.511570334434509E-1   1.274497807025909E-1   4.278234764933586E-2   1.274127364158630E-1   4.270497336983681E-2  -7.917655110359192E-1   5.916968584060669E-1  
 1.600000000000000E7     3.068923950195313E-1   9.380924105644226E-1   1.322501450777054E-1   4.047100991010666E-2   1.324747055768967E-1   4.031069576740265E-2  -7.836111783981323E-1   6.006245613098145E-1  
 1.630000000000000E7     3.421773910522461E-1   9.252822995185852E-1   1.380386203527451E-1   3.795549273490906E-2   1.374292522668839E-1   3.802434727549553E-2  -7.742052674293518E-1   6.127701401710510E-1  
 1.660000000000000E7     3.769047558307648E-1   9.093970656394959E-1   1.431859582662582E-1   3.542134165763855E-2   1.428660005331039E-1   3.501747548580170E-2  -7.640496492385864E-1   6.236324906349182E-1  
 1.690000000000000E7     4.117858409881592E-1   8.939541578292847E-1   1.486159712076187E-1   3.309954702854157E-2   1.483276784420013E-1   3.282541781663895E-2  -7.553473711013794E-1   6.327942013740540E-1  
 1.720000000000000E7     4.483071267604828E-1   8.767655491828919E-1   1.534846425056458E-1   2.921589463949204E-2   1.534561365842819E-1   2.951586246490479E-2  -7.453252077102661E-1   6.422269344329834E-1  
 1.750000000000000E7     4.780558347702026E-1   8.600922226905823E-1   1.597545892000198E-1   2.704433165490627E-2   1.596048772335053E-1   2.655767276883125E-2  -7.359394431114197E-1   6.540775299072266E-1  
 1.780000000000000E7     5.142356753349304E-1   8.360282778739929E-1   1.644151508808136E-1   2.258805930614471E-2   1.646516174077988E-1   2.290251851081848E-2  -7.251475453376770E-1   6.618890762329102E-1  
 1.810000000000000E7     5.455452203750610E-1   8.156961798667908E-1   1.713896095752716E-1   1.913454942405224E-2   1.702314466238022E-1   1.837793737649918E-2  -7.146195173263550E-1   6.748297214508057E-1  
 1.840000000000000E7     5.792816877365112E-1   7.920461297035217E-1   1.772210299968720E-1   1.381077617406845E-2   1.764449328184128E-1   1.413462776690722E-2  -7.033138275146484E-1   6.844092011451721E-1  
 1.870000000000000E7     6.090469956398010E-1   7.676396965980530E-1   1.830023974180222E-1   9.808143600821495E-3   1.823155283927918E-1   9.424803778529167E-3  -6.915707588195801E-1   6.938332319259644E-1  
 1.900000000000000E7     6.393257379531860E-1   7.417955398559570E-1   1.888909488916397E-1   5.159264430403709E-3   1.884552538394928E-1   4.522940143942833E-3  -6.793392300605774E-1   7.030537724494934E-1  
 1.930000000000000E7     6.693030595779419E-1   7.127511501312256E-1   1.947997808456421E-1  -1.385362818837166E-3   1.950058937072754E-1  -5.409512668848038E-4  -6.681399345397949E-1   7.141237258911133E-1  
 1.960000000000000E7     6.982676386833191E-1   6.824628710746765E-1   2.007899880409241E-1  -7.003808394074440E-3   2.008493691682816E-1  -6.504817865788937E-3  -6.574701666831970E-1   7.228260040283203E-1  
 1.990000000000000E7     7.239975929260254E-1   6.516625285148621E-1   2.070422470569611E-1  -1.331952121108770E-2   2.072869986295700E-1  -1.305368822067976E-2  -6.426911950111389E-1   7.340750694274902E-1  
 2.020000000000000E7     7.503036856651306E-1   6.189577579498291E-1   2.137059420347214E-1  -1.980484835803509E-2   2.127386480569840E-1  -1.962454989552498E-2  -6.306830048561096E-1   7.407214641571045E-1  
 2.050000000000000E7     7.769294977188110E-1   5.845732092857361E-1   2.197813540697098E-1  -2.667844295501709E-2   2.184469997882843E-1  -2.697484567761421E-2  -6.176517009735107E-1   7.502042651176453E-1  
 2.080000000000000E7     7.998896837234497E-1   5.476582050323486E-1   2.263380289077759E-1  -3.457907587289810E-2   2.261403799057007E-1  -3.442488610744476E-2  -6.042573451995850E-1   7.606292963027954E-1  
 2.110000000000000E7     8.226615786552429E-1   5.106534957885742E-1   2.329490929841995E-1  -4.357637465000153E-2   2.328173369169235E-1  -4.335084185004234E-2  -5.896515250205994E-1   7.694505453109741E-1  
 2.140000000000000E7     8.431769609451294E-1   4.724048376083374E-1   2.395317107439041E-1  -5.295139923691750E-2   2.384778261184692E-1  -5.181053280830383E-2  -5.753288865089417E-1   7.773015499114990E-1  
 2.170000000000000E7     8.612834215164185E-1   4.333246648311615E-1   2.457492947578430E-1  -6.186626851558685E-2   2.455078661441803E-1  -6.106004118919373E-2  -5.606527924537659E-1   7.856468558311462E-1  
 2.200000000000000E7     8.799286484718323E-1   3.895024061203003E-1   2.517167329788208E-1  -7.265567034482956E-2   2.517188489437103E-1  -7.199014723300934E-2  -5.436921119689941E-1   7.935001254081726E-1  
 2.230000000000000E7     8.937368392944336E-1   3.468828499317169E-1   2.580460906028748E-1  -8.333157002925873E-2   2.575982809066773E-1  -8.276407420635223E-2  -5.281144976615906E-1   8.012502193450928E-1  
 2.260000000000000E7     9.074971079826355E-1   3.020406365394592E-1   2.637636363506317E-1  -9.520874172449112E-2   2.651547789573669E-1  -9.496539086103439E-2  -5.116630196571350E-1   8.082735538482666E-1  
 2.290000000000000E7     9.186710715293884E-1   2.557225227355957E-1   2.699104547500610E-1  -1.077680662274361E-1   2.705619931221008E-1  -1.070072948932648E-1  -4.933279752731323E-1   8.146969079971314E-1  
 2.320000000000000E7     9.262138009071350E-1   2.087018787860870E-1   2.762735784053803E-1  -1.220380961894989E-1   2.755438685417175E-1  -1.221834197640419E-1  -4.765948355197907E-1   8.233480453491211E-1  
 2.350000000000000E7     9.322267174720764E-1   1.584847718477249E-1   2.817760705947876E-1  -1.374354213476181E-1   2.812236845493317E-1  -1.364739984273911E-1  -4.584935903549194E-1   8.291313052177429E-1  
 2.380000000000000E7     9.355189800262451E-1   1.089888811111450E-1   2.867802977561951E-1  -1.521608233451843E-1   2.869607210159302E-1  -1.518314331769943E-1  -4.401340782642365E-1   8.347203731536865E-1  
 2.410000000000000E7     9.358565211296082E-1   5.640019476413727E-2   2.912412285804749E-1  -1.697459816932678E-1   2.906356155872345E-1  -1.691888123750687E-1  -4.200185537338257E-1   8.393979072570801E-1  
 2.440000000000000E7     9.321271181106567E-1   4.696615040302277E-3   2.960290312767029E-1  -1.882334351539612E-1   2.958463430404663E-1  -1.882257163524628E-1  -4.015902280807495E-1   8.432723879814148E-1  
 2.470000000000000E7     9.253458976745606E-1  -4.864203929901123E-2   2.994594275951386E-1  -2.081272602081299E-1   2.991957962512970E-1  -2.058005034923554E-1  -3.797595798969269E-1   8.457656502723694E-1  
 2.500000000000000E7     9.158987402915955E-1  -1.040113419294357E-1   3.017950356006622E-1  -2.282971888780594E-1   3.016122579574585E-1  -2.285166233778000E-1  -3.583624362945557E-1   8.498545885086060E-1  
 2.530000000000000E7     9.012023210525513E-1  -1.590827107429504E-1   3.045490980148315E-1  -2.503165602684021E-1   3.044823110103607E-1  -2.497756183147430E-1  -3.369360268115997E-1   8.508922457695007E-1  
 2.560000000000000E7     8.828405737876892E-1  -2.140106856822968E-1   3.053650259971619E-1  -2.735736370086670E-1   3.061755001544952E-1  -2.736126184463501E-1  -3.152702748775482E-1   8.517423868179321E-1  
 2.590000000000000E7     8.579711914062500E-1  -2.683063745498657E-1   3.045291304588318E-1  -3.001595735549927E-1   3.051142096519470E-1  -2.998923659324646E-1  -2.924420237541199E-1   8.534629344940186E-1  
 2.620000000000000E7     8.286696672439575E-1  -3.237477838993073E-1   3.025853037834168E-1  -3.279256820678711E-1   3.023847043514252E-1  -3.267021477222443E-1  -2.670653760433197E-1   8.517807126045227E-1  
 2.650000000000000E7     7.947850227355957E-1  -3.786449730396271E-1   2.994824945926666E-1  -3.555994033813477E-1   2.991770505905151E-1  -3.561188578605652E-1  -2.443466186523438E-1   8.479511141777039E-1  
 2.680000000000000E7     7.539012432098389E-1  -4.309440255165100E-1   2.942109405994415E-1  -3.863378465175629E-1   2.934575676918030E-1  -3.872874081134796E-1  -2.205037027597427E-1   8.432634472846985E-1  
 2.710000000000000E7     7.066622972488403E-1  -4.821272790431976E-1   2.834581136703491E-1  -4.198102355003357E-1   2.831884026527405E-1  -4.186453521251679E-1  -1.957772374153137E-1   8.383082151412964E-1  
 2.740000000000000E7     6.529191732406616E-1  -5.316822528839111E-1   2.737579941749573E-1  -4.533264935016632E-1   2.720035314559937E-1  -4.539064466953278E-1  -1.707834899425507E-1   8.268919587135315E-1  
 2.770000000000000E7     5.935599207878113E-1  -5.745947360992432E-1   2.572488188743591E-1  -4.890324771404266E-1   2.564756870269775E-1  -4.898754060268402E-1  -1.463752090930939E-1   8.173149824142456E-1  
 2.800000000000000E7     5.274778008460999E-1  -6.154940724372864E-1   2.382420599460602E-1  -5.255881547927856E-1   2.391616851091385E-1  -5.262339711189270E-1  -1.209312975406647E-1   8.026710748672485E-1  
 2.830000000000000E7     4.522888958454132E-1  -6.490116715431213E-1   2.139069437980652E-1  -5.624038577079773E-1   2.124986499547958E-1  -5.627109408378601E-1  -9.981268644332886E-2   7.885066270828247E-1  
 2.860000000000000E7     3.703055679798126E-1  -6.740257143974304E-1   1.839764714241028E-1  -6.009001731872559E-1   1.818875819444656E-1  -6.016225814819336E-1  -7.471669465303421E-2   7.694368958473206E-1  
 2.890000000000000E7     2.836725115776062E-1  -6.886402368545532E-1   1.468002051115036E-1  -6.394384503364563E-1   1.467530429363251E-1  -6.384599208831787E-1  -5.496240034699440E-2   7.484937906265259E-1  
 2.920000000000000E7     1.903015971183777E-1  -6.953444480895996E-1   1.070102751255035E-1  -6.751779317855835E-1   1.047578901052475E-1  -6.739378571510315E-1  -3.727507218718529E-2   7.241693139076233E-1  
 2.950000000000000E7     9.412442892789841E-2  -6.852933168411255E-1   5.541033297777176E-2  -7.104339599609375E-1   5.522371828556061E-2  -7.086472511291504E-1  -2.085383050143719E-2   6.974822282791138E-1  
 2.980000000000000E7    -5.239700432866812E-3  -6.630347967147827E-1  -2.396916970610619E-4  -7.388121485710144E-1  -1.667630858719349E-3  -7.395826578140259E-1  -9.792970493435860E-3   6.678720712661743E-1  
 3.010000000000000E7    -1.025054901838303E-1  -6.238810420036316E-1  -6.540223211050034E-2  -7.633211612701416E-1  -6.474175304174423E-2  -7.634197473526001E-1  -2.275736071169376E-3   6.363498568534851E-1  
 3.040000000000000E7    -1.971683353185654E-1  -5.648028254508972E-1  -1.349708288908005E-1  -7.797706723213196E-1  -1.374083012342453E-1  -7.790548205375671E-1  -1.757853664457798E-3   6.036948561668396E-1  
 3.070000000000000E7    -2.819949686527252E-1  -4.924569725990295E-1  -2.113744765520096E-1  -7.869040369987488E-1  -2.106265574693680E-1  -7.845262885093689E-1  -3.352761268615723E-3   5.736302733421326E-1  
 3.100000000000000E7    -3.540335893630981E-1  -4.004804193973541E-1  -2.909132838249207E-1  -7.830083966255188E-1  -2.901063263416290E-1  -7.813699841499329E-1  -1.126400195062161E-2   5.431379079818726E-1  
 3.130000000000000E7    -4.118459522724152E-1  -2.976466119289398E-1  -3.725898861885071E-1  -7.655941843986511E-1  -3.713437914848328E-1  -7.652513384819031E-1  -2.853643335402012E-2   5.142642855644226E-1  
 3.160000000000000E7    -4.479230940341950E-1  -1.810578405857086E-1  -4.515048265457153E-1  -7.379799485206604E-1  -4.502266645431519E-1  -7.371448278427124E-1  -4.825232177972794E-2   4.923855662345886E-1  
 3.190000000000000E7    -4.639309048652649E-1  -6.044754385948181E-2  -5.269561409950256E-1  -6.965034008026123E-1  -5.254839658737183E-1  -6.955435276031494E-1  -7.103057950735092E-2   4.727397263050079E-1  
 3.220000000000000E7    -4.583556056022644E-1   6.225134432315826E-2  -5.947504639625549E-1  -6.443580389022827E-1  -5.941097140312195E-1  -6.434293389320374E-1  -9.910453855991364E-2   4.606931507587433E-1  
 3.250000000000000E7    -4.275301694869995E-1   1.791214346885681E-1  -6.546859741210938E-1  -5.830330252647400E-1  -6.541896462440491E-1  -5.816957354545593E-1  -1.276669502258301E-1   4.571617841720581E-1  
 3.280000000000000E7    -3.754509091377258E-1   2.870745956897736E-1  -7.042233347892761E-1  -5.138435959815979E-1  -7.032456994056702E-1  -5.123417973518372E-1  -1.571749299764633E-1   4.561739563941956E-1  
 3.310000000000000E7    -3.115904927253723E-1   3.826860785484314E-1  -7.411141395568848E-1  -4.384028315544128E-1  -7.399176955223084E-1  -4.365987181663513E-1  -1.842681169509888E-1   4.663723707199097E-1  
 3.340000000000000E7    -2.308163940906525E-1   4.607204198837280E-1  -7.679064273834229E-1  -3.613602519035339E-1  -7.657248377799988E-1  -3.611143231391907E-1  -2.072974145412445E-1   4.795630872249603E-1  
 3.370000000000000E7    -1.401904225349426E-1   5.235840082168579E-1  -7.803266048431397E-1  -2.847619950771332E-1  -7.797656655311585E-1  -2.841459214687347E-1  -2.299413084983826E-1   4.997086226940155E-1  
 3.400000000000000E7    -4.584848135709763E-2   5.678063631057739E-1  -7.844963073730469E-1  -2.113679349422455E-1  -7.830227613449097E-1  -2.112261652946472E-1  -2.436964809894562E-1   5.226033926010132E-1  
 3.430000000000000E7     5.042453855276108E-2   5.955663919448853E-1  -7.796126008033752E-1  -1.400854885578156E-1  -7.789508700370789E-1  -1.403703987598419E-1  -2.545745372772217E-1   5.464425683021545E-1  
 3.460000000000000E7     1.463527679443359E-1   6.088162064552307E-1  -7.677093148231506E-1  -7.525445520877838E-2  -7.663997411727905E-1  -7.645715028047562E-2  -2.589443624019623E-1   5.752040147781372E-1  
 3.490000000000000E7     2.370922267436981E-1   6.068541407585144E-1  -7.495619654655457E-1  -1.312140934169292E-2  -7.486659884452820E-1  -1.480390690267086E-2  -2.613404691219330E-1   5.999529361724854E-1  
 3.520000000000000E7     3.258484005928040E-1   5.943197011947632E-1  -7.258056998252869E-1   4.010527208447456E-2  -7.261234521865845E-1   3.923752531409264E-2  -2.575732171535492E-1   6.300437450408936E-1  
 3.550000000000000E7     4.074747860431671E-1   5.687162280082703E-1  -6.994362473487854E-1   8.761212229728699E-2  -6.989541649818420E-1   8.725219964981079E-2  -2.497321963310242E-1   6.584299802780151E-1  
 3.580000000000000E7     4.813091456890106E-1   5.389983654022217E-1  -6.696621775627136E-1   1.318855583667755E-1  -6.697775125503540E-1   1.312805116176605E-1  -2.382693141698837E-1   6.841490268707275E-1  
 3.610000000000000E7     5.467696785926819E-1   5.007485151290894E-1  -6.416495442390442E-1   1.709037125110626E-1  -6.394434571266174E-1   1.706637442111969E-1  -2.226769179105759E-1   7.110305428504944E-1  
 3.640000000000000E7     6.076867580413818E-1   4.572093784809113E-1  -6.089769005775452E-1   2.035984694957733E-1  -6.076562404632568E-1   2.032842338085175E-1  -2.044389992952347E-1   7.353911995887756E-1  
 3.670000000000000E7     6.601613759994507E-1   4.101859331130981E-1  -5.779451131820679E-1   2.330970913171768E-1  -5.760482549667358E-1   2.332647293806076E-1  -1.841412484645844E-1   7.570137381553650E-1  
 3.700000000000000E7     7.053159475326538E-1   3.604274392127991E-1  -5.446088910102844E-1   2.592900097370148E-1  -5.436257719993591E-1   2.593409717082977E-1  -1.593142002820969E-1   7.781605720520020E-1  
 3.730000000000000E7     7.457122802734375E-1   3.077464401721954E-1  -5.108260512351990E-1   2.808963954448700E-1  -5.119310617446899E-1   2.805106639862061E-1  -1.340819597244263E-1   7.950773835182190E-1  
 3.760000000000000E7     7.767443656921387E-1   2.561888694763184E-1  -4.796778857707977E-1   3.006337881088257E-1  -4.804067313671112E-1   3.006717562675476E-1  -1.048900485038757E-1   8.129031062126160E-1  
 3.790000000000000E7     8.046191334724426E-1   2.005769312381744E-1  -4.494930505752564E-1   3.175204396247864E-1  -4.491957426071167E-1   3.178927302360535E-1  -7.524242252111435E-2   8.262840509414673E-1  
 3.820000000000000E7     8.272473216056824E-1   1.470677256584168E-1  -4.200717806816101E-1   3.320859670639038E-1  -4.192565977573395E-1   3.306306600570679E-1  -4.405460506677628E-2   8.387705087661743E-1  
 3.850000000000000E7     8.451030850410461E-1   9.174466133117676E-2  -3.909650444984436E-1   3.433796465396881E-1  -3.891332745552063E-1   3.439911305904388E-1  -1.144200563430786E-2   8.509261012077332E-1  
 3.880000000000000E7     8.578544259071350E-1   3.942406177520752E-2  -3.601988255977631E-1   3.547253608703613E-1  -3.600490987300873E-1   3.538188934326172E-1   2.474410086870194E-2   8.592940568923950E-1  
 3.910000000000000E7     8.671225309371948E-1  -1.403798162937164E-2  -3.328242003917694E-1   3.617063462734222E-1  -3.327025771141052E-1   3.626232445240021E-1   6.204492598772049E-2   8.651609420776367E-1  
 3.940000000000000E7     8.701452016830444E-1  -6.561344861984253E-2  -3.056836724281311E-1   3.681454360485077E-1  -3.050323426723480E-1   3.679275214672089E-1   9.910567849874497E-2   8.683016300201416E-1  
 3.970000000000000E7     8.728426694869995E-1  -1.166786104440689E-1  -2.795855700969696E-1   3.727133572101593E-1  -2.793209254741669E-1   3.724270164966583E-1   1.381390690803528E-1   8.682334423065186E-1  
 4.000000000000000E7     8.708181381225586E-1  -1.662672162055969E-1  -2.533614933490753E-1   3.768650293350220E-1  -2.527932524681091E-1   3.770761489868164E-1   1.800211369991303E-1   8.680347800254822E-1  
 4.030000000000000E7     8.664431571960449E-1  -2.137039899826050E-1  -2.278351336717606E-1   3.810144364833832E-1  -2.278466671705246E-1   3.802563846111298E-1   2.205874621868134E-1   8.648108839988709E-1  
 4.060000000000000E7     8.591178059577942E-1  -2.614567875862122E-1  -2.036350965499878E-1   3.812081813812256E-1  -2.034522444009781E-1   3.803096413612366E-1   2.642642557621002E-1   8.574136495590210E-1  
 4.090000000000000E7     8.493273258209229E-1  -3.081337809562683E-1  -1.792086958885193E-1   3.810081481933594E-1  -1.785090565681458E-1   3.812181651592255E-1   3.069773018360138E-1   8.479230403900147E-1  
 4.120000000000000E7     8.369514942169190E-1  -3.523274064064026E-1  -1.570514589548111E-1   3.804406523704529E-1  -1.561931073665619E-1   3.794133961200714E-1   3.531472980976105E-1   8.348520994186401E-1  
 4.150000000000000E7     8.227967023849487E-1  -3.934126198291779E-1  -1.325229555368424E-1   3.797113597393036E-1  -1.337781995534897E-1   3.773466348648071E-1   3.995666205883026E-1   8.176098465919495E-1  
 4.180000000000000E7     8.069319128990173E-1  -4.359908401966095E-1  -1.100560873746872E-1   3.762964606285095E-1  -1.102452427148819E-1   3.754594624042511E-1   4.458257853984833E-1   7.990622520446777E-1  
 4.210000000000000E7     7.888302803039551E-1  -4.749379158020020E-1  -8.762204647064209E-2   3.725910782814026E-1  -8.808992058038712E-2   3.726737797260284E-1   4.951272010803223E-1   7.738519906997681E-1  
 4.240000000000000E7     7.684198617935181E-1  -5.123425126075745E-1  -6.649226695299149E-2   3.679385781288147E-1  -6.653113663196564E-2   3.676271438598633E-1   5.431737899780273E-1   7.450025081634522E-1  
 4.270000000000000E7     7.471045255661011E-1  -5.488448143005371E-1  -4.474332556128502E-2   3.620504140853882E-1  -4.496989399194717E-2   3.618532717227936E-1   5.912529826164246E-1   7.118881940841675E-1  
 4.300000000000000E7     7.245717644691467E-1  -5.852690935134888E-1  -2.359566837549210E-2   3.557908535003662E-1  -2.434437535703182E-2   3.547635376453400E-1   6.392721533775330E-1   6.735162734985352E-1  
 4.330000000000000E7     7.018757462501526E-1  -6.181456446647644E-1  -4.706418141722679E-3   3.470614850521088E-1  -4.307951778173447E-3   3.474908471107483E-1   6.865122318267822E-1   6.294592618942261E-1  
 4.360000000000000E7     6.748760938644409E-1  -6.502240896224976E-1   1.542416121810675E-2   3.395443558692932E-1   1.534704864025116E-2   3.378124535083771E-1   7.322315573692322E-1   5.808929204940796E-1  
 4.390000000000000E7     6.488123536109924E-1  -6.820309162139893E-1   3.522639349102974E-2   3.292815685272217E-1   3.446113690733910E-2   3.291763961315155E-1   7.762308120727539E-1   5.242531299591065E-1  
 4.420000000000000E7     6.207887530326843E-1  -7.104878425598145E-1   5.304762721061707E-2   3.171568214893341E-1   5.269224196672440E-2   3.173381984233856E-1   8.177520632743835E-1   4.630883932113648E-1  
 4.450000000000000E7     5.922876000404358E-1  -7.382290959358215E-1   7.086816430091858E-2   3.051299750804901E-1   7.079634070396423E-2   3.046147227287293E-1   8.568744659423828E-1   3.956947922706604E-1  
 4.480000000000000E7     5.630459189414978E-1  -7.645139098167419E-1   8.754540234804153E-2   2.913357317447662E-1   8.764319121837616E-2   2.911390960216522E-1   8.898823261260986E-1   3.200287818908691E-1  
 4.510000000000000E7     5.339407324790955E-1  -7.892514467239380E-1   1.037133932113648E-1   2.767546474933624E-1   1.031620651483536E-1   2.758644819259644E-1   9.177885651588440E-1   2.369567900896072E-1  
 4.540000000000000E7     5.025433301925659E-1  -8.128559589385986E-1   1.180556714534760E-1   2.587458193302155E-1   1.177141815423966E-1   2.592214941978455E-1   9.391223192214966E-1   1.489920765161514E-1  
 4.570000000000000E7     4.704909324645996E-1  -8.354476690292358E-1   1.309056133031845E-1   2.415967583656311E-1   1.300682425498962E-1   2.417693585157394E-1   9.515489935874939E-1   5.461496114730835E-2  
 4.600000000000000E7     4.393961727619171E-1  -8.546007871627808E-1   1.427593976259232E-1   2.236056923866272E-1   1.422891914844513E-1   2.240822613239288E-1   9.558678865432739E-1  -4.445746541023254E-2  
 4.630000000000000E7     4.041080176830292E-1  -8.755838274955750E-1   1.524633318185806E-1   2.035915702581406E-1   1.524300724267960E-1   2.030378580093384E-1   9.471614956855774E-1  -1.492189764976502E-1  
 4.660000000000000E7     3.704114556312561E-1  -8.950637578964233E-1   1.595579981803894E-1   1.827160865068436E-1   1.593886315822601E-1   1.827897131443024E-1   9.266227483749390E-1  -2.543981075286865E-1  
 4.690000000000000E7     3.357326686382294E-1  -9.104703664779663E-1   1.651651263237000E-1   1.615142822265625E-1   1.643034666776657E-1   1.610338240861893E-1   8.931760191917419E-1  -3.627419173717499E-1  
 4.720000000000000E7     2.997389435768127E-1  -9.254202246665955E-1   1.678650975227356E-1   1.399664431810379E-1   1.677446216344833E-1   1.396308690309525E-1   8.460236787796021E-1  -4.673898518085480E-1  
 4.750000000000000E7     2.651572227478027E-1  -9.396739006042481E-1   1.680089384317398E-1   1.183840855956078E-1   1.677696406841278E-1   1.182355880737305E-1   7.846449017524719E-1  -5.702421069145203E-1  
 4.780000000000000E7     2.287658601999283E-1  -9.514493942260742E-1   1.655755639076233E-1   9.823179990053177E-2   1.656632423400879E-1   9.807480871677399E-2   7.104871273040772E-1  -6.642776727676392E-1  
 4.810000000000000E7     1.914626657962799E-1  -9.623997807502747E-1   1.615839749574661E-1   7.813509553670883E-2   1.610502153635025E-1   7.782670855522156E-2   6.205989718437195E-1  -7.515957355499268E-1  
 4.840000000000000E7     1.541495770215988E-1  -9.720074534416199E-1   1.545272320508957E-1   5.952229350805283E-2   1.543257832527161E-1   5.899145454168320E-2   5.211877822875977E-1  -8.259326219558716E-1  
 4.870000000000000E7     1.158110573887825E-1  -9.795391559600830E-1   1.454540193080902E-1   4.231575131416321E-2   1.453669071197510E-1   4.247160255908966E-2   4.130777716636658E-1  -8.877282738685608E-1  
 4.900000000000000E7     7.754513621330261E-2  -9.861579537391663E-1   1.347099691629410E-1   2.771038375794888E-2   1.349436193704605E-1   2.737513370811939E-2   2.980244159698486E-1  -9.354797005653381E-1  
 4.930000000000000E7     3.878815844655037E-2  -9.899733662605286E-1   1.232006251811981E-1   1.491043344140053E-2   1.232244223356247E-1   1.487855054438114E-2   1.789009571075440E-1  -9.678677320480347E-1  
 4.960000000000000E7     2.193357795476914E-5  -9.904837012290955E-1   1.104024872183800E-1   4.286390729248524E-3   1.101549938321114E-1   4.062063992023468E-3   5.802412703633308E-2  -9.839044213294983E-1  
 4.990000000000000E7    -3.746843710541725E-2  -9.915325045585632E-1   9.713719785213471E-2  -3.715437371283770E-3   9.696370363235474E-2  -3.783320542424917E-3  -5.922860279679298E-2  -9.854036569595337E-1  
 5.020000000000000E7    -7.489033788442612E-2  -9.916088581085205E-1   8.413415402173996E-2  -9.832344949245453E-3   8.420307934284210E-2  -9.675579145550728E-3  -1.756917089223862E-1  -9.730892777442932E-1  
 5.050000000000000E7    -1.139034181833267E-1  -9.885873794555664E-1   7.123002409934998E-2  -1.375911943614483E-2   7.100927829742432E-2  -1.384989544749260E-2  -2.841322124004364E-1  -9.475880265235901E-1  
 5.080000000000000E7    -1.509227305650711E-1  -9.848173856735230E-1   5.887336656451225E-2  -1.600916124880314E-2   5.895364284515381E-2  -1.587702706456184E-2  -3.889590501785278E-1  -9.117375612258911E-1  
 5.110000000000000E7    -1.889674365520477E-1  -9.785305261611939E-1   4.738682508468628E-2  -1.654522120952606E-2   4.724057763814926E-2  -1.641067117452622E-2  -4.816378951072693E-1  -8.653768301010132E-1  
 5.140000000000000E7    -2.259221374988556E-1  -9.706006050109863E-1   3.684578090906143E-2  -1.567745953798294E-2   3.682372719049454E-2  -1.557521522045136E-2  -5.665032863616943E-1  -8.149362206459045E-1  
 5.170000000000000E7    -2.613499164581299E-1  -9.617097377777100E-1   2.740287408232689E-2  -1.360063254833221E-2   2.733298018574715E-2  -1.363367028534412E-2  -6.424969434738159E-1  -7.568304538726807E-1  
 5.200000000000000E7    -2.975101172924042E-1  -9.529486894607544E-1   1.894579641520977E-2  -1.093682926148176E-2   1.898663677275181E-2  -1.086105871945620E-2  -7.119097113609314E-1  -6.930566430091858E-1  
 5.230000000000000E7    -3.326467275619507E-1  -9.403594732284546E-1   1.152598671615124E-2  -7.439614273607731E-3   1.151253655552864E-2  -7.407064549624920E-3  -7.682226896286011E-1  -6.282770633697510E-1  
 5.260000000000000E7    -3.667494356632233E-1  -9.267414212226868E-1   5.260634701699019E-3  -3.537706565111876E-3   5.272913724184036E-3  -3.542819991707802E-3  -8.194171786308289E-1  -5.623285770416260E-1  
 5.290000000000000E7    -4.014068841934204E-1  -9.131404757499695E-1  -4.700329009210691E-5   6.804036675021052E-4  -2.656312426552177E-5   6.650497671216726E-4  -8.617272377014160E-1  -4.958096146583557E-1  
 5.320000000000000E7    -4.336372613906860E-1  -8.989583253860474E-1  -4.393842071294785E-3   5.038010887801647E-3  -4.375531338155270E-3   5.077932029962540E-3  -8.972234725952148E-1  -4.298149943351746E-1  
 5.350000000000000E7    -4.651992619037628E-1  -8.820028901100159E-1  -7.906183600425720E-3   9.424673393368721E-3  -7.881166413426399E-3   9.402392432093620E-3  -9.233769774436951E-1  -3.645407557487488E-1  
 5.380000000000000E7    -4.955261945724487E-1  -8.643256425857544E-1  -1.068460941314697E-2   1.379603799432516E-2  -1.062628347426653E-2   1.376893837004900E-2  -9.474679231643677E-1  -2.991710901260376E-1  
 5.410000000000000E7    -5.287240743637085E-1  -8.469343185424805E-1  -1.267533283680677E-2   1.809377782046795E-2  -1.268278434872627E-2   1.806971430778503E-2  -9.661502838134766E-1  -2.386059612035751E-1  
 5.440000000000000E7    -5.578914880752564E-1  -8.262003660202026E-1  -1.411934383213520E-2   2.216391265392304E-2  -1.410550437867641E-2   2.216317504644394E-2  -9.782165884971619E-1  -1.778255999088287E-1  
 5.470000000000000E7    -5.853651762008667E-1  -8.066836595535278E-1  -1.497197523713112E-2   2.612602338194847E-2  -1.497199386358261E-2   2.606230042874813E-2  -9.874273538589478E-1  -1.199808567762375E-1  
 5.500000000000000E7    -6.149359941482544E-1  -7.851063609123230E-1  -1.543661765754223E-2   2.974840253591538E-2  -1.541343983262777E-2   2.966162934899330E-2  -9.920260906219482E-1  -6.437496840953827E-2  
 5.530000000000000E7    -6.417434811592102E-1  -7.629979848861694E-1  -1.542877871543169E-2   3.311587125062943E-2  -1.532315462827683E-2   3.315342217683792E-2  -9.937162995338440E-1  -1.060928404331207E-2  
 5.560000000000000E7    -6.690474152565002E-1  -7.389089465141296E-1  -1.500908844172955E-2   3.638526797294617E-2  -1.498258113861084E-2   3.623113408684731E-2  -9.928988814353943E-1   4.064702987670898E-2  
 5.590000000000000E7    -6.942038536071777E-1  -7.163642644882202E-1  -1.436611171811819E-2   3.927644342184067E-2  -1.428368221968412E-2   3.921846300363541E-2  -9.905436635017395E-1   8.929006755352020E-2  
 5.620000000000000E7    -7.188161611557007E-1  -6.895193457603455E-1  -1.345448009669781E-2   4.180075973272324E-2  -1.336372364312410E-2   4.167358949780464E-2  -9.847257733345032E-1   1.360500156879425E-1  
 5.650000000000000E7    -7.416483759880066E-1  -6.651275157928467E-1  -1.224038004875183E-2   4.416799172759056E-2  -1.228568144142628E-2   4.413029551506043E-2  -9.773942828178406E-1   1.801030337810516E-1  
 5.680000000000000E7    -7.648042440414429E-1  -6.389148831367493E-1  -1.093532331287861E-2   4.633513092994690E-2  -1.086082868278027E-2   4.628530517220497E-2  -9.689791798591614E-1   2.231605648994446E-1  
 5.710000000000000E7    -7.867419719696045E-1  -6.106223464012146E-1  -9.415195323526859E-3   4.820696637034416E-2  -9.376411326229572E-3   4.819253832101822E-2  -9.587048292160034E-1   2.621388435363770E-1  
 5.740000000000000E7    -8.080917000770569E-1  -5.833165049552918E-1  -7.768375799059868E-3   4.991951957345009E-2  -7.863577455282211E-3   4.975932091474533E-2  -9.478719830513001E-1   3.010431528091431E-1  
 5.770000000000000E7    -8.263008594512940E-1  -5.559188127517700E-1  -6.219470873475075E-3   5.112029239535332E-2  -6.308599375188351E-3   5.097408592700958E-2  -9.342274069786072E-1   3.362120389938355E-1  
 5.800000000000000E7    -8.455983400344849E-1  -5.258637070655823E-1  -4.487171769142151E-3   5.247181281447411E-2  -4.352243617177010E-3   5.221694335341454E-2  -9.225959777832031E-1   3.713456392288208E-1  
 5.830000000000000E7    -8.631936311721802E-1  -4.959513247013092E-1  -2.564888913184404E-3   5.319392308592796E-2  -2.629129914566875E-3   5.321805179119110E-2  -9.079235196113586E-1   4.038918018341065E-1  
 5.860000000000000E7    -8.809404969215393E-1  -4.667681157588959E-1  -7.144670234993100E-4   5.403938516974449E-2  -8.141603320837021E-4   5.406074970960617E-2  -8.936057686805725E-1   4.356804490089417E-1  
 5.890000000000000E7    -8.952692747116089E-1  -4.358593523502350E-1   9.499775478616357E-4   5.457658320665360E-2   8.681925246492028E-4   5.461115762591362E-2  -8.778175115585327E-1   4.651905298233032E-1  
 5.920000000000000E7    -9.101362228393555E-1  -4.039099812507629E-1   2.840344794094563E-3   5.507896095514298E-2   3.006964223459363E-3   5.486879497766495E-2  -8.632596135139465E-1   4.938459992408752E-1  
 5.950000000000000E7    -9.231511354446411E-1  -3.726363480091095E-1   4.894382320344448E-3   5.530842766165733E-2   4.733404610306025E-3   5.511970445513725E-2  -8.457022309303284E-1   5.207363367080689E-1  
 5.980000000000000E7    -9.357615709304810E-1  -3.402076363563538E-1   6.697252392768860E-3   5.537888407707214E-2   6.534902378916740E-3   5.515725538134575E-2  -8.301286101341248E-1   5.472818613052368E-1  
 6.010000000000000E7    -9.451868534088135E-1  -3.090857863426209E-1   8.172450587153435E-3   5.523356795310974E-2   8.164422586560249E-3   5.505863204598427E-2  -8.137871026992798E-1   5.704786777496338E-1  
 6.040000000000000E7    -9.563419818878174E-1  -2.748717963695526E-1   1.011667400598526E-2   5.499373376369476E-2   1.003560889512301E-2   5.495390668511391E-2  -7.974235415458679E-1   5.948620438575745E-1  
 6.070000000000000E7    -9.660544395446777E-1  -2.435978353023529E-1   1.177795231342316E-2   5.464558675885201E-2   1.158576365560293E-2   5.462652072310448E-2  -7.799767255783081E-1   6.158559918403626E-1  
 6.100000000000000E7    -9.729561805725098E-1  -2.104420065879822E-1   1.358671858906746E-2   5.427120625972748E-2   1.338726468384266E-2   5.413883924484253E-2  -7.630727887153626E-1   6.385397911071777E-1  
 6.130000000000000E7    -9.803456664085388E-1  -1.761224865913391E-1   1.503386534750462E-2   5.378078669309616E-2   1.496007759124041E-2   5.364901199936867E-2  -7.459627985954285E-1   6.587762236595154E-1  
 6.160000000000000E7    -9.849274754524231E-1  -1.431621760129929E-1   1.652203686535358E-2   5.290516093373299E-2   1.655158028006554E-2   5.286262184381485E-2  -7.276856899261475E-1   6.772173047065735E-1  
 6.190000000000000E7    -9.891928434371948E-1  -1.095250546932221E-1   1.798179559409618E-2   5.201449245214462E-2   1.799542084336281E-2   5.191358551383019E-2  -7.093517780303955E-1   6.953473687171936E-1  
 6.220000000000000E7    -9.926260113716126E-1  -7.587513327598572E-2   1.938319765031338E-2   5.118554085493088E-2   1.936453953385353E-2   5.130193009972572E-2  -6.935281157493591E-1   7.126034498214722E-1  
 6.250000000000000E7    -9.947423338890076E-1  -4.181911051273346E-2   2.077550999820232E-2   5.043130367994309E-2   2.071788720786572E-2   5.029156804084778E-2  -6.762522459030151E-1   7.292789220809937E-1  
 6.280000000000000E7    -9.949362277984619E-1  -7.567778229713440E-3   2.190776169300079E-2   4.929861053824425E-2   2.181494049727917E-2   4.938191547989845E-2  -6.588287949562073E-1   7.450815439224243E-1  
 6.310000000000000E7    -9.944504499435425E-1   2.726963162422180E-2   2.319547533988953E-2   4.838650301098824E-2   2.309264987707138E-2   4.823567345738411E-2  -6.405463814735413E-1   7.611467242240906E-1  
 6.340000000000000E7    -9.931750297546387E-1   6.073506176471710E-2   2.438218146562576E-2   4.711038619279862E-2   2.424488961696625E-2   4.706278443336487E-2  -6.231994628906250E-1   7.759175896644592E-1  
 6.370000000000000E7    -9.907913804054260E-1   9.492333233356476E-2   2.538523823022842E-2   4.593150690197945E-2   2.544322609901428E-2   4.582221433520317E-2  -6.049220561981201E-1   7.889957427978516E-1  
 6.400000000000000E7    -9.856747388839722E-1   1.282246410846710E-1   2.651944197714329E-2   4.472148790955544E-2   2.636047825217247E-2   4.448472335934639E-2  -5.883681178092957E-1   8.025996088981628E-1  
 6.430000000000000E7    -9.812459945678711E-1   1.629641354084015E-1   2.725999243557453E-2   4.349906370043755E-2   2.734788507223129E-2   4.326139017939568E-2  -5.705432295799255E-1   8.152254223823547E-1  
 6.460000000000000E7    -9.755923748016357E-1   1.962247788906097E-1   2.809713594615459E-2   4.203832522034645E-2   2.793886512517929E-2   4.199225828051567E-2  -5.527433753013611E-1   8.261498808860779E-1  
 6.490000000000000E7    -9.697384238243103E-1   2.285174131393433E-1   2.875614166259766E-2   4.072672873735428E-2   2.870289050042629E-2   4.073874652385712E-2  -5.363466739654541E-1   8.378835916519165E-1  
 6.520000000000000E7    -9.601365923881531E-1   2.612842619419098E-1   2.931504696607590E-2   3.934466838836670E-2   2.936576679348946E-2   3.919227793812752E-2  -5.190681219100952E-1   8.497341871261597E-1  
 6.550000000000000E7    -9.512222409248352E-1   2.933099567890167E-1   3.004015982151032E-2   3.797559067606926E-2   2.995452284812927E-2   3.785809129476547E-2  -5.010491609573364E-1   8.589746952056885E-1  
 6.580000000000000E7    -9.403104186058044E-1   3.261624276638031E-1   3.054238297045231E-2   3.644542768597603E-2   3.042979538440704E-2   3.650635480880737E-2  -4.843047857284546E-1   8.697766661643982E-1  
 6.610000000000000E7    -9.274406433105469E-1   3.581123352050781E-1   3.097454085946083E-2   3.501951694488525E-2   3.088524192571640E-2   3.471970558166504E-2  -4.658878743648529E-1   8.794350624084473E-1  
 6.640000000000000E7    -9.165120720863342E-1   3.893927335739136E-1   3.122669830918312E-2   3.355878591537476E-2   3.130860626697540E-2   3.359139710664749E-2  -4.487481117248535E-1   8.886789679527283E-1  
 6.670000000000000E7    -9.020607471466065E-1   4.204512536525726E-1   3.162799775600433E-2   3.205128759145737E-2   3.130235895514488E-2   3.205189853906632E-2  -4.332052767276764E-1   8.964040279388428E-1  
 6.700000000000000E7    -8.868321776390076E-1   4.511989951133728E-1   3.168337047100067E-2   3.061742708086968E-2   3.155685216188431E-2   3.042064234614372E-2  -4.154572188854218E-1   9.039467573165894E-1  
 6.730000000000000E7    -8.711178898811340E-1   4.812753200531006E-1   3.168535605072975E-2   2.905529364943504E-2   3.169148415327072E-2   2.895138226449490E-2  -3.989441692829132E-1   9.125525951385498E-1  
 6.760000000000000E7    -8.548862338066101E-1   5.104085803031921E-1   3.192325308918953E-2   2.758024260401726E-2   3.169401362538338E-2   2.757488377392292E-2  -3.813310265541077E-1   9.195836186408997E-1  
 6.790000000000000E7    -8.362493515014648E-1   5.395843982696533E-1   3.172906860709190E-2   2.609455212950707E-2   3.172588720917702E-2   2.603329718112946E-2  -3.648642599582672E-1   9.259772896766663E-1  
 6.820000000000000E7    -8.173789381980896E-1   5.671653747558594E-1   3.153818100690842E-2   2.453785017132759E-2   3.143825009465218E-2   2.454219385981560E-2  -3.487442731857300E-1   9.321399927139282E-1  
 6.850000000000000E7    -7.978625893592835E-1   5.957420468330383E-1   3.136323392391205E-2   2.329138666391373E-2   3.129233419895172E-2   2.320705726742744E-2  -3.322740197181702E-1   9.381681680679321E-1  
 6.880000000000000E7    -7.769325375556946E-1   6.224019527435303E-1   3.105562180280685E-2   2.176101878285408E-2   3.095792233943939E-2   2.169921435415745E-2  -3.151950538158417E-1   9.439115524291992E-1  
 6.910000000000000E7    -7.551777958869934E-1   6.487518548965454E-1   3.079362958669663E-2   2.034480124711990E-2   3.066790103912354E-2   2.028204314410687E-2  -2.982162833213806E-1   9.500254988670349E-1  
 6.940000000000000E7    -7.329664826393127E-1   6.742478609085083E-1   3.029129654169083E-2   1.906419731676579E-2   3.021929785609245E-2   1.899774372577667E-2  -2.828772664070129E-1   9.546737670898438E-1  
 6.970000000000000E7    -7.084933519363403E-1   6.989407539367676E-1   2.972557768225670E-2   1.758600771427155E-2   2.981425262987614E-2   1.751435175538063E-2  -2.661421597003937E-1   9.594718217849731E-1  
 7.000000000000000E7    -6.843187808990479E-1   7.237621545791626E-1   2.924756333231926E-2   1.622892916202545E-2   2.913271263241768E-2   1.617295108735561E-2  -2.499839663505554E-1   9.641735553741455E-1  
