#  HZ   S   RI   R     50.00 
! Rohde & Schwarz ZVT8 8Ports - Version 4.11 - 1300.0000k08 SN: 100242
! Date: 2026-07-31 14:48:12
! Measurements: S11 S21 S12 S22 
! 
 1.000000000000000E7    -3.986262083053589E-1   9.122985005378723E-1   5.328847467899323E-2   5.351424217224121E-2   5.289009958505631E-2   5.364754050970078E-2  -9.189598560333252E-1   3.848851919174194E-1  
 1.030000000000000E7    -3.657622933387756E-1   9.253264665603638E-1   5.686162039637566E-2   5.424048379063606E-2   5.653132498264313E-2   5.418483167886734E-2  -9.128543734550476E-1   3.981233239173889E-1  
 1.060000000000000E7    -3.291850090026856E-1   9.388317465782166E-1   6.047488376498222E-2   5.498872324824333E-2   6.017980352044106E-2   5.493528395891190E-2  -9.089584946632385E-1   4.094992280006409E-1  
 1.090000000000000E7    -2.962504625320435E-1   9.485707283020020E-1   6.413833796977997E-2   5.536197498440743E-2   6.380609422922134E-2   5.546686425805092E-2  -9.031306505203247E-1   4.212644696235657E-1  
 1.120000000000000E7    -2.602624893188477E-1   9.585177898406982E-1   6.814464181661606E-2   5.626606941223145E-2   6.758289039134979E-2   5.588654428720474E-2  -8.973519802093506E-1   4.332246184349060E-1  
 1.150000000000000E7    -2.239947021007538E-1   9.681316614151001E-1   7.174214720726013E-2   5.621726065874100E-2   7.146333903074265E-2   5.629914999008179E-2  -8.904331922531128E-1   4.424254596233368E-1  
 1.180000000000000E7    -1.877743899822235E-1   9.732204079627991E-1   7.577355206012726E-2   5.659762024879456E-2   7.565289735794067E-2   5.650135129690170E-2  -8.855596780776978E-1   4.530546963214874E-1  
 1.210000000000000E7    -1.522320508956909E-1   9.797771573066711E-1   8.036088943481445E-2   5.704716593027115E-2   8.006647974252701E-2   5.678291991353035E-2  -8.780784606933594E-1   4.659034013748169E-1  
 1.240000000000000E7    -1.152833402156830E-1   9.840020537376404E-1   8.451649546623230E-2   5.709226429462433E-2   8.451789617538452E-2   5.661562457680702E-2  -8.712502717971802E-1   4.758478701114655E-1  
 1.270000000000000E7    -7.830509543418884E-2   9.870436787605286E-1   8.964494615793228E-2   5.652871355414391E-2   8.911757171154022E-2   5.636531487107277E-2  -8.641303777694702E-1   4.896974563598633E-1  
 1.300000000000000E7    -4.194191843271256E-2   9.897333383560181E-1   9.403799474239349E-2   5.648888647556305E-2   9.388199448585510E-2   5.624737963080406E-2  -8.566398024559021E-1   5.002846717834473E-1  
 1.330000000000000E7    -3.724299371242523E-3   9.908122420310974E-1   9.930874407291412E-2   5.581780523061752E-2   9.897480905056000E-2   5.532799661159515E-2  -8.492977023124695E-1   5.124804973602295E-1  
 1.360000000000000E7     3.537640348076820E-2   9.897597432136536E-1   1.043012142181397E-1   5.560289323329926E-2   1.043540090322495E-1   5.480852723121643E-2  -8.419040441513062E-1   5.220008492469788E-1  
 1.390000000000000E7     7.231357693672180E-2   9.864625334739685E-1   1.097464635968208E-1   5.413138121366501E-2   1.092451587319374E-1   5.454995483160019E-2  -8.341357707977295E-1   5.338923931121826E-1  
 1.420000000000000E7     1.115301325917244E-1   9.831700325012207E-1   1.149664968252182E-1   5.371674895286560E-2   1.149194538593292E-1   5.348205566406250E-2  -8.274288773536682E-1   5.444698333740234E-1  
 1.450000000000000E7     1.491355746984482E-1   9.762665033340454E-1   1.206625923514366E-1   5.207901820540428E-2   1.206581443548203E-1   5.207657814025879E-2  -8.174657225608826E-1   5.571786761283875E-1  
 1.480000000000000E7     1.892948895692825E-1   9.690725803375244E-1   1.268225610256195E-1   5.047889426350594E-2   1.266665458679199E-1   5.076567083597183E-2  -8.096696138381958E-1   5.676856637001038E-1  
 1.510000000000000E7     2.273124456405640E-1   9.596636891365051E-1   1.327333599328995E-1   4.886125773191452E-2   1.325985789299011E-1   4.880546778440476E-2  -7.981483340263367E-1   5.789129137992859E-1  
 1.540000000000000E7     2.650084793567658E-1   9.489580392837524E-1   1.391205191612244E-1   4.769746959209442E-2   1.389157474040985E-1   4.698824882507324E-2  -7.920776605606079E-1   5.895690321922302E-1  
 1.570000000000000E7     3.047368228435516E-1   9.378187656402588E-1   1.457725614309311E-1   4.463393986225128E-2   1.457935869693756E-1   4.458500817418098E-2  -7.806953191757202E-1   6.017207503318787E-1  
 1.600000000000000E7     3.434718549251556E-1   9.221509099006653E-1   1.523359268903732E-1   4.212979227304459E-2   1.526763290166855E-1   4.176253452897072E-2  -7.715839147567749E-1   6.109052300453186E-1  
 1.630000000000000E7     3.811467289924622E-1   9.057666063308716E-1   1.601155996322632E-1   3.868220746517181E-2   1.595391929149628E-1   3.908973187208176E-2  -7.612567543983460E-1   6.239101290702820E-1  
 1.660000000000000E7     4.190739095211029E-1   8.865922093391419E-1   1.674195826053619E-1   3.549358621239662E-2   1.670381277799606E-1   3.486716747283936E-2  -7.489060759544373E-1   6.348361372947693E-1  
 1.690000000000000E7     4.562540650367737E-1   8.669031858444214E-1   1.752528697252274E-1   3.226789832115173E-2   1.749470680952072E-1   3.179354220628738E-2  -7.388047575950623E-1   6.445721387863159E-1  
 1.720000000000000E7     4.956697821617127E-1   8.449332714080811E-1   1.824001669883728E-1   2.721316739916802E-2   1.825552731752396E-1   2.754373103380203E-2  -7.271756529808044E-1   6.551471352577210E-1  
 1.750000000000000E7     5.283842682838440E-1   8.231177330017090E-1   1.914976537227631E-1   2.391590178012848E-2   1.916621029376984E-1   2.326618134975433E-2  -7.162573337554932E-1   6.677056550979614E-1  
 1.780000000000000E7     5.670233368873596E-1   7.931604385375977E-1   1.991426944732666E-1   1.765026338398457E-2   1.996152251958847E-1   1.809398084878922E-2  -7.035257816314697E-1   6.755001544952393E-1  
 1.810000000000000E7     6.016095876693726E-1   7.658065557479858E-1   2.094463109970093E-1   1.231587864458561E-2   2.080922424793243E-1   1.158946752548218E-2  -6.905390024185181E-1   6.889784336090088E-1  
 1.840000000000000E7     6.383177042007446E-1   7.340736985206604E-1   2.187288254499435E-1   4.327114671468735E-3   2.177110016345978E-1   4.795538261532784E-3  -6.767182350158691E-1   6.991041302680969E-1  
 1.870000000000000E7     6.702641248703003E-1   7.012606859207153E-1   2.281283289194107E-1  -2.092767506837845E-3   2.271238267421722E-1  -2.599878236651421E-3  -6.618933677673340E-1   7.089067101478577E-1  
 1.900000000000000E7     7.030794024467468E-1   6.654301285743713E-1   2.379795759916306E-1  -9.937805123627186E-3   2.374175190925598E-1  -1.061709411442280E-2  -6.473277211189270E-1   7.185512781143189E-1  
 1.930000000000000E7     7.344734668731690E-1   6.252372264862061E-1   2.477432787418366E-1  -2.056200057268143E-2   2.482161819934845E-1  -1.956543326377869E-2  -6.323872208595276E-1   7.299050688743591E-1  
 1.960000000000000E7     7.647824287414551E-1   5.825330615043640E-1   2.582623958587647E-1  -3.059759549796581E-2   2.584756314754486E-1  -2.985261753201485E-2  -6.180201768875122E-1   7.382705807685852E-1  
 1.990000000000000E7     7.912711501121521E-1   5.385212898254395E-1   2.694926559925079E-1  -4.213884100317955E-2   2.696400880813599E-1  -4.218247160315514E-2  -5.986989736557007E-1   7.497375011444092E-1  
 2.020000000000000E7     8.173681497573853E-1   4.901841580867767E-1   2.811778485774994E-1  -5.479147285223007E-2   2.802746891975403E-1  -5.438213422894478E-2  -5.821616053581238E-1   7.560434341430664E-1  
 2.050000000000000E7     8.429101109504700E-1   4.380030930042267E-1   2.924718558788300E-1  -6.880702078342438E-2   2.906578779220581E-1  -6.868489086627960E-2  -5.639809966087341E-1   7.644768357276917E-1  
 2.080000000000000E7     8.626080155372620E-1   3.816332817077637E-1   3.044123649597168E-1  -8.549325168132782E-2   3.045305609703064E-1  -8.536395430564880E-2  -5.443206429481506E-1   7.738999128341675E-1  
 2.110000000000000E7     8.809545040130615E-1   3.226600587368012E-1   3.165093362331390E-1  -1.049652397632599E-1   3.164704442024231E-1  -1.046129167079926E-1  -5.234130024909973E-1   7.809409499168396E-1  
 2.140000000000000E7     8.944041132926941E-1   2.601219415664673E-1   3.284299075603485E-1  -1.263991296291351E-1   3.272437453269959E-1  -1.247224360704422E-1  -5.015192031860352E-1   7.869797348976135E-1  
 2.170000000000000E7     9.030138254165649E-1   1.941019296646118E-1   3.404063284397125E-1  -1.492028981447220E-1   3.403484523296356E-1  -1.480301022529602E-1  -4.789144992828369E-1   7.924606800079346E-1  
 2.200000000000000E7     9.065490961074829E-1   1.210243850946426E-1   3.508170247077942E-1  -1.759488731622696E-1   3.510235249996185E-1  -1.755836158990860E-1  -4.533825516700745E-1   7.957301735877991E-1  
 2.230000000000000E7     9.022873640060425E-1   4.582614451646805E-2   3.613714575767517E-1  -2.062523066997528E-1   3.611728549003601E-1  -2.052900791168213E-1  -4.286905229091644E-1   7.978122830390930E-1  
 2.260000000000000E7     8.908820748329163E-1  -3.462642803788185E-2   3.694607615470886E-1  -2.403633296489716E-1   3.713216781616211E-1  -2.408014982938767E-1  -4.022542238235474E-1   7.972185611724854E-1  
 2.290000000000000E7     8.689566850662231E-1  -1.184606254100800E-1   3.763862550258637E-1  -2.790723741054535E-1   3.778931796550751E-1  -2.791063487529755E-1  -3.726924359798431E-1   7.945570349693298E-1  
 2.320000000000000E7     8.346721529960632E-1  -2.040829360485077E-1   3.805790841579437E-1  -3.243328332901001E-1   3.795908987522125E-1  -3.237243294715881E-1  -3.446094095706940E-1   7.911980748176575E-1  
 2.350000000000000E7     7.854443192481995E-1  -2.926759719848633E-1   3.788585662841797E-1  -3.746041357517242E-1   3.789490461349487E-1  -3.728427290916443E-1  -3.150674402713776E-1   7.819111943244934E-1  
 2.380000000000000E7     7.209906578063965E-1  -3.800796270370483E-1   3.719729483127594E-1  -4.281830191612244E-1   3.724796772003174E-1  -4.281955361366272E-1  -2.849353849887848E-1   7.681972384452820E-1  
 2.410000000000000E7     6.360181570053101E-1  -4.634408354759216E-1   3.549573421478272E-1  -4.889454245567322E-1   3.551875650882721E-1  -4.877629876136780E-1  -2.555334866046906E-1   7.495018243789673E-1  
 2.440000000000000E7     5.291094779968262E-1  -5.353849530220032E-1   3.279580771923065E-1  -5.543725490570068E-1   3.275260031223297E-1  -5.541399121284485E-1  -2.302372157573700E-1   7.247590422630310E-1  
 2.470000000000000E7     4.009721279144287E-1  -5.925160646438599E-1   2.863159477710724E-1  -6.217497587203980E-1   2.876789569854736E-1  -6.197066307067871E-1  -2.049043327569962E-1   6.924993395805359E-1  
 2.500000000000000E7     2.502118349075317E-1  -6.274945139884949E-1   2.280507087707520E-1  -6.859694719314575E-1   2.278715372085571E-1  -6.862917542457581E-1  -1.884644776582718E-1   6.577766537666321E-1  
 2.530000000000000E7     8.239573240280151E-2  -6.260790824890137E-1   1.528458297252655E-1  -7.458258271217346E-1   1.527441293001175E-1  -7.447665929794312E-1  -1.802119463682175E-1   6.146004796028137E-1  
 2.560000000000000E7    -9.064269810914993E-2  -5.833359360694885E-1   5.815595015883446E-2  -7.912674546241760E-1   5.725144594907761E-2  -7.912912964820862E-1  -1.843679547309876E-1   5.701453089714050E-1  
 2.590000000000000E7    -2.523065805435181E-1  -4.905662536621094E-1  -5.281852185726166E-2  -8.170281648635864E-1  -5.147745460271835E-2  -8.176570534706116E-1  -1.985492706298828E-1   5.305418372154236E-1  
 2.620000000000000E7    -3.914785087108612E-1  -3.536082208156586E-1  -1.712087392807007E-1  -8.171812891960144E-1  -1.697759032249451E-1  -8.162817358970642E-1  -2.248266786336899E-1   4.938616454601288E-1  
 2.650000000000000E7    -4.908195137977600E-1  -1.815296411514282E-1  -2.860599756240845E-1  -7.859607934951782E-1  -2.871007025241852E-1  -7.867812514305115E-1  -2.646996378898621E-1   4.678190350532532E-1  
 2.680000000000000E7    -5.365772843360901E-1   9.244777262210846E-3  -3.910410404205322E-1  -7.309009432792664E-1  -3.911231756210327E-1  -7.298908829689026E-1  -3.093262910842896E-1   4.568135738372803E-1  
 2.710000000000000E7    -5.302354097366333E-1   1.957321912050247E-1  -4.772328138351440E-1  -6.549043655395508E-1  -4.772143363952637E-1  -6.550706624984741E-1  -3.506258726119995E-1   4.595793485641480E-1  
 2.740000000000000E7    -4.788330495357513E-1   3.704783320426941E-1  -5.384686589241028E-1  -5.671723484992981E-1  -5.384085178375244E-1  -5.649300217628479E-1  -3.920140862464905E-1   4.759811460971832E-1  
 2.770000000000000E7    -3.930481076240540E-1   5.129324197769165E-1  -5.790430307388306E-1  -4.747990369796753E-1  -5.787925124168396E-1  -4.751980006694794E-1  -4.239688515663147E-1   5.020807981491089E-1  
 2.800000000000000E7    -2.863499522209168E-1   6.265397071838379E-1  -5.985308289527893E-1  -3.842818737030029E-1  -5.971827507019043E-1  -3.850019574165344E-1  -4.496333301067352E-1   5.326407551765442E-1  
 2.830000000000000E7    -1.691941618919373E-1   7.071648240089417E-1  -6.018097996711731E-1  -3.030805587768555E-1  -6.021803617477417E-1  -3.038786649703980E-1  -4.631710052490234E-1   5.674112439155579E-1  
 2.860000000000000E7    -4.904565960168839E-2   7.595029473304749E-1  -5.934757590293884E-1  -2.301804721355438E-1  -5.944682359695435E-1  -2.289149463176727E-1  -4.697039127349854E-1   6.053960919380188E-1  
 2.890000000000000E7     6.620272994041443E-2   7.874365448951721E-1  -5.785019397735596E-1  -1.658257246017456E-1  -5.772202610969544E-1  -1.657126545906067E-1  -4.696380794048309E-1   6.410814523696899E-1  
 2.920000000000000E7     1.774827986955643E-1   7.977179884910584E-1  -5.554498434066773E-1  -1.115299835801125E-1  -5.553649067878723E-1  -1.100347191095352E-1  -4.638522267341614E-1   6.750600934028626E-1  
 2.950000000000000E7     2.762107849121094E-1   7.901425957679749E-1  -5.312421321868897E-1  -6.447961926460266E-2  -5.306875705718994E-1  -6.392156332731247E-2  -4.527580738067627E-1   7.097625136375427E-1  
 2.980000000000000E7     3.680613338947296E-1   7.736713886260986E-1  -5.037310719490051E-1  -2.518219128251076E-2  -5.041788220405579E-1  -2.523301169276238E-2  -4.376648366451263E-1   7.406030893325806E-1  
 3.010000000000000E7     4.506736695766449E-1   7.470113039016724E-1  -4.771496057510376E-1   9.094722568988800E-3  -4.763537347316742E-1   8.398802950978279E-3  -4.196128845214844E-1   7.690389752388001E-1  
 3.040000000000000E7     5.248412489891052E-1   7.140133380889893E-1  -4.505525529384613E-1   3.548678010702133E-2  -4.504557549953461E-1   3.569252789020538E-2  -3.970312178134918E-1   7.946980595588684E-1  
 3.070000000000000E7     5.920025706291199E-1   6.746309399604797E-1  -4.237672388553619E-1   6.125900149345398E-2  -4.239023029804230E-1   6.064739450812340E-2  -3.735434412956238E-1   8.188309669494629E-1  
 3.100000000000000E7     6.504777073860169E-1   6.337847113609314E-1  -3.994418084621429E-1   8.089561760425568E-2  -3.984462618827820E-1   8.119030296802521E-2  -3.479471206665039E-1   8.408959507942200E-1  
 3.130000000000000E7     7.011687755584717E-1   5.901785492897034E-1  -3.742079734802246E-1   9.780681878328323E-2  -3.740433752536774E-1   9.696141630411148E-2  -3.204969763755798E-1   8.600524663925171E-1  
 3.160000000000000E7     7.477498054504395E-1   5.437778234481812E-1  -3.516834378242493E-1   1.117894425988197E-1  -3.519289791584015E-1   1.114970818161964E-1  -2.924559712409973E-1   8.794193267822266E-1  
 3.190000000000000E7     7.874554991722107E-1   4.977678656578064E-1  -3.293433487415314E-1   1.237397268414497E-1  -3.284386992454529E-1   1.235087662935257E-1  -2.613530457019806E-1   8.952330350875855E-1  
 3.220000000000000E7     8.236363530158997E-1   4.505054354667664E-1  -3.081660866737366E-1   1.328503936529160E-1  -3.075321316719055E-1   1.333549171686173E-1  -2.309109568595886E-1   9.089995026588440E-1  
 3.250000000000000E7     8.540713787078857E-1   4.024365544319153E-1  -2.883788943290710E-1   1.415621042251587E-1  -2.880922853946686E-1   1.419637799263001E-1  -1.974898576736450E-1   9.242557883262634E-1  
 3.280000000000000E7     8.793309926986694E-1   3.526950776576996E-1  -2.692655026912689E-1   1.486639380455017E-1  -2.674925625324249E-1   1.485096067190170E-1  -1.629586070775986E-1   9.346230626106262E-1  
 3.310000000000000E7     9.017193913459778E-1   3.055538237094879E-1  -2.497122585773468E-1   1.539046615362167E-1  -2.494939267635346E-1   1.541516780853272E-1  -1.256866008043289E-1   9.440739154815674E-1  
 3.340000000000000E7     9.213273525238037E-1   2.581937015056610E-1  -2.322824448347092E-1   1.594558358192444E-1  -2.315905243158341E-1   1.587081998586655E-1  -8.806890249252319E-2   9.511184692382813E-1  
 3.370000000000000E7     9.357095360755920E-1   2.099822461605072E-1  -2.147873491048813E-1   1.622567474842072E-1  -2.148330956697464E-1   1.618283092975617E-1  -4.930274188518524E-2   9.587162733078003E-1  
 3.400000000000000E7     9.482505917549133E-1   1.633328199386597E-1  -1.987294852733612E-1   1.652085781097412E-1  -1.988116949796677E-1   1.648433804512024E-1  -8.124746382236481E-3   9.612107872962952E-1  
 3.430000000000000E7     9.584721922874451E-1   1.170642077922821E-1  -1.827730238437653E-1   1.674902588129044E-1  -1.825738996267319E-1   1.669856905937195E-1   3.395979106426239E-2   9.634818434715271E-1  
 3.460000000000000E7     9.653816223144531E-1   7.006175071001053E-2  -1.677065938711166E-1   1.686750948429108E-1  -1.680426597595215E-1   1.686359345912933E-1   7.917635142803192E-2   9.644910693168640E-1  
 3.490000000000000E7     9.701433181762695E-1   2.428661286830902E-2  -1.521040648221970E-1   1.696647256612778E-1  -1.526538878679276E-1   1.691990196704865E-1   1.231331825256348E-1   9.605363011360169E-1  
 3.520000000000000E7     9.731096029281616E-1  -1.974897086620331E-2  -1.387585997581482E-1   1.691903918981552E-1  -1.386789232492447E-1   1.692825853824616E-1   1.736316084861755E-1   9.560803771018982E-1  
 3.550000000000000E7     9.712960720062256E-1  -6.492814421653748E-2  -1.254555881023407E-1   1.685358732938767E-1  -1.253843307495117E-1   1.685553938150406E-1   2.220022827386856E-1   9.485340714454651E-1  
 3.580000000000000E7     9.706026315689087E-1  -1.080833077430725E-1  -1.117494106292725E-1   1.672604680061340E-1  -1.117046251893044E-1   1.670948863029480E-1   2.737713754177094E-1   9.349277615547180E-1  
 3.610000000000000E7     9.670378565788269E-1  -1.503450125455856E-1  -9.878445416688919E-2   1.661248207092285E-1  -9.848662465810776E-2   1.653766185045242E-1   3.295838236808777E-1   9.199062585830689E-1  
 3.640000000000000E7     9.611873626708984E-1  -1.928404420614243E-1  -8.639472723007202E-2   1.633045077323914E-1  -8.651294559240341E-2   1.627062708139420E-1   3.835752904415131E-1   9.000228643417358E-1  
 3.670000000000000E7     9.542536139488220E-1  -2.329448610544205E-1  -7.460150122642517E-2   1.603225916624069E-1  -7.412508130073547E-2   1.598005443811417E-1   4.411460459232330E-1   8.760436177253723E-1  
 3.700000000000000E7     9.448934793472290E-1  -2.728921175003052E-1  -6.231369823217392E-2   1.561800539493561E-1  -6.218095123767853E-2   1.558193266391754E-1   5.012175440788269E-1   8.434767127037048E-1  
 3.730000000000000E7     9.337460994720459E-1  -3.129344582557678E-1  -5.101874843239784E-2   1.511533856391907E-1  -5.111368000507355E-2   1.513664722442627E-1   5.585761666297913E-1   8.072597384452820E-1  
 3.760000000000000E7     9.214317798614502E-1  -3.495286107063294E-1  -3.965862095355988E-2   1.458633542060852E-1  -3.977529332041740E-2   1.461114734411240E-1   6.204618811607361E-1   7.622268199920654E-1  
 3.790000000000000E7     9.075574874877930E-1  -3.879572749137878E-1  -2.894865162670612E-2   1.400736868381500E-1  -2.887586131691933E-2   1.398988962173462E-1   6.802560687065125E-1   7.089076638221741E-1  
 3.820000000000000E7     8.926872014999390E-1  -4.248968362808228E-1  -1.888438314199448E-2   1.332901716232300E-1  -1.915756240487099E-2   1.331972330808640E-1   7.394163012504578E-1   6.502227783203125E-1  
 3.850000000000000E7     8.754152059555054E-1  -4.615119695663452E-1  -9.665449149906635E-3   1.257233172655106E-1  -9.259857237339020E-3   1.254228502511978E-1   7.985309958457947E-1   5.793907642364502E-1  
 3.880000000000000E7     8.576327562332153E-1  -4.954330921173096E-1  -4.308940842747688E-4   1.166317686438561E-1  -4.911841824650765E-4   1.164577603340149E-1   8.524347543716431E-1   4.960778355598450E-1  
 3.910000000000000E7     8.394463658332825E-1  -5.301843285560608E-1   6.976441945880652E-3   1.074598953127861E-1   7.330566179007292E-3   1.072370857000351E-1   9.004712700843811E-1   4.037309885025024E-1  
 3.940000000000000E7     8.179872632026672E-1  -5.612398386001587E-1   1.373453624546528E-2   9.700579196214676E-2   1.365202385932207E-2   9.681749343872070E-2   9.402239918708801E-1   3.012840151786804E-1  
 3.970000000000000E7     7.974893450737000E-1  -5.934561491012573E-1   1.901098713278770E-2   8.602529764175415E-2   1.892294920980930E-2   8.600800484418869E-2   9.689760804176331E-1   1.871665120124817E-1  
 4.000000000000000E7     7.740691900253296E-1  -6.242380738258362E-1   2.284110523760319E-2   7.432904839515686E-2   2.313088253140450E-2   7.415608316659927E-2   9.860226511955261E-1   6.016185879707336E-2  
 4.030000000000000E7     7.508841753005981E-1  -6.538811326026917E-1   2.528250776231289E-2   6.204178929328919E-2   2.523492462933064E-2   6.215317174792290E-2   9.860894680023193E-1  -7.137425243854523E-2  
 4.060000000000000E7     7.257778048515320E-1  -6.819139122962952E-1   2.546552196145058E-2   5.005959421396256E-2   2.546074055135250E-2   5.007567629218102E-2   9.665476679801941E-1  -2.105763703584671E-1  
 4.090000000000000E7     6.995159387588501E-1  -7.101371288299561E-1   2.396470308303833E-2   3.812553733587265E-2   2.389084734022617E-2   3.798238188028336E-2   9.251289367675781E-1  -3.504478931427002E-1  
 4.120000000000000E7     6.732546091079712E-1  -7.365069389343262E-1   2.044675499200821E-2   2.683081291615963E-2   2.030932903289795E-2   2.676220051944256E-2   8.617964982986450E-1  -4.895924925804138E-1  
 4.150000000000000E7     6.461147069931030E-1  -7.601161003112793E-1   1.503659598529339E-2   1.644679345190525E-2   1.493813935667276E-2   1.653703674674034E-2   7.729460597038269E-1  -6.183934211730957E-1  
 4.180000000000000E7     6.167041063308716E-1  -7.847136259078980E-1   7.988216355443001E-3   7.656039204448462E-3   7.937931455671787E-3   7.640230003744364E-3   6.637510061264038E-1  -7.347266674041748E-1  
 4.210000000000000E7     5.878112316131592E-1  -8.070603013038635E-1  -2.794950269162655E-4   7.200693944469094E-4  -2.647556830197573E-4   5.435398779809475E-4   5.357213616371155E-1  -8.322623372077942E-1  
 4.240000000000000E7     5.575264692306519E-1  -8.267245292663574E-1  -9.232247248291969E-3  -4.369991831481457E-3  -9.171613492071629E-3  -4.314854741096497E-3   3.948603868484497E-1  -9.072872400283814E-1  
 4.270000000000000E7     5.264214277267456E-1  -8.467876911163330E-1  -1.860078237950802E-2  -7.383900228887796E-3  -1.857950538396835E-2  -7.253504358232021E-3   2.455074936151505E-1  -9.597780704498291E-1  
 4.300000000000000E7     4.942126274108887E-1  -8.662086725234985E-1  -2.780205756425858E-2  -8.231298997998238E-3  -2.767142280936241E-2  -8.154435083270073E-3   9.331096708774567E-2  -9.858641624450684E-1  
 4.330000000000000E7     4.652317762374878E-1  -8.833038806915283E-1  -3.638914972543716E-2  -7.466595154255629E-3  -3.627489507198334E-2  -7.371593266725540E-3  -5.599948763847351E-2  -9.880506992340088E-1  
 4.360000000000000E7     4.316524267196655E-1  -8.983826041221619E-1  -4.394358024001122E-2  -4.885688424110413E-3  -4.386613517999649E-2  -5.084170959889889E-3  -1.977493166923523E-1  -9.707720279693604E-1  
 4.390000000000000E7     3.985555171966553E-1  -9.143065810203552E-1  -5.052981153130531E-2  -1.407770439982414E-3  -5.073252320289612E-2  -1.360345631837845E-3  -3.301727771759033E-1  -9.328151941299439E-1  
 4.420000000000000E7     3.659961223602295E-1  -9.260138273239136E-1  -5.614135786890984E-2   2.918285317718983E-3  -5.607942864298821E-2   3.083441406488419E-3  -4.499349296092987E-1  -8.823635578155518E-1  
 4.450000000000000E7     3.327763080596924E-1  -9.384527206420898E-1  -6.031263619661331E-2   7.852829061448574E-3  -6.020747497677803E-2   7.914857938885689E-3  -5.543699264526367E-1  -8.211718201637268E-1  
 4.480000000000000E7     2.995907366275787E-1  -9.493125677108765E-1  -6.328303366899490E-2   1.324380841106176E-2  -6.330090761184692E-2   1.321507059037685E-2  -6.443501114845276E-1  -7.516098022460938E-1  
 4.510000000000000E7     2.674903571605682E-1  -9.595233798027039E-1  -6.530196219682694E-2   1.862575486302376E-2  -6.534723192453384E-2   1.839831285178661E-2  -7.224312424659729E-1  -6.774388551712036E-1  
 4.540000000000000E7     2.334968149662018E-1  -9.676266908645630E-1  -6.659842282533646E-2   2.367913722991943E-2  -6.637904047966003E-2   2.359531074762344E-2  -7.869916558265686E-1  -6.020310521125794E-1  
 4.570000000000000E7     1.994309425354004E-1  -9.752142429351807E-1  -6.682273745536804E-2   2.893888577818871E-2  -6.670212000608444E-2   2.859552577137947E-2  -8.416345715522766E-1  -5.247414708137512E-1  
 4.600000000000000E7     1.680227071046829E-1  -9.808792471885681E-1  -6.612360477447510E-2   3.332575410604477E-2  -6.638128310441971E-2   3.360097482800484E-2  -8.849489688873291E-1  -4.477671384811401E-1  
 4.630000000000000E7     1.316038370132446E-1  -9.865956902503967E-1  -6.510925292968750E-2   3.785614296793938E-2  -6.503060460090637E-2   3.793600201606751E-2  -9.173239469528198E-1  -3.736159801483154E-1  
 4.660000000000000E7     9.691724181175232E-2  -9.912043809890747E-1  -6.392453610897064E-2   4.212989658117294E-2  -6.379089504480362E-2   4.195317625999451E-2  -9.456012248992920E-1  -3.034569025039673E-1  
 4.690000000000000E7     6.372956186532974E-2  -9.930436611175537E-1  -6.174183264374733E-2   4.547949135303497E-2  -6.174001470208168E-2   4.529962688684464E-2  -9.641269445419312E-1  -2.331954836845398E-1  
 4.720000000000000E7     2.931806072592735E-2  -9.940398335456848E-1  -5.952595174312592E-2   4.887149482965469E-2  -5.944919586181641E-2   4.882587492465973E-2  -9.786118268966675E-1  -1.669533401727676E-1  
 4.750000000000000E7    -3.983512520790100E-3  -9.953084588050842E-1  -5.710329115390778E-2   5.165046080946922E-2  -5.695553123950958E-2   5.138340964913368E-2  -9.864808917045593E-1  -1.031765490770340E-1  
 4.780000000000000E7    -3.743331879377365E-2  -9.946081042289734E-1  -5.450213700532913E-2   5.444575473666191E-2  -5.445207282900810E-2   5.414475500583649E-2  -9.913392066955566E-1  -4.375948384404182E-2  
 4.810000000000000E7    -7.192362099885941E-2  -9.924397468566895E-1  -5.168461054563522E-2   5.631915479898453E-2  -5.175350978970528E-2   5.611863359808922E-2  -9.915710687637329E-1   1.161971688270569E-2  
 4.840000000000000E7    -1.054736748337746E-1  -9.901160001754761E-1  -4.897548630833626E-2   5.810864269733429E-2  -4.877743870019913E-2   5.810860544443131E-2  -9.897400736808777E-1   6.466827541589737E-2  
 4.870000000000000E7    -1.396417468786240E-1  -9.856985807418823E-1  -4.612193629145622E-2   5.966642126441002E-2  -4.604074358940125E-2   5.960258841514587E-2  -9.856696128845215E-1   1.145677119493485E-1  
 4.900000000000000E7    -1.733784973621368E-1  -9.812225699424744E-1  -4.328384995460510E-2   6.095200777053833E-2  -4.296578094363213E-2   6.091216579079628E-2  -9.793130159378052E-1   1.621518284082413E-1  
 4.930000000000000E7    -2.069763541221619E-1  -9.742272496223450E-1  -4.028956592082977E-2   6.202095001935959E-2  -4.035567492246628E-2   6.200048699975014E-2  -9.716150760650635E-1   2.069606035947800E-1  
 4.960000000000000E7    -2.388474196195602E-1  -9.652168154716492E-1  -3.732738643884659E-2   6.268610060214996E-2  -3.725815936923027E-2   6.259471923112869E-2  -9.616938829421997E-1   2.489217370748520E-1  
 4.990000000000000E7    -2.707642912864685E-1  -9.571792483329773E-1  -3.450869768857956E-2   6.340947747230530E-2  -3.451263904571533E-2   6.299766153097153E-2  -9.507957696914673E-1   2.874658703804016E-1  
 5.020000000000000E7    -3.026629686355591E-1  -9.485549330711365E-1  -3.184577077627182E-2   6.351100653409958E-2  -3.182425349950790E-2   6.345812976360321E-2  -9.392356872558594E-1   3.251856565475464E-1  
 5.050000000000000E7    -3.353324234485626E-1  -9.373623728752136E-1  -2.918967232108116E-2   6.371370702981949E-2  -2.901901304721832E-2   6.353447586297989E-2  -9.269170761108398E-1   3.601320683956146E-1  
 5.080000000000000E7    -3.663893043994904E-1  -9.263765811920166E-1  -2.639088779687882E-2   6.360689550638199E-2  -2.640926651656628E-2   6.354253739118576E-2  -9.115613102912903E-1   3.938509523868561E-1  
 5.110000000000000E7    -3.981156349182129E-1  -9.125136733055115E-1  -2.374221198260784E-2   6.344817578792572E-2  -2.382724359631538E-2   6.320523470640183E-2  -8.980453014373779E-1   4.242296218872070E-1  
 5.140000000000000E7    -4.284186959266663E-1  -8.983080387115479E-1  -2.129247784614563E-2   6.311039626598358E-2  -2.122362703084946E-2   6.313648074865341E-2  -8.849411606788635E-1   4.554603397846222E-1  
 5.170000000000000E7    -4.577202796936035E-1  -8.837208151817322E-1  -1.878962665796280E-2   6.265199929475784E-2  -1.887230575084686E-2   6.251348555088043E-2  -8.685063123703003E-1   4.830756187438965E-1  
 5.200000000000000E7    -4.877570867538452E-1  -8.692953586578369E-1  -1.646850630640984E-2   6.196919828653336E-2  -1.658618077635765E-2   6.193377077579498E-2  -8.519616723060608E-1   5.101624131202698E-1  
 5.230000000000000E7    -5.166661143302918E-1  -8.509017229080200E-1  -1.422211062163115E-2   6.114307045936585E-2  -1.425606571137905E-2   6.119666248559952E-2  -8.374608159065247E-1   5.349771976470947E-1  
 5.260000000000000E7    -5.443596839904785E-1  -8.326852321624756E-1  -1.215384341776371E-2   6.043735891580582E-2  -1.210034452378750E-2   6.051256135106087E-2  -8.212329745292664E-1   5.600106120109558E-1  
 5.290000000000000E7    -5.730978250503540E-1  -8.142754435539246E-1  -9.965530596673489E-3   5.941916257143021E-2  -1.009007263928652E-2   5.946386605501175E-2  -8.059600591659546E-1   5.820150375366211E-1  
 5.320000000000000E7    -5.996948480606079E-1  -7.959917783737183E-1  -8.127019740641117E-3   5.840461701154709E-2  -7.991502992808819E-3   5.855470895767212E-2  -7.900868654251099E-1   6.043894290924072E-1  
 5.350000000000000E7    -6.249203681945801E-1  -7.749520540237427E-1  -6.345653906464577E-3   5.737379938364029E-2  -6.190705113112927E-3   5.737287551164627E-2  -7.742387056350708E-1   6.237794160842896E-1  
 5.380000000000000E7    -6.495693922042847E-1  -7.540845274925232E-1  -4.520020913332701E-3   5.636011809110642E-2  -4.301609937101603E-3   5.620262026786804E-2  -7.567136287689209E-1   6.443428993225098E-1  
 5.410000000000000E7    -6.770572662353516E-1  -7.318338751792908E-1  -2.750442363321781E-3   5.514864251017571E-2  -2.540756016969681E-3   5.502985417842865E-2  -7.416833639144898E-1   6.633347868919373E-1  
 5.440000000000000E7    -7.002402544021606E-1  -7.078174948692322E-1  -1.139077823609114E-3   5.379530787467957E-2  -1.060694921761751E-3   5.370249971747398E-2  -7.250559329986572E-1   6.802997589111328E-1  
 5.470000000000000E7    -7.224553227424622E-1  -6.853700280189514E-1   4.896861501038075E-4   5.246972292661667E-2   5.468591116368771E-4   5.248939618468285E-2  -7.081660032272339E-1   6.979889273643494E-1  
 5.500000000000000E7    -7.459269165992737E-1  -6.606916189193726E-1   1.897395588457584E-3   5.124704167246819E-2   1.844521611928940E-3   5.113941431045532E-2  -6.926044225692749E-1   7.149150371551514E-1  
 5.530000000000000E7    -7.676435112953186E-1  -6.354034543037415E-1   3.084539435803890E-3   4.972293227910996E-2   3.313480876386166E-3   4.972703382372856E-2  -6.758836507797241E-1   7.295422554016113E-1  
 5.560000000000000E7    -7.889819741249085E-1  -6.084141731262207E-1   4.523281939327717E-3   4.847687855362892E-2   4.491356667131186E-3   4.820971190929413E-2  -6.598178148269653E-1   7.443550825119019E-1  
 5.590000000000000E7    -8.088319897651672E-1  -5.832583904266357E-1   5.742584820836783E-3   4.683494940400124E-2   5.713950376957655E-3   4.685105383396149E-2  -6.437189579010010E-1   7.590723633766174E-1  
 5.620000000000000E7    -8.276086449623108E-1  -5.541669130325317E-1   6.570274941623211E-3   4.532372578978539E-2   6.656125653535128E-3   4.513137042522430E-2  -6.279149055480957E-1   7.722256779670715E-1  
 5.650000000000000E7    -8.448927402496338E-1  -5.277420282363892E-1   7.719433866441250E-3   4.367015510797501E-2   7.628471124917269E-3   4.371625185012817E-2  -6.116101145744324E-1   7.848165631294251E-1  
 5.680000000000000E7    -8.626736998558044E-1  -4.991019368171692E-1   8.633874356746674E-3   4.220829159021378E-2   8.656514808535576E-3   4.211718589067459E-2  -5.947147011756897E-1   7.970775961875916E-1  
 5.710000000000000E7    -8.791192173957825E-1  -4.688223302364349E-1   9.492624551057816E-3   4.052223637700081E-2   9.536379016935825E-3   4.055716469883919E-2  -5.796332955360413E-1   8.090654015541077E-1  
 5.740000000000000E7    -8.947877287864685E-1  -4.396562874317169E-1   1.018559560179710E-2   3.910977393388748E-2   1.012390851974487E-2   3.897333145141602E-2  -5.631823539733887E-1   8.207908272743225E-1  
 5.770000000000000E7    -9.077183604240418E-1  -4.105199277400971E-1   1.069291681051254E-2   3.753304108977318E-2   1.068128459155560E-2   3.737810999155045E-2  -5.476999878883362E-1   8.298227190971375E-1  
 5.800000000000000E7    -9.214346408843994E-1  -3.791642487049103E-1   1.144941337406635E-2   3.597500547766686E-2   1.148118916898966E-2   3.573657199740410E-2  -5.319038033485413E-1   8.423533439636231E-1  
 5.830000000000000E7    -9.332413077354431E-1  -3.480185866355896E-1   1.180850062519312E-2   3.416324034333229E-2   1.185061689466238E-2   3.416574001312256E-2  -5.164785981178284E-1   8.512947559356690E-1  
 5.860000000000000E7    -9.457175731658936E-1  -3.175179362297058E-1   1.225583069026470E-2   3.265872970223427E-2   1.221740338951349E-2   3.258095681667328E-2  -5.002590417861939E-1   8.608365058898926E-1  
 5.890000000000000E7    -9.550338387489319E-1  -2.856174111366272E-1   1.256732456386089E-2   3.097312524914742E-2   1.237411331385374E-2   3.098842687904835E-2  -4.846720993518829E-1   8.691331744194031E-1  
 5.920000000000000E7    -9.639294147491455E-1  -2.524071633815765E-1   1.277636736631393E-2   2.927689999341965E-2   1.278171408921480E-2   2.928406931459904E-2  -4.691888093948364E-1   8.789510726928711E-1  
 5.950000000000000E7    -9.717799425125122E-1  -2.207729220390320E-1   1.288737915456295E-2   2.780738100409508E-2   1.286100782454014E-2   2.774904482066631E-2  -4.529480040073395E-1   8.858035802841187E-1  
 5.980000000000000E7    -9.788040518760681E-1  -1.874725073575974E-1   1.299811899662018E-2   2.622070536017418E-2   1.290592458099127E-2   2.603575401008129E-2  -4.372029602527618E-1   8.944416046142578E-1  
 6.010000000000000E7    -9.834108352661133E-1  -1.561044305562973E-1   1.289262529462576E-2   2.464828826487064E-2   1.282655168324709E-2   2.454808726906776E-2  -4.227789044380188E-1   9.016891717910767E-1  
 6.040000000000000E7    -9.885833263397217E-1  -1.213820576667786E-1   1.284095179289579E-2   2.291494980454445E-2   1.282398961484432E-2   2.299025282263756E-2  -4.073206782341003E-1   9.096604585647583E-1  
 6.070000000000000E7    -9.933067560195923E-1  -8.942204713821411E-2   1.270249672234058E-2   2.149852551519871E-2   1.258785929530859E-2   2.146648988127708E-2  -3.922408223152161E-1   9.153904318809509E-1  
 6.100000000000000E7    -9.950543642044067E-1  -5.617740750312805E-2   1.249699294567108E-2   1.991285756230354E-2   1.248395070433617E-2   1.987791247665882E-2  -3.761001229286194E-1   9.230919480323792E-1  
 6.130000000000000E7    -9.968606829643250E-1  -2.197737991809845E-2   1.217392645776272E-2   1.842949166893959E-2   1.212672889232636E-2   1.838909834623337E-2  -3.607537448406220E-1   9.295678734779358E-1  
 6.160000000000000E7    -9.964555501937866E-1   1.051899790763855E-2   1.172321848571301E-2   1.686521992087364E-2   1.175794936716557E-2   1.686909794807434E-2  -3.457764685153961E-1   9.337989687919617E-1  
 6.190000000000000E7    -9.954607486724854E-1   4.414997994899750E-2   1.125816814601421E-2   1.541181560605764E-2   1.125545427203178E-2   1.534805633127689E-2  -3.305699229240418E-1   9.387749433517456E-1  
 6.220000000000000E7    -9.939527511596680E-1   7.707273960113525E-2   1.075313240289688E-2   1.394752133637667E-2   1.074252370744944E-2   1.396944932639599E-2  -3.167351782321930E-1   9.448663592338562E-1  
 6.250000000000000E7    -9.908900856971741E-1   1.104988604784012E-1   1.015238277614117E-2   1.257046218961477E-2   1.014875061810017E-2   1.255695428699255E-2  -3.020265698432922E-1   9.499310255050659E-1  
 6.280000000000000E7    -9.859042763710022E-1   1.435959637165070E-1   9.502805769443512E-3   1.121363788843155E-2   9.437339380383492E-3   1.120834890753031E-2  -2.868633270263672E-1   9.547590017318726E-1  
 6.310000000000000E7    -9.801892638206482E-1   1.774921566247940E-1   8.766585029661655E-3   9.857299737632275E-3   8.737547323107719E-3   9.839763864874840E-3  -2.713528573513031E-1   9.592335820198059E-1  
 6.340000000000000E7    -9.736033082008362E-1   2.102888226509094E-1   7.966886274516583E-3   8.533734828233719E-3   7.908940315246582E-3   8.545191027224064E-3  -2.566168904304504E-1   9.638748764991760E-1  
 6.370000000000000E7    -9.664010405540466E-1   2.425050288438797E-1   7.067229598760605E-3   7.268278859555721E-3   7.070307619869709E-3   7.235940080136061E-3  -2.418806403875351E-1   9.665929079055786E-1  
 6.400000000000000E7    -9.568935036659241E-1   2.746675908565521E-1   6.175429560244083E-3   6.046389229595661E-3   6.164909340441227E-3   6.017920561134815E-3  -2.270566970109940E-1   9.713593721389771E-1  
 6.430000000000000E7    -9.468562602996826E-1   3.079138994216919E-1   5.152945872396231E-3   4.867384210228920E-3   5.175081547349691E-3   4.828854463994503E-3  -2.119951248168945E-1   9.742895960807800E-1  
 6.460000000000000E7    -9.367582798004150E-1   3.396447300910950E-1   4.076542798429728E-3   3.720491193234921E-3   4.101503640413284E-3   3.693368285894394E-3  -1.981709897518158E-1   9.761525392532349E-1  
 6.490000000000000E7    -9.259276390075684E-1   3.710219860076904E-1   2.962178783491254E-3   2.618103288114071E-3   2.947099739685655E-3   2.613338176161051E-3  -1.841148585081101E-1   9.799656271934509E-1  
 6.520000000000000E7    -9.120314121246338E-1   4.013317227363586E-1   1.800953526981175E-3   1.588672865182161E-3   1.771005336195231E-3   1.552374567836523E-3  -1.692105233669281E-1   9.831387996673584E-1  
 6.550000000000000E7    -8.984503149986267E-1   4.315461814403534E-1   5.606313352473080E-4   5.791435833089054E-4   5.281480262055993E-4   6.025440525263548E-4  -1.542655676603317E-1   9.838318824768066E-1  
 6.580000000000000E7    -8.827001452445984E-1   4.620328545570374E-1  -7.534406031481922E-4  -3.592809080146253E-4  -7.543439278379083E-4  -3.737240040209144E-4  -1.403232961893082E-1   9.877839684486389E-1  
 6.610000000000000E7    -8.654140233993530E-1   4.914558529853821E-1  -2.106077969074249E-3  -1.235910458490253E-3  -2.123555634170771E-3  -1.223722589202225E-3  -1.242748051881790E-1   9.887883067131043E-1  
 6.640000000000000E7    -8.502615094184876E-1   5.208207964897156E-1  -3.520796308293939E-3  -2.085626823827624E-3  -3.516560187563300E-3  -2.061936305835843E-3  -1.099984496831894E-1   9.905434846878052E-1  
 6.670000000000000E7    -8.313404321670532E-1   5.489912033081055E-1  -4.983234684914351E-3  -2.844745293259621E-3  -4.978378303349018E-3  -2.846694085747004E-3  -9.704574942588806E-2   9.925937056541443E-1  
 6.700000000000000E7    -8.117334842681885E-1   5.770359635353088E-1  -6.491728592664003E-3  -3.549560206010938E-3  -6.482551805675030E-3  -3.517715260386467E-3  -8.229067921638489E-2   9.926699995994568E-1  
 6.730000000000000E7    -7.917352914810181E-1   6.041914224624634E-1  -8.024873211979866E-3  -4.167764447629452E-3  -8.037193678319454E-3  -4.148112609982491E-3  -6.818321347236633E-2   9.949643015861511E-1  
 6.760000000000000E7    -7.715826034545898E-1   6.307803988456726E-1  -9.705858305096626E-3  -4.731010645627976E-3  -9.642347693443298E-3  -4.745626356452704E-3  -5.335694551467896E-2   9.953646659851074E-1  
 6.790000000000000E7    -7.488691806793213E-1   6.569364070892334E-1  -1.132975425571203E-2  -5.240561440587044E-3  -1.132289599627256E-2  -5.234282929450274E-3  -3.984598070383072E-2   9.955474734306335E-1  
 6.820000000000000E7    -7.259877324104309E-1   6.813889741897583E-1  -1.303646713495255E-2  -5.658952519297600E-3  -1.301516126841307E-2  -5.681447684764862E-3  -2.577025443315506E-2   9.963116049766541E-1  
 6.850000000000000E7    -7.028601765632629E-1   7.065139412879944E-1  -1.482635363936424E-2  -6.073532626032829E-3  -1.478709932416678E-2  -6.048169918358326E-3  -1.244609057903290E-2   9.965676069259644E-1  
 6.880000000000000E7    -6.778522729873657E-1   7.293197512626648E-1  -1.656098477542400E-2  -6.318627391010523E-3  -1.654956303536892E-2  -6.310785654932261E-3   2.433501183986664E-3   9.962392449378967E-1  
 6.910000000000000E7    -6.526642441749573E-1   7.525246143341065E-1  -1.845754124224186E-2  -6.529378704726696E-3  -1.841893233358860E-2  -6.536438129842281E-3   1.680643856525421E-2   9.967030882835388E-1  
 6.940000000000000E7    -6.265777945518494E-1   7.744588851928711E-1  -2.033369243144989E-2  -6.690930575132370E-3  -2.031399495899677E-2  -6.670771632343531E-3   2.975681424140930E-2   9.961187839508057E-1  
 6.970000000000000E7    -5.987968444824219E-1   7.953196167945862E-1  -2.223762683570385E-2  -6.730567663908005E-3  -2.219380065798760E-2  -6.663460750132799E-3   4.404074698686600E-2   9.953622221946716E-1  
 7.000000000000000E7    -5.712149143218994E-1   8.162260651588440E-1  -2.419461868703365E-2  -6.692885421216488E-3  -2.411002665758133E-2  -6.684177089482546E-3   5.768718570470810E-2   9.951702952384949E-1  
