#  HZ   S   RI   R     50.00 
! Rohde & Schwarz ZVT8 8Ports - Version 4.11 - 1300.0000k08 SN: 100242
! Date: 2026-07-31 15:01:46
! Measurements: S11 S21 S12 S22 
! 
 1.000000000000000E7    -4.008889794349670E-1   9.117684960365295E-1   5.204372480511665E-2   5.265903100371361E-2   5.193697661161423E-2   5.279574170708656E-2  -9.195723533630371E-1   3.830258846282959E-1  
 1.030000000000000E7    -3.682290613651276E-1   9.248334765434265E-1   5.562267079949379E-2   5.312762781977654E-2   5.520609393715859E-2   5.299589037895203E-2  -9.134101867675781E-1   3.954936563968658E-1  
 1.060000000000000E7    -3.318559825420380E-1   9.377206563949585E-1   5.904034525156021E-2   5.387947708368301E-2   5.880628526210785E-2   5.377180874347687E-2  -9.103091955184937E-1   4.071261882781982E-1  
 1.090000000000000E7    -2.993298172950745E-1   9.481034874916077E-1   6.233129277825356E-2   5.427246168255806E-2   6.215959042310715E-2   5.426464974880219E-2  -9.043262600898743E-1   4.191688895225525E-1  
 1.120000000000000E7    -2.637309730052948E-1   9.576244354248047E-1   6.618162244558334E-2   5.519320815801621E-2   6.560292840003967E-2   5.479427054524422E-2  -8.989298939704895E-1   4.301666319370270E-1  
 1.150000000000000E7    -2.273927628993988E-1   9.674028754234314E-1   6.958584487438202E-2   5.498602241277695E-2   6.942396610975266E-2   5.505049228668213E-2  -8.917956948280335E-1   4.394924938678742E-1  
 1.180000000000000E7    -1.921065300703049E-1   9.726731777191162E-1   7.327796518802643E-2   5.548874288797379E-2   7.334586977958679E-2   5.513774976134300E-2  -8.872823119163513E-1   4.501157104969025E-1  
 1.210000000000000E7    -1.566577702760696E-1   9.794850945472717E-1   7.754664868116379E-2   5.570948123931885E-2   7.731556892395020E-2   5.539656430482864E-2  -8.800365924835205E-1   4.626108407974243E-1  
 1.240000000000000E7    -1.202003657817841E-1   9.834413528442383E-1   8.148629963397980E-2   5.546583980321884E-2   8.146041631698608E-2   5.505318939685822E-2  -8.737321496009827E-1   4.721385836601257E-1  
 1.270000000000000E7    -8.385821431875229E-2   9.869953393936157E-1   8.613165467977524E-2   5.497296527028084E-2   8.576926589012146E-2   5.487693473696709E-2  -8.669832348823547E-1   4.859173595905304E-1  
 1.300000000000000E7    -4.782205075025559E-2   9.896517395973206E-1   9.024085104465485E-2   5.473013222217560E-2   9.021780639886856E-2   5.479877442121506E-2  -8.594474196434021E-1   4.959855079650879E-1  
 1.330000000000000E7    -1.036250218749046E-2   9.910885691642761E-1   9.487645328044891E-2   5.431934446096420E-2   9.481815248727799E-2   5.382979288697243E-2  -8.523806333541870E-1   5.078746676445007E-1  
 1.360000000000000E7     2.774672210216522E-2   9.903814196586609E-1   9.949416667222977E-2   5.386780574917793E-2   9.978386759757996E-2   5.331265553832054E-2  -8.453786373138428E-1   5.168842673301697E-1  
 1.390000000000000E7     6.395731866359711E-2   9.875413179397583E-1   1.046330630779266E-1   5.255724117159843E-2   1.041338294744492E-1   5.303343757987022E-2  -8.380509614944458E-1   5.284945964813232E-1  
 1.420000000000000E7     1.022085994482040E-1   9.849806427955627E-1   1.092218011617661E-1   5.202967673540115E-2   1.092111468315125E-1   5.186701938509941E-2  -8.319514393806458E-1   5.385687947273254E-1  
 1.450000000000000E7     1.396109312772751E-1   9.782534241676331E-1   1.144861206412315E-1   5.048685893416405E-2   1.144061088562012E-1   5.035786703228951E-2  -8.216003179550171E-1   5.510181784629822E-1  
 1.480000000000000E7     1.786150634288788E-1   9.715803861618042E-1   1.198854595422745E-1   4.893432557582855E-2   1.197311431169510E-1   4.934086650609970E-2  -8.148851990699768E-1   5.615202188491821E-1  
 1.510000000000000E7     2.155734002590179E-1   9.632444977760315E-1   1.251006424427033E-1   4.748500138521195E-2   1.248681470751762E-1   4.743250459432602E-2  -8.041939139366150E-1   5.725014805793762E-1  
 1.540000000000000E7     2.525852024555206E-1   9.535553455352783E-1   1.304236054420471E-1   4.650072380900383E-2   1.304844915866852E-1   4.590651020407677E-2  -7.985911369323731E-1   5.820370912551880E-1  
 1.570000000000000E7     2.910133004188538E-1   9.435412287712097E-1   1.364755928516388E-1   4.391742125153542E-2   1.363929063081741E-1   4.361216351389885E-2  -7.883723974227905E-1   5.942522287368774E-1  
 1.600000000000000E7     3.288322687149048E-1   9.291401505470276E-1   1.421473920345306E-1   4.148401692509651E-2   1.424399763345718E-1   4.116145893931389E-2  -7.801063656806946E-1   6.029157042503357E-1  
 1.630000000000000E7     3.655395507812500E-1   9.143508076667786E-1   1.487076729536057E-1   3.847334161400795E-2   1.483159363269806E-1   3.885509818792343E-2  -7.706829309463501E-1   6.149555444717407E-1  
 1.660000000000000E7     4.022741913795471E-1   8.966113924980164E-1   1.550604552030563E-1   3.563877567648888E-2   1.545943319797516E-1   3.514190018177033E-2  -7.594873309135437E-1   6.258873343467712E-1  
 1.690000000000000E7     4.381153285503388E-1   8.785472512245178E-1   1.614461243152618E-1   3.283270448446274E-2   1.612595170736313E-1   3.239256516098976E-2  -7.503497600555420E-1   6.358565092086792E-1  
 1.720000000000000E7     4.769696891307831E-1   8.590023517608643E-1   1.677301377058029E-1   2.831535041332245E-2   1.675631552934647E-1   2.881650999188423E-2  -7.399529218673706E-1   6.448477506637573E-1  
 1.750000000000000E7     5.080580711364746E-1   8.397408723831177E-1   1.752621084451675E-1   2.580828219652176E-2   1.750513315200806E-1   2.520596981048584E-2  -7.296762466430664E-1   6.570282578468323E-1  
 1.780000000000000E7     5.457552671432495E-1   8.120690584182739E-1   1.812691390514374E-1   2.057007327675819E-2   1.814029067754746E-1   2.087543532252312E-2  -7.182918787002564E-1   6.646890640258789E-1  
 1.810000000000000E7     5.790437459945679E-1   7.878232002258301E-1   1.897334754467011E-1   1.612591557204723E-2   1.884759515523911E-1   1.553892437368631E-2  -7.071364521980286E-1   6.777870059013367E-1  
 1.840000000000000E7     6.146920323371887E-1   7.601796388626099E-1   1.972934901714325E-1   9.635293856263161E-3   1.962706297636032E-1   1.015103422105312E-2  -6.947085261344910E-1   6.869794130325317E-1  
 1.870000000000000E7     6.454477906227112E-1   7.315270304679871E-1   2.048915177583695E-1   4.570230841636658E-3   2.038833647966385E-1   4.284279420971870E-3  -6.824077367782593E-1   6.967374682426453E-1  
 1.900000000000000E7     6.773536801338196E-1   6.999017596244812E-1   2.124972194433212E-1  -1.546174287796021E-3   2.119698077440262E-1  -2.088066190481186E-3  -6.695739030838013E-1   7.061137557029724E-1  
 1.930000000000000E7     7.082443833351135E-1   6.653299927711487E-1   2.202016413211823E-1  -9.902265854179859E-3   2.204304784536362E-1  -8.770102635025978E-3  -6.568753719329834E-1   7.170823216438294E-1  
 1.960000000000000E7     7.386081218719482E-1   6.287216544151306E-1   2.283994406461716E-1  -1.718590781092644E-2   2.285421192646027E-1  -1.661430671811104E-2  -6.451435089111328E-1   7.253135442733765E-1  
 1.990000000000000E7     7.649626731872559E-1   5.911164283752441E-1   2.369806170463562E-1  -2.585032768547535E-2   2.371388822793961E-1  -2.568153105676174E-2  -6.284106969833374E-1   7.370189428329468E-1  
 2.020000000000000E7     7.914672493934631E-1   5.503448247909546E-1   2.459261566400528E-1  -3.479645028710365E-2   2.449100464582443E-1  -3.463782370090485E-2  -6.148823499679565E-1   7.432743906974793E-1  
 2.050000000000000E7     8.181847929954529E-1   5.069087147712708E-1   2.546405792236328E-1  -4.461299628019333E-2   2.528744935989380E-1  -4.487733542919159E-2  -6.002930402755737E-1   7.523546218872070E-1  
 2.080000000000000E7     8.403617143630981E-1   4.606277644634247E-1   2.637097537517548E-1  -5.625548213720322E-2   2.635971307754517E-1  -5.596326664090157E-2  -5.850870609283447E-1   7.624045610427856E-1  
 2.110000000000000E7     8.621441721916199E-1   4.124909341335297E-1   2.730157375335693E-1  -6.953985989093781E-2   2.727290987968445E-1  -6.937199831008911E-2  -5.677395462989807E-1   7.702255249023438E-1  
 2.140000000000000E7     8.806610107421875E-1   3.622759580612183E-1   2.824896872043610E-1  -8.363196253776550E-2   2.809498906135559E-1  -8.222702145576477E-2  -5.511683821678162E-1   7.774558067321777E-1  
 2.170000000000000E7     8.953872919082642E-1   3.100267946720123E-1   2.916035950183868E-1  -9.814320504665375E-2   2.912012040615082E-1  -9.713892638683319E-2  -5.338747501373291E-1   7.848157882690430E-1  
 2.200000000000000E7     9.087868928909302E-1   2.518469393253326E-1   3.000771999359131E-1  -1.151906177401543E-1   3.000438809394836E-1  -1.146515309810638E-1  -5.138714313507080E-1   7.911505103111267E-1  
 2.230000000000000E7     9.167937040328980E-1   1.929255872964859E-1   3.090460896492004E-1  -1.336944550275803E-1   3.086334168910980E-1  -1.325876414775848E-1  -4.951202571392059E-1   7.968214154243469E-1  
 2.260000000000000E7     9.219036102294922E-1   1.309437006711960E-1   3.171474933624268E-1  -1.539040803909302E-1   3.187576532363892E-1  -1.539802253246307E-1  -4.754650592803955E-1   8.014594912528992E-1  
 2.290000000000000E7     9.219172000885010E-1   6.556714326143265E-2   3.253571391105652E-1  -1.766414493322372E-1   3.263463377952576E-1  -1.760054826736450E-1  -4.528641700744629E-1   8.052653670310974E-1  
 2.320000000000000E7     9.156796932220459E-1  -1.604363322257996E-3   3.334593772888184E-1  -2.026256173849106E-1   3.323645591735840E-1  -2.024704664945602E-1  -4.318851828575134E-1   8.104632496833801E-1  
 2.350000000000000E7     9.033360481262207E-1  -7.314690947532654E-2   3.396132588386536E-1  -2.315091937780380E-1   3.391350507736206E-1  -2.299137711524963E-1  -4.096376299858093E-1   8.115671277046204E-1  
 2.380000000000000E7     8.840724229812622E-1  -1.453765332698822E-1   3.443434834480286E-1  -2.611057758331299E-1   3.446348905563355E-1  -2.608363032341003E-1  -3.861164450645447E-1   8.118483424186707E-1  
 2.410000000000000E7     8.558173179626465E-1  -2.211542278528214E-1   3.463053703308106E-1  -2.962537407875061E-1   3.459229767322540E-1  -2.950659096240997E-1  -3.610418736934662E-1   8.096312284469605E-1  
 2.440000000000000E7     8.170541524887085E-1  -2.961383759975433E-1   3.467234075069428E-1  -3.349381685256958E-1   3.462074697017670E-1  -3.347322940826416E-1  -3.373409807682037E-1   8.052720427513123E-1  
 2.470000000000000E7     7.677882313728333E-1  -3.714739084243774E-1   3.425889909267426E-1  -3.769871890544891E-1   3.430455327033997E-1  -3.744678199291229E-1  -3.104380667209625E-1   7.977766394615173E-1  
 2.500000000000000E7     7.055713534355164E-1  -4.468612074851990E-1   3.336257338523865E-1  -4.214091598987579E-1   3.332147598266602E-1  -4.217289686203003E-1  -2.850260734558106E-1   7.892730236053467E-1  
 2.530000000000000E7     6.279243826866150E-1  -5.174425840377808E-1   3.201992213726044E-1  -4.705609381198883E-1   3.200905025005341E-1  -4.699514210224152E-1  -2.597630321979523E-1   7.746474742889404E-1  
 2.560000000000000E7     5.357225537300110E-1  -5.804484486579895E-1   2.979508340358734E-1  -5.222159624099731E-1   2.983709275722504E-1  -5.229758024215698E-1  -2.362273037433624E-1   7.571247816085815E-1  
 2.590000000000000E7     4.267943501472473E-1  -6.295760273933411E-1   2.654480338096619E-1  -5.777708292007446E-1   2.662821710109711E-1  -5.774407982826233E-1  -2.137555927038193E-1   7.378932833671570E-1  
 2.620000000000000E7     3.006152212619782E-1  -6.638734340667725E-1   2.220160514116287E-1  -6.332152485847473E-1   2.228489369153976E-1  -6.316137313842773E-1  -1.927621513605118E-1   7.116945981979370E-1  
 2.650000000000000E7     1.602993458509445E-1  -6.773882508277893E-1   1.676240563392639E-1  -6.847081184387207E-1   1.667173802852631E-1  -6.854029297828674E-1  -1.797722876071930E-1   6.805831789970398E-1  
 2.680000000000000E7     9.891720488667488E-3  -6.592485308647156E-1   9.795317798852921E-2  -7.318944931030273E-1   9.637799113988876E-2  -7.310966253280640E-1  -1.729480922222138E-1   6.465365290641785E-1  
 2.710000000000000E7    -1.397961527109146E-1  -6.067935824394226E-1   1.314172521233559E-2  -7.663040757179260E-1   1.396350935101509E-2  -7.653870582580566E-1  -1.719152182340622E-1   6.134529113769531E-1  
 2.740000000000000E7    -2.862630486488342E-1  -5.174042582511902E-1  -7.967507094144821E-2  -7.872751951217651E-1  -8.240010589361191E-2  -7.853704094886780E-1  -1.832121461629868E-1   5.764284729957581E-1  
 2.770000000000000E7    -4.074804782867432E-1  -3.928543627262116E-1  -1.826061606407166E-1  -7.872712016105652E-1  -1.831204146146774E-1  -7.862890958786011E-1  -2.016331553459168E-1   5.462871193885803E-1  
 2.800000000000000E7    -5.018898844718933E-1  -2.381975054740906E-1  -2.863296866416931E-1  -7.658271789550781E-1  -2.859887480735779E-1  -7.657397389411926E-1  -2.292600870132446E-1   5.185946822166443E-1  
 2.830000000000000E7    -5.524038076400757E-1  -6.467376649379730E-2  -3.812890648841858E-1  -7.220840454101563E-1  -3.808639049530029E-1  -7.216586470603943E-1  -2.613548636436462E-1   5.056881308555603E-1  
 2.860000000000000E7    -5.574182271957398E-1   1.152910590171814E-1  -4.648807048797607E-1  -6.600280404090881E-1  -4.668067693710327E-1  -6.586812734603882E-1  -2.967206835746765E-1   5.002657771110535E-1  
 2.890000000000000E7    -5.205424427986145E-1   2.840724587440491E-1  -5.331714153289795E-1  -5.845693945884705E-1  -5.319653749465942E-1  -5.830054283142090E-1  -3.320432007312775E-1   5.057554841041565E-1  
 2.920000000000000E7    -4.499147236347199E-1   4.369512200355530E-1  -5.796527862548828E-1  -5.016456842422485E-1  -5.798901915550232E-1  -4.995997250080109E-1  -3.641279935836792E-1   5.198990106582642E-1  
 2.950000000000000E7    -3.507823944091797E-1   5.586655139923096E-1  -6.097015738487244E-1  -4.155616462230682E-1  -6.091664433479309E-1  -4.147754311561585E-1  -3.905168771743774E-1   5.440967679023743E-1  
 2.980000000000000E7    -2.387265563011169E-1   6.542941331863403E-1  -6.211591958999634E-1  -3.333881497383118E-1  -6.210875511169434E-1  -3.327948153018951E-1  -4.102115631103516E-1   5.723713636398315E-1  
 3.010000000000000E7    -1.176163181662560E-1   7.194810509681702E-1  -6.214979887008667E-1  -2.559940516948700E-1  -6.200623512268066E-1  -2.558848559856415E-1  -4.231866598129273E-1   6.030380129814148E-1  
 3.040000000000000E7     3.759659826755524E-3   7.585958838462830E-1  -6.088761091232300E-1  -1.897999942302704E-1  -6.083176732063294E-1  -1.885484158992767E-1  -4.270808994770050E-1   6.355175971984863E-1  
 3.070000000000000E7     1.216802746057510E-1   7.771719694137573E-1  -5.920008420944214E-1  -1.270272731781006E-1  -5.908064842224121E-1  -1.282855868339539E-1  -4.270321726799011E-1   6.662719845771790E-1  
 3.100000000000000E7     2.310042679309845E-1   7.766690850257874E-1  -5.695449709892273E-1  -7.588362693786621E-2  -5.685150027275085E-1  -7.514804601669312E-2  -4.221552908420563E-1   6.970652341842651E-1  
 3.130000000000000E7     3.306759893894196E-1   7.619044184684753E-1  -5.422793626785278E-1  -3.046640567481518E-2  -5.414232015609741E-1  -3.164120018482208E-2  -4.124604761600494E-1   7.265316247940064E-1  
 3.160000000000000E7     4.234436750411987E-1   7.365330457687378E-1  -5.157440304756165E-1   6.427507381886244E-3  -5.152789354324341E-1   5.805960856378079E-3  -3.998861312866211E-1   7.541633248329163E-1  
 3.190000000000000E7     5.047715306282044E-1   7.032554149627686E-1  -4.871652722358704E-1   3.842388838529587E-2  -4.861104488372803E-1   3.852277994155884E-2  -3.843901753425598E-1   7.795549035072327E-1  
 3.220000000000000E7     5.788082480430603E-1   6.639386415481567E-1  -4.586887061595917E-1   6.432808190584183E-2  -4.581227302551270E-1   6.501067429780960E-2  -3.672390878200531E-1   8.021717667579651E-1  
 3.250000000000000E7     6.433313488960266E-1   6.192258596420288E-1  -4.318197369575501E-1   8.671197295188904E-2  -4.317171871662140E-1   8.706981688737869E-2  -3.475225269794464E-1   8.254285454750061E-1  
 3.280000000000000E7     6.998703479766846E-1   5.695388913154602E-1  -4.054871797561646E-1   1.054017171263695E-1  -4.035224318504334E-1   1.061305850744247E-1  -3.261376023292542E-1   8.448651432991028E-1  
 3.310000000000000E7     7.491329312324524E-1   5.207358002662659E-1  -3.785453736782074E-1   1.209156066179276E-1  -3.781891465187073E-1   1.212356686592102E-1  -3.018765151500702E-1   8.632104396820068E-1  
 3.340000000000000E7     7.923798561096191E-1   4.697698354721069E-1  -3.546606302261353E-1   1.346065700054169E-1  -3.534395396709442E-1   1.339329630136490E-1  -2.776514887809753E-1   8.788806200027466E-1  
 3.370000000000000E7     8.287529945373535E-1   4.165111780166626E-1  -3.303385972976685E-1   1.441248804330826E-1  -3.299830555915833E-1   1.437575966119766E-1  -2.534547448158264E-1   8.951124548912048E-1  
 3.400000000000000E7     8.604327440261841E-1   3.640337586402893E-1  -3.082327842712402E-1   1.529557853937149E-1  -3.080988228321075E-1   1.522610634565353E-1  -2.264095246791840E-1   9.071243405342102E-1  
 3.430000000000000E7     8.873807191848755E-1   3.115372359752655E-1  -2.868898808956146E-1   1.600117385387421E-1  -2.864101529121399E-1   1.593410074710846E-1  -1.998075544834137E-1   9.192029237747192E-1  
 3.460000000000000E7     9.096476435661316E-1   2.581132054328919E-1  -2.669759392738342E-1   1.653906702995300E-1  -2.671922743320465E-1   1.646975278854370E-1  -1.713424324989319E-1   9.308733940124512E-1  
 3.490000000000000E7     9.274831414222717E-1   2.058243751525879E-1  -2.470834851264954E-1   1.701619178056717E-1  -2.470045387744904E-1   1.691715419292450E-1  -1.438020318746567E-1   9.382683634757996E-1  
 3.520000000000000E7     9.421238303184509E-1   1.544490158557892E-1  -2.295115292072296E-1   1.722357273101807E-1  -2.296000570058823E-1   1.720343083143234E-1  -1.131865084171295E-1   9.482587575912476E-1  
 3.550000000000000E7     9.516954421997070E-1   1.016759425401688E-1  -2.127546072006226E-1   1.739754378795624E-1  -2.125749439001083E-1   1.737642437219620E-1  -8.411215990781784E-2   9.553982019424439E-1  
 3.580000000000000E7     9.596359133720398E-1   5.235034227371216E-2  -1.957929581403732E-1   1.749666035175324E-1  -1.956831812858582E-1   1.746650934219360E-1  -5.257246643304825E-2   9.594275951385498E-1  
 3.610000000000000E7     9.648524522781372E-1   3.012821078300476E-3  -1.809414923191071E-1   1.764837503433228E-1  -1.800343990325928E-1   1.756227463483810E-1  -1.909468322992325E-2   9.653390049934387E-1  
 3.640000000000000E7     9.664201140403748E-1  -4.610927402973175E-2  -1.658334285020828E-1   1.753048598766327E-1  -1.657093763351440E-1   1.745954900979996E-1   1.182079315185547E-2   9.676015377044678E-1  
 3.670000000000000E7     9.660455584526062E-1  -9.242798388004303E-2  -1.521209478378296E-1   1.744100302457809E-1  -1.514629274606705E-1   1.737975627183914E-1   4.474294185638428E-2   9.695784449577332E-1  
 3.700000000000000E7     9.624055624008179E-1  -1.390219479799271E-1  -1.382301598787308E-1   1.726813763380051E-1  -1.378705650568008E-1   1.723509877920151E-1   8.091092109680176E-2   9.690521359443665E-1  
 3.730000000000000E7     9.568239450454712E-1  -1.851833760738373E-1  -1.250646263360977E-1   1.698932200670242E-1  -1.253321170806885E-1   1.698955446481705E-1   1.129304170608521E-1   9.665893912315369E-1  
 3.760000000000000E7     9.487055540084839E-1  -2.276996821165085E-1  -1.126241087913513E-1   1.676174104213715E-1  -1.128520891070366E-1   1.676806956529617E-1   1.508523374795914E-1   9.643000364303589E-1  
 3.790000000000000E7     9.393069744110107E-1  -2.715232968330383E-1  -1.011389270424843E-1   1.649003475904465E-1  -1.008671522140503E-1   1.646262854337692E-1   1.873679757118225E-1   9.586498737335205E-1  
 3.820000000000000E7     9.286770820617676E-1  -3.143716752529144E-1  -9.004034847021103E-2   1.616047024726868E-1  -9.024152159690857E-2   1.610227227210999E-1   2.231065034866333E-1   9.528093338012695E-1  
 3.850000000000000E7     9.147766232490540E-1  -3.556069135665894E-1  -7.979367673397064E-2   1.574731022119522E-1  -7.915888726711273E-2   1.573587208986282E-1   2.617660462856293E-1   9.465012550354004E-1  
 3.880000000000000E7     9.000300168991089E-1  -3.950728476047516E-1  -6.873416900634766E-2   1.532985121011734E-1  -6.897559016942978E-2   1.527685225009918E-1   3.024592399597168E-1   9.347456097602844E-1  
 3.910000000000000E7     8.840878009796143E-1  -4.345202744007111E-1  -5.972267687320709E-2   1.485218852758408E-1  -5.938485637307167E-2   1.486033201217651E-1   3.428330123424530E-1   9.227688312530518E-1  
 3.940000000000000E7     8.654651045799255E-1  -4.702299535274506E-1  -5.065824836492539E-2   1.434433311223984E-1  -5.055150389671326E-2   1.429691314697266E-1   3.820747137069702E-1   9.070568084716797E-1  
 3.970000000000000E7     8.471432328224182E-1  -5.070508718490601E-1  -4.247301816940308E-2   1.379146426916122E-1  -4.241371527314186E-2   1.376650184392929E-1   4.219164848327637E-1   8.893401622772217E-1  
 4.000000000000000E7     8.256105184555054E-1  -5.418485403060913E-1  -3.419388830661774E-2   1.320256739854813E-1  -3.398919105529785E-2   1.320446282625198E-1   4.658795893192291E-1   8.699352741241455E-1  
 4.030000000000000E7     8.046231269836426E-1  -5.756360888481140E-1  -2.640842646360397E-2   1.262945532798767E-1  -2.637923695147038E-2   1.258072853088379E-1   5.071890950202942E-1   8.478257060050964E-1  
 4.060000000000000E7     7.814990282058716E-1  -6.080149412155151E-1  -1.971365511417389E-2   1.194339543581009E-1  -1.980605162680149E-2   1.191845759749413E-1   5.495236515998840E-1   8.212229013442993E-1  
 4.090000000000000E7     7.572283148765564E-1  -6.397635340690613E-1  -1.348668430000544E-2   1.124688908457756E-1  -1.324106007814407E-2   1.123263239860535E-1   5.910950899124146E-1   7.923707962036133E-1  
 4.120000000000000E7     7.321791648864746E-1  -6.701491475105286E-1  -7.886358536779881E-3   1.056351959705353E-1  -7.855691947042942E-3   1.051553562283516E-1   6.347701549530029E-1   7.593178749084473E-1  
 4.150000000000000E7     7.062427401542664E-1  -6.974940299987793E-1  -2.200630726292729E-3   9.797867387533188E-2  -2.717051189392805E-3   9.765143692493439E-2   6.773578524589539E-1   7.215009927749634E-1  
 4.180000000000000E7     6.785326600074768E-1  -7.261338233947754E-1   2.357754390686750E-3   9.017280489206314E-2   2.262799069285393E-3   8.985419571399689E-2   7.198630571365356E-1   6.815589070320129E-1  
 4.210000000000000E7     6.504903435707092E-1  -7.523899078369141E-1   6.337226368486881E-3   8.196442574262619E-2   6.099442951381207E-3   8.194440603256226E-2   7.616847157478333E-1   6.339219808578491E-1  
 4.240000000000000E7     6.212784647941589E-1  -7.760310769081116E-1   9.355776011943817E-3   7.372924685478210E-2   9.386166930198669E-3   7.363142073154450E-2   8.022416830062866E-1   5.833898186683655E-1  
 4.270000000000000E7     5.911217927932739E-1  -8.000286817550659E-1   1.180348917841911E-2   6.515188515186310E-2   1.189260184764862E-2   6.506600975990295E-2   8.406000137329102E-1   5.278108716011047E-1  
 4.300000000000000E7     5.601446032524109E-1  -8.233114480972290E-1   1.353506743907929E-2   5.647253990173340E-2   1.331879943609238E-2   5.641393363475800E-2   8.757675290107727E-1   4.670296311378479E-1  
 4.330000000000000E7     5.310694575309753E-1  -8.441489934921265E-1   1.391916535794735E-2   4.770845174789429E-2   1.404773071408272E-2   4.774349927902222E-2   9.077977538108826E-1   4.001951813697815E-1  
 4.360000000000000E7     4.973949790000916E-1  -8.634983897209168E-1   1.388542726635933E-2   3.904850408434868E-2   1.370513252913952E-2   3.893660753965378E-2   9.364641904830933E-1   3.296331465244293E-1  
 4.390000000000000E7     4.646321237087250E-1  -8.833262920379639E-1   1.272248383611441E-2   3.016413375735283E-2   1.270132511854172E-2   3.028972633183003E-2   9.602484703063965E-1   2.517722249031067E-1  
 4.420000000000000E7     4.315974712371826E-1  -8.988701105117798E-1   1.044945046305656E-2   2.173145674169064E-2   1.045098900794983E-2   2.167254313826561E-2   9.781659245491028E-1   1.699781715869904E-1  
 4.450000000000000E7     3.976561725139618E-1  -9.145044684410095E-1   7.325760088860989E-3   1.334743294864893E-2   7.247609086334705E-3   1.331667881458998E-2   9.907067418098450E-1   8.380195498466492E-2  
 4.480000000000000E7     3.637481331825256E-1  -9.287779331207275E-1   3.098831977695227E-3   5.508198402822018E-3   3.054937347769737E-3   5.469442810863257E-3   9.936676025390625E-1  -7.778853178024292E-3  
 4.510000000000000E7     3.303174078464508E-1  -9.419627189636231E-1  -2.251958241686225E-3  -1.837073359638453E-3  -2.254574093967676E-3  -1.805045409128070E-3   9.870081543922424E-1  -1.034291237592697E-1  
 4.540000000000000E7     2.951536774635315E-1  -9.531509876251221E-1  -8.395326323807240E-3  -8.383189328014851E-3  -8.400202728807926E-3  -8.465770632028580E-3   9.716970920562744E-1  -2.002777159214020E-1  
 4.570000000000000E7     2.598530650138855E-1  -9.630901813507080E-1  -1.556792948395014E-2  -1.409397833049297E-2  -1.553936488926411E-2  -1.414688024669886E-2   9.458785653114319E-1  -2.989831268787384E-1  
 4.600000000000000E7     2.270793467760086E-1  -9.710291028022766E-1  -2.362567000091076E-2  -1.880008354783058E-2  -2.362044714391232E-2  -1.890888065099716E-2   9.096444249153137E-1  -3.975227177143097E-1  
 4.630000000000000E7     1.891434937715530E-1  -9.791318774223328E-1  -3.221463039517403E-2  -2.223807200789452E-2  -3.223238885402679E-2  -2.221233956515789E-2   8.595920205116272E-1  -4.940816760063171E-1  
 4.660000000000000E7     1.533983200788498E-1  -9.859760999679565E-1  -4.118303582072258E-2  -2.451282180845738E-2  -4.122224822640419E-2  -2.447335422039032E-2   7.991850376129150E-1  -5.847811698913574E-1  
 4.690000000000000E7     1.187733709812164E-1  -9.893618226051331E-1  -5.076858401298523E-2  -2.526322193443775E-2  -5.047193914651871E-2  -2.522705867886543E-2   7.263250350952148E-1  -6.726027727127075E-1  
 4.720000000000000E7     8.291907608509064E-2  -9.918475151062012E-1  -6.015239655971527E-2  -2.459130808711052E-2  -6.010979413986206E-2  -2.456267736852169E-2   6.445523500442505E-1  -7.509631514549255E-1  
 4.750000000000000E7     4.826153814792633E-2  -9.944241642951965E-1  -6.930894404649735E-2  -2.252914011478424E-2  -6.914384663105011E-2  -2.247337996959686E-2   5.511942505836487E-1  -8.208224773406982E-1  
 4.780000000000000E7     1.387396454811096E-2  -9.946998953819275E-1  -7.833229750394821E-2  -1.929589733481407E-2  -7.816006988286972E-2  -1.909648627042770E-2   4.537467360496521E-1  -8.792399168014526E-1  
 4.810000000000000E7    -2.145124226808548E-2  -9.937923550605774E-1  -8.665166050195694E-2  -1.427755691111088E-2  -8.631414920091629E-2  -1.428886502981186E-2   3.460385501384735E-1  -9.249105453491211E-1  
 4.840000000000000E7    -5.570294708013535E-2  -9.923780560493469E-1  -9.400597214698792E-2  -8.457973599433899E-3  -9.366164356470108E-2  -8.177835494279862E-3   2.368624210357666E-1  -9.578343033790588E-1  
 4.870000000000000E7    -9.071847796440125E-2  -9.889900684356690E-1  -1.001594811677933E-1  -1.422059722244740E-3  -1.001445055007935E-1  -1.495653763413429E-3   1.257956176996231E-1  -9.782441258430481E-1  
 4.900000000000000E7    -1.250624954700470E-1  -9.853209257125855E-1  -1.054471060633659E-1   6.001574918627739E-3  -1.052952408790588E-1   6.361919920891523E-3   1.443123258650303E-2  -9.864962697029114E-1  
 4.930000000000000E7    -1.592150181531906E-1  -9.795392155647278E-1  -1.096154898405075E-1   1.440667267888784E-2  -1.096855551004410E-1   1.432537753134966E-2  -9.408392012119293E-2  -9.824309349060059E-1  
 4.960000000000000E7    -1.919191330671310E-1  -9.714561700820923E-1  -1.123404949903488E-1   2.297947183251381E-2  -1.119776144623756E-1   2.313643321394920E-2  -1.995603442192078E-1  -9.655866026878357E-1  
 4.990000000000000E7    -2.244842350482941E-1  -9.644654989242554E-1  -1.140832379460335E-1   3.142684325575829E-2  -1.137073338031769E-1   3.146958351135254E-2  -2.974007725715637E-1  -9.398662447929382E-1  
 5.020000000000000E7    -2.564840316772461E-1  -9.571262598037720E-1  -1.145370826125145E-1   4.011089354753494E-2  -1.148121729493141E-1   4.013116657733917E-2  -3.925844430923462E-1  -9.046949744224548E-1  
 5.050000000000000E7    -2.896315455436707E-1  -9.469713568687439E-1  -1.141857281327248E-1   4.869300872087479E-2  -1.137700825929642E-1   4.849558696150780E-2  -4.771704375743866E-1  -8.620173931121826E-1  
 5.080000000000000E7    -3.208871483802795E-1  -9.369282126426697E-1  -1.124166026711464E-1   5.669175088405609E-2  -1.126238033175468E-1   5.673398450016975E-2  -5.584282279014587E-1  -8.121293783187866E-1  
 5.110000000000000E7    -3.528721332550049E-1  -9.247509241104126E-1  -1.102535724639893E-1   6.452354788780212E-2  -1.099787950515747E-1   6.434880197048187E-2  -6.282420754432678E-1  -7.581166028976440E-1  
 5.140000000000000E7    -3.836816549301148E-1  -9.117153286933899E-1  -1.070627868175507E-1   7.171407341957092E-2  -1.070025190711021E-1   7.163375616073608E-2  -6.919604539871216E-1  -7.024433612823486E-1  
 5.170000000000000E7    -4.134806990623474E-1  -8.985241651535034E-1  -1.036614179611206E-1   7.818382233381271E-2  -1.033687144517899E-1   7.811377942562103E-2  -7.474690675735474E-1  -6.424987316131592E-1  
 5.200000000000000E7    -4.442585706710815E-1  -8.852608799934387E-1  -9.911030530929565E-2   8.459405601024628E-2  -9.944181144237518E-2   8.440075069665909E-2  -7.975592017173767E-1  -5.788018703460693E-1  
 5.230000000000000E7    -4.733493924140930E-1  -8.686156868934631E-1  -9.452088177204132E-2   8.965337276458740E-2  -9.444205462932587E-2   8.958978950977325E-2  -8.376049399375916E-1  -5.174237489700317E-1  
 5.260000000000000E7    -5.015082955360413E-1  -8.511942625045776E-1  -8.968268334865570E-2   9.453036636114121E-2  -8.947193622589111E-2   9.457485377788544E-2  -8.741690516471863E-1  -4.550083875656128E-1  
 5.290000000000000E7    -5.309215188026428E-1  -8.343912959098816E-1  -8.430226147174835E-2   9.918641299009323E-2  -8.425487577915192E-2   9.876966476440430E-2  -9.041082859039307E-1  -3.934533298015595E-1  
 5.320000000000000E7    -5.582077503204346E-1  -8.171353936195374E-1  -7.897929847240448E-2   1.025725528597832E-1  -7.907940447330475E-2   1.027040183544159E-1  -9.289516806602478E-1  -3.332374095916748E-1  
 5.350000000000000E7    -5.842136740684509E-1  -7.977625131607056E-1  -7.352997362613678E-2   1.053545922040939E-1  -7.355193793773651E-2   1.052651032805443E-1  -9.457403421401978E-1  -2.744144499301910E-1  
 5.380000000000000E7    -6.096700429916382E-1  -7.778336405754089E-1  -6.821644306182861E-2   1.080500707030296E-1  -6.798461079597473E-2   1.078870072960854E-1  -9.618955850601196E-1  -2.153604626655579E-1  
 5.410000000000000E7    -6.380693316459656E-1  -7.574268579483032E-1  -6.260301172733307E-2   1.104847267270088E-1  -6.250378489494324E-2   1.104655265808106E-1  -9.743278622627258E-1  -1.604329794645309E-1  
 5.440000000000000E7    -6.623595356941223E-1  -7.348316907882690E-1  -5.723829567432404E-2   1.121693477034569E-1  -5.712980031967163E-2   1.120498180389404E-1  -9.810548424720764E-1  -1.059229448437691E-1  
 5.470000000000000E7    -6.853944659233093E-1  -7.135733366012573E-1  -5.171071738004684E-2   1.134808734059334E-1  -5.178979784250259E-2   1.135024279356003E-1  -9.855310916900635E-1  -5.382110178470612E-2  
 5.500000000000000E7    -7.099623680114746E-1  -6.898017525672913E-1  -4.671623930335045E-2   1.144141182303429E-1  -4.666627943515778E-2   1.141262426972389E-1  -9.874902367591858E-1  -3.861680626869202E-3  
 5.530000000000000E7    -7.326183319091797E-1  -6.661392450332642E-1  -4.158786684274674E-2   1.148310303688049E-1  -4.118204116821289E-2   1.150080487132072E-1  -9.862812757492065E-1   4.446813464164734E-2  
 5.560000000000000E7    -7.552453279495239E-1  -6.403936147689819E-1  -3.623512387275696E-2   1.154526397585869E-1  -3.635217249393463E-2   1.149746775627136E-1  -9.831226468086243E-1   9.053038060665131E-2  
 5.590000000000000E7    -7.760370969772339E-1  -6.161158084869385E-1  -3.147204220294952E-2   1.153661832213402E-1  -3.136086463928223E-2   1.152365654706955E-1  -9.789546728134155E-1   1.351843774318695E-1  
 5.620000000000000E7    -7.964400053024292E-1  -5.881436467170715E-1  -2.679301425814629E-2   1.149095818400383E-1  -2.663699537515640E-2   1.144922599196434E-1  -9.721283912658691E-1   1.771095395088196E-1  
 5.650000000000000E7    -8.147963881492615E-1  -5.628306865692139E-1  -2.196463011205196E-2   1.141925156116486E-1  -2.211595326662064E-2   1.141005530953407E-1  -9.635678529739380E-1   2.177627384662628E-1  
 5.680000000000000E7    -8.338428139686585E-1  -5.354005694389343E-1  -1.758580468595028E-2   1.136163622140884E-1  -1.734425686299801E-2   1.134404987096787E-1  -9.545381069183350E-1   2.573626041412354E-1  
 5.710000000000000E7    -8.515802621841431E-1  -5.064019560813904E-1  -1.315201073884964E-2   1.125232279300690E-1  -1.307185739278793E-2   1.125745847821236E-1  -9.443460702896118E-1   2.926979660987854E-1  
 5.740000000000000E7    -8.687316775321960E-1  -4.777568578720093E-1  -8.989196270704269E-3   1.115035936236382E-1  -9.208474308252335E-3   1.114368885755539E-1  -9.334004521369934E-1   3.287331163883209E-1  
 5.770000000000000E7    -8.829501271247864E-1  -4.497171640396118E-1  -5.469232331961393E-3   1.100357845425606E-1  -5.568455904722214E-3   1.098058968782425E-1  -9.198955297470093E-1   3.610025048255920E-1  
 5.800000000000000E7    -8.980851769447327E-1  -4.188331961631775E-1  -1.515262061730027E-3   1.088824644684792E-1  -1.280331867747009E-3   1.083050444722176E-1  -9.081845283508301E-1   3.938611149787903E-1  
 5.830000000000000E7    -9.118685126304627E-1  -3.886414468288422E-1   2.205717377364636E-3   1.069569438695908E-1   2.159563591703773E-3   1.068532839417458E-1  -8.940923213958740E-1   4.242255985736847E-1  
 5.860000000000000E7    -9.252983927726746E-1  -3.586595654487610E-1   5.648548714816570E-3   1.052928343415260E-1   5.683576688170433E-3   1.052722260355949E-1  -8.799895644187927E-1   4.538403451442719E-1  
 5.890000000000000E7    -9.359284639358521E-1  -3.273874521255493E-1   8.776406757533550E-3   1.034058779478073E-1   8.737780153751373E-3   1.033845916390419E-1  -8.646780848503113E-1   4.817305803298950E-1  
 5.920000000000000E7    -9.467173814773560E-1  -2.951237261295319E-1   1.217863708734512E-2   1.014732569456101E-1   1.239771395921707E-2   1.011782214045525E-1  -8.504829406738281E-1   5.084067583084106E-1  
 5.950000000000000E7    -9.559225440025330E-1  -2.637712657451630E-1   1.511433813720942E-2   9.933846443891525E-2   1.504935510456562E-2   9.915409982204437E-2  -8.333007693290710E-1   5.338447690010071E-1  
 5.980000000000000E7    -9.645401239395142E-1  -2.310402542352676E-1   1.806697249412537E-2   9.738787263631821E-2   1.786778680980206E-2   9.702187776565552E-2  -8.183284997940064E-1   5.589305162429810E-1  
 6.010000000000000E7    -9.707788825035095E-1  -1.999195963144302E-1   2.035210654139519E-2   9.512188285589218E-2   2.027820050716400E-2   9.487962722778320E-2  -8.024955391883850E-1   5.811361670494080E-1  
 6.040000000000000E7    -9.774916768074036E-1  -1.659774482250214E-1   2.297031693160534E-2   9.274486452341080E-2   2.301941066980362E-2   9.279887378215790E-2  -7.863954305648804E-1   6.042414903640747E-1  
 6.070000000000000E7    -9.840763807296753E-1  -1.344585865736008E-1   2.526887506246567E-2   9.058777987957001E-2   2.520270831882954E-2   9.052449464797974E-2  -7.697276473045349E-1   6.243188381195068E-1  
 6.100000000000000E7    -9.872772693634033E-1  -1.018408685922623E-1   2.769538760185242E-2   8.842474222183228E-2   2.751184068620205E-2   8.811920136213303E-2  -7.531531453132629E-1   6.459677815437317E-1  
 6.130000000000000E7    -9.907609224319458E-1  -6.744842231273651E-2   2.975364029407501E-2   8.590970933437347E-2   2.966884337365627E-2   8.582373708486557E-2  -7.362302541732788E-1   6.653119325637817E-1  
 6.160000000000000E7    -9.919508695602417E-1  -3.493954241275787E-2   3.161261230707169E-2   8.325523138046265E-2   3.164489567279816E-2   8.322628587484360E-2  -7.187265753746033E-1   6.833726167678833E-1  
 6.190000000000000E7    -9.925925731658936E-1  -1.902535557746887E-3   3.322906047105789E-2   8.085948228836060E-2   3.332468122243881E-2   8.042683452367783E-2  -7.010220289230347E-1   7.009330987930298E-1  
 6.220000000000000E7    -9.928247928619385E-1   3.131231665611267E-2   3.500059247016907E-2   7.824987918138504E-2   3.493821620941162E-2   7.841783016920090E-2  -6.853771209716797E-1   7.171429395675659E-1  
 6.250000000000000E7    -9.914786219596863E-1   6.472884118556976E-2   3.634711354970932E-2   7.605912536382675E-2   3.641834110021591E-2   7.582622021436691E-2  -6.689822077751160E-1   7.333548665046692E-1  
 6.280000000000000E7    -9.878819584846497E-1   9.786649048328400E-2   3.778321295976639E-2   7.350132614374161E-2   3.752471879124641E-2   7.355578243732452E-2  -6.515560150146484E-1   7.485284805297852E-1  
 6.310000000000000E7    -9.840909838676453E-1   1.318778991699219E-1   3.914283588528633E-2   7.117917388677597E-2   3.906292095780373E-2   7.096038758754730E-2  -6.339962482452393E-1   7.643616199493408E-1  
 6.340000000000000E7    -9.791455864906311E-1   1.644779741764069E-1   4.028470441699028E-2   6.850191950798035E-2   4.012000933289528E-2   6.839799880981445E-2  -6.173004508018494E-1   7.788660526275635E-1  
 6.370000000000000E7    -9.734134674072266E-1   1.974342465400696E-1   4.135597497224808E-2   6.603825092315674E-2   4.126859456300736E-2   6.597060710191727E-2  -5.993492007255554E-1   7.914303541183472E-1  
 6.400000000000000E7    -9.657259583473206E-1   2.295515537261963E-1   4.238081723451614E-2   6.357168406248093E-2   4.218722134828568E-2   6.323471665382385E-2  -5.829278826713562E-1   8.049218654632568E-1  
 6.430000000000000E7    -9.575923681259155E-1   2.634807229042053E-1   4.299096763134003E-2   6.109373271465302E-2   4.313836246728897E-2   6.066100671887398E-2  -5.650481581687927E-1   8.175284266471863E-1  
 6.460000000000000E7    -9.487497806549072E-1   2.951171696186066E-1   4.368465393781662E-2   5.839047580957413E-2   4.357621073722839E-2   5.832573398947716E-2  -5.478920340538025E-1   8.276814818382263E-1  
 6.490000000000000E7    -9.394327402114868E-1   3.266730606555939E-1   4.423168301582336E-2   5.601052194833756E-2   4.423033446073532E-2   5.605533719062805E-2  -5.321351289749146E-1   8.392858505249023E-1  
 6.520000000000000E7    -9.269231557846069E-1   3.579549789428711E-1   4.468264430761337E-2   5.371358245611191E-2   4.467248171567917E-2   5.340199172496796E-2  -5.149009823799133E-1   8.506715297698975E-1  
 6.550000000000000E7    -9.151457548141480E-1   3.885093331336975E-1   4.514594748616219E-2   5.130716040730476E-2   4.503975436091423E-2   5.111944675445557E-2  -4.970769882202148E-1   8.600667715072632E-1  
 6.580000000000000E7    -9.010788798332214E-1   4.197967052459717E-1   4.542008787393570E-2   4.882322996854782E-2   4.524292796850205E-2   4.880598932504654E-2  -4.808784723281860E-1   8.706250190734863E-1  
 6.610000000000000E7    -8.857468366622925E-1   4.498050808906555E-1   4.551564902067184E-2   4.643442481756210E-2   4.538670182228088E-2   4.608195275068283E-2  -4.623787105083466E-1   8.803019523620606E-1  
 6.640000000000000E7    -8.719102144241333E-1   4.797897040843964E-1   4.555718973278999E-2   4.413609951734543E-2   4.556872695684433E-2   4.414094239473343E-2  -4.457805156707764E-1   8.893158435821533E-1  
 6.670000000000000E7    -8.542316555976868E-1   5.088149309158325E-1   4.554368555545807E-2   4.174232110381126E-2   4.534183070063591E-2   4.179727286100388E-2  -4.303819835186005E-1   8.968749046325684E-1  
 6.700000000000000E7    -8.364824056625366E-1   5.373694896697998E-1   4.532527178525925E-2   3.946710005402565E-2   4.515825957059860E-2   3.932707756757736E-2  -4.125196933746338E-1   9.043041467666626E-1  
 6.730000000000000E7    -8.178344964981079E-1   5.653486251831055E-1   4.494702070951462E-2   3.714882209897041E-2   4.493180662393570E-2   3.704116493463516E-2  -3.966665863990784E-1   9.124493598937988E-1  
 6.760000000000000E7    -7.986264228820801E-1   5.927867293357849E-1   4.492513835430145E-2   3.504977747797966E-2   4.451633617281914E-2   3.495575487613678E-2  -3.791453838348389E-1   9.197114706039429E-1  
 6.790000000000000E7    -7.778822183609009E-1   6.198266148567200E-1   4.417910426855087E-2   3.286914899945259E-2   4.428774490952492E-2   3.269677236676216E-2  -3.627588152885437E-1   9.258539080619812E-1  
 6.820000000000000E7    -7.563806772232056E-1   6.453123688697815E-1   4.374746978282929E-2   3.064406849443913E-2   4.360784217715263E-2   3.072319552302361E-2  -3.468276858329773E-1   9.324527978897095E-1  
 6.850000000000000E7    -7.345837354660034E-1   6.718629002571106E-1   4.321921616792679E-2   2.883959561586380E-2   4.309799522161484E-2   2.867149747908115E-2  -3.303407728672028E-1   9.381341338157654E-1  
 6.880000000000000E7    -7.106434702873230E-1   6.959409117698669E-1   4.252319037914276E-2   2.666980586946011E-2   4.233442991971970E-2   2.655556052923203E-2  -3.134165108203888E-1   9.438031911849976E-1  
 6.910000000000000E7    -6.868401765823364E-1   7.198779582977295E-1   4.180408269166946E-2   2.478530816733837E-2   4.162566363811493E-2   2.462871745228767E-2  -2.968759536743164E-1   9.498770833015442E-1  
 6.940000000000000E7    -6.626424193382263E-1   7.428818941116333E-1   4.084534943103790E-2   2.293262444436550E-2   4.078603163361549E-2   2.284495159983635E-2  -2.814550697803497E-1   9.544976353645325E-1  
 6.970000000000000E7    -6.356867551803589E-1   7.652356028556824E-1   3.992043435573578E-2   2.098573558032513E-2   3.994806483387947E-2   2.094343304634094E-2  -2.647102475166321E-1   9.594541192054749E-1  
 7.000000000000000E7    -6.095222830772400E-1   7.871944308280945E-1   3.890507668256760E-2   1.928459480404854E-2   3.876714035868645E-2   1.911212876439095E-2  -2.491982430219650E-1   9.642460942268372E-1  
