#  HZ   S   RI   R     50.00 
! Rohde & Schwarz ZVT8 8Ports - Version 4.11 - 1300.0000k08 SN: 100242
! Date: 2026-07-31 14:53:24
! Measurements: S11 S21 S12 S22 
! 
 1.000000000000000E7    -4.090668559074402E-1   9.089246988296509E-1   4.987674579024315E-2   5.080198869109154E-2   4.981563240289688E-2   5.084500089287758E-2  -9.196636676788330E-1   3.840188384056091E-1  
 1.030000000000000E7    -3.770315051078796E-1   9.214413166046143E-1   5.293997377157211E-2   5.125182494521141E-2   5.269043520092964E-2   5.121704563498497E-2  -9.144993424415588E-1   3.958619534969330E-1  
 1.060000000000000E7    -3.418259322643280E-1   9.348171353340149E-1   5.609891563653946E-2   5.199481174349785E-2   5.588963627815247E-2   5.166970938444138E-2  -9.104326367378235E-1   4.077749252319336E-1  
 1.090000000000000E7    -3.105652928352356E-1   9.448496699333191E-1   5.929797142744064E-2   5.219588056206703E-2   5.898770317435265E-2   5.219781026244164E-2  -9.045360684394836E-1   4.192168116569519E-1  
 1.120000000000000E7    -2.756538689136505E-1   9.545543193817139E-1   6.264570355415344E-2   5.281992256641388E-2   6.226019561290741E-2   5.249284207820892E-2  -8.989565372467041E-1   4.306351542472839E-1  
 1.150000000000000E7    -2.411085516214371E-1   9.651069641113281E-1   6.559929251670837E-2   5.260897800326347E-2   6.555587798357010E-2   5.258047953248024E-2  -8.922358751296997E-1   4.400455951690674E-1  
 1.180000000000000E7    -2.074039578437805E-1   9.701056480407715E-1   6.878095865249634E-2   5.281780287623406E-2   6.885579228401184E-2   5.265531688928604E-2  -8.880338668823242E-1   4.508633017539978E-1  
 1.210000000000000E7    -1.733288466930389E-1   9.773845672607422E-1   7.255959510803223E-2   5.283089354634285E-2   7.232785969972611E-2   5.273597687482834E-2  -8.803262710571289E-1   4.632393121719360E-1  
 1.240000000000000E7    -1.387455314397812E-1   9.820993542671204E-1   7.589612901210785E-2   5.271776765584946E-2   7.597599178552628E-2   5.238436535000801E-2  -8.741369843482971E-1   4.732014238834381E-1  
 1.270000000000000E7    -1.040237173438072E-1   9.861546754837036E-1   7.999532669782639E-2   5.221207812428474E-2   7.959265261888504E-2   5.197475105524063E-2  -8.673973679542542E-1   4.865119457244873E-1  
 1.300000000000000E7    -6.929166615009308E-2   9.893449544906616E-1   8.342470228672028E-2   5.191923677921295E-2   8.324459195137024E-2   5.187764763832092E-2  -8.602131009101868E-1   4.969905614852905E-1  
 1.330000000000000E7    -3.415904194116592E-2   9.915137290954590E-1   8.729290962219238E-2   5.140138417482376E-2   8.730224519968033E-2   5.081985145807266E-2  -8.532353043556213E-1   5.088363289833069E-1  
 1.360000000000000E7     2.187181264162064E-3   9.918862581253052E-1   9.121385961771011E-2   5.079326778650284E-2   9.130688756704330E-2   5.019661784172058E-2  -8.460214734077454E-1   5.186455845832825E-1  
 1.390000000000000E7     3.614560514688492E-2   9.899730086326599E-1   9.524010121822357E-2   4.969298094511032E-2   9.481676667928696E-2   4.983370378613472E-2  -8.388811349868774E-1   5.293418169021606E-1  
 1.420000000000000E7     7.214348763227463E-2   9.885360002517700E-1   9.905399382114410E-2   4.911589622497559E-2   9.885334968566895E-2   4.901498556137085E-2  -8.328825831413269E-1   5.399333834648132E-1  
 1.450000000000000E7     1.070969030261040E-1   9.837539792060852E-1   1.032553464174271E-1   4.760084301233292E-2   1.030119508504868E-1   4.746283963322640E-2  -8.226659893989563E-1   5.523585081100464E-1  
 1.480000000000000E7     1.434463262557983E-1   9.793262481689453E-1   1.073727458715439E-1   4.632636532187462E-2   1.072810888290405E-1   4.650513827800751E-2  -8.159415125846863E-1   5.624704957008362E-1  
 1.510000000000000E7     1.776719093322754E-1   9.727251529693604E-1   1.114978566765785E-1   4.476448521018028E-2   1.112628951668739E-1   4.481614753603935E-2  -8.056548833847046E-1   5.738859772682190E-1  
 1.540000000000000E7     2.117663323879242E-1   9.656665921211243E-1   1.157163307070732E-1   4.403200373053551E-2   1.155670583248138E-1   4.336820542812347E-2  -7.998616695404053E-1   5.831650495529175E-1  
 1.570000000000000E7     2.473486214876175E-1   9.580078125000000E-1   1.201323941349983E-1   4.171044006943703E-2   1.201552078127861E-1   4.160577803850174E-2  -7.901270389556885E-1   5.959375500679016E-1  
 1.600000000000000E7     2.823741436004639E-1   9.468820095062256E-1   1.243214532732964E-1   3.971533477306366E-2   1.247901320457459E-1   3.956360742449760E-2  -7.819291949272156E-1   6.040861606597900E-1  
 1.630000000000000E7     3.158859908580780E-1   9.354806542396545E-1   1.293608993291855E-1   3.741276636719704E-2   1.287785023450851E-1   3.767292574048042E-2  -7.726363539695740E-1   6.161454916000366E-1  
 1.660000000000000E7     3.496392071247101E-1   9.220674633979797E-1   1.338913142681122E-1   3.486672043800354E-2   1.335602104663849E-1   3.459581360220909E-2  -7.619048357009888E-1   6.274981498718262E-1  
 1.690000000000000E7     3.826480805873871E-1   9.083869457244873E-1   1.384332925081253E-1   3.283368796110153E-2   1.382578760385513E-1   3.245947882533073E-2  -7.532445192337036E-1   6.373107433319092E-1  
 1.720000000000000E7     4.176884889602661E-1   8.935037851333618E-1   1.425696313381195E-1   2.950992807745934E-2   1.427466422319412E-1   2.956030145287514E-2  -7.429408431053162E-1   6.470459103584290E-1  
 1.750000000000000E7     4.453751444816589E-1   8.796044588088989E-1   1.478669941425324E-1   2.762410417199135E-2   1.478939950466156E-1   2.725673466920853E-2  -7.342061996459961E-1   6.592925786972046E-1  
 1.780000000000000E7     4.805170893669128E-1   8.582951426506043E-1   1.518562436103821E-1   2.360602840781212E-2   1.521153301000595E-1   2.409094572067261E-2  -7.229083776473999E-1   6.674066185951233E-1  
 1.810000000000000E7     5.105842947959900E-1   8.407819271087647E-1   1.577048003673554E-1   2.053371071815491E-2   1.566198319196701E-1   1.998904161155224E-2  -7.122340202331543E-1   6.809055209159851E-1  
 1.840000000000000E7     5.433312058448792E-1   8.205278515815735E-1   1.624541580677033E-1   1.590224727988243E-2   1.617775708436966E-1   1.619290560483933E-2  -7.007523775100708E-1   6.903869509696960E-1  
 1.870000000000000E7     5.708394050598145E-1   7.999826669692993E-1   1.671438664197922E-1   1.273394376039505E-2   1.664967983961105E-1   1.238475367426872E-2  -6.892836093902588E-1   7.000372409820557E-1  
 1.900000000000000E7     6.000427603721619E-1   7.779933214187622E-1   1.718533784151077E-1   8.836902678012848E-3   1.713582724332809E-1   8.220605552196503E-3  -6.770787835121155E-1   7.101249694824219E-1  
 1.930000000000000E7     6.289258003234863E-1   7.534627914428711E-1   1.767221391201019E-1   3.338571637868881E-3   1.767586022615433E-1   4.096947610378265E-3  -6.656285524368286E-1   7.219133377075195E-1  
 1.960000000000000E7     6.569215655326843E-1   7.278629541397095E-1   1.814099699258804E-1  -1.263933256268501E-3   1.813685297966003E-1  -8.315257728099823E-4  -6.546655893325806E-1   7.305899262428284E-1  
 1.990000000000000E7     6.816078424453735E-1   7.017725706100464E-1   1.861147582530975E-1  -6.410597823560238E-3   1.863646507263184E-1  -6.251731887459755E-3  -6.389659643173218E-1   7.424976825714111E-1  
 2.020000000000000E7     7.072204947471619E-1   6.750856041908264E-1   1.915289908647537E-1  -1.146050821989775E-2   1.908871382474899E-1  -1.145071629434824E-2  -6.275542974472046E-1   7.498447895050049E-1  
 2.050000000000000E7     7.334525585174561E-1   6.466656923294067E-1   1.960988044738770E-1  -1.688060164451599E-2   1.949162036180496E-1  -1.731856167316437E-2  -6.143322587013245E-1   7.596356868743897E-1  
 2.080000000000000E7     7.561610937118530E-1   6.160040497779846E-1   2.011796981096268E-1  -2.300800010561943E-2   2.009397149085999E-1  -2.300985902547836E-2  -6.009159684181213E-1   7.710311412811279E-1  
 2.110000000000000E7     7.794538736343384E-1   5.860246419906616E-1   2.062052190303803E-1  -3.006182424724102E-2   2.062274068593979E-1  -2.993694320321083E-2  -5.858812928199768E-1   7.806050777435303E-1  
 2.140000000000000E7     8.006302118301392E-1   5.553264617919922E-1   2.111962139606476E-1  -3.708418086171150E-2   2.101282030344009E-1  -3.629420697689056E-2  -5.718210339546204E-1   7.890394926071167E-1  
 2.170000000000000E7     8.189415931701660E-1   5.243624448776245E-1   2.157059013843536E-1  -4.381021857261658E-2   2.154007405042648E-1  -4.303382709622383E-2  -5.569561123847961E-1   7.983200550079346E-1  
 2.200000000000000E7     8.394891619682312E-1   4.894551634788513E-1   2.201545685529709E-1  -5.155059695243835E-2   2.201030999422073E-1  -5.111489444971085E-2  -5.399177670478821E-1   8.070946931838989E-1  
 2.230000000000000E7     8.557242751121521E-1   4.555550217628479E-1   2.248568087816238E-1  -5.950071290135384E-2   2.242506146430969E-1  -5.898777022957802E-2  -5.240401625633240E-1   8.155680894851685E-1  
 2.260000000000000E7     8.722424507141113E-1   4.206274151802063E-1   2.289400249719620E-1  -6.785769015550613E-2   2.301560193300247E-1  -6.732021272182465E-2  -5.080962181091309E-1   8.238503336906433E-1  
 2.290000000000000E7     8.867555856704712E-1   3.849673867225647E-1   2.334224581718445E-1  -7.641961425542831E-2   2.338607609272003E-1  -7.582078874111176E-2  -4.898976683616638E-1   8.316083550453186E-1  
 2.320000000000000E7     8.989315629005432E-1   3.484988808631897E-1   2.380800545215607E-1  -8.632637560367584E-2   2.376212030649185E-1  -8.649374544620514E-2  -4.730183184146881E-1   8.418288230895996E-1  
 2.350000000000000E7     9.107016324996948E-1   3.099390268325806E-1   2.422182112932205E-1  -9.658803045749664E-2   2.415795326232910E-1  -9.599366784095764E-2  -4.552261233329773E-1   8.490847945213318E-1  
 2.380000000000000E7     9.202409982681274E-1   2.730925679206848E-1   2.459207922220230E-1  -1.060875356197357E-1   2.457908540964127E-1  -1.059336215257645E-1  -4.372341036796570E-1   8.561941385269165E-1  
 2.410000000000000E7     9.294185638427734E-1   2.333062887191773E-1   2.493752837181091E-1  -1.177961975336075E-1   2.486456632614136E-1  -1.172918602824211E-1  -4.168676733970642E-1   8.629884123802185E-1  
 2.440000000000000E7     9.352537989616394E-1   1.948328614234924E-1   2.531746029853821E-1  -1.294309645891190E-1   2.530654370784760E-1  -1.295944899320602E-1  -3.984698355197907E-1   8.696582317352295E-1  
 2.470000000000000E7     9.399600625038147E-1   1.553108096122742E-1   2.561751902103424E-1  -1.419225335121155E-1   2.556851208209992E-1  -1.402098238468170E-1  -3.772383928298950E-1   8.749184608459473E-1  
 2.500000000000000E7     9.436347484588623E-1   1.150520816445351E-1   2.584059834480286E-1  -1.539426743984222E-1   2.584914565086365E-1  -1.546284556388855E-1  -3.556011617183685E-1   8.821570873260498E-1  
 2.530000000000000E7     9.451559185981751E-1   7.477316260337830E-2   2.615970969200134E-1  -1.669574975967407E-1   2.612792849540710E-1  -1.666089296340942E-1  -3.341031074523926E-1   8.859626650810242E-1  
 2.560000000000000E7     9.441688060760498E-1   3.486752882599831E-2   2.633238136768341E-1  -1.804245859384537E-1   2.641412019729614E-1  -1.802576035261154E-1  -3.128501176834106E-1   8.910313844680786E-1  
 2.590000000000000E7     9.408524632453919E-1  -5.181029438972473E-3   2.648809850215912E-1  -1.961382031440735E-1   2.651137113571167E-1  -1.958937942981720E-1  -2.898670434951782E-1   8.971217870712280E-1  
 2.620000000000000E7     9.359425902366638E-1  -4.687736928462982E-2   2.658728659152985E-1  -2.119902968406677E-1   2.657279372215271E-1  -2.108850181102753E-1  -2.641779780387878E-1   9.004638791084290E-1  
 2.650000000000000E7     9.294887781143189E-1  -8.689808845520020E-2   2.669399678707123E-1  -2.266329675912857E-1   2.667670845985413E-1  -2.271200567483902E-1  -2.408261597156525E-1   9.027550220489502E-1  
 2.680000000000000E7     9.193792939186096E-1  -1.269706338644028E-1   2.671446204185486E-1  -2.432147264480591E-1   2.669999003410339E-1  -2.439298182725906E-1  -2.160686403512955E-1   9.046486020088196E-1  
 2.710000000000000E7     9.083051085472107E-1  -1.683235913515091E-1   2.651616036891937E-1  -2.619773745536804E-1   2.645727992057800E-1  -2.613942027091980E-1  -1.900418996810913E-1   9.070963859558106E-1  
 2.740000000000000E7     8.952084779739380E-1  -2.083500921726227E-1   2.649942636489868E-1  -2.792903184890747E-1   2.642795443534851E-1  -2.799784839153290E-1  -1.632225215435028E-1   9.052932262420654E-1  
 2.770000000000000E7     8.803916573524475E-1  -2.463439255952835E-1   2.619521617889404E-1  -2.986537218093872E-1   2.615485191345215E-1  -2.995141446590424E-1  -1.354194581508637E-1   9.052715301513672E-1  
 2.800000000000000E7     8.631590604782105E-1  -2.850085794925690E-1   2.584066092967987E-1  -3.176965713500977E-1   2.596168220043182E-1  -3.176065683364868E-1  -1.069958209991455E-1   9.021575450897217E-1  
 2.830000000000000E7     8.422900438308716E-1  -3.233283460140228E-1   2.537532746791840E-1  -3.375245630741119E-1   2.529907524585724E-1  -3.385451734066010E-1  -8.037148416042328E-2   8.998250365257263E-1  
 2.860000000000000E7     8.197841644287109E-1  -3.602325022220612E-1   2.478499412536621E-1  -3.592968881130219E-1   2.467521280050278E-1  -3.603827655315399E-1  -4.757250100374222E-2   8.950785994529724E-1  
 2.890000000000000E7     7.951375246047974E-1  -3.948806822299957E-1   2.399141043424606E-1  -3.822108805179596E-1   2.399076819419861E-1  -3.815502822399139E-1  -1.836514845490456E-2   8.889884948730469E-1  
 2.920000000000000E7     7.684454917907715E-1  -4.300031661987305E-1   2.327507585287094E-1  -4.034001231193543E-1   2.309165447950363E-1  -4.036060273647308E-1   1.132734119892120E-2   8.810574412345886E-1  
 2.950000000000000E7     7.405669689178467E-1  -4.615426361560822E-1   2.219469398260117E-1  -4.286364316940308E-1   2.211770862340927E-1  -4.272423982620239E-1   4.467754065990448E-2   8.720243573188782E-1  
 2.980000000000000E7     7.088229060173035E-1  -4.926106333732605E-1   2.102236747741699E-1  -4.511048793792725E-1   2.097445577383041E-1  -4.522507190704346E-1   7.655543088912964E-2   8.604462742805481E-1  
 3.010000000000000E7     6.760281324386597E-1  -5.220915079116821E-1   1.951569914817810E-1  -4.760850369930267E-1   1.962822824716568E-1  -4.757797122001648E-1   1.090085953474045E-1   8.470364809036255E-1  
 3.040000000000000E7     6.398932337760925E-1  -5.492348074913025E-1   1.800134032964706E-1  -5.015397667884827E-1   1.791240274906158E-1  -5.020605325698853E-1   1.415857523679733E-1   8.294289112091065E-1  
 3.070000000000000E7     6.025137901306152E-1  -5.728210210800171E-1   1.604081243276596E-1  -5.255933403968811E-1   1.600015461444855E-1  -5.247187614440918E-1   1.749751269817352E-1   8.120541572570801E-1  
 3.100000000000000E7     5.630744099617004E-1  -5.935464501380920E-1   1.388687193393707E-1  -5.513501763343811E-1   1.384954750537872E-1  -5.499516129493713E-1   2.090429365634918E-1   7.917101383209229E-1  
 3.130000000000000E7     5.237343907356262E-1  -6.128497123718262E-1   1.146629601716995E-1  -5.758031010627747E-1   1.156323254108429E-1  -5.754383802413940E-1   2.406405806541443E-1   7.664003968238831E-1  
 3.160000000000000E7     4.805394709110260E-1  -6.264015436172485E-1   8.806555718183518E-2  -6.007153391838074E-1   8.818827569484711E-2  -6.006997823715210E-1   2.732509970664978E-1   7.409844994544983E-1  
 3.190000000000000E7     4.371626973152161E-1  -6.377539634704590E-1   5.796248465776444E-2  -6.243938207626343E-1   5.847161263227463E-2  -6.229032278060913E-1   3.055258393287659E-1   7.109306454658508E-1  
 3.220000000000000E7     3.932282626628876E-1  -6.474794149398804E-1   2.644623443484306E-2  -6.475852727890015E-1   2.593963779509068E-2  -6.460039615631104E-1   3.347807526588440E-1   6.781499385833740E-1  
 3.250000000000000E7     3.495848476886749E-1  -6.502482295036316E-1  -1.004380360245705E-2  -6.694942116737366E-1  -1.118411123752594E-2  -6.686068773269653E-1   3.645238578319550E-1   6.428995728492737E-1  
 3.280000000000000E7     3.051724433898926E-1  -6.485655903816223E-1  -5.022105202078819E-2  -6.892602443695068E-1  -4.921358823776245E-2  -6.864401102066040E-1   3.916658163070679E-1   6.025062203407288E-1  
 3.310000000000000E7     2.615817189216614E-1  -6.464765071868897E-1  -9.208989143371582E-2  -7.052605152130127E-1  -9.310917556285858E-2  -7.040058374404907E-1   4.154817461967468E-1   5.582690834999085E-1  
 3.340000000000000E7     2.203289717435837E-1  -6.385271549224854E-1  -1.402984261512756E-1  -7.196301817893982E-1  -1.384273469448090E-1  -7.181823849678040E-1   4.372898340225220E-1   5.129090547561646E-1  
 3.370000000000000E7     1.791699528694153E-1  -6.257752776145935E-1  -1.883005201816559E-1  -7.301588654518127E-1  -1.880115121603012E-1  -7.299565076828003E-1   4.555558562278748E-1   4.624175131320953E-1  
 3.400000000000000E7     1.410081386566162E-1  -6.093270778656006E-1  -2.409245669841766E-1  -7.361730337142944E-1  -2.408163398504257E-1  -7.369293570518494E-1   4.683510065078735E-1   4.103864431381226E-1  
 3.430000000000000E7     1.057888567447662E-1  -5.903644561767578E-1  -2.962885200977325E-1  -7.378939390182495E-1  -2.952817678451538E-1  -7.381495833396912E-1   4.794950485229492E-1   3.563181161880493E-1  
 3.460000000000000E7     7.316856831312180E-2  -5.665258169174194E-1  -3.531916439533234E-1  -7.357616424560547E-1  -3.536587059497833E-1  -7.346829175949097E-1   4.828593134880066E-1   3.003199696540833E-1  
 3.490000000000000E7     4.722240194678307E-2  -5.423111915588379E-1  -4.115388393402100E-1  -7.247460484504700E-1  -4.107396900653839E-1  -7.260631322860718E-1   4.833457469940186E-1   2.423188686370850E-1  
 3.520000000000000E7     2.287096343934536E-2  -5.125998258590698E-1  -4.709788560867310E-1  -7.116674780845642E-1  -4.700110554695129E-1  -7.118452787399292E-1   4.767768085002899E-1   1.825276762247086E-1  
 3.550000000000000E7     4.342096857726574E-3  -4.807130396366119E-1  -5.309035181999207E-1  -6.915542483329773E-1  -5.309309363365173E-1  -6.910340785980225E-1   4.623674154281616E-1   1.252551376819611E-1  
 3.580000000000000E7    -1.002133823931217E-2  -4.507683217525482E-1  -5.888547301292419E-1  -6.635618805885315E-1  -5.878373980522156E-1  -6.640189290046692E-1   4.439379870891571E-1   6.746856123209000E-2  
 3.610000000000000E7    -1.591576263308525E-2  -4.216312766075134E-1  -6.464665532112122E-1  -6.293706297874451E-1  -6.448001861572266E-1  -6.287410855293274E-1   4.190358221530914E-1   1.112319901585579E-2  
 3.640000000000000E7    -2.012312784790993E-2  -3.912178277969360E-1  -6.999080777168274E-1  -5.894861817359924E-1  -6.997070908546448E-1  -5.906269550323486E-1   3.858371376991272E-1  -4.133115336298943E-2  
 3.670000000000000E7    -1.774036511778832E-2  -3.636574447154999E-1  -7.518031001091003E-1  -5.447590351104736E-1  -7.488179802894592E-1  -5.432671308517456E-1   3.514311909675598E-1  -9.013170748949051E-2  
 3.700000000000000E7    -1.333903893828392E-2  -3.399210870265961E-1  -7.966143488883972E-1  -4.920936524868012E-1  -7.953085303306580E-1  -4.926338791847229E-1   3.085492551326752E-1  -1.355815231800079E-1  
 3.730000000000000E7    -5.760686937719584E-3  -3.174274563789368E-1  -8.365582823753357E-1  -4.365277290344238E-1  -8.356691002845764E-1  -4.361619651317596E-1   2.626737952232361E-1  -1.733283996582031E-1  
 3.760000000000000E7     6.120266392827034E-3  -3.032461702823639E-1  -8.700445294380188E-1  -3.768348097801209E-1  -8.708777427673340E-1  -3.759439289569855E-1   2.135313451290131E-1  -2.075396925210953E-1  
 3.790000000000000E7     2.267531305551529E-2  -2.911785840988159E-1  -8.997334241867065E-1  -3.130875229835510E-1  -8.979579210281372E-1  -3.136523067951202E-1   1.643831282854080E-1  -2.368685603141785E-1  
 3.820000000000000E7     3.693869337439537E-2  -2.847945094108582E-1  -9.207672476768494E-1  -2.482381612062454E-1  -9.216885566711426E-1  -2.475406080484390E-1   1.093431860208511E-1  -2.571848034858704E-1  
 3.850000000000000E7     5.291021615266800E-2  -2.800937592983246E-1  -9.376563429832459E-1  -1.823117733001709E-1  -9.368407130241394E-1  -1.800954341888428E-1   5.621531605720520E-2  -2.759052813053131E-1  
 3.880000000000000E7     6.432594358921051E-2  -2.823004126548767E-1  -9.459623098373413E-1  -1.149347946047783E-1  -9.446482658386231E-1  -1.151668727397919E-1   1.962279900908470E-3  -2.873329520225525E-1  
 3.910000000000000E7     7.934444397687912E-2  -2.865206599235535E-1  -9.498508572578430E-1  -4.760411754250526E-2  -9.495000243186951E-1  -4.810905084013939E-2  -4.899883270263672E-2  -2.913402318954468E-1  
 3.940000000000000E7     9.086512774229050E-2  -2.976500689983368E-1  -9.450139999389648E-1   1.721975579857826E-2  -9.456459283828735E-1   1.635086908936501E-2  -1.017320454120636E-1  -2.910215258598328E-1  
 3.970000000000000E7     1.001207903027535E-1  -3.102595210075378E-1  -9.380761981010437E-1   8.049343526363373E-2  -9.383403062820435E-1   8.140763640403748E-2  -1.500867009162903E-1  -2.832036912441254E-1  
 4.000000000000000E7     1.043232753872871E-1  -3.243854939937592E-1  -9.249717593193054E-1   1.420738250017166E-1  -9.240309000015259E-1   1.427640020847321E-1  -1.966536939144135E-1  -2.750551700592041E-1  
 4.030000000000000E7     1.036151424050331E-1  -3.444042801856995E-1  -9.076244831085205E-1   2.005810737609863E-1  -9.064991474151611E-1   2.011384963989258E-1  -2.399228364229202E-1  -2.641406655311585E-1  
 4.060000000000000E7     1.037751361727715E-1  -3.624589443206787E-1  -8.859639167785645E-1   2.566369771957398E-1  -8.855545520782471E-1   2.578834593296051E-1  -2.816171050071716E-1  -2.450781762599945E-1  
 4.090000000000000E7     9.944474697113037E-2  -3.806614577770233E-1  -8.608050942420960E-1   3.109610676765442E-1  -8.598295450210571E-1   3.109472990036011E-1  -3.197179436683655E-1  -2.295658141374588E-1  
 4.120000000000000E7     9.145352244377136E-2  -4.038257896900177E-1  -8.320041298866272E-1   3.616077601909638E-1  -8.325962424278259E-1   3.618292808532715E-1  -3.545316457748413E-1  -2.049069106578827E-1  
 4.150000000000000E7     7.442581653594971E-2  -4.223226010799408E-1  -8.020176887512207E-1   4.091550409793854E-1  -8.014274239540100E-1   4.071112275123596E-1  -3.840875625610352E-1  -1.826788783073425E-1  
 4.180000000000000E7     5.777862668037415E-2  -4.397722184658051E-1  -7.686794996261597E-1   4.529845714569092E-1  -7.674664855003357E-1   4.515759050846100E-1  -4.133059084415436E-1  -1.618395596742630E-1  
 4.210000000000000E7     3.487570956349373E-2  -4.575140774250031E-1  -7.334350943565369E-1   4.930365979671478E-1  -7.341713309288025E-1   4.937717914581299E-1  -4.373126924037933E-1  -1.372914016246796E-1  
 4.240000000000000E7     1.069741137325764E-2  -4.737753868103027E-1  -6.967653036117554E-1   5.311501622200012E-1  -6.971296072006226E-1   5.313380956649780E-1  -4.586429893970490E-1  -1.129508912563324E-1  
 4.270000000000000E7    -1.832094043493271E-2  -4.844308793544769E-1  -6.597048640251160E-1   5.679337978363037E-1  -6.578723788261414E-1   5.676354169845581E-1  -4.784788787364960E-1  -8.832838386297226E-2  
 4.300000000000000E7    -4.945988580584526E-2  -4.949597120285034E-1  -6.193751096725464E-1   6.008308529853821E-1  -6.188272237777710E-1   5.998573899269104E-1  -4.950627982616425E-1  -6.273648142814636E-2  
 4.330000000000000E7    -8.197943121194840E-2  -5.037497282028198E-1  -5.786693692207336E-1   6.306585669517517E-1  -5.787755846977234E-1   6.306652426719666E-1  -5.083907842636108E-1  -3.825514391064644E-2  
 4.360000000000000E7    -1.209187358617783E-1  -5.084698200225830E-1  -5.368992686271668E-1   6.567438244819641E-1  -5.369858741760254E-1   6.564558744430542E-1  -5.217757225036621E-1  -1.402648724615574E-2  
 4.390000000000000E7    -1.604108214378357E-1  -5.056794881820679E-1  -4.944265484809876E-1   6.830152273178101E-1  -4.934192001819611E-1   6.842832565307617E-1  -5.280066132545471E-1   7.261749356985092E-3  
 4.420000000000000E7    -1.982299983501434E-1  -5.000661611557007E-1  -4.499980807304382E-1   7.067964673042297E-1  -4.492045938968658E-1   7.060714960098267E-1  -5.366666913032532E-1   3.004018589854240E-2  
 4.450000000000000E7    -2.413481771945953E-1  -4.898286461830139E-1  -4.068447351455689E-1   7.263142466545105E-1  -4.055089056491852E-1   7.264024615287781E-1  -5.442396402359009E-1   5.224690586328507E-2  
 4.480000000000000E7    -2.838349044322968E-1  -4.746860861778259E-1  -3.604708909988403E-1   7.448883652687073E-1  -3.603131175041199E-1   7.448992133140564E-1  -5.482745170593262E-1   7.165792584419251E-2  
 4.510000000000000E7    -3.271044492721558E-1  -4.545544087886810E-1  -3.142777085304260E-1   7.613756656646729E-1  -3.146116137504578E-1   7.608519196510315E-1  -5.517302751541138E-1   9.083213657140732E-2  
 4.540000000000000E7    -3.667949140071869E-1  -4.258665442466736E-1  -2.668766081333160E-1   7.754981517791748E-1  -2.684092521667481E-1   7.754667997360230E-1  -5.549342632293701E-1   1.098590195178986E-1  
 4.570000000000000E7    -4.081815779209137E-1  -3.940512537956238E-1  -2.178609371185303E-1   7.881479859352112E-1  -2.192979753017426E-1   7.875031232833862E-1  -5.545210242271423E-1   1.263370215892792E-1  
 4.600000000000000E7    -4.496557116508484E-1  -3.562531769275665E-1  -1.707267165184021E-1   7.950567007064819E-1  -1.690263003110886E-1   7.965995073318481E-1  -5.560715198516846E-1   1.398126780986786E-1  
 4.630000000000000E7    -4.858123064041138E-1  -3.092547953128815E-1  -1.189675778150559E-1   8.020942807197571E-1  -1.177960783243179E-1   8.011218309402466E-1  -5.569608807563782E-1   1.537213921546936E-1  
 4.660000000000000E7    -5.170006752014160E-1  -2.566622495651245E-1  -6.551657617092133E-2   8.074270486831665E-1  -6.532140821218491E-2   8.061855435371399E-1  -5.565053224563599E-1   1.661584973335266E-1  
 4.690000000000000E7    -5.466406345367432E-1  -1.974197626113892E-1  -1.380097866058350E-2   8.064335584640503E-1  -1.390751451253891E-2   8.071843385696411E-1  -5.549586415290833E-1   1.789439916610718E-1  
 4.720000000000000E7    -5.681660771369934E-1  -1.323689222335815E-1   4.122522473335266E-2   8.033028841018677E-1   4.129730165004730E-2   8.021982312202454E-1  -5.571864843368530E-1   1.884116530418396E-1  
 4.750000000000000E7    -5.824475288391113E-1  -5.953478813171387E-2   9.699862450361252E-2   7.965153455734253E-1   9.548036009073257E-2   7.965963482856751E-1  -5.555344820022583E-1   1.986617594957352E-1  
 4.780000000000000E7    -5.882918834686279E-1   1.620844751596451E-2   1.543499827384949E-1   7.865129113197327E-1   1.526376307010651E-1   7.840695977210999E-1  -5.569667220115662E-1   2.037394493818283E-1  
 4.810000000000000E7    -5.840795636177063E-1   1.006342247128487E-1   2.097395062446594E-1   7.683942914009094E-1   2.095191776752472E-1   7.673805952072144E-1  -5.585502386093140E-1   2.093497812747955E-1  
 4.840000000000000E7    -5.664737224578857E-1   1.870231330394745E-1   2.668056488037109E-1   7.469401359558106E-1   2.667327225208283E-1   7.444784045219421E-1  -5.627173781394959E-1   2.148603498935700E-1  
 4.870000000000000E7    -5.353607535362244E-1   2.746053636074066E-1   3.231595158576965E-1   7.197002172470093E-1   3.220292031764984E-1   7.177954316139221E-1  -5.677016377449036E-1   2.194019258022308E-1  
 4.900000000000000E7    -4.892929196357727E-1   3.613815903663635E-1   3.776815235614777E-1   6.852508187294006E-1   3.774023056030273E-1   6.840322017669678E-1  -5.742553472518921E-1   2.241854667663574E-1  
 4.930000000000000E7    -4.283658266067505E-1   4.442697167396545E-1   4.294629991054535E-1   6.434274315834045E-1   4.312122166156769E-1   6.430793404579163E-1  -5.830899477005005E-1   2.274452745914459E-1  
 4.960000000000000E7    -3.512047529220581E-1   5.211724638938904E-1   4.790950119495392E-1   5.974375009536743E-1   4.768190085887909E-1   5.957992076873779E-1  -5.925250649452210E-1   2.344320416450501E-1  
 4.990000000000000E7    -2.573957443237305E-1   5.864861011505127E-1   5.224495530128479E-1   5.437370538711548E-1   5.218024253845215E-1   5.430671572685242E-1  -6.043020486831665E-1   2.387833893299103E-1  
 5.020000000000000E7    -1.489694118499756E-1   6.397679448127747E-1   5.596814155578613E-1   4.828606545925140E-1   5.594704151153565E-1   4.823368787765503E-1  -6.199413537979126E-1   2.461597919464111E-1  
 5.050000000000000E7    -2.976061031222343E-2   6.741711497306824E-1   5.894451141357422E-1   4.187234938144684E-1   5.880879759788513E-1   4.189070165157318E-1  -6.348686814308167E-1   2.573987245559692E-1  
 5.080000000000000E7     9.912294149398804E-2   6.880433559417725E-1   6.088820695877075E-1   3.501432538032532E-1   6.091659069061279E-1   3.484065532684326E-1  -6.514781713485718E-1   2.688651382923126E-1  
 5.110000000000000E7     2.297209203243256E-1   6.783790588378906E-1   6.193714737892151E-1   2.795417010784149E-1   6.188399791717529E-1   2.804790437221527E-1  -6.680563092231751E-1   2.850893437862396E-1  
 5.140000000000000E7     3.598871529102325E-1   6.471932530403137E-1   6.207009553909302E-1   2.111357897520065E-1   6.207638382911682E-1   2.106402069330216E-1  -6.854866147041321E-1   3.046182692050934E-1  
 5.170000000000000E7     4.830708205699921E-1   5.900801420211792E-1   6.115489006042481E-1   1.419219672679901E-1   6.120283603668213E-1   1.424049288034439E-1  -7.000414133071899E-1   3.254085481166840E-1  
 5.200000000000000E7     5.956344604492188E-1   5.135404467582703E-1   5.923975110054016E-1   7.829329371452332E-2   5.909976959228516E-1   7.853622734546661E-2  -7.140190005302429E-1   3.518674373626709E-1  
 5.230000000000000E7     6.922788619995117E-1   4.200829267501831E-1   5.664504170417786E-1   2.226347848773003E-2   5.668832063674927E-1   2.168899402022362E-2  -7.242453694343567E-1   3.783406913280487E-1  
 5.260000000000000E7     7.697101831436157E-1   3.122697770595551E-1   5.352221727371216E-1  -2.914275228977203E-2   5.340279340744019E-1  -2.906353957951069E-2  -7.329802513122559E-1   4.082322120666504E-1  
 5.290000000000000E7     8.286406397819519E-1   1.975199729204178E-1   4.975552856922150E-1  -7.278057932853699E-2   4.972687363624573E-1  -7.293947786092758E-2  -7.382966876029968E-1   4.378356337547302E-1  
 5.320000000000000E7     8.664545416831970E-1   7.532088458538055E-2   4.579464793205261E-1  -1.081154942512512E-1   4.585510194301605E-1  -1.077783852815628E-1  -7.408498525619507E-1   4.693602025508881E-1  
 5.350000000000000E7     8.856054544448853E-1  -4.638342931866646E-2   4.176630973815918E-1  -1.359769999980927E-1   4.182753264904022E-1  -1.358192265033722E-1  -7.401128411293030E-1   4.981734156608582E-1  
 5.380000000000000E7     8.863065242767334E-1  -1.663531512022018E-1   3.770053684711456E-1  -1.580255329608917E-1   3.759666085243225E-1  -1.588114500045776E-1  -7.358925342559815E-1   5.297339558601379E-1  
 5.410000000000000E7     8.724185228347778E-1  -2.787598073482513E-1   3.380049765110016E-1  -1.731686741113663E-1   3.380758166313171E-1  -1.735622882843018E-1  -7.306769490242004E-1   5.593696832656860E-1  
 5.440000000000000E7     8.429864645004273E-1  -3.856877088546753E-1   2.999394536018372E-1  -1.833347529172897E-1   2.999242544174194E-1  -1.833331882953644E-1  -7.223296165466309E-1   5.873753428459168E-1  
 5.470000000000000E7     8.027399778366089E-1  -4.823579490184784E-1   2.638168036937714E-1  -1.887860745191574E-1   2.645567059516907E-1  -1.886380314826965E-1  -7.117678523063660E-1   6.148449778556824E-1  
 5.500000000000000E7     7.535413503646851E-1  -5.709015727043152E-1   2.321460843086243E-1  -1.904560327529907E-1   2.317066788673401E-1  -1.905840784311295E-1  -7.005921602249146E-1   6.412715315818787E-1  
 5.530000000000000E7     6.967226862907410E-1  -6.497381925582886E-1   2.020988166332245E-1  -1.886476427316666E-1   2.019085586071014E-1  -1.891212761402130E-1  -6.871017813682556E-1   6.650515794754028E-1  
 5.560000000000000E7     6.347998380661011E-1  -7.200389504432678E-1   1.748536974191666E-1  -1.857514083385468E-1   1.744767725467682E-1  -1.847583502531052E-1  -6.735002994537354E-1   6.872571110725403E-1  
 5.590000000000000E7     5.688866376876831E-1  -7.793968319892883E-1   1.501368582248688E-1  -1.796271204948425E-1   1.504409462213516E-1  -1.799049079418182E-1  -6.584393978118897E-1   7.092763185501099E-1  
 5.620000000000000E7     4.995254874229431E-1  -8.309846520423889E-1   1.288052648305893E-1  -1.728647798299789E-1   1.279167681932449E-1  -1.727672815322876E-1  -6.436285972595215E-1   7.292098402976990E-1  
 5.650000000000000E7     4.301927983760834E-1  -8.739253282546997E-1   1.091028526425362E-1  -1.647299677133560E-1   1.088639348745346E-1  -1.646446734666824E-1  -6.275872588157654E-1   7.474407553672791E-1  
 5.680000000000000E7     3.592623472213745E-1  -9.091984033584595E-1   9.213183820247650E-2  -1.565314978361130E-1   9.206649661064148E-2  -1.564440876245499E-1  -6.106577515602112E-1   7.651917934417725E-1  
 5.710000000000000E7     2.873591184616089E-1  -9.374409317970276E-1   7.687658071517944E-2  -1.477199494838715E-1   7.734242081642151E-2  -1.478219926357269E-1  -5.947421789169312E-1   7.813430428504944E-1  
 5.740000000000000E7     2.166100442409515E-1  -9.592709541320801E-1   6.388735771179199E-2  -1.387755572795868E-1   6.390623748302460E-2  -1.385230273008347E-1  -5.776638984680176E-1   7.970512509346008E-1  
 5.770000000000000E7     1.474256813526154E-1  -9.734815955162048E-1   5.263232067227364E-2  -1.293793618679047E-1   5.235810577869415E-2  -1.289418190717697E-1  -5.614827275276184E-1   8.093065619468689E-1  
 5.800000000000000E7     7.886092364788055E-2  -9.834688901901245E-1   4.267173260450363E-2  -1.208605468273163E-1   4.216406494379044E-2  -1.206472665071487E-1  -5.447989702224731E-1   8.245934844017029E-1  
 5.830000000000000E7     1.296994090080261E-2  -9.880530834197998E-1   3.392011672258377E-2  -1.117649599909782E-1   3.390405699610710E-2  -1.119445711374283E-1  -5.284898281097412E-1   8.366391062736511E-1  
 5.860000000000000E7    -5.147286504507065E-2  -9.893285036087036E-1   2.668222226202488E-2  -1.033302545547485E-1   2.664684876799583E-2  -1.034197285771370E-1  -5.110239386558533E-1   8.483798503875732E-1  
 5.890000000000000E7    -1.149854436516762E-1  -9.842214584350586E-1   2.023748122155666E-2  -9.520214796066284E-2   2.051365934312344E-2  -9.489887952804565E-2  -4.947783946990967E-1   8.586625456809998E-1  
 5.920000000000000E7    -1.759097278118134E-1  -9.765725135803223E-1   1.498032640665770E-2  -8.746598660945892E-2   1.470424048602581E-2  -8.741055428981781E-2  -4.786164760589600E-1   8.699898719787598E-1  
 5.950000000000000E7    -2.337340861558914E-1  -9.641721248626709E-1   1.033214014023542E-2  -7.975368201732636E-2   1.030790619552136E-2  -7.966919988393784E-2  -4.609861969947815E-1   8.782962560653687E-1  
 5.980000000000000E7    -2.909328639507294E-1  -9.503633379936218E-1   6.460374686866999E-3  -7.287601381540299E-2   6.582773756235838E-3  -7.261849939823151E-2  -4.444268941879273E-1   8.881447315216065E-1  
 6.010000000000000E7    -3.434122204780579E-1  -9.309680461883545E-1   3.608466358855367E-3  -6.597792357206345E-2   3.619599621742964E-3  -6.583920121192932E-2  -4.293260872364044E-1   8.968013525009155E-1  
 6.040000000000000E7    -3.966556191444397E-1  -9.115294218063355E-1   1.074848463758826E-3  -5.978661403059959E-2   9.168602991849184E-4  -5.971725285053253E-2  -4.127252697944641E-1   9.055399298667908E-1  
 6.070000000000000E7    -4.442801177501679E-1  -8.903224468231201E-1  -8.604043396189809E-4  -5.388011783361435E-2  -9.043752215802670E-4  -5.357132479548454E-2  -3.972314596176148E-1   9.120293259620667E-1  
 6.100000000000000E7    -4.914501011371613E-1  -8.645519614219666E-1  -2.759093185886741E-3  -4.822828248143196E-2  -2.663098508492112E-3  -4.818244278430939E-2  -3.802578449249268E-1   9.202156066894531E-1  
 6.130000000000000E7    -5.370851159095764E-1  -8.386982679367065E-1  -3.800926264375448E-3  -4.306937754154205E-2  -3.778132144361734E-3  -4.295792803168297E-2  -3.644648790359497E-1   9.272053241729736E-1  
 6.160000000000000E7    -5.791305303573608E-1  -8.095775246620178E-1  -4.713723435997963E-3  -3.804109245538712E-2  -4.730322398245335E-3  -3.809252753853798E-2  -3.489297330379486E-1   9.320476055145264E-1  
 6.190000000000000E7    -6.194663047790527E-1  -7.789347767829895E-1  -5.184904672205448E-3  -3.353635966777802E-2  -5.364244338124991E-3  -3.352550044655800E-2  -3.330045342445374E-1   9.374234676361084E-1  
 6.220000000000000E7    -6.573786139488220E-1  -7.475949525833130E-1  -5.555250681936741E-3  -2.932997047901154E-2  -5.556428804993630E-3  -2.940065599977970E-2  -3.190494775772095E-1   9.439914226531982E-1  
 6.250000000000000E7    -6.937784552574158E-1  -7.144470214843750E-1  -5.610571242868900E-3  -2.542735449969769E-2  -5.678669549524784E-3  -2.548840455710888E-2  -3.037715554237366E-1   9.493125677108765E-1  
 6.280000000000000E7    -7.269738912582398E-1  -6.800233125686646E-1  -5.571300163865089E-3  -2.194473892450333E-2  -5.550271831452847E-3  -2.190926484763622E-2  -2.881636917591095E-1   9.538806080818176E-1  
 6.310000000000000E7    -7.597901821136475E-1  -6.440308690071106E-1  -5.396204069256783E-3  -1.868503168225288E-2  -5.357600748538971E-3  -1.855088211596012E-2  -2.724610567092896E-1   9.589204788208008E-1  
 6.340000000000000E7    -7.882287502288818E-1  -6.077548265457153E-1  -5.005019716918469E-3  -1.556879840791225E-2  -5.009306594729424E-3  -1.554694306105375E-2  -2.573707103729248E-1   9.637472033500671E-1  
 6.370000000000000E7    -8.159435391426086E-1  -5.710036754608154E-1  -4.540362395346165E-3  -1.280942838639021E-2  -4.521626979112625E-3  -1.279984228312969E-2  -2.424208968877792E-1   9.664384722709656E-1  
 6.400000000000000E7    -8.412382602691650E-1  -5.322259068489075E-1  -4.023717250674963E-3  -1.025889255106449E-2  -3.989022225141525E-3  -1.026303693652153E-2  -2.276261746883392E-1   9.712765216827393E-1  
 6.430000000000000E7    -8.650762438774109E-1  -4.932751953601837E-1  -3.316516522318125E-3  -7.974525913596153E-3  -3.329891711473465E-3  -7.923278026282787E-3  -2.122242301702499E-1   9.743657112121582E-1  
 6.460000000000000E7    -8.864001631736755E-1  -4.547367095947266E-1  -2.611923962831497E-3  -5.854356568306685E-3  -2.617487916722894E-3  -5.872629117220640E-3  -1.981705427169800E-1   9.761255383491516E-1  
 6.490000000000000E7    -9.051573872566223E-1  -4.161974787712097E-1  -1.841630320996046E-3  -3.967593889683485E-3  -1.853033900260925E-3  -3.985239658504725E-3  -1.840948909521103E-1   9.797097444534302E-1  
 6.520000000000000E7    -9.226840734481812E-1  -3.757038414478302E-1  -1.075584092177451E-3  -2.269696211442351E-3  -1.058467896655202E-3  -2.243529772385955E-3  -1.692980676889420E-1   9.832311272621155E-1  
 6.550000000000000E7    -9.375777840614319E-1  -3.359390497207642E-1  -2.850943128578365E-4  -7.301634759642184E-4  -2.881953259930015E-4  -7.369748782366514E-4  -1.542658656835556E-1   9.840011596679688E-1  
 6.580000000000000E7    -9.515252709388733E-1  -2.944051027297974E-1   5.312254652380943E-4   6.291817990131676E-4   5.225674831308425E-4   6.200906354933977E-4  -1.401638090610504E-1   9.876353144645691E-1  
 6.610000000000000E7    -9.625563621520996E-1  -2.526583373546600E-1   1.376141444779933E-3   1.781508792191744E-3   1.337096793577075E-3   1.775980577804148E-3  -1.240847110748291E-1   9.888623356819153E-1  
 6.640000000000000E7    -9.734379649162293E-1  -2.138449549674988E-1   2.180333249270916E-3   2.826504176482558E-3   2.170064719393849E-3   2.831756835803390E-3  -1.102097481489182E-1   9.907521605491638E-1  
 6.670000000000000E7    -9.809894561767578E-1  -1.716245114803314E-1   2.981320023536682E-3   3.706174902617931E-3   2.939713886007667E-3   3.723433474078775E-3  -9.702409803867340E-2   9.924931526184082E-1  
 6.700000000000000E7    -9.870627522468567E-1  -1.305443942546845E-1   3.758026752620935E-3   4.501029849052429E-3   3.712426405400038E-3   4.501285031437874E-3  -8.257801830768585E-2   9.929242134094238E-1  
 6.730000000000000E7    -9.918007254600525E-1  -8.958858251571655E-2   4.491508472710848E-3   5.188594106584787E-3   4.511755425482988E-3   5.154402926564217E-3  -6.831337511539459E-2   9.951925277709961E-1  
 6.760000000000000E7    -9.945185780525208E-1  -4.961831867694855E-2   5.237528122961521E-3   5.664012860506773E-3   5.206881556659937E-3   5.676795728504658E-3  -5.355392396450043E-2   9.953960180282593E-1  
 6.790000000000000E7    -9.958100914955139E-1  -8.375212550163269E-3   5.899854935705662E-3   6.129158660769463E-3   5.896215792745352E-3   6.087494548410177E-3  -4.029801487922669E-2   9.955301284790039E-1  
 6.820000000000000E7    -9.952970147132874E-1   3.189802914857864E-2   6.543764844536781E-3   6.429014727473259E-3   6.536742206662893E-3   6.414544768631458E-3  -2.663983404636383E-2   9.962198138237000E-1  
 6.850000000000000E7    -9.938189387321472E-1   7.240745425224304E-2   7.168183103203774E-3   6.704345345497131E-3   7.126884069293737E-3   6.678518373519182E-3  -1.315222680568695E-2   9.967732429504395E-1  
 6.880000000000000E7    -9.896174073219299E-1   1.119078621268272E-1   7.736803032457829E-3   6.844723597168922E-3   7.730238139629364E-3   6.819501519203186E-3   1.336090266704559E-3   9.961609244346619E-1  
 6.910000000000000E7    -9.840607047080994E-1   1.512003988027573E-1   8.271294645965099E-3   6.953012198209763E-3   8.257331326603890E-3   6.921470165252686E-3   1.556941121816635E-2   9.967095255851746E-1  
 6.940000000000000E7    -9.784743189811707E-1   1.896777898073196E-1   8.739654906094074E-3   6.978633347898722E-3   8.698062039911747E-3   6.903289817273617E-3   2.851542830467224E-2   9.962641596794128E-1  
 6.970000000000000E7    -9.690745472908020E-1   2.290205657482147E-1   9.141852147877216E-3   6.900626700371504E-3   9.135283529758453E-3   6.896015256643295E-3   4.262632876634598E-2   9.956671595573425E-1  
 7.000000000000000E7    -9.599161148071289E-1   2.670558691024780E-1   9.538653306663036E-3   6.805286742746830E-3   9.481294080615044E-3   6.754217203706503E-3   5.598913878202438E-2   9.954248666763306E-1  
