#  HZ   S   RI   R     50.00 
! Rohde & Schwarz ZVT8 8Ports - Version 4.11 - 1300.0000k08 SN: 100242
! Date: 2026-07-31 15:00:41
! Measurements: S11 S21 S12 S22 
! 
 1.000000000000000E7    -4.024366140365601E-1   9.110723137855530E-1   5.159148573875427E-2   5.212686210870743E-2   5.136997625231743E-2   5.221292749047279E-2  -9.196685552597046E-1   3.827960491180420E-1  
 1.030000000000000E7    -3.698101341724396E-1   9.238083362579346E-1   5.493384599685669E-2   5.254164338111877E-2   5.451940745115280E-2   5.259092152118683E-2  -9.138180017471314E-1   3.956202566623688E-1  
 1.060000000000000E7    -3.340694606304169E-1   9.371448755264282E-1   5.806129798293114E-2   5.351711064577103E-2   5.812761932611466E-2   5.310905352234840E-2  -9.109040498733521E-1   4.071274995803833E-1  
 1.090000000000000E7    -3.018518984317780E-1   9.471921324729919E-1   6.150698289275169E-2   5.385068804025650E-2   6.135678663849831E-2   5.377955362200737E-2  -9.044865369796753E-1   4.186216592788696E-1  
 1.120000000000000E7    -2.663534581661224E-1   9.567867517471314E-1   6.508687138557434E-2   5.448843538761139E-2   6.467758864164352E-2   5.425932630896568E-2  -8.992652893066406E-1   4.299869239330292E-1  
 1.150000000000000E7    -2.304199934005737E-1   9.672536253929138E-1   6.860849261283875E-2   5.427017435431480E-2   6.849273294210434E-2   5.420023947954178E-2  -8.922908902168274E-1   4.393030107021332E-1  
 1.180000000000000E7    -1.954331398010254E-1   9.724388718605042E-1   7.215020060539246E-2   5.448508262634277E-2   7.208678871393204E-2   5.454990267753601E-2  -8.880429863929749E-1   4.496592283248901E-1  
 1.210000000000000E7    -1.609071046113968E-1   9.792873859405518E-1   7.615082710981369E-2   5.491881445050240E-2   7.614798098802567E-2   5.476119369268417E-2  -8.804937601089478E-1   4.618545472621918E-1  
 1.240000000000000E7    -1.246752515435219E-1   9.833495616912842E-1   8.002303540706635E-2   5.472182109951973E-2   8.006490767002106E-2   5.433245748281479E-2  -8.742216825485230E-1   4.716801643371582E-1  
 1.270000000000000E7    -8.864217996597290E-2   9.869107604026794E-1   8.453381806612015E-2   5.434611812233925E-2   8.403965830802918E-2   5.410210415720940E-2  -8.673945665359497E-1   4.849487543106079E-1  
 1.300000000000000E7    -5.265720188617706E-2   9.896528720855713E-1   8.818120509386063E-2   5.421990901231766E-2   8.828281611204147E-2   5.399363860487938E-2  -8.603461980819702E-1   4.951769411563873E-1  
 1.330000000000000E7    -1.619294844567776E-2   9.912160038948059E-1   9.276960790157318E-2   5.344773083925247E-2   9.265010803937912E-2   5.314346402883530E-2  -8.536447286605835E-1   5.073270201683044E-1  
 1.360000000000000E7     2.193632349371910E-2   9.905928969383240E-1   9.714359790086746E-2   5.315812304615974E-2   9.746103733778000E-2   5.225185304880142E-2  -8.464465737342835E-1   5.166146755218506E-1  
 1.390000000000000E7     5.744846537709236E-2   9.882364273071289E-1   1.019715890288353E-1   5.187522992491722E-2   1.016467958688736E-1   5.200861766934395E-2  -8.392845392227173E-1   5.276869535446167E-1  
 1.420000000000000E7     9.522861242294312E-2   9.857907295227051E-1   1.062921956181526E-1   5.112868547439575E-2   1.063086166977882E-1   5.129062384366989E-2  -8.327842950820923E-1   5.377092361450195E-1  
 1.450000000000000E7     1.318421363830566E-1   9.795017838478088E-1   1.113391369581223E-1   4.979891330003738E-2   1.111528426408768E-1   4.975140467286110E-2  -8.227239251136780E-1   5.503069162368774E-1  
 1.480000000000000E7     1.701295077800751E-1   9.737505912780762E-1   1.161965355277062E-1   4.824094846844673E-2   1.162488013505936E-1   4.852432385087013E-2  -8.162255287170410E-1   5.601916909217835E-1  
 1.510000000000000E7     2.065005153417587E-1   9.657472968101502E-1   1.212487146258354E-1   4.665155708789825E-2   1.209947019815445E-1   4.670352861285210E-2  -8.054101467132568E-1   5.718318223953247E-1  
 1.540000000000000E7     2.425504624843597E-1   9.566450119018555E-1   1.261916458606720E-1   4.578538239002228E-2   1.261555701494217E-1   4.523020610213280E-2  -7.998362779617310E-1   5.809009075164795E-1  
 1.570000000000000E7     2.799676656723023E-1   9.474438428878784E-1   1.317090094089508E-1   4.333876445889473E-2   1.316833198070526E-1   4.312285035848618E-2  -7.901200056076050E-1   5.931333899497986E-1  
 1.600000000000000E7     3.172469437122345E-1   9.343259930610657E-1   1.369720548391342E-1   4.104447364807129E-2   1.372375637292862E-1   4.084644839167595E-2  -7.819673418998718E-1   6.015170216560364E-1  
 1.630000000000000E7     3.532051444053650E-1   9.201905727386475E-1   1.430806964635849E-1   3.808779641985893E-2   1.425530910491943E-1   3.853430598974228E-2  -7.726764678955078E-1   6.138323545455933E-1  
 1.660000000000000E7     3.890365958213806E-1   9.035374522209168E-1   1.487868875265122E-1   3.541631996631622E-2   1.484578847885132E-1   3.510340303182602E-2  -7.618601918220520E-1   6.247357130050659E-1  
 1.690000000000000E7     4.242725670337677E-1   8.871271610260010E-1   1.546739935874939E-1   3.305106237530708E-2   1.542850583791733E-1   3.244712948799133E-2  -7.526545524597168E-1   6.341351270675659E-1  
 1.720000000000000E7     4.618467688560486E-1   8.684131503105164E-1   1.599688529968262E-1   2.869399264454842E-2   1.600725799798966E-1   2.923893183469772E-2  -7.422368526458740E-1   6.438238620758057E-1  
 1.750000000000000E7     4.916356503963471E-1   8.509994149208069E-1   1.668765693902969E-1   2.672906406223774E-2   1.669571101665497E-1   2.602086961269379E-2  -7.330597043037415E-1   6.556955575942993E-1  
 1.780000000000000E7     5.289591550827026E-1   8.251768350601196E-1   1.724119186401367E-1   2.184548974037170E-2   1.724715083837509E-1   2.222835831344128E-2  -7.221508026123047E-1   6.629870533943176E-1  
 1.810000000000000E7     5.612906217575073E-1   8.031100034713745E-1   1.799543499946594E-1   1.787953637540340E-2   1.786042004823685E-1   1.721192896366119E-2  -7.111008763313294E-1   6.764221191406250E-1  
 1.840000000000000E7     5.957607030868530E-1   7.777069211006165E-1   1.865977942943573E-1   1.204257272183895E-2   1.857127696275711E-1   1.238843798637390E-2  -6.990757584571838E-1   6.855511069297791E-1  
 1.870000000000000E7     6.257731318473816E-1   7.513783574104309E-1   1.930637657642365E-1   7.665360346436501E-3   1.922557651996613E-1   7.152928039431572E-3  -6.875814795494080E-1   6.955089569091797E-1  
 1.900000000000000E7     6.572113633155823E-1   7.228847742080689E-1   1.997643262147903E-1   2.162741497159004E-3   1.992276310920715E-1   1.895954832434654E-3  -6.752248406410217E-1   7.046065330505371E-1  
 1.930000000000000E7     6.874622702598572E-1   6.916186213493347E-1   2.063142359256744E-1  -4.926608875393868E-3   2.065305858850479E-1  -4.065167158842087E-3  -6.627210974693298E-1   7.158623933792114E-1  
 1.960000000000000E7     7.168865799903870E-1   6.586682796478272E-1   2.133774906396866E-1  -1.131252571940422E-2   2.132579535245895E-1  -1.072877086699009E-2  -6.517867445945740E-1   7.235814929008484E-1  
 1.990000000000000E7     7.429231405258179E-1   6.249290704727173E-1   2.204741239547730E-1  -1.840679533779621E-2   2.208255976438522E-1  -1.846548169851303E-2  -6.362758874893189E-1   7.353672385215759E-1  
 2.020000000000000E7     7.695406079292297E-1   5.887334942817688E-1   2.281710207462311E-1  -2.603993378579617E-2   2.274803221225739E-1  -2.575243450701237E-2  -6.239157915115356E-1   7.419562935829163E-1  
 2.050000000000000E7     7.963601350784302E-1   5.507870316505432E-1   2.354373931884766E-1  -3.417863696813583E-2   2.338691651821137E-1  -3.452552109956741E-2  -6.100203990936279E-1   7.513883113861084E-1  
 2.080000000000000E7     8.190155625343323E-1   5.097162723541260E-1   2.431252449750900E-1  -4.357851669192314E-2   2.431041300296783E-1  -4.339838027954102E-2  -5.958324670791626E-1   7.617588639259338E-1  
 2.110000000000000E7     8.414594531059265E-1   4.684605598449707E-1   2.507839500904083E-1  -5.418734997510910E-2   2.506439983844757E-1  -5.398277193307877E-2  -5.802112221717835E-1   7.699686884880066E-1  
 2.140000000000000E7     8.614612221717835E-1   4.251015186309815E-1   2.585478425025940E-1  -6.557840853929520E-2   2.574077844619751E-1  -6.436147540807724E-2  -5.647272467613220E-1   7.778254747390747E-1  
 2.170000000000000E7     8.779872655868530E-1   3.809047043323517E-1   2.660778760910034E-1  -7.651883363723755E-2   2.658043205738068E-1  -7.582159340381622E-2  -5.489165782928467E-1   7.858767509460449E-1  
 2.200000000000000E7     8.951403498649597E-1   3.315178751945496E-1   2.733921110630035E-1  -8.964981138706207E-2   2.731781899929047E-1  -8.923694491386414E-2  -5.306199789047241E-1   7.930487990379334E-1  
 2.230000000000000E7     9.071555137634277E-1   2.820546627044678E-1   2.808891832828522E-1  -1.035958305001259E-1   2.803582549095154E-1  -1.026735603809357E-1  -5.139017105102539E-1   8.000336885452271E-1  
 2.260000000000000E7     9.180032014846802E-1   2.305451333522797E-1   2.876475751399994E-1  -1.185465008020401E-1   2.892690896987915E-1  -1.183573007583618E-1  -4.963009953498840E-1   8.061810135841370E-1  
 2.290000000000000E7     9.256334900856018E-1   1.766491085290909E-1   2.949607372283936E-1  -1.349532157182694E-1   2.957846820354462E-1  -1.342402696609497E-1  -4.762430489063263E-1   8.120143413543701E-1  
 2.320000000000000E7     9.285448193550110E-1   1.216886788606644E-1   3.022564947605133E-1  -1.533811688423157E-1   3.015346527099609E-1  -1.535336822271347E-1  -4.576834738254547E-1   8.195284605026245E-1  
 2.350000000000000E7     9.285127520561218E-1   6.323385238647461E-2   3.086399435997009E-1  -1.736636757850647E-1   3.079640567302704E-1  -1.725109517574310E-1  -4.378066658973694E-1   8.238101601600647E-1  
 2.380000000000000E7     9.244871139526367E-1   4.621185362339020E-3   3.140967488288879E-1  -1.937831938266754E-1   3.143621683120728E-1  -1.934558004140854E-1  -4.175134897232056E-1   8.274198770523071E-1  
 2.410000000000000E7     9.163061380386353E-1  -5.730026587843895E-2   3.187091350555420E-1  -2.177066951990128E-1   3.181591629981995E-1  -2.166824042797089E-1  -3.955607414245606E-1   8.300453424453735E-1  
 2.440000000000000E7     9.015686511993408E-1  -1.191351488232613E-1   3.229438066482544E-1  -2.434704601764679E-1   3.227047622203827E-1  -2.432482391595841E-1  -3.745981454849243E-1   8.315047621726990E-1  
 2.470000000000000E7     8.818168044090271E-1  -1.823557615280151E-1   3.254792690277100E-1  -2.713640034198761E-1   3.251971006393433E-1  -2.688222825527191E-1  -3.501470983028412E-1   8.307772278785706E-1  
 2.500000000000000E7     8.562136888504028E-1  -2.478287518024445E-1   3.256137371063232E-1  -3.001972734928131E-1   3.254586458206177E-1  -3.006386756896973E-1  -3.265784084796906E-1   8.312811255455017E-1  
 2.530000000000000E7     8.227527141571045E-1  -3.125138878822327E-1   3.255496025085449E-1  -3.321337699890137E-1   3.255497813224793E-1  -3.316371738910675E-1  -3.030225336551666E-1   8.275299072265625E-1  
 2.560000000000000E7     7.817947268486023E-1  -3.764776289463043E-1   3.214994370937347E-1  -3.665615618228912E-1   3.222504854202271E-1  -3.668246269226074E-1  -2.785062193870544E-1   8.224153518676758E-1  
 2.590000000000000E7     7.309138178825378E-1  -4.372464716434479E-1   3.138864040374756E-1  -4.050648212432861E-1   3.144985139369965E-1  -4.050192832946777E-1  -2.539158463478088E-1   8.181029558181763E-1  
 2.620000000000000E7     6.702056527137756E-1  -4.971258938312531E-1   3.025894761085510E-1  -4.459495544433594E-1   3.028371632099152E-1  -4.444851875305176E-1  -2.269709408283234E-1   8.082632422447205E-1  
 2.650000000000000E7     6.005773544311523E-1  -5.537673830986023E-1   2.880558073520660E-1  -4.871653020381928E-1   2.872682213783264E-1  -4.878170490264893E-1  -2.028167992830277E-1   7.950425148010254E-1  
 2.680000000000000E7     5.188177227973938E-1  -6.023961901664734E-1   2.668208181858063E-1  -5.323105454444885E-1   2.658159434795380E-1  -5.328141450881958E-1  -1.798010319471359E-1   7.794131040573120E-1  
 2.710000000000000E7     4.265942871570587E-1  -6.411238908767700E-1   2.359061837196350E-1  -5.781832933425903E-1   2.361562103033066E-1  -5.768471360206604E-1  -1.571421176195145E-1   7.627176046371460E-1  
 2.740000000000000E7     3.223364055156708E-1  -6.707363724708557E-1   2.015468478202820E-1  -6.243686079978943E-1   1.987778842449188E-1  -6.242772936820984E-1  -1.366992294788361E-1   7.371948361396790E-1  
 2.770000000000000E7     2.112969160079956E-1  -6.826534867286682E-1   1.539311110973358E-1  -6.694140434265137E-1   1.529320627450943E-1  -6.694306731224060E-1  -1.193174421787262E-1   7.129203677177429E-1  
 2.800000000000000E7     9.091129153966904E-2  -6.791367530822754E-1   9.840320050716400E-2  -7.110202312469482E-1   9.916074573993683E-2  -7.117978930473328E-1  -1.048929989337921E-1   6.814181208610535E-1  
 2.830000000000000E7    -3.315231949090958E-2  -6.510194540023804E-1   3.333936631679535E-2  -7.457091212272644E-1   3.232270479202271E-2  -7.451074719429016E-1  -9.856420010328293E-2   6.525905132293701E-1  
 2.860000000000000E7    -1.560692042112351E-1  -5.963522791862488E-1  -4.266492649912834E-2  -7.730638384819031E-1  -4.509966820478439E-2  -7.727601528167725E-1  -9.462516009807587E-2   6.182891726493835E-1  
 2.890000000000000E7    -2.692539691925049E-1  -5.169236660003662E-1  -1.282224208116531E-1  -7.889160513877869E-1  -1.278592646121979E-1  -7.877467274665833E-1  -1.004662960767746E-1   5.856554508209229E-1  
 2.920000000000000E7    -3.720920979976654E-1  -4.132609665393829E-1  -2.154294997453690E-1  -7.907620072364807E-1  -2.171006202697754E-1  -7.887493371963501E-1  -1.134267300367355E-1   5.541914105415344E-1  
 2.950000000000000E7    -4.485794901847839E-1  -2.852926254272461E-1  -3.101538419723511E-1  -7.752145528793335E-1  -3.092430830001831E-1  -7.736530900001526E-1  -1.332886219024658E-1   5.271458029747009E-1  
 2.980000000000000E7    -5.001874566078186E-1  -1.431435197591782E-1  -3.981202542781830E-1  -7.417891025543213E-1  -3.994277417659760E-1  -7.409583330154419E-1  -1.605298072099686E-1   5.062571167945862E-1  
 3.010000000000000E7    -5.180059671401978E-1   7.072389125823975E-3  -4.826897978782654E-1  -6.924270391464233E-1  -4.819570779800415E-1  -6.921230554580689E-1  -1.913833618164063E-1   4.924298822879791E-1  
 3.040000000000000E7    -5.011384487152100E-1   1.581388115882874E-1  -5.522079467773438E-1  -6.298119425773621E-1  -5.529915690422058E-1  -6.273370385169983E-1  -2.240694761276245E-1   4.896495640277863E-1  
 3.070000000000000E7    -4.571629166603088E-1   2.970142364501953E-1  -6.122013926506043E-1  -5.567924380302429E-1  -6.096817851066589E-1  -5.560069680213928E-1  -2.537578940391541E-1   4.934702813625336E-1  
 3.100000000000000E7    -3.844848871231079E-1   4.198410511016846E-1  -6.547049880027771E-1  -4.784106612205505E-1  -6.537111997604370E-1  -4.775211513042450E-1  -2.826880812644959E-1   5.046640038490295E-1  
 3.130000000000000E7    -2.946036458015442E-1   5.214394330978394E-1  -6.820853948593140E-1  -3.955377042293549E-1  -6.800663471221924E-1  -3.957790732383728E-1  -3.086978197097778E-1   5.246275067329407E-1  
 3.160000000000000E7    -1.898724287748337E-1   6.008282899856567E-1  -6.957921981811523E-1  -3.178633153438568E-1  -6.943484544754028E-1  -3.183277547359467E-1  -3.276257216930389E-1   5.488526225090027E-1  
 3.190000000000000E7    -8.076681196689606E-2   6.571975350379944E-1  -6.975588798522949E-1  -2.420780360698700E-1  -6.960244178771973E-1  -2.418400794267654E-1  -3.415834605693817E-1   5.751283168792725E-1  
 3.220000000000000E7     3.085514903068543E-2   6.932376027107239E-1  -6.884267330169678E-1  -1.730854362249374E-1  -6.879660487174988E-1  -1.723515689373016E-1  -3.501671552658081E-1   6.041892766952515E-1  
 3.250000000000000E7     1.394302695989609E-1   7.086135745048523E-1  -6.738761067390442E-1  -1.106994301080704E-1  -6.730785965919495E-1  -1.103093624114990E-1  -3.524176478385925E-1   6.358644962310791E-1  
 3.280000000000000E7     2.435679584741592E-1   7.057161927223206E-1  -6.526378393173218E-1  -5.472302436828613E-2  -6.510304808616638E-1  -5.271322280168533E-2  -3.512314260005951E-1   6.654819250106812E-1  
 3.310000000000000E7     3.387746214866638E-1   6.933205723762512E-1  -6.261689066886902E-1  -4.257198888808489E-3  -6.252957582473755E-1  -3.920074086636305E-3  -3.427690863609314E-1   6.958700418472290E-1  
 3.340000000000000E7     4.262461066246033E-1   6.684725880622864E-1  -5.998868942260742E-1   3.942338377237320E-2  -5.976382493972778E-1   3.927591443061829E-2  -3.311727643013001E-1   7.228428721427918E-1  
 3.370000000000000E7     5.063068866729736E-1   6.337764859199524E-1  -5.687199831008911E-1   7.609825581312180E-2  -5.679366588592529E-1   7.555965334177017E-2  -3.182810842990875E-1   7.509887814521790E-1  
 3.400000000000000E7     5.770881175994873E-1   5.939341783523560E-1  -5.393204092979431E-1   1.079596728086472E-1  -5.386569499969482E-1   1.069294437766075E-1  -2.996035218238831E-1   7.745815515518189E-1  
 3.430000000000000E7     6.398435831069946E-1   5.495067238807678E-1  -5.095134377479553E-1   1.354995667934418E-1  -5.084756612777710E-1   1.352436542510986E-1  -2.803434133529663E-1   7.974736690521240E-1  
 3.460000000000000E7     6.958277821540833E-1   5.000954270362854E-1  -4.800336360931397E-1   1.587732583284378E-1  -4.801426529884338E-1   1.577485799789429E-1  -2.575508654117584E-1   8.195500969886780E-1  
 3.490000000000000E7     7.438426017761231E-1   4.488807022571564E-1  -4.507883787155151E-1   1.798136830329895E-1  -4.504278600215912E-1   1.783879250288010E-1  -2.350238263607025E-1   8.366714715957642E-1  
 3.520000000000000E7     7.857872247695923E-1   3.958259224891663E-1  -4.228081107139587E-1   1.948076486587524E-1  -4.230227172374725E-1   1.945238709449768E-1  -2.086204886436462E-1   8.563140034675598E-1  
 3.550000000000000E7     8.209928870201111E-1   3.392290771007538E-1  -3.964287936687470E-1   2.079948335886002E-1  -3.964464068412781E-1   2.074776589870453E-1  -1.825242638587952E-1   8.722009658813477E-1  
 3.580000000000000E7     8.514926433563232E-1   2.858687937259674E-1  -3.698729276657105E-1   2.196839749813080E-1  -3.694878518581390E-1   2.195530831813812E-1  -1.531073302030563E-1   8.852563500404358E-1  
 3.610000000000000E7     8.758519291877747E-1   2.315197288990021E-1  -3.460388183593750E-1   2.302849292755127E-1  -3.445252478122711E-1   2.292894870042801E-1  -1.227416843175888E-1   8.990485072135925E-1  
 3.640000000000000E7     8.957871794700623E-1   1.762260645627976E-1  -3.216298222541809E-1   2.368115186691284E-1  -3.209770917892456E-1   2.359114140272141E-1  -9.258076548576355E-2   9.089565277099609E-1  
 3.670000000000000E7     9.111453294754028E-1   1.229764968156815E-1  -2.992649078369141E-1   2.427470982074738E-1  -2.979804873466492E-1   2.422436028718948E-1  -6.168477982282639E-2   9.183329939842224E-1  
 3.700000000000000E7     9.222520589828491E-1   6.977190822362900E-2  -2.764291763305664E-1   2.473985552787781E-1  -2.756096422672272E-1   2.469830811023712E-1  -2.664490789175034E-2   9.253536462783814E-1  
 3.730000000000000E7     9.302974343299866E-1   1.616256684064865E-2  -2.543438673019409E-1   2.498752027750015E-1  -2.548604905605316E-1   2.498485445976257E-1   5.181342363357544E-3   9.294397830963135E-1  
 3.760000000000000E7     9.340390563011169E-1  -3.324206173419952E-2  -2.337611317634583E-1   2.527007758617401E-1  -2.344783991575241E-1   2.528357803821564E-1   4.187946021556854E-2   9.342124462127686E-1  
 3.790000000000000E7     9.351782798767090E-1  -8.484336733818054E-2  -2.148036360740662E-1   2.545140385627747E-1  -2.143200784921646E-1   2.544111609458923E-1   7.771146297454834E-2   9.352974891662598E-1  
 3.820000000000000E7     9.341402053833008E-1  -1.340805590152741E-1  -1.962641477584839E-1   2.553974390029907E-1  -1.963423490524292E-1   2.544487118721008E-1   1.133996695280075E-1   9.359147548675537E-1  
 3.850000000000000E7     9.295196533203125E-1  -1.832780838012695E-1  -1.785716414451599E-1   2.547809481620789E-1  -1.774104833602905E-1   2.547134160995483E-1   1.516895592212677E-1   9.354338049888611E-1  
 3.880000000000000E7     9.226425886154175E-1  -2.288549244403839E-1  -1.597945243120194E-1   2.540358901023865E-1  -1.599085927009583E-1   2.533143162727356E-1   1.920143663883209E-1   9.310013651847839E-1  
 3.910000000000000E7     9.143859744071960E-1  -2.753107547760010E-1  -1.438303142786026E-1   2.520480453968048E-1  -1.434677839279175E-1   2.524038255214691E-1   2.322770357131958E-1   9.255808591842651E-1  
 3.940000000000000E7     9.009989500045776E-1  -3.185420632362366E-1  -1.276527792215347E-1   2.496659159660339E-1  -1.272760778665543E-1   2.491337358951569E-1   2.724278569221497E-1   9.164316654205322E-1  
 3.970000000000000E7     8.892714977264404E-1  -3.612723946571350E-1  -1.127335950732231E-1   2.462745755910873E-1  -1.126597076654434E-1   2.459728270769119E-1   3.129613101482391E-1   9.047552943229675E-1  
 4.000000000000000E7     8.734617233276367E-1  -4.029279947280884E-1  -9.751446545124054E-2   2.427616417407990E-1  -9.712983667850494E-2   2.427819669246674E-1   3.572366237640381E-1   8.925333619117737E-1  
 4.030000000000000E7     8.572192788124085E-1  -4.427537918090820E-1  -8.282341063022614E-2   2.393281459808350E-1  -8.286766707897186E-2   2.387083023786545E-1   3.990188837051392E-1   8.772049546241760E-1  
 4.060000000000000E7     8.385807871818543E-1  -4.815071523189545E-1  -6.946823745965958E-2   2.339904159307480E-1  -6.965947151184082E-2   2.335485219955444E-1   4.430255889892578E-1   8.576399683952332E-1  
 4.090000000000000E7     8.183666467666626E-1  -5.195452570915222E-1  -5.614492297172546E-2   2.283059209585190E-1  -5.580557137727737E-2   2.282752543687820E-1   4.868302643299103E-1   8.357313871383667E-1  
 4.120000000000000E7     7.969358563423157E-1  -5.558199286460877E-1  -4.418974369764328E-2   2.228663116693497E-1  -4.396637529134750E-2   2.220804542303085E-1   5.323647260665894E-1   8.098701238632202E-1  
 4.150000000000000E7     7.742363214492798E-1  -5.891944169998169E-1  -3.113989345729351E-2   2.165464162826538E-1  -3.201141580939293E-2   2.154927104711533E-1   5.776277184486389E-1   7.795303463935852E-1  
 4.180000000000000E7     7.498257160186768E-1  -6.235049366950989E-1  -1.963626593351364E-2   2.091274857521057E-1  -1.970027200877667E-2   2.087627351284027E-1   6.227880120277405E-1   7.475067973136902E-1  
 4.210000000000000E7     7.248883843421936E-1  -6.550729870796204E-1  -8.318821899592876E-3   2.015583217144013E-1  -8.623873814940453E-3   2.016548663377762E-1   6.689982414245606E-1   7.081233263015747E-1  
 4.240000000000000E7     6.983859539031982E-1  -6.847226619720459E-1   1.813920214772224E-3   1.935118734836578E-1   1.764841377735138E-3   1.934317946434021E-1   7.135426402091980E-1   6.655525565147400E-1  
 4.270000000000000E7     6.703935861587524E-1  -7.140077948570252E-1   1.181959453970194E-2   1.846877038478851E-1   1.176018640398979E-2   1.845826357603073E-1   7.567904591560364E-1   6.176787018775940E-1  
 4.300000000000000E7     6.415158510208130E-1  -7.426785230636597E-1   2.117542736232281E-2   1.755683571100235E-1   2.071287855505943E-2   1.754033565521240E-1   7.994905114173889E-1   5.649415254592896E-1  
 4.330000000000000E7     6.142461299896240E-1  -7.686489820480347E-1   2.876390144228935E-2   1.657051742076874E-1   2.888972684741020E-2   1.658229678869247E-1   8.384096026420593E-1   5.059933066368103E-1  
 4.360000000000000E7     5.823491215705872E-1  -7.933475971221924E-1   3.665462881326675E-2   1.561335921287537E-1   3.645579144358635E-2   1.551335602998734E-1   8.754176497459412E-1   4.424101114273071E-1  
 4.390000000000000E7     5.512454509735107E-1  -8.185294270515442E-1   4.358767345547676E-2   1.450633406639099E-1   4.315924644470215E-2   1.450829505920410E-1   9.083811044692993E-1   3.715020418167114E-1  
 4.420000000000000E7     5.193040966987610E-1  -8.395193815231323E-1   4.890602082014084E-2   1.335766166448593E-1   4.886914789676666E-2   1.337727606296539E-1   9.375346302986145E-1   2.958813905715942E-1  
 4.450000000000000E7     4.864381551742554E-1  -8.600382208824158E-1   5.353694036602974E-2   1.223094463348389E-1   5.355438590049744E-2   1.219090893864632E-1   9.613951444625855E-1   2.148206382989883E-1  
 4.480000000000000E7     4.534603357315064E-1  -8.795978426933289E-1   5.704183876514435E-2   1.104059144854546E-1   5.697504431009293E-2   1.102771013975143E-1   9.776126742362976E-1   1.275125741958618E-1  
 4.510000000000000E7     4.205865263938904E-1  -8.978475928306580E-1   5.955570191144943E-2   9.837884455919266E-2   5.925768613815308E-2   9.820596128702164E-2   9.856574535369873E-1   3.361511230468750E-2  
 4.540000000000000E7     3.856727480888367E-1  -9.134836196899414E-1   6.013403087854385E-2   8.570410311222076E-2   5.999821424484253E-2   8.592529594898224E-2   9.848683476448059E-1  -6.258992850780487E-2  
 4.570000000000000E7     3.503925502300263E-1  -9.293490052223206E-1   5.984656512737274E-2   7.397912442684174E-2   5.955564975738525E-2   7.404987514019013E-2   9.739549756050110E-1  -1.627565324306488E-1  
 4.600000000000000E7     3.173052966594696E-1  -9.416701197624207E-1   5.819723010063171E-2   6.238566339015961E-2   5.807500332593918E-2   6.248809024691582E-2   9.530760645866394E-1  -2.650064826011658E-1  
 4.630000000000000E7     2.793715894222260E-1  -9.549558162689209E-1   5.501926317811012E-2   5.105863139033318E-2   5.503269284963608E-2   5.079065263271332E-2   9.179753065109253E-1  -3.681824803352356E-1  
 4.660000000000000E7     2.427754551172257E-1  -9.666403532028198E-1   5.049393698573113E-2   4.037218913435936E-2   5.036783590912819E-2   4.034162312746048E-2   8.716137409210205E-1  -4.677182435989380E-1  
 4.690000000000000E7     2.069056779146195E-1  -9.746860265731812E-1   4.477478563785553E-2   3.063331916928291E-2   4.453618451952934E-2   3.055400401353836E-2   8.118687868118286E-1  -5.663983225822449E-1  
 4.720000000000000E7     1.697794944047928E-1  -9.817867875099182E-1   3.783617913722992E-2   2.202407084405422E-2   3.783375769853592E-2   2.180133387446404E-2   7.405787110328674E-1  -6.573694348335266E-1  
 4.750000000000000E7     1.341585814952850E-1  -9.885298013687134E-1   3.009903058409691E-2   1.459611020982266E-2   2.998887374997139E-2   1.458756998181343E-2   6.566017270088196E-1  -7.421144247055054E-1  
 4.780000000000000E7     9.809057414531708E-2  -9.929163455963135E-1   2.154155261814594E-2   8.704959414899349E-3   2.156161516904831E-2   8.654498495161533E-3   5.647440552711487E-1  -8.152920603752136E-1  
 4.810000000000000E7     6.034268438816071E-2  -9.958259463310242E-1   1.254266593605280E-2   4.152021836489439E-3   1.254973094910383E-2   4.217806272208691E-3   4.604466855525971E-1  -8.775966167449951E-1  
 4.840000000000000E7     2.396366745233536E-2  -9.982095360755920E-1   3.293397836387157E-3   1.323696691542864E-3   3.371441969648004E-3   1.333575928583741E-3   3.519234061241150E-1  -9.265006780624390E-1  
 4.870000000000000E7    -1.299399510025978E-2  -9.980791807174683E-1  -5.859392695128918E-3   9.608018444851041E-6  -5.832558032125235E-3  -4.774192348122597E-5   2.386874258518219E-1  -9.620697498321533E-1  
 4.900000000000000E7    -4.971911013126373E-2  -9.976955652236939E-1  -1.470598578453064E-2   4.365749191492796E-5  -1.471321191638708E-2   1.024507946567610E-4   1.231679543852806E-1  -9.843006134033203E-1  
 4.930000000000000E7    -8.612931519746780E-2  -9.946761727333069E-1  -2.297046966850758E-2   1.418282627128065E-3  -2.308720164000988E-2   1.457347301766276E-3   8.077313192188740E-3  -9.923806786537170E-1  
 4.960000000000000E7    -1.218117028474808E-1  -9.887089729309082E-1  -3.067899122834206E-2   4.075233824551106E-3  -3.054065629839897E-2   4.168801009654999E-3  -1.049085408449173E-1  -9.863086938858032E-1  
 4.990000000000000E7    -1.563561260700226E-1  -9.843857884407044E-1  -3.747212514281273E-2   7.597080431878567E-3  -3.725924715399742E-2   7.553800474852324E-3  -2.114888131618500E-1  -9.693189263343811E-1  
 5.020000000000000E7    -1.907761096954346E-1  -9.788839817047119E-1  -4.327531531453133E-2   1.183428242802620E-2  -4.325130581855774E-2   1.188054494559765E-2  -3.153705298900604E-1  -9.405373930931091E-1  
 5.050000000000000E7    -2.263024449348450E-1  -9.706425666809082E-1  -4.819397255778313E-2   1.682455837726593E-2  -4.788912832736969E-2   1.680836826562882E-2  -4.097247421741486E-1  -9.026129245758057E-1  
 5.080000000000000E7    -2.597922086715698E-1  -9.621784687042236E-1  -5.196993798017502E-2   2.211210504174233E-2  -5.206894129514694E-2   2.207494340837002E-2  -4.997781515121460E-1  -8.567435145378113E-1  
 5.110000000000000E7    -2.938898801803589E-1  -9.517931938171387E-1  -5.494706332683563E-2   2.771123498678207E-2  -5.474175512790680E-2   2.758808247745037E-2  -5.781599879264832E-1  -8.040925264358521E-1  
 5.140000000000000E7    -3.270224928855896E-1  -9.399598836898804E-1  -5.677695572376251E-2   3.344491869211197E-2  -5.680537596344948E-2   3.332418575882912E-2  -6.496848464012146E-1  -7.494745254516602E-1  
 5.170000000000000E7    -3.591112494468689E-1  -9.278104305267334E-1  -5.811196565628052E-2   3.895659744739533E-2  -5.794107913970947E-2   3.885649889707565E-2  -7.125782966613770E-1  -6.892751455307007E-1  
 5.200000000000000E7    -3.916321694850922E-1  -9.158917069435120E-1  -5.842484906315804E-2   4.443911090493202E-2  -5.849613249301910E-2   4.436937719583511E-2  -7.696275711059570E-1  -6.245205998420715E-1  
 5.230000000000000E7    -4.228123426437378E-1  -9.004069566726685E-1  -5.796430259943008E-2   4.944541305303574E-2  -5.781513825058937E-2   4.956944286823273E-2  -8.155740499496460E-1  -5.612617135047913E-1  
 5.260000000000000E7    -4.529500305652618E-1  -8.840163946151733E-1  -5.716430768370628E-2   5.449311435222626E-2  -5.699787661433220E-2   5.440375208854675E-2  -8.570106625556946E-1  -4.971621036529541E-1  
 5.290000000000000E7    -4.844829440116882E-1  -8.681690692901611E-1  -5.542249232530594E-2   5.925434082746506E-2  -5.548401549458504E-2   5.906074866652489E-2  -8.913491964340210E-1  -4.336634278297424E-1  
 5.320000000000000E7    -5.133192539215088E-1  -8.521094918251038E-1  -5.354376882314682E-2   6.357625871896744E-2  -5.361882224678993E-2   6.350531429052353E-2  -9.198563694953919E-1  -3.708769083023071E-1  
 5.350000000000000E7    -5.410097837448120E-1  -8.334267735481262E-1  -5.128280818462372E-2   6.704975664615631E-2  -5.122578144073486E-2   6.694065779447556E-2  -9.397629499435425E-1  -3.089216053485870E-1  
 5.380000000000000E7    -5.682452321052551E-1  -8.139727115631104E-1  -4.884137213230133E-2   7.061190903186798E-2  -4.865758493542671E-2   7.050426304340363E-2  -9.587196111679077E-1  -2.477786540985107E-1  
 5.410000000000000E7    -5.986409187316895E-1  -7.943068742752075E-1  -4.595633596181870E-2   7.387962192296982E-2  -4.574497789144516E-2   7.377061247825623E-2  -9.727572798728943E-1  -1.904185861349106E-1  
 5.440000000000000E7    -6.247136592864990E-1  -7.721881866455078E-1  -4.276688396930695E-2   7.657797634601593E-2  -4.288320243358612E-2   7.651926577091217E-2  -9.818210601806641E-1  -1.336234509944916E-1  
 5.470000000000000E7    -6.491852998733521E-1  -7.516990900039673E-1  -3.967051953077316E-2   7.902539521455765E-2  -3.965947777032852E-2   7.897300273180008E-2  -9.877990484237671E-1  -7.918618619441986E-2  
 5.500000000000000E7    -6.752500534057617E-1  -7.290278673171997E-1  -3.658542037010193E-2   8.105617761611939E-2  -3.659354895353317E-2   8.085735142230988E-2  -9.905827641487122E-1  -2.715882658958435E-2  
 5.530000000000000E7    -6.996722221374512E-1  -7.056205868721008E-1  -3.331230953335762E-2   8.273697644472122E-2  -3.305088356137276E-2   8.268720656633377E-2  -9.905513525009155E-1   2.329170703887940E-2  
 5.560000000000000E7    -7.236635088920593E-1  -6.809099912643433E-1  -2.991209737956524E-2   8.430892974138260E-2  -2.982365339994431E-2   8.399149030447006E-2  -9.879688024520874E-1   7.148472964763641E-2  
 5.590000000000000E7    -7.464249730110169E-1  -6.568678021430969E-1  -2.640058472752571E-2   8.544154465198517E-2  -2.635426074266434E-2   8.533555269241333E-2  -9.843065142631531E-1   1.175217777490616E-1  
 5.620000000000000E7    -7.681459784507752E-1  -6.293899416923523E-1  -2.306646481156349E-2   8.606861531734467E-2  -2.292530611157417E-2   8.578222244977951E-2  -9.781956076622009E-1   1.614426672458649E-1  
 5.650000000000000E7    -7.882058024406433E-1  -6.042159199714661E-1  -1.947401277720928E-2   8.647185564041138E-2  -1.969452202320099E-2   8.656577020883560E-2  -9.698879122734070E-1   2.033023834228516E-1  
 5.680000000000000E7    -8.086938261985779E-1  -5.771251320838928E-1  -1.623683795332909E-2   8.717016875743866E-2  -1.602984592318535E-2   8.695098012685776E-2  -9.607887864112854E-1   2.441989332437515E-1  
 5.710000000000000E7    -8.278255462646484E-1  -5.484122037887573E-1  -1.289577782154083E-2   8.738086372613907E-2  -1.278730109333992E-2   8.725085854530335E-2  -9.507020115852356E-1   2.811257839202881E-1  
 5.740000000000000E7    -8.466996550559998E-1  -5.203438401222229E-1  -9.711565449833870E-3   8.728983253240585E-2  -9.750761091709137E-3   8.717177808284760E-2  -9.396551847457886E-1   3.179787993431091E-1  
 5.770000000000000E7    -8.626244068145752E-1  -4.926014244556427E-1  -6.901574321091175E-3   8.686512708663940E-2  -6.767390295863152E-3   8.658725023269653E-2  -9.259486198425293E-1   3.515063524246216E-1  
 5.800000000000000E7    -8.789938092231751E-1  -4.619834721088409E-1  -3.671353682875633E-3   8.665517717599869E-2  -3.404435934498906E-3   8.619341999292374E-2  -9.142103195190430E-1   3.851659297943115E-1  
 5.830000000000000E7    -8.938723206520081E-1  -4.321409463882446E-1  -6.279053632169962E-4   8.574562519788742E-2  -5.301047349348664E-4   8.562317490577698E-2  -8.996251821517944E-1   4.163628220558167E-1  
 5.860000000000000E7    -9.094710350036621E-1  -4.024114906787872E-1   2.194340806454420E-3   8.494869619607925E-2   2.353607211261988E-3   8.501751720905304E-2  -8.854178190231323E-1   4.468877911567688E-1  
 5.890000000000000E7    -9.215849637985230E-1  -3.714601397514343E-1   4.866747651249170E-3   8.406117558479309E-2   4.850784782320261E-3   8.406104147434235E-2  -8.703505992889404E-1   4.754166305065155E-1  
 5.920000000000000E7    -9.338663816452026E-1  -3.387768864631653E-1   7.668188773095608E-3   8.316106349229813E-2   7.847376167774200E-3   8.287024497985840E-2  -8.558857440948486E-1   5.028520226478577E-1  
 5.950000000000000E7    -9.444140791893005E-1  -3.076872527599335E-1   1.035021245479584E-2   8.174408972263336E-2   1.017977204173803E-2   8.169004321098328E-2  -8.385323882102966E-1   5.288159251213074E-1  
 5.980000000000000E7    -9.547184705734253E-1  -2.752421498298645E-1   1.285465806722641E-2   8.072654902935028E-2   1.259999815374613E-2   8.043939620256424E-2  -8.229795694351196E-1   5.543404817581177E-1  
 6.010000000000000E7    -9.621337056159973E-1  -2.440080344676971E-1   1.477969810366631E-2   7.930125296115875E-2   1.486188918352127E-2   7.903118431568146E-2  -8.072570562362671E-1   5.770854353904724E-1  
 6.040000000000000E7    -9.707455635070801E-1  -2.099226266145706E-1   1.724699884653091E-2   7.770574837923050E-2   1.719211973249912E-2   7.777759432792664E-2  -7.910109758377075E-1   6.004014015197754E-1  
 6.070000000000000E7    -9.782465100288391E-1  -1.784804761409760E-1   1.926286146044731E-2   7.641930133104324E-2   1.914681866765022E-2   7.625640183687210E-2  -7.737994790077210E-1   6.212714314460754E-1  
 6.100000000000000E7    -9.832054972648621E-1  -1.453465223312378E-1   2.154241502285004E-2   7.474941760301590E-2   2.137900143861771E-2   7.460706681013107E-2  -7.573242187500000E-1   6.432011723518372E-1  
 6.130000000000000E7    -9.880222678184509E-1  -1.116703599691391E-1   2.332924678921700E-2   7.319752126932144E-2   2.337288670241833E-2   7.310674339532852E-2  -7.404495477676392E-1   6.629390716552734E-1  
 6.160000000000000E7    -9.907530546188355E-1  -7.879708707332611E-2   2.508703246712685E-2   7.123296707868576E-2   2.509710937738419E-2   7.117010653018951E-2  -7.225750088691711E-1   6.811217069625855E-1  
 6.190000000000000E7    -9.927791953086853E-1  -4.549103975296021E-2   2.663766965270042E-2   6.939536333084106E-2   2.676065638661385E-2   6.912487745285034E-2  -7.044013142585754E-1   6.988949775695801E-1  
 6.220000000000000E7    -9.940940141677856E-1  -1.213124394416809E-2   2.818877622485161E-2   6.758429110050201E-2   2.818175405263901E-2   6.759731471538544E-2  -6.888018846511841E-1   7.152556777000427E-1  
 6.250000000000000E7    -9.941905140876770E-1   2.146461606025696E-2   2.970856428146362E-2   6.572298705577850E-2   2.965578436851502E-2   6.573808938264847E-2  -6.721051335334778E-1   7.318053245544434E-1  
 6.280000000000000E7    -9.921671152114868E-1   5.502147972583771E-2   3.107035532593727E-2   6.389014422893524E-2   3.084051422774792E-2   6.387289613485336E-2  -6.545507907867432E-1   7.474541664123535E-1  
 6.310000000000000E7    -9.896169304847717E-1   8.962579071521759E-2   3.235448896884918E-2   6.201389804482460E-2   3.225392848253250E-2   6.190229952335358E-2  -6.368931531906128E-1   7.633288502693176E-1  
 6.340000000000000E7    -9.860038161277771E-1   1.220255643129349E-1   3.348305821418762E-2   5.994797125458717E-2   3.352853655815125E-2   5.985871329903603E-2  -6.197512149810791E-1   7.779396772384644E-1  
 6.370000000000000E7    -9.818402528762817E-1   1.554360836744309E-1   3.445445746183395E-2   5.807117372751236E-2   3.453882411122322E-2   5.787840858101845E-2  -6.017534136772156E-1   7.904593944549561E-1  
 6.400000000000000E7    -9.756103157997131E-1   1.881413161754608E-1   3.564465418457985E-2   5.613540112972260E-2   3.550963848829269E-2   5.581650510430336E-2  -5.851918458938599E-1   8.042114973068237E-1  
 6.430000000000000E7    -9.683803915977478E-1   2.222549319267273E-1   3.634529560804367E-2   5.401957407593727E-2   3.641767799854279E-2   5.371756479144096E-2  -5.672579407691956E-1   8.167166709899902E-1  
 6.460000000000000E7    -9.613494873046875E-1   2.551287114620209E-1   3.702311962842941E-2   5.197450146079063E-2   3.695409744977951E-2   5.182031542062759E-2  -5.497917532920837E-1   8.271695375442505E-1  
 6.490000000000000E7    -9.531665444374085E-1   2.867926955223084E-1   3.764095529913902E-2   4.998537525534630E-2   3.769145160913467E-2   4.998886585235596E-2  -5.338991880416870E-1   8.388586640357971E-1  
 6.520000000000000E7    -9.418124556541443E-1   3.186196088790894E-1   3.814823925495148E-2   4.797568172216415E-2   3.818826749920845E-2   4.771499708294869E-2  -5.164240002632141E-1   8.501483201980591E-1  
 6.550000000000000E7    -9.312114715576172E-1   3.497541546821594E-1   3.871262818574905E-2   4.597695171833038E-2   3.867825493216515E-2   4.588428512215614E-2  -4.988872706890106E-1   8.598136901855469E-1  
 6.580000000000000E7    -9.183471798896790E-1   3.815860152244568E-1   3.913994506001473E-2   4.387611150741577E-2   3.897110745310783E-2   4.379367083311081E-2  -4.824046194553375E-1   8.704434633255005E-1  
 6.610000000000000E7    -9.039852619171143E-1   4.123397469520569E-1   3.943727537989616E-2   4.196809604763985E-2   3.926009312272072E-2   4.152595624327660E-2  -4.637556672096252E-1   8.800174593925476E-1  
 6.640000000000000E7    -8.914475440979004E-1   4.431030750274658E-1   3.953803703188896E-2   3.991278633475304E-2   3.944454714655876E-2   3.994084894657135E-2  -4.471198320388794E-1   8.888130187988281E-1  
 6.670000000000000E7    -8.753146529197693E-1   4.726979136466980E-1   3.957391530275345E-2   3.789076581597328E-2   3.949177265167236E-2   3.789483755826950E-2  -4.311773180961609E-1   8.967081308364868E-1  
 6.700000000000000E7    -8.583335876464844E-1   5.022269487380981E-1   3.951558098196983E-2   3.594835847616196E-2   3.936984390020371E-2   3.576357662677765E-2  -4.137699007987976E-1   9.039402604103088E-1  
 6.730000000000000E7    -8.409476280212402E-1   5.309742093086243E-1   3.923256695270538E-2   3.398566693067551E-2   3.942937776446343E-2   3.392437100410461E-2  -3.977229297161102E-1   9.125639200210571E-1  
 6.760000000000000E7    -8.232115507125855E-1   5.596035122871399E-1   3.942102193832398E-2   3.207932785153389E-2   3.916824609041214E-2   3.201243653893471E-2  -3.799605071544647E-1   9.197186827659607E-1  
 6.790000000000000E7    -8.031428456306458E-1   5.874500274658203E-1   3.893392905592918E-2   3.022342547774315E-2   3.898910433053970E-2   3.019021824002266E-2  -3.637599349021912E-1   9.260106682777405E-1  
 6.820000000000000E7    -7.827597856521606E-1   6.134470701217651E-1   3.865668177604675E-2   2.836416848003864E-2   3.845886141061783E-2   2.830676361918449E-2  -3.475613594055176E-1   9.324563145637512E-1  
 6.850000000000000E7    -7.618119120597839E-1   6.409250497817993E-1   3.815139830112457E-2   2.671756967902184E-2   3.807987272739410E-2   2.653707936406136E-2  -3.313286304473877E-1   9.381816387176514E-1  
 6.880000000000000E7    -7.393822073936462E-1   6.658952236175537E-1   3.772599995136261E-2   2.480136603116989E-2   3.746757656335831E-2   2.466489374637604E-2  -3.139569163322449E-1   9.439213871955872E-1  
 6.910000000000000E7    -7.160733938217163E-1   6.909914612770081E-1   3.721353784203529E-2   2.304091304540634E-2   3.697140142321587E-2   2.303594537079334E-2  -2.975196838378906E-1   9.500333666801453E-1  
 6.940000000000000E7    -6.929827332496643E-1   7.153350710868835E-1   3.644182160496712E-2   2.143588475883007E-2   3.639063611626625E-2   2.140981331467629E-2  -2.820163965225220E-1   9.548074007034302E-1  
 6.970000000000000E7    -6.666877269744873E-1   7.382141351699829E-1   3.562445193529129E-2   1.969015598297119E-2   3.564469516277313E-2   1.961210928857327E-2  -2.652856111526489E-1   9.594304561614990E-1  
 7.000000000000000E7    -6.415439248085022E-1   7.614384293556213E-1   3.479492664337158E-2   1.812719926238060E-2   3.468633070588112E-2   1.796934753656387E-2  -2.491055876016617E-1   9.643478393554688E-1  
