#  HZ   S   RI   R     50.00 
! Rohde & Schwarz ZVT8 8Ports - Version 4.11 - 1300.0000k08 SN: 100242
! Date: 2026-07-31 14:52:38
! Measurements: S11 S21 S12 S22 
! 
 1.000000000000000E7    -4.071420431137085E-1   9.091852903366089E-1   5.029982328414917E-2   5.118329823017120E-2   5.020040273666382E-2   5.127776786684990E-2  -9.193486571311951E-1   3.835251331329346E-1  
 1.030000000000000E7    -3.753999769687653E-1   9.219968914985657E-1   5.338364467024803E-2   5.166877061128616E-2   5.328786745667458E-2   5.166685208678246E-2  -9.136695861816406E-1   3.962779939174652E-1  
 1.060000000000000E7    -3.399489223957062E-1   9.349352717399597E-1   5.663236230611801E-2   5.241050943732262E-2   5.662957578897476E-2   5.222949758172035E-2  -9.101735353469849E-1   4.080455899238586E-1  
 1.090000000000000E7    -3.084846735000610E-1   9.455085992813110E-1   5.985250324010849E-2   5.263812094926834E-2   5.974756553769112E-2   5.262144654989243E-2  -9.041767120361328E-1   4.198082983493805E-1  
 1.120000000000000E7    -2.735629379749298E-1   9.552283883094788E-1   6.352372467517853E-2   5.347638949751854E-2   6.295631825923920E-2   5.296451225876808E-2  -8.988276720046997E-1   4.310923516750336E-1  
 1.150000000000000E7    -2.384752035140991E-1   9.654930233955383E-1   6.650875508785248E-2   5.304497480392456E-2   6.629125773906708E-2   5.322805047035217E-2  -8.918933868408203E-1   4.403012096881867E-1  
 1.180000000000000E7    -2.043092399835587E-1   9.708767533302307E-1   6.991809606552124E-2   5.317368358373642E-2   6.987276673316956E-2   5.312813445925713E-2  -8.876521587371826E-1   4.514437019824982E-1  
 1.210000000000000E7    -1.703365743160248E-1   9.779082536697388E-1   7.359241694211960E-2   5.350191891193390E-2   7.350999116897583E-2   5.330253019928932E-2  -8.798491358757019E-1   4.639056026935577E-1  
 1.240000000000000E7    -1.353487372398377E-1   9.823449254035950E-1   7.700598239898682E-2   5.337462201714516E-2   7.718805968761444E-2   5.306344851851463E-2  -8.737526535987854E-1   4.732430279254913E-1  
 1.270000000000000E7    -9.994092583656311E-2   9.863553047180176E-1   8.133651316165924E-2   5.266675353050232E-2   8.071479201316834E-2   5.263855680823326E-2  -8.670759797096252E-1   4.872800707817078E-1  
 1.300000000000000E7    -6.574645638465881E-2   9.894408583641052E-1   8.483340591192246E-2   5.255230516195297E-2   8.470498770475388E-2   5.251942202448845E-2  -8.595939874649048E-1   4.975424706935883E-1  
 1.330000000000000E7    -2.990022674202919E-2   9.914005994796753E-1   8.901405334472656E-2   5.198532342910767E-2   8.873767405748367E-2   5.162457749247551E-2  -8.524919152259827E-1   5.091698169708252E-1  
 1.360000000000000E7     6.667181849479675E-3   9.914783835411072E-1   9.287194162607193E-2   5.163444206118584E-2   9.308210015296936E-2   5.089368671178818E-2  -8.453917503356934E-1   5.191220045089722E-1  
 1.390000000000000E7     4.115319997072220E-2   9.895902276039124E-1   9.731187671422958E-2   5.039101094007492E-2   9.693586081266403E-2   5.048291757702828E-2  -8.382439613342285E-1   5.300961136817932E-1  
 1.420000000000000E7     7.745571434497833E-2   9.879820942878723E-1   1.013209447264671E-1   4.963645711541176E-2   1.010802239179611E-1   4.948861151933670E-2  -8.320977687835693E-1   5.405357480049133E-1  
 1.450000000000000E7     1.127976253628731E-1   9.829114079475403E-1   1.054608672857285E-1   4.824321344494820E-2   1.054627597332001E-1   4.833247512578964E-2  -8.219700455665588E-1   5.533973574638367E-1  
 1.480000000000000E7     1.497772783041000E-1   9.779564738273621E-1   1.100078001618385E-1   4.690634459257126E-2   1.099796369671822E-1   4.711681604385376E-2  -8.146820664405823E-1   5.633826255798340E-1  
 1.510000000000000E7     1.843452602624893E-1   9.713461399078369E-1   1.141587495803833E-1   4.548289254307747E-2   1.141954734921455E-1   4.537206143140793E-2  -8.040828108787537E-1   5.746015906333923E-1  
 1.540000000000000E7     2.188113480806351E-1   9.636126756668091E-1   1.186087504029274E-1   4.455365240573883E-2   1.185213848948479E-1   4.398421943187714E-2  -7.990928292274475E-1   5.836855769157410E-1  
 1.570000000000000E7     2.549236416816711E-1   9.557012915611267E-1   1.233252361416817E-1   4.234758764505386E-2   1.233476847410202E-1   4.218985885381699E-2  -7.890439033508301E-1   5.962889790534973E-1  
 1.600000000000000E7     2.902714312076569E-1   9.437845349311829E-1   1.280200630426407E-1   4.009407758712769E-2   1.282951086759567E-1   3.983512520790100E-2  -7.806181311607361E-1   6.054325103759766E-1  
 1.630000000000000E7     3.241625726222992E-1   9.325440526008606E-1   1.332926452159882E-1   3.767938166856766E-2   1.326365917921066E-1   3.771544992923737E-2  -7.711574435234070E-1   6.176788210868835E-1  
 1.660000000000000E7     3.584982454776764E-1   9.179627895355225E-1   1.379130631685257E-1   3.502236679196358E-2   1.376886516809464E-1   3.469784185290337E-2  -7.599573731422424E-1   6.288198232650757E-1  
 1.690000000000000E7     3.918549418449402E-1   9.039540886878967E-1   1.429748982191086E-1   3.284896165132523E-2   1.425772607326508E-1   3.276230394840241E-2  -7.513659596443176E-1   6.383177042007446E-1  
 1.720000000000000E7     4.274813532829285E-1   8.879092931747437E-1   1.473188847303391E-1   2.927829325199127E-2   1.475991606712341E-1   2.964799478650093E-2  -7.411011457443237E-1   6.486008167266846E-1  
 1.750000000000000E7     4.558613896369934E-1   8.733525872230530E-1   1.529826521873474E-1   2.734390273690224E-2   1.530627459287643E-1   2.692306041717529E-2  -7.317277193069458E-1   6.606776714324951E-1  
 1.780000000000000E7     4.909449815750122E-1   8.512375950813294E-1   1.574442535638809E-1   2.332291938364506E-2   1.577474027872086E-1   2.349909022450447E-2  -7.207809090614319E-1   6.684999465942383E-1  
 1.810000000000000E7     5.217317938804627E-1   8.329602479934692E-1   1.636166274547577E-1   1.997154206037521E-2   1.625494360923767E-1   1.930161565542221E-2  -7.099506258964539E-1   6.820524334907532E-1  
 1.840000000000000E7     5.544629096984863E-1   8.115835189819336E-1   1.689348220825195E-1   1.491675805300474E-2   1.681970357894898E-1   1.542281080037355E-2  -6.978584527969360E-1   6.917554736137390E-1  
 1.870000000000000E7     5.826827287673950E-1   7.900024056434631E-1   1.740499585866928E-1   1.157403178513050E-2   1.733749508857727E-1   1.114319637417793E-2  -6.861067414283752E-1   7.016654014587402E-1  
 1.900000000000000E7     6.119582056999207E-1   7.665401697158814E-1   1.791377365589142E-1   7.261035963892937E-3   1.788033694028854E-1   6.862975656986237E-3  -6.743925809860230E-1   7.113485336303711E-1  
 1.930000000000000E7     6.413462162017822E-1   7.409107685089111E-1   1.843075901269913E-1   1.398611813783646E-3   1.845187842845917E-1   2.275180071592331E-3  -6.617194414138794E-1   7.232788205146790E-1  
 1.960000000000000E7     6.698386073112488E-1   7.140386104583740E-1   1.896594166755676E-1  -3.589781001210213E-3   1.896640360355377E-1  -2.941219136118889E-3  -6.509479880332947E-1   7.319692969322205E-1  
 1.990000000000000E7     6.943808197975159E-1   6.869251132011414E-1   1.949080526828766E-1  -9.110052138566971E-3   1.951209157705307E-1  -8.912998251616955E-3  -6.355474591255188E-1   7.434487938880920E-1  
 2.020000000000000E7     7.200969457626343E-1   6.580699086189270E-1   2.007382065057755E-1  -1.451408211141825E-2   2.000551223754883E-1  -1.453111227601767E-2  -6.230710744857788E-1   7.510055899620056E-1  
 2.050000000000000E7     7.464933395385742E-1   6.279963850975037E-1   2.059951573610306E-1  -2.054344862699509E-2   2.047295421361923E-1  -2.109326235949993E-2  -6.093236804008484E-1   7.607530355453491E-1  
 2.080000000000000E7     7.691574692726135E-1   5.957764387130737E-1   2.114977091550827E-1  -2.739649638533592E-2   2.113549560308456E-1  -2.726705931127071E-2  -5.954721570014954E-1   7.719400525093079E-1  
 2.110000000000000E7     7.923813462257385E-1   5.643099546432495E-1   2.171574234962463E-1  -3.508875891566277E-2   2.170126587152481E-1  -3.503801301121712E-2  -5.801255106925964E-1   7.812427878379822E-1  
 2.140000000000000E7     8.133642077445984E-1   5.314345359802246E-1   2.227129191160202E-1  -4.302218928933144E-2   2.215736359357834E-1  -4.223373532295227E-2  -5.651630163192749E-1   7.900348901748657E-1  
 2.170000000000000E7     8.315607905387878E-1   4.978545308113098E-1   2.278992831707001E-1  -5.053658038377762E-2   2.275343537330627E-1  -4.982478171586990E-2  -5.499715805053711E-1   7.990766167640686E-1  
 2.200000000000000E7     8.515242338180542E-1   4.607773721218109E-1   2.329060286283493E-1  -5.926668271422386E-2   2.328567653894424E-1  -5.896496772766113E-2  -5.327735543251038E-1   8.076129555702210E-1  
 2.230000000000000E7     8.671589493751526E-1   4.246885478496552E-1   2.382304370403290E-1  -6.825976818799973E-2   2.376299202442169E-1  -6.770920753479004E-2  -5.162665843963623E-1   8.160393238067627E-1  
 2.260000000000000E7     8.826369047164917E-1   3.871949911117554E-1   2.426535189151764E-1  -7.773512601852417E-2   2.442293465137482E-1  -7.735682278871536E-2  -4.998219907283783E-1   8.241825103759766E-1  
 2.290000000000000E7     8.966134190559387E-1   3.488597869873047E-1   2.479368895292282E-1  -8.771992474794388E-2   2.483553886413574E-1  -8.694913983345032E-2  -4.808859825134277E-1   8.315007686614990E-1  
 2.320000000000000E7     9.070510864257813E-1   3.099938929080963E-1   2.532100081443787E-1  -9.880891442298889E-2   2.526609599590302E-1  -9.911334514617920E-2  -4.630675613880158E-1   8.410983085632324E-1  
 2.350000000000000E7     9.176005125045776E-1   2.683309018611908E-1   2.578270435333252E-1  -1.110013276338577E-1   2.572959959506989E-1  -1.100785881280899E-1  -4.444945156574249E-1   8.481918573379517E-1  
 2.380000000000000E7     9.258919954299927E-1   2.285518795251846E-1   2.621529400348663E-1  -1.221164092421532E-1   2.620164155960083E-1  -1.219832003116608E-1  -4.254052340984345E-1   8.550343513488770E-1  
 2.410000000000000E7     9.327300786972046E-1   1.859295070171356E-1   2.660088241100311E-1  -1.354688704013825E-1   2.653472423553467E-1  -1.351012885570526E-1  -4.046182632446289E-1   8.611916899681091E-1  
 2.440000000000000E7     9.365472793579102E-1   1.444155275821686E-1   2.702526152133942E-1  -1.494775712490082E-1   2.701905667781830E-1  -1.493405997753143E-1  -3.853078484535217E-1   8.674255013465881E-1  
 2.470000000000000E7     9.384368658065796E-1   1.013830676674843E-1   2.733687758445740E-1  -1.641384214162827E-1   2.730264663696289E-1  -1.621454954147339E-1  -3.628927171230316E-1   8.713859319686890E-1  
 2.500000000000000E7     9.396013021469116E-1   5.780562385916710E-2   2.759480476379395E-1  -1.785441040992737E-1   2.759484350681305E-1  -1.790390908718109E-1  -3.403662741184235E-1   8.778450489044190E-1  
 2.530000000000000E7     9.375645518302918E-1   1.400397717952728E-2   2.791681885719299E-1  -1.942797452211380E-1   2.791660130023956E-1  -1.937341094017029E-1  -3.180159628391266E-1   8.813806772232056E-1  
 2.560000000000000E7     9.328257441520691E-1  -2.899622172117233E-2   2.809692621231079E-1  -2.103110849857330E-1   2.816815972328186E-1  -2.104914933443070E-1  -2.949080765247345E-1   8.848052024841309E-1  
 2.590000000000000E7     9.252582192420960E-1  -7.273641228675842E-2   2.821026742458344E-1  -2.293088287115097E-1   2.826306223869324E-1  -2.290965467691422E-1  -2.710335850715637E-1   8.897049427032471E-1  
 2.620000000000000E7     9.155048131942749E-1  -1.171480938792229E-1   2.828834950923920E-1  -2.485749721527100E-1   2.826023995876312E-1  -2.473614513874054E-1  -2.439717501401901E-1   8.913860917091370E-1  
 2.650000000000000E7     9.035184979438782E-1  -1.607298403978348E-1   2.832456827163696E-1  -2.666771709918976E-1   2.829657495021820E-1  -2.673184275627136E-1  -2.194534540176392E-1   8.919745683670044E-1  
 2.680000000000000E7     8.879321217536926E-1  -2.039569616317749E-1   2.827090024948120E-1  -2.874101400375366E-1   2.823586463928223E-1  -2.882591784000397E-1  -1.933513432741165E-1   8.922941088676453E-1  
 2.710000000000000E7     8.696061372756958E-1  -2.480222582817078E-1   2.789089381694794E-1  -3.101668655872345E-1   2.785287797451019E-1  -3.093875348567963E-1  -1.659062057733536E-1   8.922604322433472E-1  
 2.740000000000000E7     8.490118980407715E-1  -2.904682159423828E-1   2.775501310825348E-1  -3.318399190902710E-1   2.763466835021973E-1  -3.327627182006836E-1  -1.378828436136246E-1   8.875679969787598E-1  
 2.770000000000000E7     8.256850838661194E-1  -3.308718204498291E-1   2.716937065124512E-1  -3.559692800045013E-1   2.713847756385803E-1  -3.569744825363159E-1  -1.087615638971329E-1   8.847379684448242E-1  
 2.800000000000000E7     8.004915118217468E-1  -3.712594211101532E-1   2.658469676971436E-1  -3.798684775829315E-1   2.669987082481384E-1  -3.801429271697998E-1  -7.905223965644836E-2   8.783811926841736E-1  
 2.830000000000000E7     7.695031762123108E-1  -4.107360839843750E-1   2.577775716781616E-1  -4.046062231063843E-1   2.567903101444244E-1  -4.057550132274628E-1  -5.125664174556732E-2   8.725451231002808E-1  
 2.860000000000000E7     7.365883588790894E-1  -4.482847452163696E-1   2.478064596652985E-1  -4.318290054798126E-1   2.465587705373764E-1  -4.328791499137878E-1  -1.794322021305561E-2   8.630854487419128E-1  
 2.890000000000000E7     7.013021707534790E-1  -4.818890690803528E-1   2.349091917276382E-1  -4.602604508399963E-1   2.348463386297226E-1  -4.594131112098694E-1   1.217278651893139E-2   8.525503873825073E-1  
 2.920000000000000E7     6.624822020530701E-1  -5.160149931907654E-1   2.223715335130692E-1  -4.870240390300751E-1   2.203725576400757E-1  -4.870234429836273E-1   4.229259863495827E-2   8.394862413406372E-1  
 2.950000000000000E7     6.215374469757080E-1  -5.449255108833313E-1   2.043842077255249E-1  -5.179724693298340E-1   2.036454379558563E-1  -5.165492296218872E-1   7.574002444744110E-2   8.245875835418701E-1  
 2.980000000000000E7     5.768924355506897E-1  -5.722479820251465E-1   1.851106286048889E-1  -5.457265973091126E-1   1.843944787979126E-1  -5.468161106109619E-1   1.065881550312042E-1   8.060956001281738E-1  
 3.010000000000000E7     5.304769277572632E-1  -5.959266424179077E-1   1.609945297241211E-1  -5.757457613945007E-1   1.622064858675003E-1  -5.755057334899902E-1   1.379166394472122E-1   7.856491804122925E-1  
 3.040000000000000E7     4.792820811271668E-1  -6.155549287796021E-1   1.352448165416718E-1  -6.058257222175598E-1   1.339635998010635E-1  -6.062303185462952E-1   1.680912375450134E-1   7.600693106651306E-1  
 3.070000000000000E7     4.283163547515869E-1  -6.295900940895081E-1   1.041277945041657E-1  -6.336132884025574E-1   1.036770641803742E-1  -6.322522759437561E-1   1.984647959470749E-1   7.348642349243164E-1  
 3.100000000000000E7     3.747374415397644E-1  -6.384996771812439E-1   6.953069567680359E-2  -6.622607707977295E-1   6.941357254981995E-2  -6.602805256843567E-1   2.280483692884445E-1   7.055286169052124E-1  
 3.130000000000000E7     3.210310041904450E-1  -6.445604562759399E-1   3.054107353091240E-2  -6.880903840065002E-1   3.195231407880783E-2  -6.882699728012085E-1   2.536910176277161E-1   6.714986562728882E-1  
 3.160000000000000E7     2.653353214263916E-1  -6.411725878715515E-1  -1.191350072622299E-2  -7.133081555366516E-1  -1.157172396779060E-2  -7.132235765457153E-1   2.786477506160736E-1   6.367207765579224E-1  
 3.190000000000000E7     2.105126529932022E-1  -6.336947679519653E-1  -5.872197449207306E-2  -7.351439595222473E-1  -5.777136608958244E-2  -7.332242727279663E-1   3.018901050090790E-1   5.968056321144104E-1  
 3.220000000000000E7     1.556197106838226E-1  -6.216359138488770E-1  -1.082345917820931E-1  -7.546758055686951E-1  -1.084859594702721E-1  -7.527548074722290E-1   3.196857869625092E-1   5.553009510040283E-1  
 3.250000000000000E7     1.043064519762993E-1  -6.004621982574463E-1  -1.639043390750885E-1  -7.693192958831787E-1  -1.646310687065125E-1  -7.685433626174927E-1   3.355205655097961E-1   5.116721391677856E-1  
 3.280000000000000E7     5.590480566024780E-2  -5.730782747268677E-1  -2.233232408761978E-1  -7.799456119537354E-1  -2.214717268943787E-1  -7.776585221290588E-1   3.473652601242065E-1   4.635050892829895E-1  
 3.310000000000000E7     9.397625923156738E-3  -5.439672470092773E-1  -2.840746343135834E-1  -7.835291028022766E-1  -2.847251594066620E-1  -7.818949818611145E-1   3.522983193397522E-1   4.142085611820221E-1  
 3.340000000000000E7    -2.972946688532829E-2  -5.072616338729858E-1  -3.505701720714569E-1  -7.810878157615662E-1  -3.484647274017334E-1  -7.802291512489319E-1   3.540727198123932E-1   3.648468852043152E-1  
 3.370000000000000E7    -6.500616669654846E-2  -4.652369618415833E-1  -4.158065319061279E-1  -7.723758220672607E-1  -4.155332744121552E-1  -7.727719545364380E-1   3.483712375164032E-1   3.134532570838928E-1  
 3.400000000000000E7    -9.253264963626862E-2  -4.200746715068817E-1  -4.829523861408234E-1  -7.556298375129700E-1  -4.831297993659973E-1  -7.557287812232971E-1   3.370814919471741E-1   2.645337581634522E-1  
 3.430000000000000E7    -1.130853518843651E-1  -3.734906315803528E-1  -5.502253770828247E-1  -7.312982678413391E-1  -5.493131279945374E-1  -7.317032217979431E-1   3.230331540107727E-1   2.161011546850205E-1  
 3.460000000000000E7    -1.265531778335571E-1  -3.236263394355774E-1  -6.156157851219177E-1  -7.008135914802551E-1  -6.152809262275696E-1  -6.989428997039795E-1   3.006854355335236E-1   1.722018718719482E-1  
 3.490000000000000E7    -1.308050304651260E-1  -2.775316536426544E-1  -6.778746247291565E-1  -6.594381332397461E-1  -6.774949431419373E-1  -6.607697606086731E-1   2.762910425662994E-1   1.276327222585678E-1  
 3.520000000000000E7    -1.283030062913895E-1  -2.275791317224503E-1  -7.376589775085449E-1  -6.139339804649353E-1  -7.364184260368347E-1  -6.146937608718872E-1   2.444507479667664E-1   8.863658457994461E-2  
 3.550000000000000E7    -1.167822331190109E-1  -1.810844391584396E-1  -7.923766970634460E-1  -5.616183876991272E-1  -7.915138602256775E-1  -5.608314275741577E-1   2.080426365137100E-1   5.715411156415939E-2  
 3.580000000000000E7    -1.017582565546036E-1  -1.400516927242279E-1  -8.409026265144348E-1  -5.022813677787781E-1  -8.396790027618408E-1  -5.027108788490295E-1   1.708277910947800E-1   2.746973559260368E-2  
 3.610000000000000E7    -7.807581871747971E-2  -1.066623479127884E-1  -8.838547468185425E-1  -4.390453398227692E-1  -8.824308514595032E-1  -4.388531744480133E-1   1.308896094560623E-1   4.315496422350407E-3  
 3.640000000000000E7    -5.112031474709511E-2  -7.446030527353287E-2  -9.183038473129273E-1  -3.714747130870819E-1  -9.186995029449463E-1  -3.718954622745514E-1   8.752647042274475E-2  -1.112580113112927E-2  
 3.670000000000000E7    -2.038623578846455E-2  -5.038816481828690E-2  -9.483858346939087E-1  -3.018531203269959E-1  -9.457167983055115E-1  -3.016675114631653E-1   4.872588440775871E-2  -2.361786924302578E-2  
 3.700000000000000E7     1.006260514259338E-2  -3.299058228731155E-2  -9.680706262588501E-1  -2.290393114089966E-1  -9.676588773727417E-1  -2.297745198011398E-1   6.333538331091404E-3  -2.902712859213352E-2  
 3.730000000000000E7     4.247871786355972E-2  -1.924488879740238E-2  -9.816385507583618E-1  -1.561852246522903E-1  -9.807453751564026E-1  -1.575872004032135E-1  -3.169365972280502E-2  -2.861515246331692E-2  
 3.760000000000000E7     7.245668023824692E-2  -1.662066392600536E-2  -9.883170127868652E-1  -8.485534787178040E-2  -9.884684681892395E-1  -8.472567051649094E-2  -6.876650452613831E-2  -2.437982335686684E-2  
 3.790000000000000E7     1.058202162384987E-1  -1.953485049307346E-2  -9.897605776786804E-1  -1.261390931904316E-2  -9.889773726463318E-1  -1.369353756308556E-2  -1.020636633038521E-1  -1.894363760948181E-2  
 3.820000000000000E7     1.327837258577347E-1  -2.673192322254181E-2  -9.849862456321716E-1   5.620959028601646E-2  -9.840725660324097E-1   5.727022141218185E-2  -1.334222555160523E-1  -4.533070139586926E-3  
 3.850000000000000E7     1.602825820446014E-1  -3.689796105027199E-2  -9.749781489372253E-1   1.240630075335503E-1  -9.734937548637390E-1   1.261864900588989E-1  -1.624488234519959E-1   7.442649453878403E-3  
 3.880000000000000E7     1.789333522319794E-1  -5.033687129616737E-2  -9.591226577758789E-1   1.913518756628037E-1  -9.581212401390076E-1   1.898714751005173E-1  -1.872989386320114E-1   2.344249188899994E-2  
 3.910000000000000E7     1.999849528074265E-1  -6.857575476169586E-2  -9.394199848175049E-1   2.549312114715576E-1  -9.396798014640808E-1   2.547515332698822E-1  -2.054371386766434E-1   4.176457971334457E-2  
 3.940000000000000E7     2.125433534383774E-1  -9.062431752681732E-2  -9.150899052619934E-1   3.146659731864929E-1  -9.153448343276978E-1   3.147948682308197E-1  -2.230251580476761E-1   6.186543032526970E-2  
 3.970000000000000E7     2.234833091497421E-1  -1.127539426088333E-1  -8.886790275573731E-1   3.728198111057282E-1  -8.882152438163757E-1   3.733169436454773E-1  -2.330307066440582E-1   8.339641243219376E-2  
 4.000000000000000E7     2.281891405582428E-1  -1.343170553445816E-1  -8.587910532951355E-1   4.288283586502075E-1  -8.579660654067993E-1   4.288932383060455E-1  -2.426269203424454E-1   1.024968922138214E-1  
 4.030000000000000E7     2.253931015729904E-1  -1.571936905384064E-1  -8.267809152603149E-1   4.824003875255585E-1  -8.254212737083435E-1   4.815138578414917E-1  -2.488216757774353E-1   1.206414029002190E-1  
 4.060000000000000E7     2.240334153175354E-1  -1.800647079944611E-1  -7.906531691551209E-1   5.324409604072571E-1  -7.900743484497070E-1   5.329541563987732E-1  -2.491588443517685E-1   1.426460891962051E-1  
 4.090000000000000E7     2.182340472936630E-1  -2.009572833776474E-1  -7.519101500511169E-1   5.817954540252686E-1  -7.512317895889282E-1   5.814988613128662E-1  -2.499590963125229E-1   1.585049331188202E-1  
 4.120000000000000E7     2.064648121595383E-1  -2.237316071987152E-1  -7.117040157318115E-1   6.274330615997315E-1  -7.109381556510925E-1   6.280571222305298E-1  -2.426081299781799E-1   1.780918836593628E-1  
 4.150000000000000E7     1.886030435562134E-1  -2.373103052377701E-1  -6.682746410369873E-1   6.739108562469482E-1  -6.682602167129517E-1   6.705248951911926E-1  -2.335679531097412E-1   1.916877031326294E-1  
 4.180000000000000E7     1.712173819541931E-1  -2.508212924003601E-1  -6.222462654113770E-1   7.159853577613831E-1  -6.219505071640015E-1   7.141351103782654E-1  -2.258341610431671E-1   2.027620524168015E-1  
 4.210000000000000E7     1.478558778762817E-1  -2.596154808998108E-1  -5.734053254127502E-1   7.559877634048462E-1  -5.742629766464233E-1   7.563441395759583E-1  -2.110813409090042E-1   2.118304371833801E-1  
 4.240000000000000E7     1.229791641235352E-1  -2.658319771289825E-1  -5.223014354705811E-1   7.946830391883850E-1  -5.222754478454590E-1   7.948001623153687E-1  -1.948998123407364E-1   2.176085114479065E-1  
 4.270000000000000E7     9.762074798345566E-2  -2.641451358795166E-1  -4.669975042343140E-1   8.326042294502258E-1  -4.662216305732727E-1   8.320804238319397E-1  -1.778828948736191E-1   2.197190672159195E-1  
 4.300000000000000E7     7.017899304628372E-2  -2.590785920619965E-1  -4.071561992168427E-1   8.678287267684937E-1  -4.072201550006867E-1   8.663316369056702E-1  -1.579643040895462E-1   2.187370657920837E-1  
 4.330000000000000E7     4.366924241185188E-2  -2.498957961797714E-1  -3.440742790699005E-1   8.981979489326477E-1  -3.440378308296204E-1   8.989942073822022E-1  -1.366018056869507E-1   2.116770893335342E-1  
 4.360000000000000E7     1.303780823945999E-2  -2.310231328010559E-1  -2.767270207405090E-1   9.275388717651367E-1  -2.765687704086304E-1   9.261090755462647E-1  -1.162240579724312E-1   2.011361420154572E-1  
 4.390000000000000E7    -1.003381982445717E-2  -2.037837058305740E-1  -2.023526132106781E-1   9.519284367561340E-1  -2.015408128499985E-1   9.519810676574707E-1  -9.474512189626694E-2   1.784190088510513E-1  
 4.420000000000000E7    -2.830679528415203E-2  -1.724920868873596E-1  -1.225056424736977E-1   9.706984758377075E-1  -1.223785430192947E-1   9.699331521987915E-1  -7.564241439104080E-2   1.548618972301483E-1  
 4.450000000000000E7    -4.377507418394089E-2  -1.305334419012070E-1  -3.894816339015961E-2   9.835011363029480E-1  -3.740490227937698E-2   9.828780889511108E-1  -5.837566778063774E-2   1.252449750900269E-1  
 4.480000000000000E7    -4.985395818948746E-2  -8.317606151103973E-2   5.194255337119103E-2   9.868661165237427E-1   5.233493074774742E-2   9.867546558380127E-1  -4.663410410284996E-2   8.549729734659195E-2  
 4.510000000000000E7    -4.553602263331413E-2  -2.945443242788315E-2   1.480582356452942E-1   9.804260730743408E-1   1.471059769392014E-1   9.793583154678345E-1  -4.108487069606781E-2   3.925703093409538E-2  
 4.540000000000000E7    -2.354350686073303E-2   2.541249245405197E-2   2.465250790119171E-1   9.594923257827759E-1   2.460934221744537E-1   9.611425995826721E-1  -4.258471354842186E-2  -1.063198782503605E-2  
 4.570000000000000E7     9.279942139983177E-3   8.072167634963989E-2   3.473463654518127E-1   9.255190491676331E-1   3.465355932712555E-1   9.246689677238464E-1  -5.655552074313164E-2  -6.997875869274139E-2  
 4.600000000000000E7     5.813761427998543E-2   1.374139785766602E-1   4.439027905464172E-1   8.740171790122986E-1   4.439428448677063E-1   8.740130066871643E-1  -8.664282411336899E-2  -1.279409527778626E-1  
 4.630000000000000E7     1.258459836244583E-1   1.789320409297943E-1   5.350949168205261E-1   8.052580356597900E-1   5.348796248435974E-1   8.029827475547791E-1  -1.281494051218033E-1  -1.824302673339844E-1  
 4.660000000000000E7     2.080598026514053E-1   2.043702453374863E-1   6.153390407562256E-1   7.198274731636047E-1   6.140899062156677E-1   7.186862230300903E-1  -1.848782002925873E-1  -2.346358150243759E-1  
 4.690000000000000E7     3.016308844089508E-1   2.157750278711319E-1   6.782940626144409E-1   6.194294095039368E-1   6.784589886665344E-1   6.175567507743835E-1  -2.534431219100952E-1  -2.763744890689850E-1  
 4.720000000000000E7     3.981382846832275E-1   2.012436091899872E-1   7.227504849433899E-1   5.098667740821838E-1   7.214842438697815E-1   5.099104046821594E-1  -3.344958126544952E-1  -3.003689050674439E-1  
 4.750000000000000E7     4.933827817440033E-1   1.631874591112137E-1   7.428624033927918E-1   3.972765207290649E-1   7.432572841644287E-1   3.966600298881531E-1  -4.201554358005524E-1  -3.108158409595490E-1  
 4.780000000000000E7     5.774412155151367E-1   1.045528426766396E-1   7.448173165321350E-1   2.874622941017151E-1   7.416787147521973E-1   2.877190113067627E-1  -5.090075731277466E-1  -3.019452393054962E-1  
 4.810000000000000E7     6.510739922523499E-1   2.809075638651848E-2   7.233486175537109E-1   1.849775314331055E-1   7.212626338005066E-1   1.848334074020386E-1  -5.925926566123962E-1  -2.765595912933350E-1  
 4.840000000000000E7     7.038954496383667E-1  -6.187098473310471E-2   6.881787776947022E-1   9.564028680324554E-2   6.869977712631226E-1   9.525693207979202E-2  -6.673026084899902E-1  -2.366495281457901E-1  
 4.870000000000000E7     7.382953166961670E-1  -1.588052064180374E-1   6.429421305656433E-1   1.910353451967239E-2   6.412442326545715E-1   2.005563862621784E-2  -7.325287461280823E-1  -1.869463324546814E-1  
 4.900000000000000E7     7.534462809562683E-1  -2.567622959613800E-1   5.904455780982971E-1  -4.188742116093636E-2   5.902124643325806E-1  -4.332347214221954E-2  -7.868428826332092E-1  -1.301287412643433E-1  
 4.930000000000000E7     7.530983090400696E-1  -3.527176678180695E-1   5.352134108543396E-1  -9.086859226226807E-2   5.346807837486267E-1  -9.055083245038986E-2  -8.304222226142883E-1  -6.822356581687927E-2  
 4.960000000000000E7     7.359856963157654E-1  -4.448373019695282E-1   4.796507358551025E-1  -1.280170679092407E-1   4.793224930763245E-1  -1.276123374700546E-1  -8.607713580131531E-1  -6.006108596920967E-3  
 4.990000000000000E7     7.092285752296448E-1  -5.278808474540710E-1   4.271562993526459E-1  -1.527586579322815E-1   4.255909919738770E-1  -1.523888409137726E-1  -8.833190798759460E-1   5.496728792786598E-2  
 5.020000000000000E7     6.725395917892456E-1  -6.039368510246277E-1   3.763373792171478E-1  -1.691381186246872E-1   3.765288591384888E-1  -1.680996865034103E-1  -8.975678682327271E-1   1.164147630333901E-1  
 5.050000000000000E7     6.279677748680115E-1  -6.723940372467041E-1   3.308986425399780E-1  -1.793871521949768E-1   3.304589986801148E-1  -1.792793571949005E-1  -9.050745368003845E-1   1.730278134346008E-1  
 5.080000000000000E7     5.791311860084534E-1  -7.324981689453125E-1   2.886887192726135E-1  -1.833714097738266E-1   2.884531319141388E-1  -1.829242259263992E-1  -9.053254723548889E-1   2.285484224557877E-1  
 5.110000000000000E7     5.267242789268494E-1  -7.838540673255920E-1   2.514447569847107E-1  -1.841154098510742E-1   2.513134479522705E-1  -1.837948560714722E-1  -9.026806950569153E-1   2.781591415405273E-1  
 5.140000000000000E7     4.707201123237610E-1  -8.296681046485901E-1   2.180696576833725E-1  -1.816570013761520E-1   2.183371335268021E-1  -1.817406564950943E-1  -8.976505994796753E-1   3.259409666061401E-1  
 5.170000000000000E7     4.147129058837891E-1  -8.660737872123718E-1   1.885885149240494E-1  -1.770251542329788E-1   1.884147971868515E-1  -1.767375171184540E-1  -8.873021006584168E-1   3.694695532321930E-1  
 5.200000000000000E7     3.577762544155121E-1  -8.992184400558472E-1   1.623266190290451E-1  -1.704120188951492E-1   1.630845814943314E-1  -1.698403507471085E-1  -8.741514086723328E-1   4.113939702510834E-1  
 5.230000000000000E7     2.998379766941071E-1  -9.246845245361328E-1   1.399087458848953E-1  -1.626731902360916E-1   1.396685987710953E-1  -1.629404425621033E-1  -8.619136214256287E-1   4.480960965156555E-1  
 5.260000000000000E7     2.419291585683823E-1  -9.450973272323608E-1   1.198564469814301E-1  -1.551710665225983E-1   1.198523938655853E-1  -1.547968685626984E-1  -8.475704789161682E-1   4.842313528060913E-1  
 5.290000000000000E7     1.853474825620651E-1  -9.623920917510986E-1   1.020577847957611E-1  -1.465578824281693E-1   1.021511852741242E-1  -1.461873948574066E-1  -8.318376541137695E-1   5.156446099281311E-1  
 5.320000000000000E7     1.304175704717636E-1  -9.745018482208252E-1   8.698691427707672E-2  -1.377267390489578E-1   8.714852482080460E-2  -1.380583792924881E-1  -8.164366483688355E-1   5.464057922363281E-1  
 5.350000000000000E7     7.514641433954239E-2  -9.816997647285461E-1   7.369971275329590E-2  -1.289837211370468E-1   7.367372512817383E-2  -1.290824711322784E-1  -8.000428676605225E-1   5.734141469001770E-1  
 5.380000000000000E7     2.134213596582413E-2  -9.856019020080566E-1   6.223716959357262E-2  -1.205477491021156E-1   6.186357885599136E-2  -1.203457564115524E-1  -7.814682722091675E-1   6.006785035133362E-1  
 5.410000000000000E7    -3.181609511375427E-2  -9.890550971031189E-1   5.220828205347061E-2  -1.125263273715973E-1   5.189692974090576E-2  -1.126522123813629E-1  -7.653415203094482E-1   6.250643730163574E-1  
 5.440000000000000E7    -8.378357440233231E-2  -9.863817691802979E-1   4.336550831794739E-2  -1.046225056052208E-1   4.315446317195892E-2  -1.044814363121986E-1  -7.477187514305115E-1   6.475616097450256E-1  
 5.470000000000000E7    -1.323772519826889E-1  -9.821086525917053E-1   3.569744527339935E-2  -9.686912596225739E-2   3.568420186638832E-2  -9.697779268026352E-2  -7.293929457664490E-1   6.692622303962708E-1  
 5.500000000000000E7    -1.818631291389465E-1  -9.755328297615051E-1   2.927394583821297E-2  -8.976933360099793E-2   2.912527136504650E-2  -8.950104564428330E-2  -7.123804688453674E-1   6.899651288986206E-1  
 5.530000000000000E7    -2.293340265750885E-1  -9.660937190055847E-1   2.372210472822189E-2  -8.256915956735611E-2   2.353009954094887E-2  -8.279087394475937E-2  -6.944113969802856E-1   7.081626057624817E-1  
 5.560000000000000E7    -2.761967182159424E-1  -9.547790288925171E-1   1.873565465211868E-2  -7.632945477962494E-2   1.875131949782372E-2  -7.596756517887116E-2  -6.773705482482910E-1   7.258155345916748E-1  
 5.590000000000000E7    -3.200031518936157E-1  -9.419528245925903E-1   1.460475660860539E-2  -6.990949064493179E-2   1.449590362608433E-2  -6.983188539743424E-2  -6.593266129493713E-1   7.431175708770752E-1  
 5.620000000000000E7    -3.643197417259216E-1  -9.253026843070984E-1   1.113309804350138E-2  -6.404736638069153E-2   1.101919077336788E-2  -6.371214985847473E-2  -6.424371004104614E-1   7.583899497985840E-1  
 5.650000000000000E7    -4.048358500003815E-1  -9.086773395538330E-1   8.065447211265564E-3  -5.843069404363632E-2   8.024783805012703E-3  -5.850128456950188E-2  -6.249312162399292E-1   7.731316089630127E-1  
 5.680000000000000E7    -4.456564486026764E-1  -8.903673291206360E-1   5.504069849848747E-3  -5.332371965050697E-2   5.508081987500191E-3  -5.336065590381622E-2  -6.071786880493164E-1   7.875433564186096E-1  
 5.710000000000000E7    -4.852632582187653E-1  -8.693464994430542E-1   3.296578302979469E-3  -4.859914258122444E-2   3.368614008650184E-3  -4.854127392172813E-2  -5.907545089721680E-1   8.002664446830750E-1  
 5.740000000000000E7    -5.235140323638916E-1  -8.480963110923767E-1   1.592004671692848E-3  -4.408991709351540E-2   1.589875202625990E-3  -4.408112913370132E-2  -5.734264850616455E-1   8.134273290634155E-1  
 5.770000000000000E7    -5.577966570854187E-1  -8.250017762184143E-1   3.242795355618000E-4  -3.986421599984169E-2   3.778524696826935E-4  -3.971153125166893E-2  -5.568870306015015E-1   8.236845135688782E-1  
 5.800000000000000E7    -5.934001207351685E-1  -7.996886968612671E-1  -7.843161001801491E-4  -3.602010011672974E-2  -1.099138986319304E-3  -3.585684671998024E-2  -5.402619838714600E-1   8.368874788284302E-1  
 5.830000000000000E7    -6.264312267303467E-1  -7.744989395141602E-1  -1.803368213586509E-3  -3.233226016163826E-2  -1.895690918900073E-3  -3.232933580875397E-2  -5.239848494529724E-1   8.469879627227783E-1  
 5.860000000000000E7    -6.590589284896851E-1  -7.490481734275818E-1  -2.488983329385519E-3  -2.895699441432953E-2  -2.489241771399975E-3  -2.902031876146793E-2  -5.068783164024353E-1   8.571710586547852E-1  
 5.890000000000000E7    -6.888383626937866E-1  -7.202168703079224E-1  -3.061909461393952E-3  -2.587996982038021E-2  -2.917065285146236E-3  -2.588729560375214E-2  -4.905945360660553E-1   8.661196827888489E-1  
 5.920000000000000E7    -7.183064818382263E-1  -6.912361979484558E-1  -3.376383800059557E-3  -2.307518571615219E-2  -3.438320942223072E-3  -2.298033237457275E-2  -4.745973944664002E-1   8.763428926467896E-1  
 5.950000000000000E7    -7.454745173454285E-1  -6.613535284996033E-1  -3.621012903749943E-3  -2.038081549108028E-2  -3.561300225555897E-3  -2.037337608635426E-2  -4.574519693851471E-1   8.835480213165283E-1  
 5.980000000000000E7    -7.723230123519898E-1  -6.308953762054443E-1  -3.796824254095554E-3  -1.802255213260651E-2  -3.725163638591766E-3  -1.794025488197804E-2  -4.414444267749786E-1   8.927949070930481E-1  
 6.010000000000000E7    -7.948148250579834E-1  -5.995268225669861E-1  -3.671079175546765E-3  -1.581071875989437E-2  -3.679175861179829E-3  -1.575000584125519E-2  -4.265305697917938E-1   9.006118178367615E-1  
 6.040000000000000E7    -8.195468187332153E-1  -5.670155286788940E-1  -3.632722422480583E-3  -1.380086131393910E-2  -3.659264650195837E-3  -1.377015747129917E-2  -4.106004536151886E-1   9.086512327194214E-1  
 6.070000000000000E7    -8.408423066139221E-1  -5.363083481788635E-1  -3.544967388734222E-3  -1.194433029741049E-2  -3.509722650051117E-3  -1.198124140501022E-2  -3.949130177497864E-1   9.147055745124817E-1  
 6.100000000000000E7    -8.607242107391357E-1  -5.024353861808777E-1  -3.415626473724842E-3  -1.031309552490711E-2  -3.395184408873320E-3  -1.027923729270697E-2  -3.783811926841736E-1   9.224165081977844E-1  
 6.130000000000000E7    -8.806666731834412E-1  -4.683430492877960E-1  -3.158998675644398E-3  -8.834117092192173E-3  -3.129004500806332E-3  -8.792642503976822E-3  -3.626704216003418E-1   9.290462732315064E-1  
 6.160000000000000E7    -8.973991274833679E-1  -4.340935945510864E-1  -2.889934927225113E-3  -7.477010134607554E-3  -2.893342636525631E-3  -7.449981756508350E-3  -3.474672734737396E-1   9.331495761871338E-1  
 6.190000000000000E7    -9.131186008453369E-1  -3.988938331604004E-1  -2.582495566457510E-3  -6.246780045330524E-3  -2.611012430861592E-3  -6.265837699174881E-3  -3.318882584571838E-1   9.384909272193909E-1  
 6.220000000000000E7    -9.277611374855042E-1  -3.643838763237000E-1  -2.343823434785008E-3  -5.174726247787476E-3  -2.335302531719208E-3  -5.201032385230064E-3  -3.180019259452820E-1   9.445639848709106E-1  
 6.250000000000000E7    -9.412125349044800E-1  -3.285112082958221E-1  -2.034245990216732E-3  -4.251820966601372E-3  -2.051364164799452E-3  -4.239875823259354E-3  -3.027883172035217E-1   9.497500061988831E-1  
 6.280000000000000E7    -9.523040652275085E-1  -2.925131320953369E-1  -1.715645776130259E-3  -3.388184821233153E-3  -1.759044127538800E-3  -3.439085092395544E-3  -2.874563336372376E-1   9.547039270401001E-1  
 6.310000000000000E7    -9.634696841239929E-1  -2.548389434814453E-1  -1.487212255597115E-3  -2.701372141018510E-3  -1.454813522286713E-3  -2.682325430214405E-3  -2.722085714340210E-1   9.593879580497742E-1  
 6.340000000000000E7    -9.716917276382446E-1  -2.190745472908020E-1  -1.198946032673121E-3  -2.099921228364110E-3  -1.207857858389616E-3  -2.085963729768992E-3  -2.568612098693848E-1   9.638562798500061E-1  
 6.370000000000000E7    -9.795070290565491E-1  -1.827094405889511E-1  -9.428495541214943E-4  -1.561704324558377E-3  -9.362919954583049E-4  -1.566383638419211E-3  -2.419893443584442E-1   9.663093090057373E-1  
 6.400000000000000E7    -9.848914146423340E-1  -1.457735747098923E-1  -7.012975984252989E-4  -1.096168416552246E-3  -7.216017693281174E-4  -1.121486886404455E-3  -2.274131327867508E-1   9.712748527526856E-1  
 6.430000000000000E7    -9.898024797439575E-1  -1.079055219888687E-1  -5.037015071138740E-4  -7.426899392157793E-4  -5.260481848381460E-4  -7.836220320314169E-4  -2.120374143123627E-1   9.742072820663452E-1  
 6.460000000000000E7    -9.941514730453491E-1  -7.179543375968933E-2  -3.525681677274406E-4  -4.733848618343473E-4  -3.065665659960359E-4  -4.752106615342200E-4  -1.980843842029572E-1   9.759765267372131E-1  
 6.490000000000000E7    -9.962553977966309E-1  -3.583057224750519E-2  -1.986851711990312E-4  -2.755972964223474E-4  -1.834086142480373E-4  -2.769368002191186E-4  -1.841606944799423E-1   9.797872304916382E-1  
 6.520000000000000E7    -9.963961243629456E-1   9.525120258331299E-4  -1.005666417768225E-4  -1.134408012148924E-4  -8.869713201420382E-5  -1.360170426778495E-4  -1.692422777414322E-1   9.830113053321838E-1  
 6.550000000000000E7    -9.958752989768982E-1   3.708845376968384E-2  -1.167879236163572E-5  -1.298055849474622E-5  -1.883464392449241E-5  -3.425526665523648E-5  -1.543667614459992E-1   9.838821887969971E-1  
 6.580000000000000E7    -9.935351014137268E-1   7.441479712724686E-2   1.349405829387251E-5   4.582974361255765E-5   1.479017555539031E-5   2.280766057083383E-5  -1.400353610515595E-1   9.873374700546265E-1  
 6.610000000000000E7    -9.890273809432983E-1   1.111667901277542E-1   8.297649401356466E-6   1.055217762768734E-5  -9.354008398076985E-6   7.365914825641085E-6  -1.241611391305924E-1   9.888309240341187E-1  
 6.640000000000000E7    -9.860111474990845E-1   1.459302604198456E-1  -6.379635306075215E-5  -3.982584530604072E-5  -4.856724990531802E-5  -3.047795507882256E-5  -1.098392158746719E-1   9.909090399742127E-1  
 6.670000000000000E7    -9.793846607208252E-1   1.821636706590653E-1  -1.381447655148804E-4  -1.324864133493975E-4  -1.781960600055754E-4  -1.394771243212745E-4  -9.728734195232391E-2   9.923301339149475E-1  
 6.700000000000000E7    -9.719187617301941E-1   2.178245484828949E-1  -2.866243885364384E-4  -2.170791558455676E-4  -3.038919530808926E-4  -2.083075814880431E-4  -8.256882429122925E-2   9.928108453750610E-1  
 6.730000000000000E7    -9.634882807731628E-1   2.529447078704834E-1  -5.092955543659627E-4  -3.571429115254432E-4  -4.956279881298542E-4  -3.662192611955106E-4  -6.800219416618347E-2   9.949952363967896E-1  
 6.760000000000000E7    -9.542181491851807E-1   2.871788144111633E-1  -7.431424455717206E-4  -5.296991439536214E-4  -7.495357422158122E-4  -5.444162525236607E-4  -5.342692136764526E-2   9.956411719322205E-1  
 6.790000000000000E7    -9.426434636116028E-1   3.217325806617737E-1  -1.013298053294420E-3  -7.426954107359052E-4  -1.044496893882752E-3  -7.090810104273260E-4  -3.983016312122345E-2   9.954041242599487E-1  
 6.820000000000000E7    -9.302713871002197E-1   3.551996946334839E-1  -1.357982167974114E-3  -9.094445267692208E-4  -1.379432156682015E-3  -9.300644160248339E-4  -2.624961733818054E-2   9.962838292121887E-1  
 6.850000000000000E7    -9.176313877105713E-1   3.891261816024780E-1  -1.753318239934743E-3  -1.133949495851994E-3  -1.735208323225379E-3  -1.137708895839751E-3  -1.285352557897568E-2   9.965545535087585E-1  
 6.880000000000000E7    -9.025396108627319E-1   4.215106964111328E-1  -2.211352577432990E-3  -1.328773912973702E-3  -2.207092707976699E-3  -1.337205758318305E-3   1.832745969295502E-3   9.963998794555664E-1  
 6.910000000000000E7    -8.867164254188538E-1   4.535102844238281E-1  -2.679136814549565E-3  -1.559889409691095E-3  -2.665398176759481E-3  -1.542742946185172E-3   1.621131598949432E-2   9.968248009681702E-1  
 6.940000000000000E7    -8.707038760185242E-1   4.847198128700256E-1  -3.213722957298160E-3  -1.754894503392279E-3  -3.226661588996649E-3  -1.765833236277103E-3   2.909208834171295E-2   9.961565136909485E-1  
 6.970000000000000E7    -8.516597151756287E-1   5.163289308547974E-1  -3.827238921076059E-3  -1.977851847186685E-3  -3.816703101620078E-3  -1.954186474904418E-3   4.359165206551552E-2   9.956359863281250E-1  
 7.000000000000000E7    -8.332669138908386E-1   5.469584465026856E-1  -4.473549779504538E-3  -2.183615695685148E-3  -4.420321434736252E-3  -2.145133912563324E-3   5.692831426858902E-2   9.953190684318543E-1  
