#  HZ   S   RI   R     50.00 
! Rohde & Schwarz ZVT8 8Ports - Version 4.11 - 1300.0000k08 SN: 100242
! Date: 2026-07-31 15:07:12
! Measurements: S11 S21 S12 S22 
! 
 1.000000000000000E7    -4.028703272342682E-1   9.112958312034607E-1   5.131284147500992E-2   5.196986719965935E-2   5.098519846796989E-2   5.183194950222969E-2  -9.198593497276306E-1   3.823764324188232E-1  
 1.030000000000000E7    -3.699412643909454E-1   9.238830804824829E-1   5.449808761477470E-2   5.221148207783699E-2   5.407017469406128E-2   5.231098830699921E-2  -9.141120910644531E-1   3.943059444427490E-1  
 1.060000000000000E7    -3.338274359703064E-1   9.369418621063232E-1   5.777410045266151E-2   5.322921648621559E-2   5.769602581858635E-2   5.310080200433731E-2  -9.107936024665833E-1   4.059073328971863E-1  
 1.090000000000000E7    -3.022864758968353E-1   9.471462965011597E-1   6.114997714757919E-2   5.351297557353973E-2   6.102602183818817E-2   5.344867333769798E-2  -9.050182700157166E-1   4.176008105278015E-1  
 1.120000000000000E7    -2.662186026573181E-1   9.565391540527344E-1   6.465244293212891E-2   5.429584905505180E-2   6.435220688581467E-2   5.387117341160774E-2  -8.995106220245361E-1   4.292006492614746E-1  
 1.150000000000000E7    -2.306829988956451E-1   9.670958518981934E-1   6.814640015363693E-2   5.392976105213165E-2   6.810017675161362E-2   5.410361289978027E-2  -8.927763700485230E-1   4.381590485572815E-1  
 1.180000000000000E7    -1.955919265747070E-1   9.724747538566589E-1   7.169126719236374E-2   5.439951270818710E-2   7.158524543046951E-2   5.413313210010529E-2  -8.887647390365601E-1   4.483979046344757E-1  
 1.210000000000000E7    -1.608089655637741E-1   9.788622260093689E-1   7.564538717269898E-2   5.438717454671860E-2   7.550384104251862E-2   5.432102084159851E-2  -8.814314007759094E-1   4.609228968620300E-1  
 1.240000000000000E7    -1.251034289598465E-1   9.833664298057556E-1   7.931059598922730E-2   5.461964011192322E-2   7.942582666873932E-2   5.407442897558212E-2  -8.748744130134583E-1   4.699752628803253E-1  
 1.270000000000000E7    -8.890649676322937E-2   9.868215918540955E-1   8.367384225130081E-2   5.388258770108223E-2   8.343164622783661E-2   5.360765010118485E-2  -8.681226968765259E-1   4.840235412120819E-1  
 1.300000000000000E7    -5.301680788397789E-2   9.898301959037781E-1   8.750548213720322E-2   5.373205244541168E-2   8.734827488660812E-2   5.369736626744270E-2  -8.611863255500794E-1   4.935117363929749E-1  
 1.330000000000000E7    -1.622114330530167E-2   9.912313818931580E-1   9.207601845264435E-2   5.310938134789467E-2   9.190398454666138E-2   5.273751169443131E-2  -8.544135093688965E-1   5.052447915077210E-1  
 1.360000000000000E7     2.168711647391319E-2   9.908202290534973E-1   9.626382589340210E-2   5.268206074833870E-2   9.642378985881805E-2   5.235740169882774E-2  -8.476400375366211E-1   5.147489905357361E-1  
 1.390000000000000E7     5.683773010969162E-2   9.881138801574707E-1   1.009401604533196E-1   5.160134658217430E-2   1.004675403237343E-1   5.178541690111160E-2  -8.401890993118286E-1   5.257821679115295E-1  
 1.420000000000000E7     9.474600851535797E-2   9.856317639350891E-1   1.052842661738396E-1   5.089172720909119E-2   1.052461490035057E-1   5.087172240018845E-2  -8.345934748649597E-1   5.358916521072388E-1  
 1.450000000000000E7     1.312329471111298E-1   9.800053238868713E-1   1.101311147212982E-1   4.941271245479584E-2   1.098612993955612E-1   4.943643137812614E-2  -8.245431780815125E-1   5.478085279464722E-1  
 1.480000000000000E7     1.696190983057022E-1   9.742505550384522E-1   1.150007545948029E-1   4.801757633686066E-2   1.148714572191238E-1   4.818778857588768E-2  -8.176134228706360E-1   5.577669143676758E-1  
 1.510000000000000E7     2.055904418230057E-1   9.658939838409424E-1   1.196230351924896E-1   4.636607691645622E-2   1.195833832025528E-1   4.644468426704407E-2  -8.073261380195618E-1   5.689888596534729E-1  
 1.540000000000000E7     2.420968413352966E-1   9.571496844291687E-1   1.247600242495537E-1   4.545341804623604E-2   1.246929466724396E-1   4.494829848408699E-2  -8.019022941589356E-1   5.782874822616577E-1  
 1.570000000000000E7     2.793149650096893E-1   9.480000734329224E-1   1.299114525318146E-1   4.300892725586891E-2   1.298994570970535E-1   4.304462671279907E-2  -7.927353978157044E-1   5.901102423667908E-1  
 1.600000000000000E7     3.163394629955292E-1   9.345463514328003E-1   1.351208239793778E-1   4.074881225824356E-2   1.353285014629364E-1   4.062203317880631E-2  -7.846903204917908E-1   5.987218618392944E-1  
 1.630000000000000E7     3.521173894405365E-1   9.208368062973023E-1   1.410339772701263E-1   3.839442133903503E-2   1.404904127120972E-1   3.829945623874664E-2  -7.751944065093994E-1   6.107575893402100E-1  
 1.660000000000000E7     3.881236314773560E-1   9.040497541427612E-1   1.466427594423294E-1   3.544345498085022E-2   1.462761461734772E-1   3.497853502631187E-2  -7.648360133171082E-1   6.214348673820496E-1  
 1.690000000000000E7     4.235620796680450E-1   8.873709440231323E-1   1.522787064313889E-1   3.303128853440285E-2   1.518974900245667E-1   3.256599232554436E-2  -7.561439871788025E-1   6.305489540100098E-1  
 1.720000000000000E7     4.610202908515930E-1   8.691379427909851E-1   1.576245129108429E-1   2.890202775597572E-2   1.575037240982056E-1   2.926155552268028E-2  -7.461410760879517E-1   6.398746967315674E-1  
 1.750000000000000E7     4.914269149303436E-1   8.513512015342712E-1   1.643011122941971E-1   2.671838551759720E-2   1.643684804439545E-1   2.628518454730511E-2  -7.375056743621826E-1   6.517640352249146E-1  
 1.780000000000000E7     5.283253192901611E-1   8.262773156166077E-1   1.695125102996826E-1   2.209102362394333E-2   1.696066260337830E-1   2.248341403901577E-2  -7.263700962066650E-1   6.591662168502808E-1  
 1.810000000000000E7     5.604983568191528E-1   8.041740655899048E-1   1.766374558210373E-1   1.809622719883919E-2   1.757245510816574E-1   1.760948076844215E-2  -7.159459590911865E-1   6.719927787780762E-1  
 1.840000000000000E7     5.951319932937622E-1   7.788999676704407E-1   1.832781583070755E-1   1.268448121845722E-2   1.822928339242935E-1   1.296017318964005E-2  -7.044779658317566E-1   6.813312768936157E-1  
 1.870000000000000E7     6.253425478935242E-1   7.526478171348572E-1   1.893178075551987E-1   8.300997316837311E-3   1.885728538036346E-1   7.918564602732658E-3  -6.929705142974854E-1   6.903296709060669E-1  
 1.900000000000000E7     6.562114357948303E-1   7.244605422019959E-1   1.958781182765961E-1   3.264177590608597E-3   1.955164074897766E-1   2.713734284043312E-3  -6.810770630836487E-1   6.998238563537598E-1  
 1.930000000000000E7     6.868851184844971E-1   6.934751272201538E-1   2.023617476224899E-1  -3.934031352400780E-3   2.024523019790649E-1  -2.906152978539467E-3  -6.695170402526856E-1   7.105340957641602E-1  
 1.960000000000000E7     7.161457538604736E-1   6.607048511505127E-1   2.089795172214508E-1  -9.833149611949921E-3   2.090824693441391E-1  -9.514315985143185E-3  -6.589419245719910E-1   7.190336585044861E-1  
 1.990000000000000E7     7.422901391983032E-1   6.272014975547791E-1   2.160046100616455E-1  -1.676648110151291E-2   2.160800993442535E-1  -1.683577522635460E-2  -6.442129611968994E-1   7.301688790321350E-1  
 2.020000000000000E7     7.689314484596252E-1   5.914871096611023E-1   2.232515662908554E-1  -2.400843612849712E-2   2.225716412067413E-1  -2.386514656245709E-2  -6.320406198501587E-1   7.361017465591431E-1  
 2.050000000000000E7     7.961336374282837E-1   5.537241697311401E-1   2.302282750606537E-1  -3.187165036797524E-2   2.286649644374847E-1  -3.215643763542175E-2  -6.188362240791321E-1   7.455949187278748E-1  
 2.080000000000000E7     8.188585638999939E-1   5.127319097518921E-1   2.375533133745194E-1  -4.075370356440544E-2   2.375566214323044E-1  -4.055868834257126E-2  -6.056232452392578E-1   7.557355165481567E-1  
 2.110000000000000E7     8.417132496833801E-1   4.716714620590210E-1   2.450916171073914E-1  -5.101393535733223E-2   2.449050843715668E-1  -5.083716288208962E-2  -5.906363725662231E-1   7.640981078147888E-1  
 2.140000000000000E7     8.615772128105164E-1   4.289339482784271E-1   2.524765431880951E-1  -6.160261854529381E-2   2.513430714607239E-1  -6.061803922057152E-2  -5.760306119918823E-1   7.717554569244385E-1  
 2.170000000000000E7     8.789215683937073E-1   3.847832083702087E-1   2.596383988857269E-1  -7.231637090444565E-2   2.592647373676300E-1  -7.128051668405533E-2  -5.613848567008972E-1   7.793205380439758E-1  
 2.200000000000000E7     8.958222866058350E-1   3.359718322753906E-1   2.664668858051300E-1  -8.463878929615021E-2   2.665807008743286E-1  -8.429224789142609E-2  -5.440590381622315E-1   7.869110703468323E-1  
 2.230000000000000E7     9.083136916160584E-1   2.871045768260956E-1   2.738616466522217E-1  -9.775514155626297E-2   2.734219729900360E-1  -9.698544442653656E-2  -5.281694531440735E-1   7.939170598983765E-1  
 2.260000000000000E7     9.199590682983398E-1   2.358826994895935E-1   2.804040312767029E-1  -1.118920370936394E-1   2.820326387882233E-1  -1.116595417261124E-1  -5.121316909790039E-1   8.000506758689880E-1  
 2.290000000000000E7     9.280737042427063E-1   1.825487762689591E-1   2.875548303127289E-1  -1.272262036800385E-1   2.883217036724091E-1  -1.265579611063004E-1  -4.931776225566864E-1   8.058415055274963E-1  
 2.320000000000000E7     9.316084980964661E-1   1.278275549411774E-1   2.946093678474426E-1  -1.446916460990906E-1   2.938704788684845E-1  -1.447080075740814E-1  -4.757894873619080E-1   8.134335875511169E-1  
 2.350000000000000E7     9.323894381523132E-1   6.943998485803604E-2   3.007575869560242E-1  -1.638198643922806E-1   3.002405762672424E-1  -1.625314652919769E-1  -4.574746489524841E-1   8.178892731666565E-1  
 2.380000000000000E7     9.294934272766113E-1   1.150930672883987E-2   3.062984645366669E-1  -1.825394034385681E-1   3.065138161182404E-1  -1.823341846466065E-1  -4.384236037731171E-1   8.221716880798340E-1  
 2.410000000000000E7     9.220212697982788E-1  -5.053415894508362E-2   3.108535110950470E-1  -2.050827145576477E-1   3.104826211929321E-1  -2.043207883834839E-1  -4.177750051021576E-1   8.255643248558044E-1  
 2.440000000000000E7     9.090706706047058E-1  -1.117447018623352E-1   3.154334723949432E-1  -2.291457951068878E-1   3.151077032089233E-1  -2.291402071714401E-1  -3.983631134033203E-1   8.275876045227051E-1  
 2.470000000000000E7     8.904974460601807E-1  -1.751087903976440E-1   3.180920779705048E-1  -2.553908228874207E-1   3.180159330368042E-1  -2.529022693634033E-1  -3.759506046772003E-1   8.276199698448181E-1  
 2.500000000000000E7     8.669171333312988E-1  -2.406278103590012E-1   3.189847469329834E-1  -2.823961079120636E-1   3.186193108558655E-1  -2.828543484210968E-1  -3.536119163036346E-1   8.289211392402649E-1  
 2.530000000000000E7     8.351756334304810E-1  -3.055336475372315E-1   3.195820152759552E-1  -3.122084140777588E-1   3.194957971572876E-1  -3.118431270122528E-1  -3.315894901752472E-1   8.265525698661804E-1  
 2.560000000000000E7     7.967500686645508E-1  -3.699864149093628E-1   3.169024586677551E-1  -3.443365693092346E-1   3.175576329231262E-1  -3.448176085948944E-1  -3.092056512832642E-1   8.230624794960022E-1  
 2.590000000000000E7     7.482146024703980E-1  -4.323536455631256E-1   3.108834922313690E-1  -3.807832300662994E-1   3.114035725593567E-1  -3.806580305099487E-1  -2.861749529838562E-1   8.202573060989380E-1  
 2.620000000000000E7     6.902094483375549E-1  -4.942922890186310E-1   3.015545606613159E-1  -4.194819927215576E-1   3.018652200698853E-1  -4.178921580314636E-1  -2.610832154750824E-1   8.126554489135742E-1  
 2.650000000000000E7     6.230870485305786E-1  -5.527661442756653E-1   2.892943620681763E-1  -4.582709968090057E-1   2.889125347137451E-1  -4.590823650360107E-1  -2.386542111635208E-1   8.020767569541931E-1  
 2.680000000000000E7     5.444359183311462E-1  -6.046006679534912E-1   2.716872692108154E-1  -5.012890100479126E-1   2.702438533306122E-1  -5.015753507614136E-1  -2.164624929428101E-1   7.889451384544373E-1  
 2.710000000000000E7     4.542472958564758E-1  -6.478713154792786E-1   2.443742305040360E-1  -5.454837679862976E-1   2.445573657751083E-1  -5.442752838134766E-1  -1.944082528352737E-1   7.755061984062195E-1  
 2.740000000000000E7     3.519776165485382E-1  -6.825478076934815E-1   2.145468294620514E-1  -5.899179577827454E-1   2.121188640594482E-1  -5.903121232986450E-1  -1.746797412633896E-1   7.537583708763123E-1  
 2.770000000000000E7     2.417797446250916E-1  -7.012758851051331E-1   1.723276972770691E-1  -6.348267793655396E-1   1.711552590131760E-1  -6.348068714141846E-1  -1.570496559143066E-1   7.328814864158630E-1  
 2.800000000000000E7     1.215636134147644E-1  -7.047480940818787E-1   1.228259429335594E-1  -6.766016483306885E-1   1.231319680809975E-1  -6.776522397994995E-1  -1.415407657623291E-1   7.053567171096802E-1  
 2.830000000000000E7    -5.383607000112534E-3  -6.853203177452087E-1   6.323338299989700E-2  -7.135850787162781E-1   6.201172620058060E-2  -7.128859758377075E-1  -1.334447115659714E-1   6.800793409347534E-1  
 2.860000000000000E7    -1.334554105997086E-1  -6.387642621994019E-1  -6.816349923610687E-3  -7.436354756355286E-1  -9.112533181905747E-3  -7.442104220390320E-1  -1.272123157978058E-1   6.494433283805847E-1  
 2.890000000000000E7    -2.543409764766693E-1  -5.667948722839356E-1  -8.679317682981491E-2  -7.647524476051331E-1  -8.688537031412125E-2  -7.633442282676697E-1  -1.295948922634125E-1   6.190481185913086E-1  
 2.920000000000000E7    -3.675699234008789E-1  -4.689168930053711E-1  -1.702666580677033E-1  -7.720213532447815E-1  -1.722486019134522E-1  -7.704142928123474E-1  -1.386964470148087E-1   5.894715189933777E-1  
 2.950000000000000E7    -4.566972553730011E-1  -3.436524569988251E-1  -2.626942396163940E-1  -7.638682126998901E-1  -2.618838250637054E-1  -7.622172832489014E-1  -1.546917110681534E-1   5.628098845481873E-1  
 2.980000000000000E7    -5.216318964958191E-1  -2.005497366189957E-1  -3.501778841018677E-1  -7.372938990592957E-1  -3.517652153968811E-1  -7.367303371429443E-1  -1.780114918947220E-1   5.413685441017151E-1  
 3.010000000000000E7    -5.523524284362793E-1  -4.523355513811112E-2  -4.360640645027161E-1  -6.947008967399597E-1  -4.355600774288178E-1  -6.947811841964722E-1  -2.055121064186096E-1   5.261445641517639E-1  
 3.040000000000000E7    -5.466067790985107E-1   1.143153458833695E-1  -5.082639455795288E-1  -6.375741362571716E-1  -5.092905163764954E-1  -6.354935765266419E-1  -2.359801977872849E-1   5.208569169044495E-1  
 3.070000000000000E7    -5.105146765708923E-1   2.643715739250183E-1  -5.717905163764954E-1  -5.690003633499146E-1  -5.693901777267456E-1  -5.678831934928894E-1  -2.636250257492065E-1   5.223172903060913E-1  
 3.100000000000000E7    -4.420003592967987E-1   3.998120427131653E-1  -6.181631684303284E-1  -4.933322966098785E-1  -6.172218918800354E-1  -4.924567937850952E-1  -2.916594147682190E-1   5.309188961982727E-1  
 3.130000000000000E7    -3.526515364646912E-1   5.134850740432739E-1  -6.487742662429810E-1  -4.117712378501892E-1  -6.472862958908081E-1  -4.123270213603973E-1  -3.176697790622711E-1   5.478779673576355E-1  
 3.160000000000000E7    -2.457796931266785E-1   6.045677065849304E-1  -6.659114956855774E-1  -3.350674510002136E-1  -6.645292043685913E-1  -3.352863192558289E-1  -3.370791673660278E-1   5.702276825904846E-1  
 3.190000000000000E7    -1.320833861827850E-1   6.700930595397949E-1  -6.697177886962891E-1  -2.592844963073731E-1  -6.684626340866089E-1  -2.588357925415039E-1  -3.515672683715820E-1   5.941815972328186E-1  
 3.220000000000000E7    -1.477113738656044E-2   7.134656310081482E-1  -6.621990203857422E-1  -1.901794373989105E-1  -6.623164415359497E-1  -1.893250942230225E-1  -3.612391352653503E-1   6.214463710784912E-1  
 3.250000000000000E7     1.004905924201012E-1   7.344192862510681E-1  -6.487843990325928E-1  -1.277604699134827E-1  -6.485754251480103E-1  -1.273707151412964E-1  -3.652737438678742E-1   6.515163183212280E-1  
 3.280000000000000E7     2.116860300302506E-1   7.352270483970642E-1  -6.285364627838135E-1  -7.161594927310944E-2  -6.271529197692871E-1  -6.972279399633408E-2  -3.653191328048706E-1   6.793004870414734E-1  
 3.310000000000000E7     3.134050369262695E-1   7.248007655143738E-1  -6.026172637939453E-1  -2.141220122575760E-2  -6.018227934837341E-1  -2.117404341697693E-2  -3.586261570453644E-1   7.081117033958435E-1  
 3.340000000000000E7     4.068662822246552E-1   7.005776762962341E-1  -5.764575004577637E-1   2.188594266772270E-2  -5.745767354965210E-1   2.147372439503670E-2  -3.492614924907684E-1   7.339907288551331E-1  
 3.370000000000000E7     4.920375049114227E-1   6.657431125640869E-1  -5.456097722053528E-1   5.760256946086884E-2  -5.449200868606567E-1   5.728384479880333E-2  -3.385144174098969E-1   7.607341408729553E-1  
 3.400000000000000E7     5.677333474159241E-1   6.251299977302551E-1  -5.167503952980042E-1   8.859322965145111E-2  -5.161153078079224E-1   8.787281811237335E-2  -3.222433924674988E-1   7.835751175880432E-1  
 3.430000000000000E7     6.347818374633789E-1   5.788939595222473E-1  -4.869733452796936E-1   1.154882311820984E-1  -4.861928820610046E-1   1.150181591510773E-1  -3.056800961494446E-1   8.052359223365784E-1  
 3.460000000000000E7     6.940529346466065E-1   5.282051563262940E-1  -4.579727053642273E-1   1.372471153736115E-1  -4.582964181900024E-1   1.363662183284760E-1  -2.860760688781738E-1   8.268770575523377E-1  
 3.490000000000000E7     7.452109456062317E-1   4.748440682888031E-1  -4.293236732482910E-1   1.573150455951691E-1  -4.291006326675415E-1   1.558495461940765E-1  -2.667706012725830E-1   8.431388139724731E-1  
 3.520000000000000E7     7.896351218223572E-1   4.199444949626923E-1  -4.020624160766602E-1   1.710921376943588E-1  -4.022320508956909E-1   1.706301718950272E-1  -2.440738976001740E-1   8.620717525482178E-1  
 3.550000000000000E7     8.267285823822022E-1   3.618166148662567E-1  -3.763125538825989E-1   1.827563196420670E-1  -3.762662112712860E-1   1.825696825981140E-1  -2.215900421142578E-1   8.778891563415527E-1  
 3.580000000000000E7     8.586528897285461E-1   3.059729635715485E-1  -3.504287898540497E-1   1.931909024715424E-1  -3.505888581275940E-1   1.929352432489395E-1  -1.968900561332703E-1   8.909560441970825E-1  
 3.610000000000000E7     8.843987584114075E-1   2.498423755168915E-1  -3.278262615203857E-1   2.021623998880386E-1  -3.263317048549652E-1   2.015414237976074E-1  -1.704962402582169E-1   9.051659703254700E-1  
 3.640000000000000E7     9.054499864578247E-1   1.926612854003906E-1  -3.043357729911804E-1   2.075440883636475E-1  -3.039075732231140E-1   2.067990303039551E-1  -1.457323133945465E-1   9.154034852981567E-1  
 3.670000000000000E7     9.217765927314758E-1   1.373870372772217E-1  -2.830557227134705E-1   2.123094797134399E-1  -2.819177210330963E-1   2.119332253932953E-1  -1.198488175868988E-1   9.255244731903076E-1  
 3.700000000000000E7     9.330555200576782E-1   8.251358568668366E-2  -2.615802586078644E-1   2.156990468502045E-1  -2.608980834484100E-1   2.154880017042160E-1  -9.042079001665115E-2   9.336968660354614E-1  
 3.730000000000000E7     9.415950775146484E-1   2.719379961490631E-2  -2.407555729150772E-1   2.172190248966217E-1  -2.415983378887177E-1   2.171454131603241E-1  -6.439856439828873E-2   9.393388032913208E-1  
 3.760000000000000E7     9.457801580429077E-1  -2.350573241710663E-2  -2.221543639898300E-1   2.189746648073196E-1  -2.226783335208893E-1   2.190798372030258E-1  -3.431070595979691E-2   9.463002085685730E-1  
 3.790000000000000E7     9.467661976814270E-1  -7.668569684028626E-2  -2.046548128128052E-1   2.196225076913834E-1  -2.042585760354996E-1   2.197480350732803E-1  -4.563726484775543E-3   9.500911831855774E-1  
 3.820000000000000E7     9.456154108047485E-1  -1.275002360343933E-1  -1.877402067184448E-1   2.195355147123337E-1  -1.878339350223541E-1   2.187097519636154E-1   2.363833039999008E-2   9.532418847084045E-1  
 3.850000000000000E7     9.410942792892456E-1  -1.780158281326294E-1  -1.718277335166931E-1   2.180730253458023E-1  -1.708900630474091E-1   2.181025743484497E-1   5.384694784879684E-2   9.571685194969177E-1  
 3.880000000000000E7     9.337682723999023E-1  -2.249026298522949E-1  -1.551899015903473E-1   2.168539166450501E-1  -1.552175283432007E-1   2.161428332328796E-1   8.664441108703613E-2   9.574299454689026E-1  
 3.910000000000000E7     9.250054359436035E-1  -2.722217440605164E-1  -1.411989629268646E-1   2.136983424425125E-1  -1.408928483724594E-1   2.142099887132645E-1   1.183394044637680E-1   9.572566747665405E-1  
 3.940000000000000E7     9.117192625999451E-1  -3.159673213958740E-1  -1.273964047431946E-1   2.107755392789841E-1  -1.268278062343597E-1   2.104142755270004E-1   1.495269834995270E-1   9.540511965751648E-1  
 3.970000000000000E7     8.990957736968994E-1  -3.603577017784119E-1  -1.143237054347992E-1   2.072430700063705E-1  -1.141978278756142E-1   2.069784104824066E-1   1.811440885066986E-1   9.499790668487549E-1  
 4.000000000000000E7     8.829876184463501E-1  -4.026762247085571E-1  -1.015748232603073E-1   2.033702433109283E-1  -1.011259332299233E-1   2.034913748502731E-1   2.157969623804092E-1   9.464017152786255E-1  
 4.030000000000000E7     8.661747574806213E-1  -4.430560767650604E-1  -8.912853896617889E-2   1.999157071113586E-1  -8.918036520481110E-2   1.993595361709595E-1   2.484006285667419E-1   9.405860900878906E-1  
 4.060000000000000E7     8.467843532562256E-1  -4.825635850429535E-1  -7.815118879079819E-2   1.943907439708710E-1  -7.814064621925354E-2   1.942007988691330E-1   2.828126847743988E-1   9.322576522827148E-1  
 4.090000000000000E7     8.259910941123962E-1  -5.215611457824707E-1  -6.716881692409515E-2   1.891160160303116E-1  -6.688975542783737E-2   1.891930252313614E-1   3.158850669860840E-1   9.232019782066345E-1  
 4.120000000000000E7     8.043892979621887E-1  -5.581561923027039E-1  -5.780060961842537E-2   1.838953495025635E-1  -5.737661197781563E-2   1.834361404180527E-1   3.510167002677918E-1   9.120594859123230E-1  
 4.150000000000000E7     7.806238532066345E-1  -5.918819308280945E-1  -4.726425185799599E-2   1.784261763095856E-1  -4.805941879749298E-2   1.773060262203217E-1   3.866603970527649E-1   8.982722163200378E-1  
 4.180000000000000E7     7.558578252792358E-1  -6.267394423484802E-1  -3.833099827170372E-2   1.719753146171570E-1  -3.834465146064758E-2   1.716363131999970E-1   4.223394393920898E-1   8.850595355033875E-1  
 4.210000000000000E7     7.303664088249207E-1  -6.586561203002930E-1  -2.957424148917198E-2   1.657179594039917E-1  -2.990474179387093E-2   1.657354086637497E-1   4.596936702728272E-1   8.673084974288940E-1  
 4.240000000000000E7     7.026587128639221E-1  -6.885048747062683E-1  -2.182989753782749E-2   1.590510308742523E-1  -2.195835858583450E-2   1.589735001325607E-1   4.964101314544678E-1   8.488211631774902E-1  
 4.270000000000000E7     6.740173101425171E-1  -7.179192304611206E-1  -1.410607062280178E-2   1.521191447973251E-1  -1.437710784375668E-2   1.519293934106827E-1   5.328082442283630E-1   8.272342085838318E-1  
 4.300000000000000E7     6.448592543601990E-1  -7.467452883720398E-1  -7.112299092113972E-3   1.451051384210587E-1  -7.501198910176754E-3   1.445746868848801E-1   5.699416399002075E-1   8.039031624794006E-1  
 4.330000000000000E7     6.170552968978882E-1  -7.726758122444153E-1  -1.461743377149105E-3   1.373218297958374E-1  -1.310583204030991E-3   1.373995989561081E-1   6.062685847282410E-1   7.773264050483704E-1  
 4.360000000000000E7     5.843216180801392E-1  -7.973932623863220E-1   4.292295314371586E-3   1.302601993083954E-1   4.342843778431416E-3   1.294523030519486E-1   6.423180103302002E-1   7.490108609199524E-1  
 4.390000000000000E7     5.528766512870789E-1  -8.222937583923340E-1   9.721803478896618E-3   1.222897842526436E-1   9.519243612885475E-3   1.222706288099289E-1   6.788579225540161E-1   7.174036502838135E-1  
 4.420000000000000E7     5.201193094253540E-1  -8.428841233253479E-1   1.409234758466482E-2   1.137807294726372E-1   1.393187697976828E-2   1.139191314578056E-1   7.137321233749390E-1   6.826949715614319E-1  
 4.450000000000000E7     4.868386387825012E-1  -8.637257814407349E-1   1.789750158786774E-2   1.059601828455925E-1   1.786817982792854E-2   1.055995300412178E-1   7.496547698974609E-1   6.467692255973816E-1  
 4.480000000000000E7     4.535277485847473E-1  -8.829208612442017E-1   2.117872238159180E-2   9.737793356180191E-2   2.111129648983479E-2   9.725793451070786E-2   7.834082841873169E-1   6.057608127593994E-1  
 4.510000000000000E7     4.204815924167633E-1  -9.003106355667114E-1   2.364490181207657E-2   8.922700583934784E-2   2.354982681572437E-2   8.888141065835953E-2   8.164570331573486E-1   5.609424114227295E-1  
 4.540000000000000E7     3.850530385971069E-1  -9.162327051162720E-1   2.563267014920712E-2   8.003722876310349E-2   2.541896142065525E-2   8.006373047828674E-2   8.479434251785278E-1   5.132614374160767E-1  
 4.570000000000000E7     3.497868180274963E-1  -9.311195611953735E-1   2.655937150120735E-2   7.157683372497559E-2   2.629950642585754E-2   7.150710374116898E-2   8.768171072006226E-1   4.619026780128479E-1  
 4.600000000000000E7     3.163441419601440E-1  -9.433014988899231E-1   2.693494409322739E-2   6.325563788414002E-2   2.692497894167900E-2   6.320668011903763E-2   9.048237800598145E-1   4.088516831398010E-1  
 4.630000000000000E7     2.784391641616821E-1  -9.564980864524841E-1   2.661892585456371E-2   5.467998981475830E-2   2.671492844820023E-2   5.448183417320252E-2   9.296423196792603E-1   3.489828109741211E-1  
 4.660000000000000E7     2.418821901082993E-1  -9.675398468971252E-1   2.546058967709541E-2   4.599770531058312E-2   2.541320212185383E-2   4.599281400442123E-2   9.493093490600586E-1   2.861268520355225E-1  
 4.690000000000000E7     2.061115801334381E-1  -9.752680659294128E-1   2.349280379712582E-2   3.780634701251984E-2   2.330643683671951E-2   3.769053518772125E-2   9.683317542076111E-1   2.202106267213821E-1  
 4.720000000000000E7     1.687742024660111E-1  -9.821394085884094E-1   2.071691676974297E-2   2.978178113698959E-2   2.063558250665665E-2   2.966292388737202E-2   9.804139137268066E-1   1.513569056987763E-1  
 4.750000000000000E7     1.332240253686905E-1  -9.888542294502258E-1   1.709001138806343E-2   2.205519378185272E-2   1.698978990316391E-2   2.198284119367600E-2   9.906186461448669E-1   7.856692373752594E-2  
 4.780000000000000E7     9.709563851356506E-2  -9.929937124252319E-1   1.260766107589006E-2   1.488319318741560E-2   1.255626231431961E-2   1.486036647111177E-2   9.930502176284790E-1   4.574328660964966E-3  
 4.810000000000000E7     5.976502597332001E-2  -9.956977963447571E-1   7.451255340129137E-3   8.283635601401329E-3   7.471761200577021E-3   8.148748427629471E-3   9.908533692359924E-1  -7.390429079532623E-2  
 4.840000000000000E7     2.340267598628998E-2  -9.981029033660889E-1   1.494136173278093E-3   2.156153786927462E-3   1.519520767033100E-3   2.110883127897978E-3   9.815714955329895E-1  -1.540669798851013E-1  
 4.870000000000000E7    -1.351067423820496E-2  -9.980673193931580E-1  -5.135093349963427E-3  -3.223340492695570E-3  -5.143588408827782E-3  -3.282432677224279E-3   9.651390314102173E-1  -2.347330600023270E-1  
 4.900000000000000E7    -5.052148923277855E-2  -9.972428679466248E-1  -1.238933857530356E-2  -7.676625624299049E-3  -1.234210375696421E-2  -7.710272446274757E-3   9.414035677909851E-1  -3.156327009201050E-1  
 4.930000000000000E7    -8.687295019626617E-2  -9.947818517684937E-1  -2.036491595208645E-2  -1.139635033905506E-2  -2.032991126179695E-2  -1.142793707549572E-2   9.102458953857422E-1  -3.976250290870667E-1  
 4.960000000000000E7    -1.222411170601845E-1  -9.886090159416199E-1  -2.849829755723476E-2  -1.393446233123541E-2  -2.859534323215485E-2  -1.386545412242413E-2   8.702148795127869E-1  -4.772306382656097E-1  
 4.990000000000000E7    -1.574512720108032E-1  -9.838503599166870E-1  -3.704106435179710E-2  -1.551106292754412E-2  -3.698260337114334E-2  -1.550616882741451E-2   8.232108354568481E-1  -5.539594292640686E-1  
 5.020000000000000E7    -1.919026821851730E-1  -9.783753752708435E-1  -4.585286602377892E-2  -1.590144634246826E-2  -4.593022912740707E-2  -1.590856164693832E-2   7.673375606536865E-1  -6.285831332206726E-1  
 5.050000000000000E7    -2.275612950325012E-1  -9.701171517372131E-1  -5.470447242259979E-2  -1.521183829754591E-2  -5.459602922201157E-2  -1.499984506517649E-2   7.038682699203491E-1  -6.975178122520447E-1  
 5.080000000000000E7    -2.610168457031250E-1  -9.611929059028626E-1  -6.334990262985230E-2  -1.318963151425123E-2  -6.335762143135071E-2  -1.335746236145496E-2   6.333750486373901E-1  -7.624040842056274E-1  
 5.110000000000000E7    -2.955564558506012E-1  -9.503319263458252E-1  -7.174713909626007E-2  -1.008657552301884E-2  -7.159429788589478E-2  -1.005002204328775E-2   5.558733344078064E-1  -8.190397620201111E-1  
 5.140000000000000E7    -3.285678625106812E-1  -9.383612871170044E-1  -7.964982092380524E-2  -6.006001029163599E-3  -7.963056117296219E-2  -5.913551896810532E-3   4.739196002483368E-1  -8.692670464515686E-1  
 5.170000000000000E7    -3.606762290000916E-1  -9.259108901023865E-1  -8.687178045511246E-2  -1.092928461730480E-3  -8.685527741909027E-2  -9.896149858832359E-4   3.872054219245911E-1  -9.100936651229858E-1  
 5.200000000000000E7    -3.929252326488495E-1  -9.136705398559570E-1  -9.363778680562973E-2   5.433242768049240E-3  -9.385959804058075E-2   5.131854675710201E-3   2.950628995895386E-1  -9.449414610862732E-1  
 5.230000000000000E7    -4.239919185638428E-1  -8.976362943649292E-1  -9.908476471900940E-2   1.223149895668030E-2  -9.910604357719421E-2   1.229036599397659E-2   2.024480402469635E-1  -9.663379788398743E-1  
 5.260000000000000E7    -4.541572928428650E-1  -8.805021047592163E-1  -1.039458587765694E-1   1.972073689103127E-2  -1.040707677602768E-1   1.975136995315552E-2   1.083026304841042E-1  -9.816078543663025E-1  
 5.290000000000000E7    -4.851370453834534E-1  -8.644153475761414E-1  -1.081609949469566E-1   2.800824493169785E-2  -1.078849360346794E-1   2.774490229785442E-2   1.429440081119537E-2  -9.877671003341675E-1  
 5.320000000000000E7    -5.136409997940064E-1  -8.479720950126648E-1  -1.107548251748085E-1   3.632465004920960E-2  -1.106949150562286E-1   3.627813607454300E-2  -7.822553813457489E-2  -9.843547344207764E-1  
 5.350000000000000E7    -5.408709049224854E-1  -8.287957310676575E-1  -1.121768131852150E-1   4.489862173795700E-2  -1.121173948049545E-1   4.455976560711861E-2  -1.677752137184143E-1  -9.704277515411377E-1  
 5.380000000000000E7    -5.675545334815979E-1  -8.094469904899597E-1  -1.130838617682457E-1   5.331168323755264E-2  -1.128225028514862E-1   5.307975411415100E-2  -2.558126449584961E-1  -9.514169096946716E-1  
 5.410000000000000E7    -5.972024202346802E-1  -7.898502349853516E-1  -1.129933148622513E-1   6.224428862333298E-2  -1.127660349011421E-1   6.202052906155586E-2  -3.377149701118469E-1  -9.261796474456787E-1  
 5.440000000000000E7    -6.226919889450073E-1  -7.676692605018616E-1  -1.115303486585617E-1   7.028184086084366E-2  -1.116676330566406E-1   7.042019814252853E-2  -4.168495535850525E-1  -8.930355310440064E-1  
 5.470000000000000E7    -6.465506553649902E-1  -7.468195557594299E-1  -1.099444031715393E-1   7.861217856407166E-2  -1.097193956375122E-1   7.849144190549851E-2  -4.892503023147583E-1  -8.550562262535095E-1  
 5.500000000000000E7    -6.727210283279419E-1  -7.240666747093201E-1  -1.070067435503006E-1   8.607394248247147E-2  -1.068599000573158E-1   8.576691150665283E-2  -5.562686324119568E-1  -8.116695880889893E-1  
 5.530000000000000E7    -6.959267258644104E-1  -7.010838985443115E-1  -1.034780964255333E-1   9.318324923515320E-2  -1.034125387668610E-1   9.342382848262787E-2  -6.186792850494385E-1  -7.648731470108032E-1  
 5.560000000000000E7    -7.195160984992981E-1  -6.759839057922363E-1  -9.963463991880417E-2   1.002413928508759E-1  -9.933524578809738E-2   9.997026622295380E-2  -6.756152510643005E-1  -7.146145105361939E-1  
 5.590000000000000E7    -7.416071891784668E-1  -6.527619957923889E-1  -9.496523439884186E-2   1.064252704381943E-1  -9.485939145088196E-2   1.063511371612549E-1  -7.260966897010803E-1  -6.637180447578430E-1  
 5.620000000000000E7    -7.629235386848450E-1  -6.253689527511597E-1  -8.985228836536408E-2   1.118233948945999E-1  -8.958300948143005E-2   1.115308403968811E-1  -7.716226577758789E-1  -6.090911626815796E-1  
 5.650000000000000E7    -7.825567126274109E-1  -6.009709835052490E-1  -8.444297313690186E-2   1.173315048217773E-1  -8.438579738140106E-2   1.170321106910706E-1  -8.119886517524719E-1  -5.545541048049927E-1  
 5.680000000000000E7    -8.025930523872376E-1  -5.740940570831299E-1  -7.900073379278183E-2   1.218832433223724E-1  -7.869292795658112E-2   1.218758448958397E-1  -8.484752774238586E-1  -4.990604519844055E-1  
 5.710000000000000E7    -8.216382861137390E-1  -5.461691021919251E-1  -7.306005060672760E-2   1.258729398250580E-1  -7.291473448276520E-2   1.257562935352325E-1  -8.767079114913940E-1  -4.447247982025147E-1  
 5.740000000000000E7    -8.400404453277588E-1  -5.182918906211853E-1  -6.698977202177048E-2   1.295088827610016E-1  -6.706994771957398E-2   1.291383057832718E-1  -9.039142727851868E-1  -3.902978897094727E-1  
 5.770000000000000E7    -8.558063507080078E-1  -4.909357428550720E-1  -6.111207604408264E-2   1.319442540407181E-1  -6.108381599187851E-2   1.317641288042069E-1  -9.241264462471008E-1  -3.344181776046753E-1  
 5.800000000000000E7    -8.719919919967651E-1  -4.607768654823303E-1  -5.520109832286835E-2   1.347209215164185E-1  -5.436348170042038E-2   1.342123299837112E-1  -9.423562884330750E-1  -2.818155288696289E-1  
 5.830000000000000E7    -8.864306807518005E-1  -4.315643012523651E-1  -4.854685813188553E-2   1.364447027444840E-1  -4.849768429994583E-2   1.363361775875092E-1  -9.560659527778626E-1  -2.284898459911346E-1  
 5.860000000000000E7    -9.017571210861206E-1  -4.024746119976044E-1  -4.261880367994309E-2   1.382199525833130E-1  -4.256343841552734E-2   1.382175236940384E-1  -9.683533906936646E-1  -1.773596704006195E-1  
 5.890000000000000E7    -9.140520691871643E-1  -3.715474009513855E-1  -3.653595224022865E-2   1.392133235931397E-1  -3.674767166376114E-2   1.391236931085587E-1  -9.755964279174805E-1  -1.266408562660217E-1  
 5.920000000000000E7    -9.259340167045593E-1  -3.400561809539795E-1  -3.050453774631023E-2   1.401167958974838E-1  -3.011972270905972E-2   1.396666765213013E-1  -9.817442297935486E-1  -7.856948673725128E-2  
 5.950000000000000E7    -9.366693496704102E-1  -3.091745376586914E-1  -2.463204599916935E-2   1.402856707572937E-1  -2.443908341228962E-2   1.399717181921005E-1  -9.837875366210938E-1  -3.024302795529366E-2  
 5.980000000000000E7    -9.471414089202881E-1  -2.774036526679993E-1  -1.868408545851708E-2   1.406888812780380E-1  -1.880981586873531E-2   1.400017440319061E-1  -9.853515625000000E-1   1.592114754021168E-2  
 6.010000000000000E7    -9.543567895889282E-1  -2.465926408767700E-1  -1.359020732343197E-2   1.398543119430542E-1  -1.361855585128069E-2   1.395817995071411E-1  -9.831071496009827E-1   5.877973884344101E-2  
 6.040000000000000E7    -9.631643891334534E-1  -2.129794806241989E-1  -7.774564437568188E-3   1.390970200300217E-1  -7.865606807172298E-3   1.391793489456177E-1  -9.802925586700440E-1   1.022452339529991E-1  
 6.070000000000000E7    -9.708023071289063E-1  -1.826244145631790E-1  -2.747013233602047E-3   1.383349895477295E-1  -2.903115935623646E-3   1.383102834224701E-1  -9.746915102005005E-1   1.427383720874786E-1  
 6.100000000000000E7    -9.758796691894531E-1  -1.494942009449005E-1   2.573689445853233E-3   1.376346796751022E-1   2.504895441234112E-3   1.372254490852356E-1  -9.692810773849487E-1   1.828979551792145E-1  
 6.130000000000000E7    -9.810248613357544E-1  -1.160941123962402E-1   7.554452866315842E-3   1.360946893692017E-1   7.422097958624363E-3   1.359363496303558E-1  -9.614031314849854E-1   2.213604301214218E-1  
 6.160000000000000E7    -9.839893579483032E-1  -8.395120501518250E-2   1.227624714374542E-2   1.343263685703278E-1   1.225150842219591E-2   1.342429816722870E-1  -9.518578648567200E-1   2.582617998123169E-1  
 6.190000000000000E7    -9.863544106483460E-1  -5.085100233554840E-2   1.683950610458851E-2   1.324444562196732E-1   1.704601384699345E-2   1.320452839136124E-1  -9.409343004226685E-1   2.943491041660309E-1  
 6.220000000000000E7    -9.879688024520874E-1  -1.790294051170349E-2   2.123667299747467E-2   1.303232163190842E-1   2.111848071217537E-2   1.304511129856110E-1  -9.305210113525391E-1   3.264033794403076E-1  
 6.250000000000000E7    -9.881802797317505E-1   1.506833732128143E-2   2.529356814920902E-2   1.284448951482773E-1   2.520078420639038E-2   1.282903105020523E-1  -9.193556904792786E-1   3.588063120841980E-1  
 6.280000000000000E7    -9.865794181823731E-1   4.842948913574219E-2   2.923543192446232E-2   1.261376887559891E-1   2.867716923356056E-2   1.259567737579346E-1  -9.061570763587952E-1   3.893226385116577E-1  
 6.310000000000000E7    -9.842875003814697E-1   8.221955597400665E-2   3.302993625402451E-2   1.239448711276054E-1   3.302662447094917E-2   1.238644570112228E-1  -8.935158252716065E-1   4.211754798889160E-1  
 6.340000000000000E7    -9.813876748085022E-1   1.150973364710808E-1   3.670044243335724E-2   1.214538067579269E-1   3.673483431339264E-2   1.213271766901016E-1  -8.802857398986816E-1   4.495226740837097E-1  
 6.370000000000000E7    -9.774420261383057E-1   1.479533016681671E-1   4.018369317054749E-2   1.189641132950783E-1   4.037851840257645E-2   1.186469420790672E-1  -8.642809391021729E-1   4.768676161766052E-1  
 6.400000000000000E7    -9.712381362915039E-1   1.803086698055267E-1   4.354555904865265E-2   1.164866611361504E-1   4.356333240866661E-2   1.158938109874725E-1  -8.505808115005493E-1   5.029937028884888E-1  
 6.430000000000000E7    -9.646251201629639E-1   2.140948772430420E-1   4.655278846621513E-2   1.135200038552284E-1   4.674815386533737E-2   1.131215021014214E-1  -8.352305293083191E-1   5.290252566337585E-1  
 6.460000000000000E7    -9.577834606170654E-1   2.464523911476135E-1   4.970596730709076E-2   1.104388311505318E-1   4.949336871504784E-2   1.103413999080658E-1  -8.184510469436646E-1   5.523628592491150E-1  
 6.490000000000000E7    -9.503729939460754E-1   2.781079113483429E-1   5.238824710249901E-2   1.076804623007774E-1   5.215836688876152E-2   1.078748255968094E-1  -8.039678335189819E-1   5.748664736747742E-1  
 6.520000000000000E7    -9.393363595008850E-1   3.094658553600311E-1   5.460964143276215E-2   1.048287376761437E-1   5.485607683658600E-2   1.045617237687111E-1  -7.874585390090942E-1   5.981951951980591E-1  
 6.550000000000000E7    -9.292323589324951E-1   3.409655392169952E-1   5.729078501462936E-2   1.019502580165863E-1   5.726614966988564E-2   1.017628833651543E-1  -7.705398797988892E-1   6.191106438636780E-1  
 6.580000000000000E7    -9.167836308479309E-1   3.724300861358643E-1   5.982175096869469E-2   9.886068850755692E-2   5.948341265320778E-2   9.872053563594818E-2  -7.547309994697571E-1   6.396988034248352E-1  
 6.610000000000000E7    -9.031944274902344E-1   4.030608534812927E-1   6.187737733125687E-2   9.592819958925247E-2   6.185955554246903E-2   9.517312049865723E-2  -7.370120882987976E-1   6.606628894805908E-1  
 6.640000000000000E7    -8.909937143325806E-1   4.335614442825317E-1   6.381009519100189E-2   9.273204207420349E-2   6.374249607324600E-2   9.283107519149780E-2  -7.201398015022278E-1   6.793013215065002E-1  
 6.670000000000000E7    -8.749817013740540E-1   4.631934165954590E-1   6.578877568244934E-2   8.960691094398499E-2   6.538797914981842E-2   8.963063359260559E-2  -7.039334774017334E-1   6.961561441421509E-1  
 6.700000000000000E7    -8.591074943542481E-1   4.926263093948364E-1   6.724135577678680E-2   8.646588027477264E-2   6.711985170841217E-2   8.611980825662613E-2  -6.855870485305786E-1   7.132481336593628E-1  
 6.730000000000000E7    -8.416591882705689E-1   5.211796760559082E-1   6.858512014150620E-2   8.318492025136948E-2   6.876013427972794E-2   8.298619091510773E-2  -6.694882512092590E-1   7.299003601074219E-1  
 6.760000000000000E7    -8.240327835083008E-1   5.492110252380371E-1   7.045195996761322E-2   8.013978600502014E-2   7.004413008689880E-2   7.999799400568008E-2  -6.511895656585693E-1   7.459438443183899E-1  
 6.790000000000000E7    -8.046514987945557E-1   5.776915550231934E-1   7.134916633367539E-2   7.689821720123291E-2   7.134468853473663E-2   7.682607322931290E-2  -6.340143680572510E-1   7.604497671127319E-1  
 6.820000000000000E7    -7.848328351974487E-1   6.038307547569275E-1   7.256461679935455E-2   7.376360148191452E-2   7.229782640933991E-2   7.366288453340530E-2  -6.166932582855225E-1   7.748806476593018E-1  
 6.850000000000000E7    -7.643843889236450E-1   6.310910582542419E-1   7.328923046588898E-2   7.069575786590576E-2   7.334916293621063E-2   7.059058547019959E-2  -5.991669893264771E-1   7.882971167564392E-1  
 6.880000000000000E7    -7.424669265747070E-1   6.563165187835693E-1   7.429081201553345E-2   6.754928827285767E-2   7.400715351104736E-2   6.722301244735718E-2  -5.810296535491943E-1   8.018695712089539E-1  
 6.910000000000000E7    -7.198973894119263E-1   6.815760731697083E-1   7.520362734794617E-2   6.460420042276382E-2   7.497768104076386E-2   6.438517570495606E-2  -5.635854005813599E-1   8.152148723602295E-1  
 6.940000000000000E7    -6.970721483230591E-1   7.055636644363403E-1   7.550577074289322E-2   6.168306618928909E-2   7.561262696981430E-2   6.139953806996346E-2  -5.468570590019226E-1   8.266203999519348E-1  
 6.970000000000000E7    -6.716313362121582E-1   7.289147377014160E-1   7.595639675855637E-2   5.838845670223236E-2   7.606752961874008E-2   5.822531878948212E-2  -5.292081236839294E-1   8.382602930068970E-1  
 7.000000000000000E7    -6.468385457992554E-1   7.523515224456787E-1   7.640314847230911E-2   5.546692758798599E-2   7.633301615715027E-2   5.520533770322800E-2  -5.118834972381592E-1   8.498851656913757E-1  
