#  HZ   S   RI   R     50.00 
! Rohde & Schwarz ZVT8 8Ports - Version 4.11 - 1300.0000k08 SN: 100242
! Date: 2026-07-31 15:09:17
! Measurements: S11 S21 S12 S22 
! 
 1.000000000000000E7    -4.063634276390076E-1   9.097352027893066E-1   5.021257698535919E-2   5.090722069144249E-2   5.001921579241753E-2   5.121786892414093E-2  -9.203339815139771E-1   3.819048404693604E-1  
 1.030000000000000E7    -3.738714456558228E-1   9.222661256790161E-1   5.314093828201294E-2   5.138034000992775E-2   5.291131138801575E-2   5.146788433194161E-2  -9.144796133041382E-1   3.941277265548706E-1  
 1.060000000000000E7    -3.385476768016815E-1   9.353795051574707E-1   5.615727975964546E-2   5.227372422814369E-2   5.626611411571503E-2   5.189582705497742E-2  -9.111280441284180E-1   4.053820073604584E-1  
 1.090000000000000E7    -3.064144551753998E-1   9.461252093315125E-1   5.960509926080704E-2   5.237909033894539E-2   5.939339846372604E-2   5.233257263898850E-2  -9.056497216224670E-1   4.168988466262817E-1  
 1.120000000000000E7    -2.714151442050934E-1   9.556585550308228E-1   6.306415796279907E-2   5.306548997759819E-2   6.241443753242493E-2   5.286203324794769E-2  -9.002190232276917E-1   4.282153844833374E-1  
 1.150000000000000E7    -2.366256266832352E-1   9.660242795944214E-1   6.619076430797577E-2   5.272081121802330E-2   6.593871116638184E-2   5.293100327253342E-2  -8.930729627609253E-1   4.372136890888214E-1  
 1.180000000000000E7    -2.021741271018982E-1   9.713066220283508E-1   6.945963203907013E-2   5.297302827239037E-2   6.928379833698273E-2   5.285783857107163E-2  -8.887573480606079E-1   4.478184580802918E-1  
 1.210000000000000E7    -1.679629832506180E-1   9.782921075820923E-1   7.322350889444351E-2   5.315548926591873E-2   7.299192249774933E-2   5.316009745001793E-2  -8.816764354705811E-1   4.599114358425140E-1  
 1.240000000000000E7    -1.326132714748383E-1   9.826404452323914E-1   7.659044861793518E-2   5.309287831187248E-2   7.652124762535095E-2   5.270788073539734E-2  -8.754575252532959E-1   4.688871204853058E-1  
 1.270000000000000E7    -9.734699130058289E-2   9.864584803581238E-1   8.071820437908173E-2   5.255274847149849E-2   8.035782724618912E-2   5.226058885455132E-2  -8.691202998161316E-1   4.828948974609375E-1  
 1.300000000000000E7    -6.204334646463394E-2   9.895392656326294E-1   8.421237021684647E-2   5.212490633130074E-2   8.397635817527771E-2   5.225752294063568E-2  -8.622877597808838E-1   4.928103089332581E-1  
 1.330000000000000E7    -2.613062970340252E-2   9.914424419403076E-1   8.832439780235291E-2   5.168947950005531E-2   8.800343424081802E-2   5.127398669719696E-2  -8.556807637214661E-1   5.046147704124451E-1  
 1.360000000000000E7     1.071566715836525E-2   9.914330840110779E-1   9.209889918565750E-2   5.119922757148743E-2   9.208098798990250E-2   5.062543973326683E-2  -8.485983014106751E-1   5.132789611816406E-1  
 1.390000000000000E7     4.510422050952911E-2   9.897943735122681E-1   9.639042615890503E-2   5.013246089220047E-2   9.601639956235886E-2   5.022138357162476E-2  -8.417446017265320E-1   5.247164964675903E-1  
 1.420000000000000E7     8.195850253105164E-2   9.874476194381714E-1   1.002698242664337E-1   4.948008060455322E-2   1.002001091837883E-1   4.951088875532150E-2  -8.358517289161682E-1   5.346935391426086E-1  
 1.450000000000000E7     1.176378279924393E-1   9.821318387985230E-1   1.045720428228378E-1   4.788973927497864E-2   1.045440509915352E-1   4.807325452566147E-2  -8.262557387351990E-1   5.464460253715515E-1  
 1.480000000000000E7     1.547398567199707E-1   9.771175980567932E-1   1.088991314172745E-1   4.648825898766518E-2   1.087057814002037E-1   4.689380899071693E-2  -8.198728561401367E-1   5.563035607337952E-1  
 1.510000000000000E7     1.897805780172348E-1   9.702639579772949E-1   1.131459251046181E-1   4.503416270017624E-2   1.129401549696922E-1   4.510333761572838E-2  -8.096188306808472E-1   5.675777792930603E-1  
 1.540000000000000E7     2.244087457656860E-1   9.621348381042481E-1   1.172989234328270E-1   4.440648853778839E-2   1.173045486211777E-1   4.379232972860336E-2  -8.045992851257324E-1   5.765364170074463E-1  
 1.570000000000000E7     2.607924640178680E-1   9.541094303131104E-1   1.220768019556999E-1   4.200761020183563E-2   1.219256371259689E-1   4.206405580043793E-2  -7.953882217407227E-1   5.882009863853455E-1  
 1.600000000000000E7     2.968997955322266E-1   9.419137239456177E-1   1.264066994190216E-1   3.980032727122307E-2   1.267503947019577E-1   3.968649730086327E-2  -7.874987125396729E-1   5.965482592582703E-1  
 1.630000000000000E7     3.311902582645416E-1   9.297176003456116E-1   1.314623057842255E-1   3.747255727648735E-2   1.310331970453262E-1   3.780476748943329E-2  -7.784436941146851E-1   6.084557771682739E-1  
 1.660000000000000E7     3.658929169178009E-1   9.149413108825684E-1   1.363413184881210E-1   3.487744182348251E-2   1.359618455171585E-1   3.470360487699509E-2  -7.683620452880859E-1   6.186873912811279E-1  
 1.690000000000000E7     3.997984826564789E-1   9.004810452461243E-1   1.410880237817764E-1   3.278827667236328E-2   1.407436281442642E-1   3.254825621843338E-2  -7.602310776710510E-1   6.278052926063538E-1  
 1.720000000000000E7     4.358976185321808E-1   8.842613101005554E-1   1.453525424003601E-1   2.926817722618580E-2   1.455156058073044E-1   2.960482798516750E-2  -7.506609559059143E-1   6.375593543052673E-1  
 1.750000000000000E7     4.644571244716644E-1   8.687456250190735E-1   1.509285569190979E-1   2.741827443242073E-2   1.510420739650726E-1   2.706187963485718E-2  -7.425143718719482E-1   6.491194963455200E-1  
 1.780000000000000E7     5.003208518028259E-1   8.460182547569275E-1   1.549178957939148E-1   2.341416291892529E-2   1.553234159946442E-1   2.382708713412285E-2  -7.316753864288330E-1   6.565449833869934E-1  
 1.810000000000000E7     5.313326716423035E-1   8.269281387329102E-1   1.611904650926590E-1   2.017597854137421E-2   1.600809991359711E-1   1.966739073395729E-2  -7.221808433532715E-1   6.695783138275147E-1  
 1.840000000000000E7     5.648033618927002E-1   8.050270676612854E-1   1.662904471158981E-1   1.540041901171207E-2   1.654902398586273E-1   1.582233235239983E-2  -7.113789916038513E-1   6.786487102508545E-1  
 1.870000000000000E7     5.933056473731995E-1   7.824578285217285E-1   1.712691485881805E-1   1.191882416605949E-2   1.705556660890579E-1   1.156973373144865E-2  -7.002803683280945E-1   6.879200935363770E-1  
 1.900000000000000E7     6.232454776763916E-1   7.580958008766174E-1   1.763015389442444E-1   8.020116016268730E-3   1.758638918399811E-1   7.335996255278587E-3  -6.894391179084778E-1   6.970431208610535E-1  
 1.930000000000000E7     6.528228521347046E-1   7.314063906669617E-1   1.812886744737625E-1   2.171451225876808E-3   1.815117299556732E-1   2.893021330237389E-3  -6.786181926727295E-1   7.082831263542175E-1  
 1.960000000000000E7     6.817035079002380E-1   7.034484148025513E-1   1.863511204719544E-1  -2.806406468153000E-3   1.864543557167053E-1  -2.239376306533814E-3  -6.687188744544983E-1   7.158785462379456E-1  
 1.990000000000000E7     7.067046761512756E-1   6.749488711357117E-1   1.916102021932602E-1  -8.099964819848537E-3   1.917605251073837E-1  -7.945057004690170E-3  -6.548098921775818E-1   7.276352643966675E-1  
 2.020000000000000E7     7.327243685722351E-1   6.446071267127991E-1   1.971680223941803E-1  -1.342021208256483E-2   1.964716911315918E-1  -1.335973758250475E-2  -6.441804766654968E-1   7.335375547409058E-1  
 2.050000000000000E7     7.594246864318848E-1   6.135372519493103E-1   2.022401690483093E-1  -1.923143304884434E-2   2.009188681840897E-1  -1.964558474719524E-2  -6.322309970855713E-1   7.428127527236939E-1  
 2.080000000000000E7     7.825171947479248E-1   5.794897079467773E-1   2.076410204172134E-1  -2.596233226358891E-2   2.074657678604126E-1  -2.570181339979172E-2  -6.201429963111877E-1   7.532101869583130E-1  
 2.110000000000000E7     8.057060241699219E-1   5.462536811828613E-1   2.130386233329773E-1  -3.343180567026138E-2   2.128854990005493E-1  -3.315609693527222E-2  -6.063804626464844E-1   7.620580792427063E-1  
 2.140000000000000E7     8.268647789955139E-1   5.115336179733276E-1   2.185140997171402E-1  -4.100742191076279E-2   2.174509465694428E-1  -4.011279344558716E-2  -5.937523245811462E-1   7.701908349990845E-1  
 2.170000000000000E7     8.452346324920654E-1   4.764845371246338E-1   2.234494388103485E-1  -4.816005751490593E-2   2.232187539339066E-1  -4.740154370665550E-2  -5.806350708007813E-1   7.785201668739319E-1  
 2.200000000000000E7     8.653072118759155E-1   4.371830821037293E-1   2.283772528171539E-1  -5.671772733330727E-2   2.283984273672104E-1  -5.624835565686226E-2  -5.657520294189453E-1   7.866981625556946E-1  
 2.230000000000000E7     8.807095289230347E-1   3.989781439304352E-1   2.335513532161713E-1  -6.537321209907532E-2   2.329664081335068E-1  -6.475163251161575E-2  -5.515800118446350E-1   7.941352725028992E-1  
 2.260000000000000E7     8.961925506591797E-1   3.589438796043396E-1   2.380515187978745E-1  -7.454293221235275E-2   2.393426299095154E-1  -7.411637157201767E-2  -5.377763509750366E-1   8.017866015434265E-1  
 2.290000000000000E7     9.099467992782593E-1   3.178658485412598E-1   2.430273294448853E-1  -8.424551784992218E-2   2.434803992509842E-1  -8.340086042881012E-2  -5.214551687240601E-1   8.087140321731567E-1  
 2.320000000000000E7     9.199290275573731E-1   2.762066423892975E-1   2.481551617383957E-1  -9.499214589595795E-2   2.474999427795410E-1  -9.513111412525177E-2  -5.063849091529846E-1   8.179227113723755E-1  
 2.350000000000000E7     9.294216632843018E-1   2.318484783172607E-1   2.526049017906189E-1  -1.066099405288696E-1   2.522046864032745E-1  -1.058155372738838E-1  -4.908253550529480E-1   8.244898915290833E-1  
 2.380000000000000E7     9.367616176605225E-1   1.886394321918488E-1   2.566611766815186E-1  -1.173810735344887E-1   2.567054629325867E-1  -1.171527132391930E-1  -4.751193821430206E-1   8.307414650917053E-1  
 2.410000000000000E7     9.424652457237244E-1   1.427074968814850E-1   2.604366540908814E-1  -1.303869634866715E-1   2.600459456443787E-1  -1.299504041671753E-1  -4.579960405826569E-1   8.371554017066956E-1  
 2.440000000000000E7     9.449946880340576E-1   9.766081720590591E-2   2.647996842861176E-1  -1.437257826328278E-1   2.646662592887878E-1  -1.437753736972809E-1  -4.422126710414887E-1   8.424608707427979E-1  
 2.470000000000000E7     9.451392889022827E-1   5.126843601465225E-2   2.680592238903046E-1  -1.579760164022446E-1   2.676290869712830E-1  -1.560294926166534E-1  -4.237246513366699E-1   8.467900753021240E-1  
 2.500000000000000E7     9.442245364189148E-1   3.293130546808243E-3   2.705822587013245E-1  -1.719808280467987E-1   2.703283727169037E-1  -1.722691506147385E-1  -4.055013060569763E-1   8.527995347976685E-1  
 2.530000000000000E7     9.393461346626282E-1  -4.428522288799286E-2   2.735410928726196E-1  -1.869579106569290E-1   2.735707163810730E-1  -1.863599121570587E-1  -3.875074088573456E-1   8.561113476753235E-1  
 2.560000000000000E7     9.319413304328919E-1  -9.144525229930878E-2   2.755800485610962E-1  -2.027602195739746E-1   2.763126492500305E-1  -2.027391195297241E-1  -3.695917427539825E-1   8.602952957153320E-1  
 2.590000000000000E7     9.204647541046143E-1  -1.396672427654266E-1   2.767641544342041E-1  -2.210580557584763E-1   2.772662937641144E-1  -2.209270447492600E-1  -3.504919707775116E-1   8.657108545303345E-1  
 2.620000000000000E7     9.068840742111206E-1  -1.888977736234665E-1   2.775403857231140E-1  -2.398842573165894E-1   2.774795293807983E-1  -2.387578636407852E-1  -3.289021253585815E-1   8.682892322540283E-1  
 2.650000000000000E7     8.902336955070496E-1  -2.371766418218613E-1   2.780736684799194E-1  -2.574623525142670E-1   2.778872251510620E-1  -2.580762803554535E-1  -3.098591864109039E-1   8.692805171012878E-1  
 2.680000000000000E7     8.694838285446167E-1  -2.851201295852661E-1   2.777646183967590E-1  -2.776265740394592E-1   2.774245142936707E-1  -2.783442139625549E-1  -2.901296913623810E-1   8.703814148902893E-1  
 2.710000000000000E7     8.447837829589844E-1  -3.337154090404511E-1   2.742894887924194E-1  -2.997436821460724E-1   2.738490402698517E-1  -2.990803718566895E-1  -2.689112424850464E-1   8.721004724502564E-1  
 2.740000000000000E7     8.174918293952942E-1  -3.815352618694305E-1   2.728514373302460E-1  -3.209725618362427E-1   2.718668282032013E-1  -3.219876587390900E-1  -2.472922503948212E-1   8.692287802696228E-1  
 2.770000000000000E7     7.865450978279114E-1  -4.263612329959869E-1   2.676316797733307E-1  -3.445593118667603E-1   2.670218348503113E-1  -3.457005023956299E-1  -2.253875136375427E-1   8.686342239379883E-1  
 2.800000000000000E7     7.523564100265503E-1  -4.718481302261353E-1   2.617734074592590E-1  -3.684368133544922E-1   2.627138495445252E-1  -3.686504364013672E-1  -2.023496627807617E-1   8.644872903823853E-1  
 2.830000000000000E7     7.114095091819763E-1  -5.155668854713440E-1   2.538929879665375E-1  -3.929800689220429E-1   2.530521750450134E-1  -3.938975334167481E-1  -1.828786134719849E-1   8.618122339248657E-1  
 2.860000000000000E7     6.666427850723267E-1  -5.565664172172546E-1   2.440614998340607E-1  -4.196000993251801E-1   2.427875548601151E-1  -4.207809567451477E-1  -1.573920249938965E-1   8.564378023147583E-1  
 2.890000000000000E7     6.185099482536316E-1  -5.937894582748413E-1   2.314427942037582E-1  -4.478956162929535E-1   2.311954498291016E-1  -4.472502768039703E-1  -1.358819156885147E-1   8.498008251190186E-1  
 2.920000000000000E7     5.659473538398743E-1  -6.301633119583130E-1   2.189170718193054E-1  -4.744670093059540E-1   2.166362553834915E-1  -4.744785130023956E-1  -1.140727475285530E-1   8.411458730697632E-1  
 2.950000000000000E7     5.085740089416504E-1  -6.609786152839661E-1   2.006465643644333E-1  -5.052072405815125E-1   2.001638710498810E-1  -5.038574934005737E-1  -9.047111123800278E-2   8.319725394248962E-1  
 2.980000000000000E7     4.467603862285614E-1  -6.884609460830689E-1   1.809473484754562E-1  -5.328655242919922E-1   1.801987886428833E-1  -5.341707468032837E-1  -6.869004666805267E-2   8.200052976608276E-1  
 3.010000000000000E7     3.805965185165405E-1  -7.105047702789307E-1   1.559868156909943E-1  -5.631037354469299E-1   1.571817994117737E-1  -5.629880428314209E-1  -4.696719348430634E-2   8.066061735153198E-1  
 3.040000000000000E7     3.091145157814026E-1  -7.262179851531982E-1   1.297269314527512E-1  -5.927204489707947E-1   1.280072927474976E-1  -5.934259891510010E-1  -2.637073025107384E-2   7.892719507217407E-1  
 3.070000000000000E7     2.368943095207214E-1  -7.339359521865845E-1   9.757618606090546E-2  -6.204766035079956E-1   9.693571925163269E-2  -6.196236610412598E-1  -6.033193320035934E-3   7.738367915153503E-1  
 3.100000000000000E7     1.598273813724518E-1  -7.332519888877869E-1   6.123420223593712E-2  -6.486596465110779E-1   6.120457872748375E-2  -6.471481919288635E-1   1.331726647913456E-2   7.547627687454224E-1  
 3.130000000000000E7     8.177102357149124E-2  -7.266420125961304E-1   1.992004550993443E-2  -6.742111444473267E-1   2.099928073585033E-2  -6.736865639686585E-1   2.888131327927113E-2   7.314056158065796E-1  
 3.160000000000000E7     2.243010792881250E-3  -7.063280344009399E-1  -2.427141554653645E-2  -6.979602575302124E-1  -2.437472343444824E-2  -6.975494027137756E-1   4.334312304854393E-2   7.100821137428284E-1  
 3.190000000000000E7    -7.677692919969559E-2  -6.775039434432983E-1  -7.418440282344818E-2  -7.178732156753540E-1  -7.350078225135803E-2  -7.161279916763306E-1   5.679671838879585E-2   6.848496794700623E-1  
 3.220000000000000E7    -1.555001139640808E-1  -6.391868591308594E-1  -1.273253113031387E-1  -7.337979674339294E-1  -1.273624300956726E-1  -7.323709130287170E-1   6.441244482994080E-2   6.586197018623352E-1  
 3.250000000000000E7    -2.276872247457504E-1  -5.869308114051819E-1  -1.859377324581146E-1  -7.448277473449707E-1  -1.866378188133240E-1  -7.437304258346558E-1   7.042278349399567E-2   6.329914927482605E-1  
 3.280000000000000E7    -2.943079173564911E-1  -5.234846472740173E-1  -2.485063821077347E-1  -7.503220438957214E-1  -2.469579279422760E-1  -7.482568621635437E-1   7.340064644813538E-2   6.038114428520203E-1  
 3.310000000000000E7    -3.550273180007935E-1  -4.530178904533386E-1  -3.127036392688751E-1  -7.463437914848328E-1  -3.138720989227295E-1  -7.446853518486023E-1   7.073131948709488E-2   5.759176611900330E-1  
 3.340000000000000E7    -4.026468396186829E-1  -3.709397614002228E-1  -3.811779618263245E-1  -7.357603311538696E-1  -3.792902231216431E-1  -7.346410751342773E-1   6.554732471704483E-2   5.498514771461487E-1  
 3.370000000000000E7    -4.402807354927063E-1  -2.796710729598999E-1  -4.474970400333405E-1  -7.159875035285950E-1  -4.478092789649963E-1  -7.163881659507752E-1   5.432097241282463E-2   5.238925218582153E-1  
 3.400000000000000E7    -4.621693491935730E-1  -1.837648600339890E-1  -5.133622288703919E-1  -6.874783635139465E-1  -5.138701200485230E-1  -6.871595382690430E-1   4.016726464033127E-2   5.022360682487488E-1  
 3.430000000000000E7    -4.693845212459564E-1  -8.489938080310822E-2  -5.776515007019043E-1  -6.496500968933106E-1  -5.765501260757446E-1  -6.509631276130676E-1   2.477933838963509E-2   4.824316501617432E-1  
 3.460000000000000E7    -4.613184630870819E-1   1.566688157618046E-2  -6.366692185401917E-1  -6.054751873016357E-1  -6.352847218513489E-1  -6.045296788215637E-1   4.209686536341906E-3   4.695390760898590E-1  
 3.490000000000000E7    -4.366127550601959E-1   1.104570254683495E-1  -6.911562085151672E-1  -5.511918067932129E-1  -6.893044710159302E-1  -5.533512830734253E-1  -1.572789251804352E-2   4.560880661010742E-1  
 3.520000000000000E7    -3.967615962028503E-1   2.040487378835678E-1  -7.366780042648315E-1  -4.928141832351685E-1  -7.364583015441895E-1  -4.943671524524689E-1  -3.899810090661049E-2   4.505007565021515E-1  
 3.550000000000000E7    -3.409781157970429E-1   2.884750068187714E-1  -7.750157117843628E-1  -4.295545518398285E-1  -7.738938927650452E-1  -4.291240572929382E-1  -6.355112046003342E-2   4.516320526599884E-1  
 3.580000000000000E7    -2.771492600440979E-1   3.619481921195984E-1  -8.044124841690064E-1  -3.606891930103302E-1  -8.040116429328919E-1  -3.617419302463532E-1  -8.542139828205109E-2   4.536505341529846E-1  
 3.610000000000000E7    -2.024935036897659E-1   4.197953045368195E-1  -8.268873095512390E-1  -2.919203341007233E-1  -8.256437778472900E-1  -2.912008166313171E-1  -1.057319939136505E-1   4.624927639961243E-1  
 3.640000000000000E7    -1.207660660147667E-1   4.693144857883453E-1  -8.378016352653503E-1  -2.221271544694901E-1  -8.369740843772888E-1  -2.210546433925629E-1  -1.257948577404022E-1   4.760098159313202E-1  
 3.670000000000000E7    -3.517719358205795E-2   5.033044815063477E-1  -8.428528904914856E-1  -1.536863595247269E-1  -8.407000899314880E-1  -1.531799286603928E-1  -1.397953331470490E-1   4.907869398593903E-1  
 3.700000000000000E7     5.015926808118820E-2   5.239921212196350E-1  -8.376265764236450E-1  -8.586066216230393E-2  -8.377079963684082E-1  -8.514569699764252E-2  -1.524680256843567E-1   5.104796290397644E-1  
 3.730000000000000E7     1.368291527032852E-1   5.341504216194153E-1  -8.255964517593384E-1  -2.170477807521820E-2  -8.261225223541260E-1  -2.315799519419670E-2  -1.607006788253784E-1   5.308410525321960E-1  
 3.760000000000000E7     2.177511304616928E-1   5.299587249755859E-1  -8.098667860031128E-1   3.852739185094833E-2  -8.103817105293274E-1   3.754229843616486E-2  -1.650824397802353E-1   5.535871982574463E-1  
 3.790000000000000E7     2.992054522037506E-1   5.149543285369873E-1  -7.902163863182068E-1   9.385276585817337E-2  -7.900133728981018E-1   9.328227490186691E-2  -1.656962782144547E-1   5.747559666633606E-1  
 3.820000000000000E7     3.727505207061768E-1   4.921383559703827E-1  -7.657170891761780E-1   1.445602178573608E-1  -7.638790607452393E-1   1.441377699375153E-1  -1.631992012262344E-1   6.000149250030518E-1  
 3.850000000000000E7     4.434305727481842E-1   4.619096815586090E-1  -7.380874156951904E-1   1.905846893787384E-1  -7.366262078285217E-1   1.924257278442383E-1  -1.586952805519104E-1   6.233028173446655E-1  
 3.880000000000000E7     5.039524435997009E-1   4.262762963771820E-1  -7.062369585037231E-1   2.351722121238709E-1  -7.058902978897095E-1   2.343043684959412E-1  -1.489570736885071E-1   6.460204124450684E-1  
 3.910000000000000E7     5.622186660766602E-1   3.837835192680359E-1  -6.740401387214661E-1   2.713338732719421E-1  -6.746835708618164E-1   2.721805572509766E-1  -1.350346207618713E-1   6.685240268707275E-1  
 3.940000000000000E7     6.099967956542969E-1   3.360059559345245E-1  -6.402689218521118E-1   3.045691251754761E-1  -6.398109197616577E-1   3.049720525741577E-1  -1.205965951085091E-1   6.891231536865234E-1  
 3.970000000000000E7     6.543227434158325E-1   2.867086231708527E-1  -6.060131192207336E-1   3.334111571311951E-1  -6.054337620735169E-1   3.332496881484985E-1  -1.014414876699448E-1   7.087097167968750E-1  
 4.000000000000000E7     6.911351084709168E-1   2.354011088609695E-1  -5.714584589004517E-1   3.600279688835144E-1  -5.709447860717773E-1   3.604436218738556E-1  -8.081548660993576E-2   7.276312112808228E-1  
 4.030000000000000E7     7.210764884948731E-1   1.828324794769287E-1  -5.377045869827271E-1   3.845549821853638E-1  -5.374091267585754E-1   3.834695518016815E-1  -5.938820540904999E-2   7.438015937805176E-1  
 4.060000000000000E7     7.479851245880127E-1   1.280537545681000E-1  -5.030564665794373E-1   4.026490747928619E-1  -5.020772218704224E-1   4.016937017440796E-1  -3.411526978015900E-2   7.596833109855652E-1  
 4.090000000000000E7     7.692415118217468E-1   7.300738990306854E-2  -4.682725667953491E-1   4.189631044864655E-1  -4.680445492267609E-1   4.196852445602417E-1  -9.109660983085632E-3   7.723895311355591E-1  
 4.120000000000000E7     7.842069864273071E-1   1.748397201299667E-2  -4.361516237258911E-1   4.321253895759583E-1  -4.342395663261414E-1   4.321810007095337E-1   2.062410116195679E-2   7.849383950233460E-1  
 4.150000000000000E7     7.931077480316162E-1  -3.517561405897141E-2  -4.019124209880829E-1   4.459837079048157E-1  -4.015646278858185E-1   4.425163865089417E-1   5.100179463624954E-2   7.933740615844727E-1  
 4.180000000000000E7     8.004568219184876E-1  -8.925266563892365E-2  -3.690510392189026E-1   4.549888372421265E-1  -3.689087033271790E-1   4.544219970703125E-1   8.049690723419190E-2   8.016135096549988E-1  
 4.210000000000000E7     8.023721575737000E-1  -1.408807784318924E-1  -3.371897339820862E-1   4.630008339881897E-1  -3.378890454769135E-1   4.628580808639526E-1   1.146106123924255E-1   8.067067265510559E-1  
 4.240000000000000E7     8.002116680145264E-1  -1.923829168081284E-1  -3.068732023239136E-1   4.688024520874023E-1  -3.068104982376099E-1   4.685043096542358E-1   1.487879753112793E-1   8.103031516075134E-1  
 4.270000000000000E7     7.953448295593262E-1  -2.413271665573120E-1  -2.758237123489380E-1   4.736748039722443E-1  -2.759669423103333E-1   4.729858040809631E-1   1.840198934078217E-1   8.109365701675415E-1  
 4.300000000000000E7     7.879289388656616E-1  -2.905456721782684E-1  -2.462069690227509E-1   4.772098958492279E-1  -2.464047670364380E-1   4.755280017852783E-1   2.204331904649735E-1   8.101789951324463E-1  
 4.330000000000000E7     7.775837182998657E-1  -3.369091451168060E-1  -2.181002646684647E-1   4.763444960117340E-1  -2.179006934165955E-1   4.773825705051422E-1   2.576620876789093E-1   8.060838580131531E-1  
 4.360000000000000E7     7.623778581619263E-1  -3.832476735115051E-1  -1.908103823661804E-1   4.782748818397522E-1  -1.893603205680847E-1   4.763154685497284E-1   2.946903705596924E-1   8.007531762123108E-1  
 4.390000000000000E7     7.469933629035950E-1  -4.266290664672852E-1  -1.628187745809555E-1   4.773924350738525E-1  -1.634929925203323E-1   4.765770435333252E-1   3.340466916561127E-1   7.906162738800049E-1  
 4.420000000000000E7     7.281904220581055E-1  -4.681690633296967E-1  -1.353663355112076E-1   4.736339449882507E-1  -1.361286789178848E-1   4.734906852245331E-1   3.735884428024292E-1   7.789387702941895E-1  
 4.450000000000000E7     7.077215909957886E-1  -5.078513026237488E-1  -1.102085635066032E-1   4.707971811294556E-1  -1.094447150826454E-1   4.700240492820740E-1   4.135028123855591E-1   7.665734887123108E-1  
 4.480000000000000E7     6.858502626419067E-1  -5.461081266403198E-1  -8.464249968528748E-2   4.660758972167969E-1  -8.469595760107040E-2   4.657191932201386E-1   4.535905718803406E-1   7.487543225288391E-1  
 4.510000000000000E7     6.628797054290772E-1  -5.820123553276062E-1  -6.020445749163628E-2   4.611142873764038E-1  -6.001383811235428E-2   4.600510597229004E-1   4.954764842987061E-1   7.277781367301941E-1  
 4.540000000000000E7     6.376138329505920E-1  -6.165808439254761E-1  -3.430479764938355E-2   4.528274834156036E-1  -3.516027331352234E-2   4.529339075088501E-1   5.364483594894409E-1   7.041160464286804E-1  
 4.570000000000000E7     6.105245351791382E-1  -6.499814391136169E-1  -1.123087108135223E-2   4.452755749225617E-1  -1.272050663828850E-2   4.447680711746216E-1   5.775944590568543E-1   6.763805150985718E-1  
 4.600000000000000E7     5.830571651458740E-1  -6.792954206466675E-1   1.012092828750610E-2   4.374339580535889E-1   9.797815233469009E-3   4.375886023044586E-1   6.180133223533630E-1   6.460170745849609E-1  
 4.630000000000000E7     5.531848669052124E-1  -7.103493213653565E-1   3.311774134635925E-2   4.276466369628906E-1   3.355970233678818E-2   4.272465109825134E-1   6.584171652793884E-1   6.104618906974793E-1  
 4.660000000000000E7     5.236093401908875E-1  -7.387534976005554E-1   5.546829104423523E-2   4.156716465950012E-1   5.463545024394989E-2   4.157439768314362E-1   6.973365545272827E-1   5.695170164108276E-1  
 4.690000000000000E7     4.919178783893585E-1  -7.636134028434753E-1   7.592089474201202E-2   4.042040109634399E-1   7.541625201702118E-2   4.028965532779694E-1   7.369312644004822E-1   5.268893241882324E-1  
 4.720000000000000E7     4.595381021499634E-1  -7.879747152328491E-1   9.590108692646027E-2   3.906111717224121E-1   9.621965885162354E-2   3.902094066143036E-1   7.716240286827087E-1   4.784929752349854E-1  
 4.750000000000000E7     4.280323088169098E-1  -8.103064894676209E-1   1.154685989022255E-1   3.760567903518677E-1   1.150768473744392E-1   3.757727146148682E-1   8.077277541160584E-1   4.265784621238709E-1  
 4.780000000000000E7     3.946699500083923E-1  -8.311874270439148E-1   1.329082548618317E-1   3.603495061397553E-1   1.324645578861237E-1   3.609092235565186E-1   8.377764225006104E-1   3.692577481269836E-1  
 4.810000000000000E7     3.601614236831665E-1  -8.503568172454834E-1   1.504469215869904E-1   3.453117311000824E-1   1.501405239105225E-1   3.444210588932037E-1   8.673013448715210E-1   3.070643246173859E-1  
 4.840000000000000E7     3.259006738662720E-1  -8.682914376258850E-1   1.665965616703033E-1   3.278380036354065E-1   1.671425998210907E-1   3.269034624099731E-1   8.915813565254211E-1   2.396617233753204E-1  
 4.870000000000000E7     2.905529737472534E-1  -8.845629692077637E-1   1.823155581951141E-1   3.085909783840179E-1   1.814058572053909E-1   3.087639808654785E-1   9.111889600753784E-1   1.685829609632492E-1  
 4.900000000000000E7     2.550267875194550E-1  -8.997336030006409E-1   1.951905041933060E-1   2.887486517429352E-1   1.954111903905869E-1   2.888563573360443E-1   9.251266121864319E-1   9.374758601188660E-2  
 4.930000000000000E7     2.185271680355072E-1  -9.128191471099854E-1   2.068551182746887E-1   2.685000598430634E-1   2.068831026554108E-1   2.689383625984192E-1   9.333878159523010E-1   1.316980272531509E-2  
 4.960000000000000E7     1.812646687030792E-1  -9.230270385742188E-1   2.173582315444946E-1   2.466140538454056E-1   2.176094353199005E-1   2.461693286895752E-1   9.341006278991699E-1  -6.964101642370224E-2  
 4.990000000000000E7     1.453582942485809E-1  -9.335573911666870E-1   2.251804023981094E-1   2.243542671203613E-1   2.250538915395737E-1   2.242310345172882E-1   9.270914196968079E-1  -1.552787423133850E-1  
 5.020000000000000E7     1.091816201806068E-1  -9.426558613777161E-1   2.320317924022675E-1   2.020081430673599E-1   2.318086624145508E-1   2.027374953031540E-1   9.119127392768860E-1  -2.433867454528809E-1  
 5.050000000000000E7     7.093350589275360E-2  -9.497344493865967E-1   2.364608645439148E-1   1.789605170488358E-1   2.363485991954804E-1   1.782993376255035E-1   8.872050046920776E-1  -3.317570686340332E-1  
 5.080000000000000E7     3.389553725719452E-2  -9.555836319923401E-1   2.388708442449570E-1   1.554663032293320E-1   2.385373115539551E-1   1.563508510589600E-1   8.528171777725220E-1  -4.211545884609222E-1  
 5.110000000000000E7    -4.707166925072670E-3  -9.592040181159973E-1   2.385329306125641E-1   1.326469779014587E-1   2.386116236448288E-1   1.323396563529968E-1   8.081723451614380E-1  -5.074552893638611E-1  
 5.140000000000000E7    -4.319884628057480E-2  -9.612935781478882E-1   2.365355938673019E-1   1.099779531359673E-1   2.361858636140823E-1   1.094873324036598E-1   7.538938522338867E-1  -5.906238555908203E-1  
 5.170000000000000E7    -8.089515566825867E-2  -9.623990058898926E-1   2.309151738882065E-1   8.841390162706375E-2   2.312409132719040E-1   8.807588368654251E-2   6.895943880081177E-1  -6.686740517616272E-1  
 5.200000000000000E7    -1.192449852824211E-1  -9.629511833190918E-1   2.252515703439713E-1   6.719581782817841E-2   2.255589812994003E-1   6.787833571434021E-2   6.160325407981873E-1  -7.428519725799561E-1  
 5.230000000000000E7    -1.578716188669205E-1  -9.596514105796814E-1   2.163213938474655E-1   4.727894812822342E-2   2.162152230739594E-1   4.711257666349411E-2   5.336418747901917E-1  -8.059790730476379E-1  
 5.260000000000000E7    -1.960399299860001E-1  -9.545766711235046E-1   2.054261267185211E-1   2.942877821624279E-2   2.058757245540619E-1   2.950890734791756E-2   4.454422593116760E-1  -8.624454736709595E-1  
 5.290000000000000E7    -2.349403649568558E-1  -9.492233395576477E-1   1.944727450609207E-1   1.329426094889641E-2   1.936816275119782E-1   1.342878863215447E-2   3.507760763168335E-1  -9.084716439247131E-1  
 5.320000000000000E7    -2.718591094017029E-1  -9.429340362548828E-1   1.808737665414810E-1  -8.861422538757324E-4   1.807562112808228E-1  -9.243823587894440E-4   2.516845464706421E-1  -9.436309337615967E-1  
 5.350000000000000E7    -3.090726137161255E-1  -9.326224327087402E-1   1.662267595529556E-1  -1.331894472241402E-2   1.660057753324509E-1  -1.301855221390724E-2   1.497220396995544E-1  -9.657059311866760E-1  
 5.380000000000000E7    -3.450753688812256E-1  -9.216505289077759E-1   1.514891535043716E-1  -2.275015786290169E-2   1.511820107698441E-1  -2.271203324198723E-2   4.655356705188751E-2  -9.793291687965393E-1  
 5.410000000000000E7    -3.838246464729309E-1  -9.108037948608398E-1   1.367856562137604E-1  -3.091403469443321E-2   1.366436034440994E-1  -3.066201694309712E-2  -5.365011096000671E-2  -9.818112850189209E-1  
 5.440000000000000E7    -4.195125699043274E-1  -8.957734107971191E-1   1.216016486287117E-1  -3.646510094404221E-2   1.217214316129684E-1  -3.640240430831909E-2  -1.542434692382813E-1  -9.729899764060974E-1  
 5.470000000000000E7    -4.526360034942627E-1  -8.803764581680298E-1   1.074555814266205E-1  -4.029078036546707E-2   1.071659699082375E-1  -4.019214957952499E-2  -2.496029436588287E-1  -9.544808268547058E-1  
 5.500000000000000E7    -4.882944226264954E-1  -8.638979196548462E-1   9.317952394485474E-2  -4.216834902763367E-2   9.300827980041504E-2  -4.202951490879059E-2  -3.405462503433228E-1  -9.265103340148926E-1  
 5.530000000000000E7    -5.214371085166931E-1  -8.451932668685913E-1   7.983998209238052E-2  -4.259604960680008E-2   7.982779294252396E-2  -4.281193017959595E-2  -4.268734455108643E-1  -8.916757106781006E-1  
 5.560000000000000E7    -5.546145439147949E-1  -8.247455358505249E-1   6.744628399610519E-2  -4.183393716812134E-2   6.733383238315582E-2  -4.169669747352600E-2  -5.071907043457031E-1  -8.499335646629334E-1  
 5.590000000000000E7    -5.858054161071777E-1  -8.050933480262756E-1   5.599838495254517E-2  -3.965909779071808E-2   5.608775839209557E-2  -3.972567990422249E-2  -5.796702504158020E-1  -8.036260008811951E-1  
 5.620000000000000E7    -6.166377067565918E-1  -7.809624075889587E-1   4.549869149923325E-2  -3.666429221630096E-2   4.549565911293030E-2  -3.663128614425659E-2  -6.467987895011902E-1  -7.514362335205078E-1  
 5.650000000000000E7    -6.449369192123413E-1  -7.590733766555786E-1   3.634195774793625E-2  -3.282786905765533E-2   3.638827800750732E-2  -3.281987458467484E-2  -7.060899734497070E-1  -6.964082121849060E-1  
 5.680000000000000E7    -6.735161542892456E-1  -7.344787120819092E-1   2.820537798106670E-2  -2.854886278510094E-2   2.813227660953999E-2  -2.856821194291115E-2  -7.601984143257141E-1  -6.395502090454102E-1  
 5.710000000000000E7    -7.015177607536316E-1  -7.079207897186279E-1   2.102022245526314E-2  -2.369348146021366E-2   2.105165645480156E-2  -2.368373051285744E-2  -8.050321936607361E-1  -5.810989141464233E-1  
 5.740000000000000E7    -7.280507683753967E-1  -6.822832226753235E-1   1.491623092442751E-2  -1.862547174096108E-2   1.492971740663052E-2  -1.853252947330475E-2  -8.461984992027283E-1  -5.225930809974670E-1  
 5.770000000000000E7    -7.508931159973145E-1  -6.551378369331360E-1   9.762566536664963E-3  -1.324244122952223E-2   9.743510745465756E-3  -1.321320328861475E-2  -8.794892430305481E-1  -4.606192111968994E-1  
 5.800000000000000E7    -7.753551006317139E-1  -6.262950897216797E-1   5.499774124473333E-3  -7.969358004629612E-3   5.428898613899946E-3  -7.967188954353333E-3  -9.090108275413513E-1  -4.020228981971741E-1  
 5.830000000000000E7    -7.976726889610291E-1  -5.977292060852051E-1   1.965423347428441E-3  -2.664368366822600E-3   1.988216303288937E-3  -2.666888525709510E-3  -9.325988888740540E-1  -3.421826660633087E-1  
 5.860000000000000E7    -8.200249075889587E-1  -5.692217350006104E-1  -7.264760206453502E-4   2.572727156803012E-3  -7.133649196475744E-4   2.539189299568534E-3  -9.530035257339478E-1  -2.847852706909180E-1  
 5.890000000000000E7    -8.393074870109558E-1  -5.381370186805725E-1  -2.780087990686297E-3   7.591404020786285E-3  -2.751993481069803E-3   7.580325007438660E-3  -9.680837392807007E-1  -2.270090281963348E-1  
 5.920000000000000E7    -8.584504127502441E-1  -5.070765614509583E-1  -4.192702937871218E-3   1.244737766683102E-2  -4.123587161302567E-3   1.238338556140661E-2  -9.795576333999634E-1  -1.721262335777283E-1  
 5.950000000000000E7    -8.758034706115723E-1  -4.760721921920776E-1  -5.008053034543991E-3   1.704773306846619E-2  -5.013562738895416E-3   1.697937957942486E-2  -9.871749281883240E-1  -1.171352639794350E-1  
 5.980000000000000E7    -8.928177952766419E-1  -4.438247084617615E-1  -5.401417613029480E-3   2.144738100469112E-2  -5.394316744059324E-3   2.132333442568779E-2  -9.927591085433960E-1  -6.538039445877075E-2  
 6.010000000000000E7    -9.059002399444580E-1  -4.122574627399445E-1  -5.452602636069059E-3   2.543655224144459E-2  -5.459963809698820E-3   2.536587417125702E-2  -9.940119981765747E-1  -1.627776585519314E-2  
 6.040000000000000E7    -9.215483069419861E-1  -3.787035048007965E-1  -4.952485673129559E-3   2.925077639520168E-2  -4.972664173692465E-3   2.926449850201607E-2  -9.944946169853210E-1   3.270015120506287E-2  
 6.070000000000000E7    -9.347691535949707E-1  -3.473299145698547E-1  -4.319379571825266E-3   3.278971835970879E-2  -4.321494605392218E-3   3.272378817200661E-2  -9.911633729934692E-1   7.856205105781555E-2  
 6.100000000000000E7    -9.458041191101074E-1  -3.137587904930115E-1  -3.257196396589279E-3   3.606556355953217E-2  -3.270432818681002E-3   3.594610467553139E-2  -9.872798919677734E-1   1.239769309759140E-1  
 6.130000000000000E7    -9.569894075393677E-1  -2.793552279472351E-1  -1.984320115298033E-3   3.895606845617294E-2  -2.031321171671152E-3   3.892279043793678E-2  -9.810062050819397E-1   1.670117378234863E-1  
 6.160000000000000E7    -9.652416110038757E-1  -2.460539638996124E-1  -5.498635582625866E-4   4.148444533348084E-2  -5.421079695224762E-4   4.151505231857300E-2  -9.725297093391419E-1   2.085637748241425E-1  
 6.190000000000000E7    -9.730263948440552E-1  -2.116760611534119E-1   1.037552021443844E-3   4.383533447980881E-2   1.149594318121672E-3   4.371364414691925E-2  -9.621561169624329E-1   2.487279027700424E-1  
 6.220000000000000E7    -9.800481796264648E-1  -1.776403635740280E-1   2.813174854964018E-3   4.588789865374565E-2   2.768664620816708E-3   4.591411352157593E-2  -9.520782232284546E-1   2.847013175487518E-1  
 6.250000000000000E7    -9.854410886764526E-1  -1.430846005678177E-1   4.575194790959358E-3   4.774562269449234E-2   4.606149159371853E-3   4.772133752703667E-2  -9.410541057586670E-1   3.206300735473633E-1  
 6.280000000000000E7    -9.892206192016602E-1  -1.083569824695587E-1   6.558422930538654E-3   4.932920634746552E-2   6.325709633529186E-3   4.925939068198204E-2  -9.279037714004517E-1   3.545945286750794E-1  
 6.310000000000000E7    -9.926350116729736E-1  -7.239279150962830E-2   8.514836430549622E-3   5.065822228789330E-2   8.472638204693794E-3   5.066691339015961E-2  -9.154727458953857E-1   3.890027701854706E-1  
 6.340000000000000E7    -9.942275285720825E-1  -3.826878964900971E-2   1.055570319294930E-2   5.188270658254623E-2   1.050476823002100E-2   5.168001726269722E-2  -9.014960527420044E-1   4.204966425895691E-1  
 6.370000000000000E7    -9.952255487442017E-1  -3.546252846717835E-3   1.253838278353214E-2   5.263150110840797E-2   1.267799362540245E-2   5.261198803782463E-2  -8.855526447296143E-1   4.505112171173096E-1  
 6.400000000000000E7    -9.935747981071472E-1   3.107248246669769E-2   1.469480525702238E-2   5.349367111921310E-2   1.464468799531460E-2   5.311244726181030E-2  -8.710337877273560E-1   4.789760708808899E-1  
 6.430000000000000E7    -9.920187592506409E-1   6.657513976097107E-2   1.677562110126019E-2   5.382930487394333E-2   1.685862615704536E-2   5.369564145803452E-2  -8.553059697151184E-1   5.074898004531860E-1  
 6.460000000000000E7    -9.896767139434815E-1   1.005604863166809E-1   1.888807490468025E-2   5.406064167618752E-2   1.880565285682678E-2   5.402395501732826E-2  -8.378669023513794E-1   5.326926112174988E-1  
 6.490000000000000E7    -9.865433573722839E-1   1.342827677726746E-1   2.082652412354946E-2   5.420378595590591E-2   2.079164236783981E-2   5.426651239395142E-2  -8.225665688514710E-1   5.568920373916626E-1  
 6.520000000000000E7    -9.800224900245667E-1   1.682690232992172E-1   2.276861667633057E-2   5.420874804258347E-2   2.269367687404156E-2   5.405544117093086E-2  -8.058882355690002E-1   5.819913148880005E-1  
 6.550000000000000E7    -9.740496873855591E-1   2.015614211559296E-1   2.469897642731667E-2   5.405790358781815E-2   2.473878301680088E-2   5.391163751482964E-2  -7.884171009063721E-1   6.048468351364136E-1  
 6.580000000000000E7    -9.659740924835205E-1   2.357903569936752E-1   2.682198397815228E-2   5.378786474466324E-2   2.663721144199371E-2   5.368645861744881E-2  -7.718955874443054E-1   6.268407702445984E-1  
 6.610000000000000E7    -9.563890099525452E-1   2.693879902362824E-1   2.858275175094605E-2   5.323509499430656E-2   2.860002592206001E-2   5.289161205291748E-2  -7.535936236381531E-1   6.488806605339050E-1  
 6.640000000000000E7    -9.483860731124878E-1   3.019042909145355E-1   3.026924841105938E-2   5.261315777897835E-2   3.025821037590504E-2   5.277020856738091E-2  -7.358430624008179E-1   6.690245866775513E-1  
 6.670000000000000E7    -9.363390803337097E-1   3.345959484577179E-1   3.209851682186127E-2   5.199125781655312E-2   3.188144788146019E-2   5.193658545613289E-2  -7.187646627426148E-1   6.866227388381958E-1  
 6.700000000000000E7    -9.241747856140137E-1   3.667357861995697E-1   3.368116542696953E-2   5.110836774110794E-2   3.361171856522560E-2   5.088863894343376E-2  -7.001615166664124E-1   7.047530412673950E-1  
 6.730000000000000E7    -9.107926487922669E-1   3.981842398643494E-1   3.517723083496094E-2   5.004968121647835E-2   3.518714383244515E-2   4.996956139802933E-2  -6.830868124961853E-1   7.224047183990479E-1  
 6.760000000000000E7    -8.967756032943726E-1   4.292430579662323E-1   3.692057728767395E-2   4.922468587756157E-2   3.673201054334641E-2   4.894781112670898E-2  -6.641821861267090E-1   7.395539879798889E-1  
 6.790000000000000E7    -8.813725709915161E-1   4.604587256908417E-1   3.821396455168724E-2   4.800894483923912E-2   3.824120014905930E-2   4.791009798645973E-2  -6.464539766311646E-1   7.547820210456848E-1  
 6.820000000000000E7    -8.647795915603638E-1   4.896648526191711E-1   3.960242122411728E-2   4.678764194250107E-2   3.933255001902580E-2   4.682262986898422E-2  -6.284734010696411E-1   7.698207497596741E-1  
 6.850000000000000E7    -8.478298783302307E-1   5.202466845512390E-1   4.083437100052834E-2   4.563593864440918E-2   4.072492569684982E-2   4.550165310502052E-2  -6.103813052177429E-1   7.837941646575928E-1  
 6.880000000000000E7    -8.291614055633545E-1   5.487425327301025E-1   4.200474545359612E-2   4.426036030054092E-2   4.187073558568955E-2   4.413465037941933E-2  -5.918488502502441E-1   7.980026006698608E-1  
 6.910000000000000E7    -8.095487952232361E-1   5.770977139472961E-1   4.317578300833702E-2   4.303136095404625E-2   4.304973036050797E-2   4.290486127138138E-2  -5.738016366958618E-1   8.118882775306702E-1  
 6.940000000000000E7    -7.899466156959534E-1   6.046946644783020E-1   4.404564946889877E-2   4.158301651477814E-2   4.401304945349693E-2   4.154537618160248E-2  -5.566441416740418E-1   8.236054182052612E-1  
 6.970000000000000E7    -7.673344612121582E-1   6.317844986915588E-1   4.505350813269615E-2   4.009856656193733E-2   4.501609504222870E-2   3.983182460069656E-2  -5.382269620895386E-1   8.356226682662964E-1  
 7.000000000000000E7    -7.456072568893433E-1   6.584812402725220E-1   4.582764208316803E-2   3.857715800404549E-2   4.574899375438690E-2   3.846390172839165E-2  -5.204129219055176E-1   8.477056026458740E-1  
