#  HZ   S   RI   R     50.00 
! Rohde & Schwarz ZVT8 8Ports - Version 4.11 - 1300.0000k08 SN: 100242
! Date: 2026-07-31 15:04:48
! Measurements: S11 S21 S12 S22 
! 
 1.000000000000000E7    -3.970742821693420E-1   9.135599136352539E-1   5.304680019617081E-2   5.341371148824692E-2   5.280826613306999E-2   5.353963375091553E-2  -9.192042946815491E-1   3.829056322574616E-1  
 1.030000000000000E7    -3.636970818042755E-1   9.260913133621216E-1   5.637023970484734E-2   5.386947467923164E-2   5.630343034863472E-2   5.397172644734383E-2  -9.141073226928711E-1   3.949833214282990E-1  
 1.060000000000000E7    -3.269175291061401E-1   9.391409754753113E-1   6.023424863815308E-2   5.476205423474312E-2   6.001579016447067E-2   5.463927984237671E-2  -9.101029634475708E-1   4.069883227348328E-1  
 1.090000000000000E7    -2.939914762973785E-1   9.496474266052246E-1   6.370038539171219E-2   5.516756698489189E-2   6.374612450599670E-2   5.535785481333733E-2  -9.042207598686218E-1   4.188646674156189E-1  
 1.120000000000000E7    -2.576182782649994E-1   9.588059782981873E-1   6.777665764093399E-2   5.597655102610588E-2   6.714647263288498E-2   5.589127540588379E-2  -8.987082839012146E-1   4.299446344375610E-1  
 1.150000000000000E7    -2.205752283334732E-1   9.686629772186279E-1   7.140392065048218E-2   5.593336373567581E-2   7.132661342620850E-2   5.612746998667717E-2  -8.914325833320618E-1   4.390294551849365E-1  
 1.180000000000000E7    -1.848145127296448E-1   9.737353920936585E-1   7.540030032396317E-2   5.629643425345421E-2   7.552480697631836E-2   5.634840205311775E-2  -8.872936367988586E-1   4.499242901802063E-1  
 1.210000000000000E7    -1.489506512880325E-1   9.805578589439392E-1   8.009523898363113E-2   5.670445784926415E-2   7.973223924636841E-2   5.659125372767448E-2  -8.796396851539612E-1   4.621747732162476E-1  
 1.240000000000000E7    -1.115993708372116E-1   9.844393134117127E-1   8.424700051546097E-2   5.674086511135101E-2   8.431097120046616E-2   5.634098127484322E-2  -8.729808926582336E-1   4.716296792030335E-1  
 1.270000000000000E7    -7.403313368558884E-2   9.874469637870789E-1   8.917064219713211E-2   5.644134432077408E-2   8.881369233131409E-2   5.620882660150528E-2  -8.668737411499023E-1   4.857173860073090E-1  
 1.300000000000000E7    -3.713527321815491E-2   9.896236658096314E-1   9.369956701993942E-2   5.609040707349777E-2   9.344489127397537E-2   5.600149929523468E-2  -8.591170907020569E-1   4.954457879066467E-1  
 1.330000000000000E7     1.733832061290741E-3   9.906790256500244E-1   9.876404702663422E-2   5.584963783621788E-2   9.877748787403107E-2   5.527647584676743E-2  -8.523687720298767E-1   5.074990987777710E-1  
 1.360000000000000E7     4.087034612894058E-2   9.895855784416199E-1   1.038972809910774E-1   5.526846274733543E-2   1.040258035063744E-1   5.467130988836289E-2  -8.455017209053040E-1   5.168434977531433E-1  
 1.390000000000000E7     7.846895605325699E-2   9.861548542976379E-1   1.092859432101250E-1   5.416147038340569E-2   1.089329645037651E-1   5.421940609812737E-2  -8.376123905181885E-1   5.282926559448242E-1  
 1.420000000000000E7     1.181961894035339E-1   9.820742011070252E-1   1.146283000707626E-1   5.336828529834747E-2   1.144393160939217E-1   5.334830656647682E-2  -8.312287926673889E-1   5.385627150535584E-1  
 1.450000000000000E7     1.571795195341110E-1   9.746277928352356E-1   1.205302327871323E-1   5.189852789044380E-2   1.202096566557884E-1   5.188885331153870E-2  -8.211514949798584E-1   5.505886673927307E-1  
 1.480000000000000E7     1.978538781404495E-1   9.672464132308960E-1   1.265003830194473E-1   5.030745640397072E-2   1.264384239912033E-1   5.068147554993630E-2  -8.138210177421570E-1   5.607649087905884E-1  
 1.510000000000000E7     2.365919798612595E-1   9.571461081504822E-1   1.325615346431732E-1   4.842074587941170E-2   1.323643177747726E-1   4.850511252880096E-2  -8.028247952461243E-1   5.716741681098938E-1  
 1.540000000000000E7     2.750720083713532E-1   9.460618495941162E-1   1.388352066278458E-1   4.756550863385201E-2   1.386745870113373E-1   4.673344641923904E-2  -7.968060374259949E-1   5.816235542297363E-1  
 1.570000000000000E7     3.154631257057190E-1   9.338935613632202E-1   1.456214338541031E-1   4.470389336347580E-2   1.456994414329529E-1   4.451519250869751E-2  -7.872183918952942E-1   5.937811732292175E-1  
 1.600000000000000E7     3.553672134876251E-1   9.176216721534729E-1   1.525634825229645E-1   4.193341732025147E-2   1.526767015457153E-1   4.170140251517296E-2  -7.783285975456238E-1   6.023423671722412E-1  
 1.630000000000000E7     3.941321969032288E-1   9.000271558761597E-1   1.601796001195908E-1   3.851701691746712E-2   1.597709953784943E-1   3.885006532073021E-2  -7.678782939910889E-1   6.143574118614197E-1  
 1.660000000000000E7     4.332951903343201E-1   8.793261051177979E-1   1.679476350545883E-1   3.520274162292481E-2   1.672239452600479E-1   3.456819057464600E-2  -7.566583752632141E-1   6.252281069755554E-1  
 1.690000000000000E7     4.717766642570496E-1   8.579297065734863E-1   1.757006645202637E-1   3.188349679112434E-2   1.755231022834778E-1   3.154182434082031E-2  -7.472686171531677E-1   6.345790028572083E-1  
 1.720000000000000E7     5.122875571250916E-1   8.344045281410217E-1   1.831574290990830E-1   2.668917179107666E-2   1.834975332021713E-1   2.715262770652771E-2  -7.366882562637329E-1   6.449490189552307E-1  
 1.750000000000000E7     5.464436411857605E-1   8.107256293296814E-1   1.928423047065735E-1   2.323408424854279E-2   1.928724497556686E-1   2.269812300801277E-2  -7.260929346084595E-1   6.563466191291809E-1  
 1.780000000000000E7     5.861428976058960E-1   7.783330678939819E-1   2.006169706583023E-1   1.696332357823849E-2   2.010861784219742E-1   1.748560555279255E-2  -7.140261530876160E-1   6.640304923057556E-1  
 1.810000000000000E7     6.218847036361694E-1   7.486095428466797E-1   2.113921195268631E-1   1.132399775087833E-2   2.098454684019089E-1   1.059154048562050E-2  -7.016746997833252E-1   6.768854260444641E-1  
 1.840000000000000E7     6.598371863365173E-1   7.130553126335144E-1   2.211704105138779E-1   2.962077036499977E-3   2.201577723026276E-1   3.622859716415405E-3  -6.887659430503845E-1   6.861400008201599E-1  
 1.870000000000000E7     6.932063698768616E-1   6.767578125000000E-1   2.311581075191498E-1  -3.943318501114845E-3   2.302490323781967E-1  -4.329686984419823E-3  -6.750947237014771E-1   6.951923966407776E-1  
 1.900000000000000E7     7.276047468185425E-1   6.364158391952515E-1   2.418490499258041E-1  -1.271785981953144E-2   2.412810325622559E-1  -1.302378531545401E-2  -6.610005497932434E-1   7.042447924613953E-1  
 1.930000000000000E7     7.601001262664795E-1   5.911376476287842E-1   2.523602843284607E-1  -2.390417456626892E-2   2.527905404567719E-1  -2.283952385187149E-2  -6.468266844749451E-1   7.150029540061951E-1  
 1.960000000000000E7     7.911765575408936E-1   5.426172018051148E-1   2.638565599918366E-1  -3.502985835075378E-2   2.639520466327667E-1  -3.429739177227020E-2  -6.335518956184387E-1   7.228512763977051E-1  
 1.990000000000000E7     8.184460997581482E-1   4.916884899139404E-1   2.759465277194977E-1  -4.783188551664352E-2   2.762136161327362E-1  -4.778242111206055E-2  -6.148955821990967E-1   7.332601547241211E-1  
 2.020000000000000E7     8.444293141365051E-1   4.348859190940857E-1   2.887807488441467E-1  -6.212190538644791E-2   2.878939509391785E-1  -6.177904456853867E-2  -5.994263291358948E-1   7.386332750320435E-1  
 2.050000000000000E7     8.690685033798218E-1   3.728971183300018E-1   3.012104928493500E-1  -7.845664024353027E-2   2.994430065155029E-1  -7.835755497217178E-2  -5.820614695549011E-1   7.464876770973206E-1  
 2.080000000000000E7     8.869592547416687E-1   3.056892454624176E-1   3.144922852516174E-1  -9.798798710107803E-2   3.146259784698486E-1  -9.790499508380890E-2  -5.632480382919312E-1   7.544509172439575E-1  
 2.110000000000000E7     9.017515182495117E-1   2.335385084152222E-1   3.277061879634857E-1  -1.212062984704971E-1   3.275871276855469E-1  -1.209101080894470E-1  -5.431458950042725E-1   7.600313425064087E-1  
 2.140000000000000E7     9.094901680946350E-1   1.561829745769501E-1   3.406976759433746E-1  -1.474287658929825E-1   3.397672772407532E-1  -1.455475389957428E-1  -5.222259163856506E-1   7.646074295043945E-1  
 2.170000000000000E7     9.099351167678833E-1   7.280531525611877E-2   3.531716167926788E-1  -1.762225031852722E-1   3.534449636936188E-1  -1.749435961246491E-1  -5.004581809043884E-1   7.674078345298767E-1  
 2.200000000000000E7     9.007393717765808E-1  -1.944723352789879E-2   3.636781871318817E-1  -2.105813026428223E-1   3.642278611660004E-1  -2.100326418876648E-1  -4.758943915367127E-1   7.683511972427368E-1  
 2.230000000000000E7     8.783025145530701E-1  -1.157553344964981E-1   3.727553188800812E-1  -2.499165087938309E-1   3.727486133575440E-1  -2.491482943296433E-1  -4.509740471839905E-1   7.666335701942444E-1  
 2.260000000000000E7     8.414359688758850E-1  -2.185273021459580E-1   3.777436912059784E-1  -2.955198884010315E-1   3.796538412570953E-1  -2.960638701915741E-1  -4.265405237674713E-1   7.609447240829468E-1  
 2.290000000000000E7     7.840910553932190E-1  -3.246469199657440E-1   3.783911466598511E-1  -3.479453325271606E-1   3.799858093261719E-1  -3.486048877239227E-1  -3.979755640029907E-1   7.525183558464050E-1  
 2.320000000000000E7     7.024077773094177E-1  -4.292514324188232E-1   3.717010021209717E-1  -4.092501699924469E-1   3.710986077785492E-1  -4.084896743297577E-1  -3.730123341083527E-1   7.418368458747864E-1  
 2.350000000000000E7     5.912946462631226E-1  -5.289769172668457E-1   3.524446189403534E-1  -4.764433503150940E-1   3.526685237884522E-1  -4.746899902820587E-1  -3.477001786231995E-1   7.220752239227295E-1  
 2.380000000000000E7     4.485522508621216E-1  -6.140714287757874E-1   3.188031315803528E-1  -5.465025305747986E-1   3.196030855178833E-1  -5.468436479568481E-1  -3.261114656925201E-1   6.962011456489563E-1  
 2.410000000000000E7     2.725472450256348E-1  -6.696628332138062E-1   2.647733688354492E-1  -6.186006069183350E-1   2.653326690196991E-1  -6.180359721183777E-1  -3.098805248737335E-1   6.648038029670715E-1  
 2.440000000000000E7     6.855517625808716E-2  -6.788547635078430E-1   1.882966309785843E-1  -6.852761507034302E-1   1.879664659500122E-1  -6.845933794975281E-1  -3.050021529197693E-1   6.274433732032776E-1  
 2.470000000000000E7    -1.478818207979202E-1  -6.317403316497803E-1   8.871023356914520E-2  -7.373113036155701E-1   9.006964415311813E-2  -7.353407740592957E-1  -3.082913756370544E-1   5.860522389411926E-1  
 2.500000000000000E7    -3.553565740585327E-1  -5.145614147186279E-1  -2.841874770820141E-2  -7.595142722129822E-1  -2.821464464068413E-2  -7.597880959510803E-1  -3.275924324989319E-1   5.519807934761047E-1  
 2.530000000000000E7    -5.220031142234802E-1  -3.322414755821228E-1  -1.513256579637528E-1  -7.509737014770508E-1  -1.511659175157547E-1  -7.501492500305176E-1  -3.595212996006012E-1   5.225662589073181E-1  
 2.560000000000000E7    -6.228373646736145E-1  -1.087563261389732E-1  -2.677683234214783E-1  -7.063700556755066E-1  -2.681643664836884E-1  -7.058055400848389E-1  -4.009748399257660E-1   5.080280303955078E-1  
 2.590000000000000E7    -6.464737653732300E-1   1.267688125371933E-1  -3.649119138717651E-1  -6.363953351974487E-1  -3.642872869968414E-1  -6.370865106582642E-1  -4.409027993679047E-1   5.094085335731506E-1  
 2.620000000000000E7    -6.044405698776245E-1   3.475708067417145E-1  -4.347981810569763E-1  -5.491827130317688E-1  -4.340293407440186E-1  -5.485779643058777E-1  -4.781989455223084E-1   5.233506560325623E-1  
 2.650000000000000E7    -5.110207200050354E-1   5.319343805313110E-1  -4.741137623786926E-1  -4.550560712814331E-1  -4.753135442733765E-1  -4.551070034503937E-1  -5.098332762718201E-1   5.473734140396118E-1  
 2.680000000000000E7    -3.869082927703857E-1   6.721592545509338E-1  -4.921464920043945E-1  -3.671273887157440E-1  -4.916349053382874E-1  -3.667225539684296E-1  -5.312793254852295E-1   5.779711008071899E-1  
 2.710000000000000E7    -2.518309950828552E-1   7.696429491043091E-1  -4.936776161193848E-1  -2.876304388046265E-1  -4.938525259494782E-1  -2.873673439025879E-1  -5.431196093559265E-1   6.105551719665527E-1  
 2.740000000000000E7    -1.145102530717850E-1   8.314870595932007E-1  -4.801871180534363E-1  -2.204840779304504E-1  -4.796712398529053E-1  -2.194988131523132E-1  -5.475722551345825E-1   6.436040401458740E-1  
 2.770000000000000E7     1.619029045104981E-2   8.629894256591797E-1  -4.615006446838379E-1  -1.620867252349854E-1  -4.617565572261810E-1  -1.626193523406982E-1  -5.465735793113709E-1   6.758112311363220E-1  
 2.800000000000000E7     1.374060809612274E-1   8.731422424316406E-1  -4.372374415397644E-1  -1.137909516692162E-1  -4.366178214550018E-1  -1.148131191730499E-1  -5.414894223213196E-1   7.048296332359314E-1  
 2.830000000000000E7     2.480960190296173E-1   8.654726147651672E-1  -4.119754731655121E-1  -7.479485869407654E-2  -4.129714667797089E-1  -7.552151381969452E-2  -5.327678322792053E-1   7.311168313026428E-1  
 2.860000000000000E7     3.462794423103333E-1   8.471679687500000E-1  -3.864848017692566E-1  -4.379666224122047E-2  -3.869934976100922E-1  -4.273049533367157E-2  -5.195048451423645E-1   7.575126290321350E-1  
 2.890000000000000E7     4.338174760341644E-1   8.191226124763489E-1  -3.622098863124847E-1  -1.710743457078934E-2  -3.612814247608185E-1  -1.749073341488838E-2  -5.057041645050049E-1   7.795107364654541E-1  
 2.920000000000000E7     5.125815272331238E-1   7.838272452354431E-1  -3.367742598056793E-1   3.015920519828796E-3  -3.366136848926544E-1   3.936927765607834E-3  -4.909328222274780E-1   7.993125319480896E-1  
 2.950000000000000E7     5.793509483337402E-1   7.452341318130493E-1  -3.142732381820679E-1   2.015860565006733E-2  -3.135207295417786E-1   2.057076804339886E-2  -4.737199544906616E-1   8.203217983245850E-1  
 2.980000000000000E7     6.403596997261047E-1   7.034774422645569E-1  -2.915948033332825E-1   3.380224108695984E-2  -2.919253408908844E-1   3.383236378431320E-2  -4.566282331943512E-1   8.375231027603149E-1  
 3.010000000000000E7     6.942590475082398E-1   6.585575342178345E-1  -2.710805833339691E-1   4.560598731040955E-2  -2.706992626190186E-1   4.480063915252686E-2  -4.388117492198944E-1   8.535048365592957E-1  
 3.040000000000000E7     7.416520118713379E-1   6.128677129745483E-1  -2.520252466201782E-1   5.349504947662354E-2  -2.520748674869537E-1   5.370904132723808E-2  -4.186121821403503E-1   8.677237033843994E-1  
 3.070000000000000E7     7.837892174720764E-1   5.635851621627808E-1  -2.333451360464096E-1   6.176957860589027E-2  -2.333487421274185E-1   6.158911809325218E-2  -3.989662826061249E-1   8.816607594490051E-1  
 3.100000000000000E7     8.210309743881226E-1   5.167837738990784E-1  -2.169739007949829E-1   6.737200915813446E-2  -2.163602411746979E-1   6.735452264547348E-2  -3.794107139110565E-1   8.945604562759399E-1  
 3.130000000000000E7     8.516668081283569E-1   4.691959619522095E-1  -2.006207555532455E-1   7.173080742359161E-2  -2.005779594182968E-1   7.113298028707504E-2  -3.588826954364777E-1   9.050284624099731E-1  
 3.160000000000000E7     8.805451393127441E-1   4.206295013427734E-1  -1.862411499023438E-1   7.490322738885880E-2  -1.862113177776337E-1   7.475525140762329E-2  -3.392594158649445E-1   9.167923927307129E-1  
 3.190000000000000E7     9.040059447288513E-1   3.734171390533447E-1  -1.721345186233521E-1   7.725811749696732E-2  -1.715936511754990E-1   7.713117450475693E-2  -3.173881769180298E-1   9.266785383224487E-1  
 3.220000000000000E7     9.252551198005676E-1   3.264327049255371E-1  -1.589666008949280E-1   7.832352072000504E-2  -1.585549116134644E-1   7.860127836465836E-2  -2.975788712501526E-1   9.346505999565125E-1  
 3.250000000000000E7     9.430651664733887E-1   2.788963913917542E-1  -1.468241810798645E-1   7.939960807561874E-2  -1.466873586177826E-1   7.959201931953430E-2  -2.764543592929840E-1   9.450910091400147E-1  
 3.280000000000000E7     9.563713669776917E-1   2.307541519403458E-1  -1.354182362556458E-1   7.962151616811752E-2  -1.344818621873856E-1   7.957486063241959E-2  -2.545937895774841E-1   9.520419239997864E-1  
 3.310000000000000E7     9.679018259048462E-1   1.856489628553391E-1  -1.239514276385307E-1   7.917121052742004E-2  -1.238141432404518E-1   7.933441549539566E-2  -2.312066853046417E-1   9.591085910797119E-1  
 3.340000000000000E7     9.775980114936829E-1   1.396064013242722E-1  -1.137142777442932E-1   7.887558639049530E-2  -1.133337169885635E-1   7.846583425998688E-2  -2.088324427604675E-1   9.647285938262940E-1  
 3.370000000000000E7     9.831741452217102E-1   9.478735923767090E-2  -1.039159297943115E-1   7.725591957569122E-2  -1.037229523062706E-1   7.701398432254791E-2  -1.868542730808258E-1   9.716325998306274E-1  
 3.400000000000000E7     9.881370663642883E-1   5.006780475378037E-2  -9.482811391353607E-2   7.573694735765457E-2  -9.477291256189346E-2   7.560253888368607E-2  -1.633079349994659E-1   9.757234454154968E-1  
 3.430000000000000E7     9.906885027885437E-1   6.283521652221680E-3  -8.604460954666138E-2   7.387578487396240E-2  -8.582729101181030E-2   7.367437332868576E-2  -1.398799717426300E-1   9.802653789520264E-1  
 3.460000000000000E7     9.901393651962280E-1  -3.777979314327240E-2  -7.797148823738098E-2   7.157532125711441E-2  -7.801119238138199E-2   7.149335741996765E-2  -1.153730005025864E-1   9.857327938079834E-1  
 3.490000000000000E7     9.889932870864868E-1  -8.061353862285614E-2  -6.989685446023941E-2   6.926915794610977E-2  -6.999773532152176E-2   6.893055140972138E-2  -9.227538108825684E-2   9.864461421966553E-1  
 3.520000000000000E7     9.857160449028015E-1  -1.220406144857407E-1  -6.281235069036484E-2   6.618562340736389E-2  -6.265034526586533E-2   6.610658019781113E-2  -6.650593131780624E-2   9.907096028327942E-1  
 3.550000000000000E7     9.791136384010315E-1  -1.642001122236252E-1  -5.620272830128670E-2   6.293094158172607E-2  -5.610718950629234E-2   6.301911175251007E-2  -4.287657886743546E-2   9.936085939407349E-1  
 3.580000000000000E7     9.724729061126709E-1  -2.048921287059784E-1  -4.964444041252136E-2   5.976755544543266E-2  -4.963551089167595E-2   5.961852893233299E-2  -1.656784862279892E-2   9.932727813720703E-1  
 3.610000000000000E7     9.647170305252075E-1  -2.441357970237732E-1  -4.377420619130135E-2   5.648203566670418E-2  -4.357920959591866E-2   5.619221553206444E-2   1.100015640258789E-2   9.954112768173218E-1  
 3.640000000000000E7     9.541992545127869E-1  -2.834216654300690E-1  -3.809246048331261E-2   5.242237448692322E-2  -3.813501447439194E-2   5.241387337446213E-2   3.553664684295654E-2   9.948371648788452E-1  
 3.670000000000000E7     9.436094164848328E-1  -3.205145001411438E-1  -3.306827321648598E-2   4.863582924008369E-2  -3.281624242663384E-2   4.843673855066299E-2   6.208872795104981E-2   9.947914481163025E-1  
 3.700000000000000E7     9.295158982276917E-1  -3.577103614807129E-1  -2.799614332616329E-2   4.431173950433731E-2  -2.782690152525902E-2   4.426936432719231E-2   9.087125211954117E-2   9.921505451202393E-1  
 3.730000000000000E7     9.148696064949036E-1  -3.947163224220276E-1  -2.341973967850208E-2   3.979196399450302E-2  -2.352035790681839E-2   3.989056870341301E-2   1.160578280687332E-1   9.884296059608460E-1  
 3.760000000000000E7     8.993850946426392E-1  -4.284456968307495E-1  -1.912251301109791E-2   3.532401099801064E-2  -1.923539116978645E-2   3.534791246056557E-2   1.460452079772949E-1   9.856425523757935E-1  
 3.790000000000000E7     8.822982311248779E-1  -4.633672535419464E-1  -1.535522937774658E-2   3.074337542057037E-2  -1.523021049797535E-2   3.072483651340008E-2   1.746644079685211E-1   9.800966382026672E-1  
 3.820000000000000E7     8.649441599845886E-1  -4.979418218135834E-1  -1.191020291298628E-2   2.584677934646606E-2  -1.193785574287176E-2   2.583663165569305E-2   2.017399370670319E-1   9.749764800071716E-1  
 3.850000000000000E7     8.440163135528565E-1  -5.310729146003723E-1  -8.839386515319347E-3   2.074790373444557E-2  -8.761825971305370E-3   2.079821191728115E-2   2.317865192890167E-1   9.704857468605042E-1  
 3.880000000000000E7     8.236492276191711E-1  -5.618795752525330E-1  -6.067431531846523E-3   1.565305702388287E-2  -6.142851896584034E-3   1.564150303602219E-2   2.636618316173554E-1   9.617096185684204E-1  
 3.910000000000000E7     8.027701377868652E-1  -5.933679342269898E-1  -3.806601045653224E-3   1.022337097674608E-2  -3.763697575777769E-3   1.039086189121008E-2   2.943072319030762E-1   9.534006118774414E-1  
 3.940000000000000E7     7.792698740959168E-1  -6.213916540145874E-1  -1.723003573715687E-3   4.789054859429598E-3  -1.728930859826505E-3   4.835824016481638E-3   3.237541317939758E-1   9.427387118339539E-1  
 3.970000000000000E7     7.568624615669251E-1  -6.507524847984314E-1  -9.909745131153613E-5  -7.138407090678811E-4  -1.736412814352661E-4  -7.122536189854145E-4   3.536727428436279E-1   9.306175708770752E-1  
 4.000000000000000E7     7.312512993812561E-1  -6.781006455421448E-1   1.019366551190615E-3  -6.411453709006310E-3   9.708036668598652E-4  -6.422120146453381E-3   3.872470855712891E-1   9.184644818305969E-1  
 4.030000000000000E7     7.064738869667053E-1  -7.046143412590027E-1   1.689862925559282E-3  -1.231980975717306E-2   1.807691412977874E-3  -1.220849435776472E-2   4.181185066699982E-1   9.053232669830322E-1  
 4.060000000000000E7     6.802877187728882E-1  -7.296342849731445E-1   2.156176371499896E-3  -1.815432868897915E-2   2.265683840960264E-3  -1.819679886102676E-2   4.499870836734772E-1   8.889286518096924E-1  
 4.090000000000000E7     6.527840495109558E-1  -7.541620731353760E-1   2.187281847000122E-3  -2.412344515323639E-2   2.054211683571339E-3  -2.416751347482204E-2   4.817002415657044E-1   8.715415596961975E-1  
 4.120000000000000E7     6.253275871276856E-1  -7.776862978935242E-1   1.717556267976761E-3  -3.028191253542900E-2   1.689750351943076E-3  -3.012004680931568E-2   5.145513415336609E-1   8.522670269012451E-1  
 4.150000000000000E7     5.974332094192505E-1  -7.982492446899414E-1   6.020246655680239E-4  -3.632161393761635E-2   8.515910594724119E-4  -3.622740134596825E-2   5.473375320434570E-1   8.301367163658142E-1  
 4.180000000000000E7     5.674450993537903E-1  -8.200187683105469E-1  -8.074061479419470E-4  -4.234948381781578E-2  -7.511291187256575E-4  -4.234374314546585E-2   5.802156329154968E-1   8.086729645729065E-1  
 4.210000000000000E7     5.380839109420776E-1  -8.395230174064636E-1  -2.700950019061565E-3  -4.852086305618286E-2  -2.743456047028303E-3  -4.855727404356003E-2   6.144741177558899E-1   7.822112441062927E-1  
 4.240000000000000E7     5.075291395187378E-1  -8.568338751792908E-1  -5.132787395268679E-3  -5.460404977202416E-2  -5.135186947882175E-3  -5.460122972726822E-2   6.472763419151306E-1   7.552913427352905E-1  
 4.270000000000000E7     4.756096899509430E-1  -8.743621706962585E-1  -8.259447291493416E-3  -6.077284738421440E-2  -8.118410594761372E-3  -6.052584201097488E-2   6.800644993782044E-1   7.247665524482727E-1  
 4.300000000000000E7     4.433733820915222E-1  -8.907939791679382E-1  -1.189602259546518E-2  -6.661701947450638E-2  -1.174619421362877E-2  -6.661283224821091E-2   7.125297188758850E-1   6.926049590110779E-1  
 4.330000000000000E7     4.139226675033569E-1  -9.061331748962402E-1  -1.585468836128712E-2  -7.248184829950333E-2  -1.583870500326157E-2  -7.241996377706528E-2   7.436710596084595E-1   6.571561694145203E-1  
 4.360000000000000E7     3.802063465118408E-1  -9.185821413993835E-1  -2.060641720890999E-2  -7.845763117074966E-2  -2.046319842338562E-2  -7.811844348907471E-2   7.741230726242065E-1   6.202010512351990E-1  
 4.390000000000000E7     3.465167284011841E-1  -9.325206279754639E-1  -2.598159015178680E-2  -8.392607420682907E-2  -2.595195733010769E-2  -8.402182906866074E-2   8.039575815200806E-1   5.793462991714478E-1  
 4.420000000000000E7     3.134678304195404E-1  -9.422050118446350E-1  -3.188337758183479E-2  -8.900508284568787E-2  -3.174739703536034E-2  -8.903363347053528E-2   8.325386047363281E-1   5.361942052841187E-1  
 4.450000000000000E7     2.800499498844147E-1  -9.518096446990967E-1  -3.831296786665916E-2  -9.401547908782959E-2  -3.827656432986260E-2  -9.393599629402161E-2   8.604013919830322E-1   4.911375343799591E-1  
 4.480000000000000E7     2.463995516300201E-1  -9.606994986534119E-1  -4.556211829185486E-2  -9.866550564765930E-2  -4.547364264726639E-2  -9.865837544202805E-2   8.850729465484619E-1   4.416286945343018E-1  
 4.510000000000000E7     2.136966437101364E-1  -9.683434367179871E-1  -5.346735194325447E-2  -1.029326543211937E-1  -5.328309535980225E-2  -1.028158441185951E-1   9.088636040687561E-1   3.881187736988068E-1  
 4.540000000000000E7     1.793887019157410E-1  -9.737252593040466E-1  -6.167150288820267E-2  -1.058832332491875E-1  -6.156139820814133E-2  -1.063045784831047E-1   9.292728304862976E-1   3.325428068637848E-1  
 4.570000000000000E7     1.453654468059540E-1  -9.790272712707520E-1  -7.080205529928207E-2  -1.093346178531647E-1  -7.038737833499908E-2  -1.095550358295441E-1   9.466612935066223E-1   2.739416360855103E-1  
 4.600000000000000E7     1.136676818132401E-1  -9.815037250518799E-1  -8.042402565479279E-2  -1.123085394501686E-1  -8.047143369913101E-2  -1.123687773942947E-1   9.621154069900513E-1   2.129937857389450E-1  
 4.630000000000000E7     7.715849578380585E-2  -9.843261241912842E-1  -9.063092619180679E-2  -1.135994791984558E-1  -9.077721089124680E-2  -1.133282035589218E-1   9.728080630302429E-1   1.473512798547745E-1  
 4.660000000000000E7     4.282467067241669E-2  -9.862397313117981E-1  -1.011693626642227E-1  -1.141357347369194E-1  -1.011659651994705E-1  -1.143211424350739E-1   9.781299829483032E-1   8.017340302467346E-2  
 4.690000000000000E7     1.010657846927643E-2  -9.849813580513001E-1  -1.124698668718338E-1  -1.142471954226494E-1  -1.121093854308128E-1  -1.140770390629768E-1   9.809342622756958E-1   9.490907192230225E-3  
 4.720000000000000E7    -2.378913760185242E-2  -9.830564260482788E-1  -1.237143427133560E-1  -1.130975559353828E-1  -1.237869411706924E-1  -1.126821413636208E-1   9.769233465194702E-1  -6.158629059791565E-2  
 4.750000000000000E7    -5.637019872665405E-2  -9.813928604125977E-1  -1.355941891670227E-1  -1.104726493358612E-1  -1.351071000099182E-1  -1.106321364641190E-1   9.690131545066834E-1  -1.356386244297028E-1  
 4.780000000000000E7    -8.869263529777527E-2  -9.774274826049805E-1  -1.470128595829010E-1  -1.075849384069443E-1  -1.471663713455200E-1  -1.076221913099289E-1   9.539093971252441E-1  -2.085507214069367E-1  
 4.810000000000000E7    -1.219504028558731E-1  -9.721740484237671E-1  -1.596901118755341E-1  -1.030160635709763E-1  -1.592585742473602E-1  -1.028722971677780E-1   9.326866269111633E-1  -2.849132120609283E-1  
 4.840000000000000E7    -1.540170013904572E-1  -9.667003750801086E-1  -1.714019924402237E-1  -9.723457694053650E-2  -1.713652014732361E-1  -9.662140905857086E-2   9.049361944198608E-1  -3.600487112998962E-1  
 4.870000000000000E7    -1.863049715757370E-1  -9.595029950141907E-1  -1.828588843345642E-1  -8.963064104318619E-2  -1.828251332044601E-1  -8.977222442626953E-2   8.702993988990784E-1  -4.336540699005127E-1  
 4.900000000000000E7    -2.180238813161850E-1  -9.519400000572205E-1  -1.937664002180100E-1  -8.136637508869171E-2  -1.941797584295273E-1  -8.124791085720062E-2   8.291683793067932E-1  -5.055235624313355E-1  
 4.930000000000000E7    -2.492956668138504E-1  -9.425935149192810E-1  -2.046845257282257E-1  -7.188363373279572E-2  -2.050363123416901E-1  -7.196069508790970E-2   7.805545926094055E-1  -5.754239559173584E-1  
 4.960000000000000E7    -2.783023118972778E-1  -9.309162497520447E-1  -2.142027914524078E-1  -6.087964028120041E-2  -2.141081094741821E-1  -6.022271513938904E-2   7.249119877815247E-1  -6.413566470146179E-1  
 4.990000000000000E7    -3.081568479537964E-1  -9.206176400184631E-1  -2.228326499462128E-1  -4.919381067156792E-2  -2.226268947124481E-1  -4.902117699384689E-2   6.642286181449890E-1  -7.024767994880676E-1  
 5.020000000000000E7    -3.369969725608826E-1  -9.104189276695252E-1  -2.311254143714905E-1  -3.594266623258591E-2  -2.314573973417282E-1  -3.636444732546806E-2   5.964189767837524E-1  -7.596422433853149E-1  
 5.050000000000000E7    -3.663581311702728E-1  -8.971768617630005E-1  -2.376538813114166E-1  -2.211983501911163E-2  -2.371585667133331E-1  -2.180297486484051E-2   5.234557986259460E-1  -8.093615770339966E-1  
 5.080000000000000E7    -3.938812613487244E-1  -8.845773339271545E-1  -2.427458912134171E-1  -7.097203284502029E-3  -2.434930950403214E-1  -7.645201869308949E-3   4.453419446945190E-1  -8.548687696456909E-1  
 5.110000000000000E7    -4.223555624485016E-1  -8.698119521141052E-1  -2.468948662281036E-1   8.062766864895821E-3  -2.465600371360779E-1   8.120348677039146E-3   3.638303875923157E-1  -8.904677629470825E-1  
 5.140000000000000E7    -4.489102363586426E-1  -8.547224402427673E-1  -2.493505030870438E-1   2.375145442783833E-2  -2.489687204360962E-1   2.383784949779511E-2   2.806196808815002E-1  -9.198009371757507E-1  
 5.170000000000000E7    -4.754474163055420E-1  -8.396167755126953E-1  -2.499288171529770E-1   3.874545916914940E-2  -2.497984468936920E-1   3.913286700844765E-2   1.946511715650559E-1  -9.406915903091431E-1  
 5.200000000000000E7    -5.018955469131470E-1  -8.251123428344727E-1  -2.497453987598419E-1   5.565901845693588E-2  -2.503158152103424E-1   5.529359355568886E-2   1.056394577026367E-1  -9.552530646324158E-1  
 5.230000000000000E7    -5.272960662841797E-1  -8.070214986801148E-1  -2.469596713781357E-1   7.121153920888901E-2  -2.468274086713791E-1   7.125772535800934E-2   1.930733025074005E-2  -9.587017297744751E-1  
 5.260000000000000E7    -5.516024827957153E-1  -7.887687683105469E-1  -2.433671206235886E-1   8.604036271572113E-2  -2.437240183353424E-1   8.644704520702362E-2  -6.676940619945526E-2  -9.573755264282227E-1  
 5.290000000000000E7    -5.772575139999390E-1  -7.709015011787415E-1  -2.392393797636032E-1   1.017386540770531E-1  -2.387892603874207E-1   1.011813730001450E-1  -1.510179638862610E-1  -9.481875300407410E-1  
 5.320000000000000E7    -6.009065508842468E-1  -7.536829113960266E-1  -2.328078597784042E-1   1.156357675790787E-1  -2.327868938446045E-1   1.154964417219162E-1  -2.322557568550110E-1  -9.317618012428284E-1  
 5.350000000000000E7    -6.234052181243897E-1  -7.340074777603149E-1  -2.249043881893158E-1   1.286519765853882E-1  -2.247564643621445E-1   1.280827522277832E-1  -3.091982603073120E-1  -9.069988727569580E-1  
 5.380000000000000E7    -6.454623937606812E-1  -7.140636444091797E-1  -2.172565162181854E-1   1.405074000358582E-1  -2.167866080999374E-1   1.402834951877594E-1  -3.849571347236633E-1  -8.788284063339233E-1  
 5.410000000000000E7    -6.705647706985474E-1  -6.933652162551880E-1  -2.081163674592972E-1   1.526533514261246E-1  -2.080646306276321E-1   1.523208320140839E-1  -4.541704058647156E-1  -8.468164205551148E-1  
 5.440000000000000E7    -6.916475296020508E-1  -6.710284948348999E-1  -1.982324421405792E-1   1.626261472702026E-1  -1.984214484691620E-1   1.628348082304001E-1  -5.200448036193848E-1  -8.082352280616760E-1  
 5.470000000000000E7    -7.114874124526978E-1  -6.499177217483521E-1  -1.886319667100906E-1   1.725135743618012E-1  -1.882753670215607E-1   1.722403466701508E-1  -5.799207091331482E-1  -7.666959762573242E-1  
 5.500000000000000E7    -7.336149811744690E-1  -6.272648572921753E-1  -1.777313947677612E-1   1.804926991462708E-1  -1.775816679000855E-1   1.801290512084961E-1  -6.353000402450562E-1  -7.215154170989990E-1  
 5.530000000000000E7    -7.533802986145020E-1  -6.038659811019898E-1  -1.665165573358536E-1   1.876476258039475E-1  -1.662193387746811E-1   1.880563795566559E-1  -6.858983039855957E-1  -6.739835739135742E-1  
 5.560000000000000E7    -7.732533812522888E-1  -5.787270665168762E-1  -1.555262804031372E-1   1.946820616722107E-1  -1.550746709108353E-1   1.939774155616760E-1  -7.321607470512390E-1  -6.244388818740845E-1  
 5.590000000000000E7    -7.919666171073914E-1  -5.555437207221985E-1  -1.441088318824768E-1   2.001199871301651E-1  -1.439877450466156E-1   2.000014632940292E-1  -7.732666134834290E-1  -5.750845670700073E-1  
 5.620000000000000E7    -8.096337318420410E-1  -5.279457569122315E-1  -1.324979662895203E-1   2.039619386196137E-1  -1.324531435966492E-1   2.035609483718872E-1  -8.099095821380615E-1  -5.230304002761841E-1  
 5.650000000000000E7    -8.261718153953552E-1  -5.040093064308167E-1  -1.212437748908997E-1   2.081663906574249E-1  -1.212889477610588E-1   2.075616866350174E-1  -8.416579961776733E-1  -4.709899127483368E-1  
 5.680000000000000E7    -8.428153395652771E-1  -4.770513474941254E-1  -1.102891564369202E-1   2.109790444374085E-1  -1.098952889442444E-1   2.109492123126984E-1  -8.707655668258667E-1  -4.189234972000122E-1  
 5.710000000000000E7    -8.587744832038879E-1  -4.489360153675079E-1  -9.915225207805634E-2   2.131523340940476E-1  -9.889903664588928E-2   2.131210416555405E-1  -8.934436440467835E-1  -3.684332966804504E-1  
 5.740000000000000E7    -8.744145631790161E-1  -4.215252995491028E-1  -8.837246894836426E-2   2.145957797765732E-1  -8.850913494825363E-2   2.142078429460526E-1  -9.148560166358948E-1  -3.177386224269867E-1  
 5.770000000000000E7    -8.869261741638184E-1  -3.938812017440796E-1  -7.806958258152008E-2   2.147635221481323E-1  -7.819475978612900E-2   2.143826335668564E-1  -9.298063516616821E-1  -2.661758661270142E-1  
 5.800000000000000E7    -8.999502658843994E-1  -3.638645410537720E-1  -6.810462474822998E-2   2.153616994619370E-1  -6.723733246326447E-2   2.146046012639999E-1  -9.443177580833435E-1  -2.172333151102066E-1  
 5.830000000000000E7    -9.120146632194519E-1  -3.345642387866974E-1  -5.761921405792236E-2   2.146537750959396E-1  -5.749773979187012E-2   2.143415659666061E-1  -9.544956088066101E-1  -1.680502891540527E-1  
 5.860000000000000E7    -9.243445396423340E-1  -3.055608272552490E-1  -4.816643893718720E-2   2.138659358024597E-1  -4.802187159657478E-2   2.139335423707962E-1  -9.631376862525940E-1  -1.208442226052284E-1  
 5.890000000000000E7    -9.338279962539673E-1  -2.748533487319946E-1  -3.897498548030853E-2   2.123640775680542E-1  -3.925624489784241E-2   2.124904841184616E-1  -9.682704210281372E-1  -7.403696328401566E-2  
 5.920000000000000E7    -9.429243803024292E-1  -2.437548041343689E-1  -3.000954724848270E-2   2.108587026596069E-1  -2.938083931803703E-2   2.101836055517197E-1  -9.719941616058350E-1  -2.962949313223362E-2  
 5.950000000000000E7    -9.509221911430359E-1  -2.130594700574875E-1  -2.140071243047714E-2   2.084994912147522E-1  -2.117507904767990E-2   2.080934196710587E-1  -9.723216295242310E-1   1.534137781709433E-2  
 5.980000000000000E7    -9.579935073852539E-1  -1.812300086021423E-1  -1.294178981333971E-2   2.064716666936874E-1  -1.309402938932180E-2   2.055428922176361E-1  -9.723178744316101E-1   5.754974484443665E-2  
 6.010000000000000E7    -9.631242156028748E-1  -1.511276364326477E-1  -5.932560190558434E-3   2.031600028276444E-1  -5.843748338520527E-3   2.026767432689667E-1  -9.689911603927612E-1   9.779930859804153E-2  
 6.040000000000000E7    -9.687144160270691E-1  -1.177034974098206E-1   2.034726552665234E-3   1.997843086719513E-1   2.114251255989075E-3   1.999609619379044E-1  -9.657183289527893E-1   1.381086111068726E-1  
 6.070000000000000E7    -9.737668633460999E-1  -8.731900900602341E-2   8.980345912277699E-3   1.969088315963745E-1   8.657783269882202E-3   1.967571675777435E-1  -9.591403603553772E-1   1.757301986217499E-1  
 6.100000000000000E7    -9.758550524711609E-1  -5.516733229160309E-2   1.606526970863342E-2   1.938995420932770E-1   1.586828753352165E-2   1.932834535837174E-1  -9.535661339759827E-1   2.132531106472015E-1  
 6.130000000000000E7    -9.783710837364197E-1  -2.167910337448120E-2   2.241071127355099E-2   1.899541914463043E-1   2.228812314569950E-2   1.897824406623840E-1  -9.453377723693848E-1   2.490481436252594E-1  
 6.160000000000000E7    -9.787630438804627E-1   9.812682867050171E-3   2.860310301184654E-2   1.856635510921478E-1   2.867478877305985E-2   1.856988519430161E-1  -9.357831478118897E-1   2.834415435791016E-1  
 6.190000000000000E7    -9.782537221908569E-1   4.225256294012070E-2   3.421355783939362E-2   1.815638542175293E-1   3.448178991675377E-2   1.810528039932251E-1  -9.247348308563232E-1   3.175338804721832E-1  
 6.220000000000000E7    -9.772475361824036E-1   7.430993765592575E-2   3.980123251676559E-2   1.773872673511505E-1   3.958093002438545E-2   1.776006966829300E-1  -9.146445393562317E-1   3.477407097816467E-1  
 6.250000000000000E7    -9.748574495315552E-1   1.071373373270035E-1   4.470111429691315E-2   1.734549701213837E-1   4.467805847525597E-2   1.732992529869080E-1  -9.036166667938232E-1   3.780256509780884E-1  
 6.280000000000000E7    -9.704316258430481E-1   1.397248208522797E-1   4.944727942347527E-2   1.690877974033356E-1   4.899214208126068E-2   1.690592914819717E-1  -8.908829689025879E-1   4.071199893951416E-1  
 6.310000000000000E7    -9.655370712280273E-1   1.726960986852646E-1   5.417949706315994E-2   1.649352610111237E-1   5.411334335803986E-2   1.647477000951767E-1  -8.782070875167847E-1   4.368504285812378E-1  
 6.340000000000000E7    -9.599521756172180E-1   2.047739028930664E-1   5.853492766618729E-2   1.604875475168228E-1   5.836921557784081E-2   1.602814048528671E-1  -8.652091026306152E-1   4.638580083847046E-1  
 6.370000000000000E7    -9.532282948493958E-1   2.367222607135773E-1   6.249834224581718E-2   1.559793651103973E-1   6.264970451593399E-2   1.556989103555679E-1  -8.498694896697998E-1   4.898698329925537E-1  
 6.400000000000000E7    -9.445301890373230E-1   2.681909203529358E-1   6.650283187627792E-2   1.517871916294098E-1   6.633464992046356E-2   1.510194242000580E-1  -8.366640806198120E-1   5.146338939666748E-1  
 6.430000000000000E7    -9.350329637527466E-1   3.008727431297302E-1   6.985283643007278E-2   1.468889862298966E-1   7.009854167699814E-2   1.464833170175552E-1  -8.215174674987793E-1   5.397514700889587E-1  
 6.460000000000000E7    -9.257310032844544E-1   3.322269618511200E-1   7.338742166757584E-2   1.421076953411102E-1   7.310859858989716E-2   1.420227587223053E-1  -8.052380084991455E-1   5.617061257362366E-1  
 6.490000000000000E7    -9.156246781349182E-1   3.624399900436401E-1   7.623207569122315E-2   1.375928223133087E-1   7.602312415838242E-2   1.379356086254120E-1  -7.912101149559021E-1   5.833315253257752E-1  
 6.520000000000000E7    -9.022550582885742E-1   3.930167853832245E-1   7.873586565256119E-2   1.332198381423950E-1   7.875594496726990E-2   1.329785585403442E-1  -7.754643559455872E-1   6.056451201438904E-1  
 6.550000000000000E7    -8.893807530403137E-1   4.229214787483215E-1   8.164750039577484E-2   1.287774145603180E-1   8.152927458286285E-2   1.286494582891464E-1  -7.589298486709595E-1   6.260001659393311E-1  
 6.580000000000000E7    -8.744339942932129E-1   4.527640938758850E-1   8.410263061523438E-2   1.241631954908371E-1   8.385005593299866E-2   1.241636350750923E-1  -7.435871958732605E-1   6.460577249526978E-1  
 6.610000000000000E7    -8.581702113151550E-1   4.821104407310486E-1   8.616602420806885E-2   1.197002828121185E-1   8.612661063671112E-2   1.188573986291885E-1  -7.263633608818054E-1   6.659814119338989E-1  
 6.640000000000000E7    -8.434624671936035E-1   5.112359523773193E-1   8.824279904365540E-2   1.150551587343216E-1   8.828613162040710E-2   1.152509152889252E-1  -7.095715403556824E-1   6.840786933898926E-1  
 6.670000000000000E7    -8.255521059036255E-1   5.391762256622315E-1   9.008779376745224E-2   1.106095835566521E-1   8.975624293088913E-2   1.106025874614716E-1  -6.938551068305969E-1   7.005360126495361E-1  
 6.700000000000000E7    -8.066042661666870E-1   5.669761896133423E-1   9.143443405628204E-2   1.060564890503883E-1   9.119291603565216E-2   1.057869940996170E-1  -6.764234304428101E-1   7.170048356056213E-1  
 6.730000000000000E7    -7.876265645027161E-1   5.941690802574158E-1   9.267708659172058E-2   1.015253365039825E-1   9.286356717348099E-2   1.012593805789948E-1  -6.603289246559143E-1   7.333915233612061E-1  
 6.760000000000000E7    -7.677456140518189E-1   6.203776001930237E-1   9.448483586311340E-2   9.743717312812805E-2   9.397985041141510E-2   9.712762385606766E-2  -6.429225802421570E-1   7.488373517990112E-1  
 6.790000000000000E7    -7.459508180618286E-1   6.465812325477600E-1   9.501677006483078E-2   9.291718900203705E-2   9.521117806434631E-2   9.277392923831940E-2  -6.260156631469727E-1   7.632632851600647E-1  
 6.820000000000000E7    -7.239886522293091E-1   6.706503033638001E-1   9.613469243049622E-2   8.842320740222931E-2   9.576493501663208E-2   8.855203539133072E-2  -6.089163422584534E-1   7.769387364387512E-1  
 6.850000000000000E7    -7.015628218650818E-1   6.963573694229126E-1   9.667523205280304E-2   8.450397104024887E-2   9.669883549213409E-2   8.430199325084686E-2  -5.917422175407410E-1   7.904192209243774E-1  
 6.880000000000000E7    -6.771454811096191E-1   7.194814085960388E-1   9.736452996730804E-2   8.017538487911224E-2   9.691239893436432E-2   7.992964982986450E-2  -5.742022395133972E-1   8.032392859458923E-1  
 6.910000000000000E7    -6.527818441390991E-1   7.424296736717224E-1   9.795585274696350E-2   7.628896087408066E-2   9.761483222246170E-2   7.599669694900513E-2  -5.571871995925903E-1   8.164944052696228E-1  
 6.940000000000000E7    -6.276342272758484E-1   7.644633054733276E-1   9.793904423713684E-2   7.231164723634720E-2   9.795878827571869E-2   7.204750925302506E-2  -5.410452485084534E-1   8.275746107101440E-1  
 6.970000000000000E7    -6.002547144889832E-1   7.852488756179810E-1   9.797929227352142E-2   6.804062426090241E-2   9.821242094039917E-2   6.781093776226044E-2  -5.233452916145325E-1   8.389428257942200E-1  
 7.000000000000000E7    -5.735064744949341E-1   8.064646124839783E-1   9.800245612859726E-2   6.422803550958633E-2   9.795506298542023E-2   6.398122012615204E-2  -5.063295960426331E-1   8.503035306930542E-1  
