#  HZ   S   RI   R     50.00 
! Rohde & Schwarz ZVT8 8Ports - Version 4.11 - 1300.0000k08 SN: 100242
! Date: 2026-07-31 14:48:45
! Measurements: S11 S21 S12 S22 
! 
 1.000000000000000E7    -4.008077085018158E-1   9.121350049972534E-1   5.255404114723206E-2   5.312515795230866E-2   5.247208476066589E-2   5.316904559731484E-2  -9.189778566360474E-1   3.848861455917358E-1  
 1.030000000000000E7    -3.678333461284638E-1   9.248647093772888E-1   5.598264187574387E-2   5.336917191743851E-2   5.567561089992523E-2   5.368053168058395E-2  -9.126697778701782E-1   3.976686298847199E-1  
 1.060000000000000E7    -3.312765657901764E-1   9.374856948852539E-1   5.951903760433197E-2   5.456236749887466E-2   5.952390283346176E-2   5.425816774368286E-2  -9.094772338867188E-1   4.091060459613800E-1  
 1.090000000000000E7    -2.987702190876007E-1   9.481390118598938E-1   6.314208358526230E-2   5.485171452164650E-2   6.299641728401184E-2   5.482935532927513E-2  -9.034754037857056E-1   4.209741353988648E-1  
 1.120000000000000E7    -2.628400325775147E-1   9.574930667877197E-1   6.704680621623993E-2   5.573564022779465E-2   6.667397916316986E-2   5.539873614907265E-2  -8.976628780364990E-1   4.326445162296295E-1  
 1.150000000000000E7    -2.271281331777573E-1   9.678276777267456E-1   7.073044776916504E-2   5.560753494501114E-2   7.048799097537994E-2   5.559283867478371E-2  -8.904632925987244E-1   4.421924352645874E-1  
 1.180000000000000E7    -1.914249807596207E-1   9.730482101440430E-1   7.446644455194473E-2   5.589306727051735E-2   7.462872564792633E-2   5.581938102841377E-2  -8.864054083824158E-1   4.529848694801331E-1  
 1.210000000000000E7    -1.562380492687225E-1   9.796863198280335E-1   7.885120064020157E-2   5.624426901340485E-2   7.857585698366165E-2   5.601467937231064E-2  -8.784539103507996E-1   4.655961394309998E-1  
 1.240000000000000E7    -1.197470575571060E-1   9.836606383323669E-1   8.283682167530060E-2   5.637021362781525E-2   8.301036059856415E-2   5.588487535715103E-2  -8.715826869010925E-1   4.753642380237579E-1  
 1.270000000000000E7    -8.306781202554703E-2   9.870845675468445E-1   8.789330720901489E-2   5.568413808941841E-2   8.730730414390564E-2   5.562919378280640E-2  -8.646739125251770E-1   4.893033206462860E-1  
 1.300000000000000E7    -4.679828137159348E-2   9.896137118339539E-1   9.183009713888168E-2   5.543506890535355E-2   9.196354448795319E-2   5.537082627415657E-2  -8.573623299598694E-1   4.999833106994629E-1  
 1.330000000000000E7    -9.497014805674553E-3   9.906240701675415E-1   9.676435589790344E-2   5.497455596923828E-2   9.660822153091431E-2   5.448497086763382E-2  -8.499194383621216E-1   5.117149949073792E-1  
 1.360000000000000E7     2.887653000652790E-2   9.902041554450989E-1   1.016236394643784E-1   5.445983633399010E-2   1.019349470734596E-1   5.388043820858002E-2  -8.429225683212280E-1   5.211582779884338E-1  
 1.390000000000000E7     6.488294899463654E-2   9.876205921173096E-1   1.068744063377380E-1   5.341895297169685E-2   1.065401658415794E-1   5.354125052690506E-2  -8.351267576217651E-1   5.328187942504883E-1  
 1.420000000000000E7     1.038747802376747E-1   9.841210246086121E-1   1.117000803351402E-1   5.261206626892090E-2   1.117637455463409E-1   5.265371873974800E-2  -8.285576701164246E-1   5.435221791267395E-1  
 1.450000000000000E7     1.408146172761917E-1   9.776337146759033E-1   1.170904040336609E-1   5.119032412767410E-2   1.172294840216637E-1   5.125819891691208E-2  -8.181809186935425E-1   5.560020208358765E-1  
 1.480000000000000E7     1.797485202550888E-1   9.713903665542603E-1   1.228753924369812E-1   4.954065009951592E-2   1.225752010941505E-1   5.006588622927666E-2  -8.111186623573303E-1   5.665000081062317E-1  
 1.510000000000000E7     2.171045243740082E-1   9.626147150993347E-1   1.283722966909409E-1   4.780280962586403E-2   1.281700879335403E-1   4.789508879184723E-2  -7.992747426033020E-1   5.782294869422913E-1  
 1.540000000000000E7     2.541415095329285E-1   9.532284140586853E-1   1.341397017240524E-1   4.702375829219818E-2   1.339461654424667E-1   4.631600156426430E-2  -7.935504913330078E-1   5.882471799850464E-1  
 1.570000000000000E7     2.926968336105347E-1   9.427777528762817E-1   1.402035951614380E-1   4.440430179238319E-2   1.403812766075134E-1   4.411729052662849E-2  -7.830377817153931E-1   6.003361940383911E-1  
 1.600000000000000E7     3.303265273571014E-1   9.279792904853821E-1   1.462126225233078E-1   4.180612415075302E-2   1.466158330440521E-1   4.157759249210358E-2  -7.738448381423950E-1   6.093258857727051E-1  
 1.630000000000000E7     3.670901060104370E-1   9.130010604858398E-1   1.533932238817215E-1   3.853389993309975E-2   1.529725193977356E-1   3.886310011148453E-2  -7.634454369544983E-1   6.224413514137268E-1  
 1.660000000000000E7     4.038844108581543E-1   8.951888680458069E-1   1.600353866815567E-1   3.571434691548348E-2   1.597526222467423E-1   3.505671024322510E-2  -7.522258758544922E-1   6.336545944213867E-1  
 1.690000000000000E7     4.403617382049561E-1   8.767729997634888E-1   1.668221950531006E-1   3.258557617664337E-2   1.665470749139786E-1   3.223184496164322E-2  -7.422333955764771E-1   6.433110237121582E-1  
 1.720000000000000E7     4.784656465053558E-1   8.564763069152832E-1   1.732755303382874E-1   2.811103872954845E-2   1.735405325889587E-1   2.839260175824165E-2  -7.308315038681030E-1   6.538859009742737E-1  
 1.750000000000000E7     5.099796652793884E-1   8.370029926300049E-1   1.815167218446732E-1   2.510417625308037E-2   1.815644353628159E-1   2.475736849009991E-2  -7.205324769020081E-1   6.656745076179504E-1  
 1.780000000000000E7     5.477544069290161E-1   8.091173768043518E-1   1.882045120000839E-1   1.975661516189575E-2   1.884503662586212E-1   1.998426765203476E-2  -7.081415057182312E-1   6.742017269134522E-1  
 1.810000000000000E7     5.810489654541016E-1   7.849615812301636E-1   1.972389221191406E-1   1.495507359504700E-2   1.959504485130310E-1   1.418525353074074E-2  -6.957256793975830E-1   6.876699328422546E-1  
 1.840000000000000E7     6.164914369583130E-1   7.560152411460877E-1   2.053415924310684E-1   7.918341085314751E-3   2.044732123613358E-1   8.254447951912880E-3  -6.823270916938782E-1   6.975233554840088E-1  
 1.870000000000000E7     6.473008990287781E-1   7.270696163177490E-1   2.133591473102570E-1   2.547839656472206E-3   2.126842290163040E-1   2.123925834894180E-3  -6.691066026687622E-1   7.070311307907105E-1  
 1.900000000000000E7     6.793764829635620E-1   6.951417922973633E-1   2.218935042619705E-1  -4.188738763332367E-3   2.213979810476303E-1  -4.738703370094299E-3  -6.550098061561585E-1   7.170158624649048E-1  
 1.930000000000000E7     7.104229927062988E-1   6.599007844924927E-1   2.301561087369919E-1  -1.312585361301899E-2   2.303934097290039E-1  -1.218688488006592E-2  -6.406192779541016E-1   7.281829118728638E-1  
 1.960000000000000E7     7.401344180107117E-1   6.224075555801392E-1   2.389955371618271E-1  -2.136686444282532E-2   2.393151223659515E-1  -2.071242593228817E-2  -6.274806261062622E-1   7.375587821006775E-1  
 1.990000000000000E7     7.662408947944641E-1   5.842056870460510E-1   2.483619153499603E-1  -3.072439879179001E-2   2.486062049865723E-1  -3.066509775817394E-2  -6.096197366714478E-1   7.486742734909058E-1  
 2.020000000000000E7     7.926486730575562E-1   5.424790382385254E-1   2.581401467323303E-1  -4.079918935894966E-2   2.573505043983460E-1  -4.060345143079758E-2  -5.943176746368408E-1   7.553842663764954E-1  
 2.050000000000000E7     8.188765645027161E-1   4.983727931976318E-1   2.675563395023346E-1  -5.175211280584335E-2   2.660132348537445E-1  -5.200201272964478E-2  -5.778887271881104E-1   7.648413181304932E-1  
 2.080000000000000E7     8.408746719360352E-1   4.504637122154236E-1   2.776586115360260E-1  -6.485193222761154E-2   2.777564227581024E-1  -6.452351808547974E-2  -5.603721737861633E-1   7.752414941787720E-1  
 2.110000000000000E7     8.611321449279785E-1   4.016818702220917E-1   2.875594794750214E-1  -7.946661114692688E-2   2.875708937644959E-1  -7.936230301856995E-2  -5.410707592964172E-1   7.832761406898499E-1  
 2.140000000000000E7     8.790359497070313E-1   3.504773974418640E-1   2.977988421916962E-1  -9.562245011329651E-2   2.966203093528748E-1  -9.410621225833893E-2  -5.220068693161011E-1   7.905511260032654E-1  
 2.170000000000000E7     8.927597999572754E-1   2.968959212303162E-1   3.077319562435150E-1  -1.118485927581787E-1   3.075426220893860E-1  -1.109077185392380E-1  -5.020014643669128E-1   7.976179122924805E-1  
 2.200000000000000E7     9.045933485031128E-1   2.376844882965088E-1   3.169537484645844E-1  -1.311736702919006E-1   3.169805109500885E-1  -1.306831389665604E-1  -4.792715609073639E-1   8.034393191337585E-1  
 2.230000000000000E7     9.109476804733276E-1   1.775385290384293E-1   3.266655802726746E-1  -1.522949039936066E-1   3.261272609233856E-1  -1.513263583183289E-1  -4.575327634811401E-1   8.087415099143982E-1  
 2.260000000000000E7     9.138934016227722E-1   1.135909482836723E-1   3.349642753601074E-1  -1.756025701761246E-1   3.369491100311279E-1  -1.758792102336884E-1  -4.348469078540802E-1   8.128105998039246E-1  
 2.290000000000000E7     9.112021327018738E-1   4.730590432882309E-2   3.435023427009583E-1  -2.016016542911530E-1   3.448055386543274E-1  -2.012751698493958E-1  -4.087361097335815E-1   8.154703378677368E-1  
 2.320000000000000E7     9.016835093498230E-1  -2.113439887762070E-2   3.512925803661346E-1  -2.315289676189423E-1   3.505608439445496E-1  -2.314642518758774E-1  -3.840686380863190E-1   8.191499710083008E-1  
 2.350000000000000E7     8.850852847099304E-1  -9.331762790679932E-2   3.568975627422333E-1  -2.645484507083893E-1   3.563546538352966E-1  -2.631016969680786E-1  -3.575808405876160E-1   8.182715773582459E-1  
 2.380000000000000E7     8.620147109031677E-1  -1.662908196449280E-1   3.607282042503357E-1  -2.991716563701630E-1   3.609389662742615E-1  -2.988508939743042E-1  -3.302802741527557E-1   8.158904910087585E-1  
 2.410000000000000E7     8.277571797370911E-1  -2.414164990186691E-1   3.605390787124634E-1  -3.393215239048004E-1   3.604312837123871E-1  -3.384770154953003E-1  -3.016151487827301E-1   8.107643127441406E-1  
 2.440000000000000E7     7.825304269790649E-1  -3.154674470424652E-1   3.578447699546814E-1  -3.838153481483460E-1   3.575199246406555E-1  -3.837024271488190E-1  -2.737061381340027E-1   8.022952079772949E-1  
 2.470000000000000E7     7.259542346000671E-1  -3.882810175418854E-1   3.496328890323639E-1  -4.318496584892273E-1   3.505997359752655E-1  -4.294290542602539E-1  -2.430152446031570E-1   7.897788286209106E-1  
 2.500000000000000E7     6.558772325515747E-1  -4.598487615585327E-1   3.352435827255249E-1  -4.823490679264069E-1   3.346876800060272E-1  -4.827212095260620E-1  -2.138948738574982E-1   7.755532860755920E-1  
 2.530000000000000E7     5.693502426147461E-1  -5.234300494194031E-1   3.143511414527893E-1  -5.375173091888428E-1   3.143399953842163E-1  -5.367733240127564E-1  -1.860143393278122E-1   7.542220950126648E-1  
 2.560000000000000E7     4.686802327632904E-1  -5.768711566925049E-1   2.827292680740356E-1  -5.940641760826111E-1   2.830232977867127E-1  -5.951204299926758E-1  -1.609645187854767E-1   7.287742495536804E-1  
 2.590000000000000E7     3.527681529521942E-1  -6.123285889625549E-1   2.379301190376282E-1  -6.528605818748474E-1   2.392672896385193E-1  -6.532326340675354E-1  -1.381030082702637E-1   7.012513279914856E-1  
 2.620000000000000E7     2.218179106712341E-1  -6.292019486427307E-1   1.809972971677780E-1  -7.095262408256531E-1   1.822802573442459E-1  -7.079616785049439E-1  -1.192594766616821E-1   6.652538776397705E-1  
 2.650000000000000E7     8.074759691953659E-2  -6.214481592178345E-1   1.115577667951584E-1  -7.584884762763977E-1   1.105991229414940E-1  -7.593274712562561E-1  -1.099726855754852E-1   6.249651312828064E-1  
 2.680000000000000E7    -6.281854212284088E-2  -5.795599818229675E-1   2.652402222156525E-2  -7.990975379943848E-1   2.546120621263981E-2  -7.987157106399536E-1  -1.099651083350182E-1   5.831423997879028E-1  
 2.710000000000000E7    -1.974264979362488E-1  -5.050981640815735E-1  -7.152044773101807E-2  -8.226038813591003E-1  -7.072950154542923E-2  -8.222932219505310E-1  -1.168216913938522E-1   5.442793965339661E-1  
 2.740000000000000E7    -3.209674656391144E-1  -3.953219354152679E-1  -1.754948347806931E-1  -8.287987112998962E-1  -1.775127053260803E-1  -8.268784284591675E-1  -1.387815773487091E-1   5.042662620544434E-1  
 2.770000000000000E7    -4.117940962314606E-1  -2.593371868133545E-1  -2.840135991573334E-1  -8.112359046936035E-1  -2.838622033596039E-1  -8.106302022933960E-1  -1.674906611442566E-1   4.743853509426117E-1  
 2.800000000000000E7    -4.715942144393921E-1  -1.026471704244614E-1  -3.874683082103729E-1  -7.713885307312012E-1  -3.869336545467377E-1  -7.715782523155212E-1  -2.049064785242081E-1   4.494396746158600E-1  
 2.830000000000000E7    -4.893588125705719E-1   6.060869246721268E-2  -4.775053858757019E-1  -7.122666835784912E-1  -4.769057929515839E-1  -7.122678160667419E-1  -2.434825301170349E-1   4.419938325881958E-1  
 2.860000000000000E7    -4.665674269199371E-1   2.203510105609894E-1  -5.523135662078857E-1  -6.378253102302551E-1  -5.542427897453308E-1  -6.363450884819031E-1  -2.837315797805786E-1   4.434378147125244E-1  
 2.890000000000000E7    -4.107540845870972E-1   3.624261319637299E-1  -6.105917096138001E-1  -5.541219115257263E-1  -6.096160411834717E-1  -5.528931021690369E-1  -3.211400210857391E-1   4.564614295959473E-1  
 2.920000000000000E7    -3.301103711128235E-1   4.867727458477020E-1  -6.475467085838318E-1  -4.670583307743073E-1  -6.477255821228027E-1  -4.650467038154602E-1  -3.531639575958252E-1   4.773785173892975E-1  
 2.950000000000000E7    -2.307921499013901E-1   5.802464485168457E-1  -6.689263582229614E-1  -3.797275722026825E-1  -6.684327721595764E-1  -3.791594803333283E-1  -3.778918683528900E-1   5.075799226760864E-1  
 2.980000000000000E7    -1.244008541107178E-1   6.519659757614136E-1  -6.741805076599121E-1  -2.982818484306335E-1  -6.742375493049622E-1  -2.977330684661865E-1  -3.949564695358276E-1   5.411272048950195E-1  
 3.010000000000000E7    -1.420760899782181E-2   6.976169347763062E-1  -6.698572039604187E-1  -2.222907990217209E-1  -6.684961318969727E-1  -2.225286662578583E-1  -4.050049781799316E-1   5.759788155555725E-1  
 3.040000000000000E7     9.479729086160660E-2   7.223338484764099E-1  -6.549422740936279E-1  -1.574060320854187E-1  -6.545560359954834E-1  -1.564164757728577E-1  -4.050408005714417E-1   6.123597025871277E-1  
 3.070000000000000E7     1.987969577312470E-1   7.303727269172669E-1  -6.362507939338684E-1  -9.531804919242859E-2  -6.352597475051880E-1  -9.664121270179749E-2  -4.011254906654358E-1   6.462447047233582E-1  
 3.100000000000000E7     2.948104441165924E-1   7.236659526824951E-1  -6.132086515426636E-1  -4.446401447057724E-2  -6.122124195098877E-1  -4.391643777489662E-2  -3.918540477752686E-1   6.798444390296936E-1  
 3.130000000000000E7     3.820935785770416E-1   7.052792310714722E-1  -5.856733322143555E-1   1.382879912853241E-3  -5.848556160926819E-1   2.978183329105377E-5  -3.770134150981903E-1   7.121180891990662E-1  
 3.160000000000000E7     4.631481468677521E-1   6.779246330261231E-1  -5.589324235916138E-1   3.925928100943565E-2  -5.591669678688049E-1   3.849176317453384E-2  -3.594139814376831E-1   7.424553632736206E-1  
 3.190000000000000E7     5.346900224685669E-1   6.452316045761108E-1  -5.305838584899902E-1   7.277362048625946E-2  -5.296114087104797E-1   7.271271944046021E-2  -3.377087712287903E-1   7.697994709014893E-1  
 3.220000000000000E7     6.002362966537476E-1   6.071622967720032E-1  -5.021593570709229E-1   1.004600375890732E-1  -5.017218589782715E-1   1.011546999216080E-1  -3.141022026538849E-1   7.944272160530090E-1  
 3.250000000000000E7     6.569945216178894E-1   5.649990439414978E-1  -4.751751422882080E-1   1.252379715442658E-1  -4.750792682170868E-1   1.257061064243317E-1  -2.867210507392883E-1   8.194661736488342E-1  
 3.280000000000000E7     7.066516876220703E-1   5.179170370101929E-1  -4.484086930751801E-1   1.463317871093750E-1  -4.462287425994873E-1   1.470295190811157E-1  -2.575406134128571E-1   8.401432633399963E-1  
 3.310000000000000E7     7.510229349136353E-1   4.723607897758484E-1  -4.207701981067658E-1   1.645630747079849E-1  -4.202246963977814E-1   1.648229062557221E-1  -2.245371043682098E-1   8.592257499694824E-1  
 3.340000000000000E7     7.897260785102844E-1   4.246447682380676E-1  -3.958336412906647E-1   1.815842986106873E-1  -3.945986330509186E-1   1.805902123451233E-1  -1.906987279653549E-1   8.752115964889526E-1  
 3.370000000000000E7     8.219145536422730E-1   3.746152818202972E-1  -3.701478242874146E-1   1.938481628894806E-1  -3.698652982711792E-1   1.934761852025986E-1  -1.554228216409683E-1   8.917794227600098E-1  
 3.400000000000000E7     8.503685593605042E-1   3.256084322929382E-1  -3.464733362197876E-1   2.057397067546845E-1  -3.467101752758026E-1   2.051659375429153E-1  -1.170999109745026E-1   9.029080867767334E-1  
 3.430000000000000E7     8.745461106300354E-1   2.766668796539307E-1  -3.229486942291260E-1   2.160300314426422E-1  -3.228995203971863E-1   2.153725922107697E-1  -7.801899313926697E-2   9.131409525871277E-1  
 3.460000000000000E7     8.944184184074402E-1   2.265434265136719E-1  -3.011692464351654E-1   2.245547771453857E-1  -3.016976118087769E-1   2.242938578128815E-1  -3.505876660346985E-2   9.224181771278381E-1  
 3.490000000000000E7     9.110739827156067E-1   1.777699589729309E-1  -2.783141732215881E-1   2.327564954757690E-1  -2.788070738315582E-1   2.316723465919495E-1   6.584390997886658E-3   9.257675409317017E-1  
 3.520000000000000E7     9.241641759872437E-1   1.293245255947113E-1  -2.582339048385620E-1   2.379712611436844E-1  -2.582568228244782E-1   2.378827929496765E-1   5.436764657497406E-2   9.306334257125855E-1  
 3.550000000000000E7     9.324444532394409E-1   7.930499315261841E-2  -2.383063584566116E-1   2.429585009813309E-1  -2.383800446987152E-1   2.428954392671585E-1   1.014925837516785E-1   9.314889907836914E-1  
 3.580000000000000E7     9.398410320281982E-1   3.264501690864563E-2  -2.179246395826340E-1   2.470046430826187E-1  -2.178493142127991E-1   2.467427849769592E-1   1.514656394720078E-1   9.263016581535339E-1  
 3.610000000000000E7     9.443377256393433E-1  -1.338304579257965E-2  -1.987978965044022E-1   2.514553368091583E-1  -1.980460882186890E-1   2.504465579986572E-1   2.055697888135910E-1   9.209289550781250E-1  
 3.640000000000000E7     9.456691741943359E-1  -6.011547148227692E-2  -1.796813607215881E-1   2.532535493373871E-1  -1.796205341815949E-1   2.524149417877197E-1   2.588212490081787E-1   9.101465940475464E-1  
 3.670000000000000E7     9.453440904617310E-1  -1.041835397481918E-1  -1.612986028194428E-1   2.551479041576386E-1  -1.602867394685745E-1   2.542901039123535E-1   3.153663575649262E-1   8.958268165588379E-1  
 3.700000000000000E7     9.421806335449219E-1  -1.481781899929047E-1  -1.419836133718491E-1   2.555075287818909E-1  -1.415325552225113E-1   2.549624443054199E-1   3.753018379211426E-1   8.748044967651367E-1  
 3.730000000000000E7     9.367627501487732E-1  -1.920198798179627E-1  -1.233979314565659E-1   2.543243169784546E-1  -1.237353980541229E-1   2.547709047794342E-1   4.329736530780792E-1   8.492645025253296E-1  
 3.760000000000000E7     9.299324154853821E-1  -2.322592735290527E-1  -1.045866757631302E-1   2.535269856452942E-1  -1.048977822065353E-1   2.539606094360352E-1   4.969116449356079E-1   8.166366219520569E-1  
 3.790000000000000E7     9.208737015724182E-1  -2.743276059627533E-1  -8.629763126373291E-2   2.521538734436035E-1  -8.593708276748657E-2   2.517032921314240E-1   5.596730709075928E-1   7.760123014450073E-1  
 3.820000000000000E7     9.109186530113220E-1  -3.150764703750610E-1  -6.804294884204865E-2   2.491550147533417E-1  -6.862484663724899E-2   2.487023621797562E-1   6.224184036254883E-1   7.301108241081238E-1  
 3.850000000000000E7     8.982813954353333E-1  -3.547978997230530E-1  -5.039433762431145E-2   2.449226975440979E-1  -4.964989051222801E-2   2.445465922355652E-1   6.874412894248962E-1   6.743013262748718E-1  
 3.880000000000000E7     8.845689892768860E-1  -3.921341300010681E-1  -3.146722912788391E-2   2.387988269329071E-1  -3.168668225407600E-2   2.384603619575501E-1   7.500950694084168E-1   6.052215695381165E-1  
 3.910000000000000E7     8.701863884925842E-1  -4.305092394351959E-1  -1.444973517209292E-2   2.319876104593277E-1  -1.382015459239483E-2   2.320905029773712E-1   8.090299963951111E-1   5.275092124938965E-1  
 3.940000000000000E7     8.524759411811829E-1  -4.650912582874298E-1   2.996831201016903E-3   2.232598811388016E-1   2.809458412230015E-3   2.229458838701248E-1   8.618556261062622E-1   4.378668665885925E-1  
 3.970000000000000E7     8.358553647994995E-1  -5.008168220520020E-1   1.907319761812687E-2   2.132324278354645E-1   1.899500563740730E-2   2.132551074028015E-1   9.075199365615845E-1   3.362940549850464E-1  
 4.000000000000000E7     8.161054849624634E-1  -5.353798866271973E-1   3.478359058499336E-2   2.011335790157318E-1   3.511712700128555E-2   2.007517963647842E-1   9.447180032730103E-1   2.200949341058731E-1  
 4.030000000000000E7     7.966610193252564E-1  -5.686280131340027E-1   4.976798966526985E-2   1.869357526302338E-1   4.954721033573151E-2   1.872759908437729E-1   9.673950672149658E-1   9.566364437341690E-2  
 4.060000000000000E7     7.750211954116821E-1  -6.005604267120361E-1   6.202068552374840E-2   1.715112626552582E-1   6.175304204225540E-2   1.717088669538498E-1   9.733293652534485E-1  -4.061398282647133E-2  
 4.090000000000000E7     7.521955370903015E-1  -6.326131224632263E-1   7.244464010000229E-2   1.546534597873688E-1   7.276891916990280E-2   1.542154401540756E-1   9.579535722732544E-1  -1.830264031887054E-1  
 4.120000000000000E7     7.289293408393860E-1  -6.634095311164856E-1   8.108521252870560E-2   1.365857124328613E-1   8.039215207099915E-2   1.362308263778687E-1   9.212965965270996E-1  -3.300433158874512E-1  
 4.150000000000000E7     7.041414380073547E-1  -6.914187669754028E-1   8.617159724235535E-2   1.166564896702766E-1   8.537581562995911E-2   1.169492378830910E-1   8.572868704795837E-1  -4.733540117740631E-1  
 4.180000000000000E7     6.775571703910828E-1  -7.209134697914124E-1   8.806872367858887E-2   9.738306701183319E-2   8.800081908702850E-2   9.709334373474121E-2   7.693419456481934E-1  -6.092880964279175E-1  
 4.210000000000000E7     6.502803564071655E-1  -7.476587295532227E-1   8.676750957965851E-2   7.796513289213181E-2   8.692520856857300E-2   7.823655754327774E-2   6.566880941390991E-1  -7.310279607772827E-1  
 4.240000000000000E7     6.218354701995850E-1  -7.725657224655151E-1   8.291013538837433E-2   6.023911386728287E-2   8.275010436773300E-2   6.043424457311630E-2   5.251625776290894E-1  -8.317257165908814E-1  
 4.270000000000000E7     5.916627645492554E-1  -7.974014878273010E-1   7.611750811338425E-2   4.450349509716034E-2   7.622295618057251E-2   4.440381005406380E-2   3.791896104812622E-1  -9.103275537490845E-1  
 4.300000000000000E7     5.605608224868774E-1  -8.214378952980042E-1   6.751792877912521E-2   3.065611608326435E-2   6.739748269319534E-2   3.064866736531258E-2   2.235117852687836E-1  -9.614629745483398E-1  
 4.330000000000000E7     5.318366289138794E-1  -8.429248929023743E-1   5.736518651247025E-2   1.977593451738358E-2   5.740382149815559E-2   1.963255181908608E-2   6.673787534236908E-2  -9.857019186019898E-1  
 4.360000000000000E7     4.981483817100525E-1  -8.627099394798279E-1   4.637655988335609E-2   1.089122798293829E-2   4.635351523756981E-2   1.105681806802750E-2  -8.669908344745636E-2  -9.861484766006470E-1  
 4.390000000000000E7     4.648970365524292E-1  -8.829802870750427E-1   3.534835577011108E-2   5.154321435838938E-3   3.552230447530747E-2   5.174175370484591E-3  -2.329018414020538E-1  -9.617013931274414E-1  
 4.420000000000000E7     4.314220845699310E-1  -8.987689614295960E-1   2.465208247303963E-2   1.616697292774916E-3   2.465205639600754E-2   1.533040776848793E-3  -3.660600781440735E-1  -9.209766387939453E-1  
 4.450000000000000E7     3.974436223506928E-1  -9.146639108657837E-1   1.465498842298985E-2  -4.519475623965263E-5   1.463860739022493E-2  -8.567166514694691E-5  -4.847288727760315E-1  -8.656272292137146E-1  
 4.480000000000000E7     3.634681105613709E-1  -9.290513992309570E-1   5.587118677794933E-3  -1.595856738276780E-4   5.607606843113899E-3  -1.873144065029919E-4  -5.878326296806335E-1  -7.989771366119385E-1  
 4.510000000000000E7     3.302067816257477E-1  -9.420571327209473E-1  -2.385217696428299E-3   1.035529421642423E-3  -2.347830915823579E-3   1.025005476549268E-3  -6.770601272583008E-1  -7.252424955368042E-1  
 4.540000000000000E7     2.949730753898621E-1  -9.530717730522156E-1  -9.256099350750446E-3   3.070211503654718E-3  -9.199672378599644E-3   3.082103794440627E-3  -7.517079114913940E-1  -6.488077640533447E-1  
 4.570000000000000E7     2.598353922367096E-1  -9.633590579032898E-1  -1.497287210077047E-2   5.876844748854637E-3  -1.492011174559593E-2   5.721495486795902E-3  -8.148702979087830E-1  -5.694317221641541E-1  
 4.600000000000000E7     2.272682785987854E-1  -9.711750149726868E-1  -1.960588432848454E-2   8.984151296317577E-3  -1.964481733739376E-2   8.989774622023106E-3  -8.650081157684326E-1  -4.893537759780884E-1  
 4.630000000000000E7     1.898647099733353E-1  -9.795453548431397E-1  -2.342584356665611E-2   1.235910039395094E-2  -2.329849079251289E-2   1.233625505119562E-2  -9.030070304870606E-1  -4.124090969562531E-1  
 4.660000000000000E7     1.539979130029678E-1  -9.864656925201416E-1  -2.625011093914509E-2   1.594132930040360E-2  -2.624285407364368E-2   1.578431762754917E-2  -9.358353018760681E-1  -3.383732140064240E-1  
 4.690000000000000E7     1.195193752646446E-1  -9.901679754257202E-1  -2.831190638244152E-2   1.924235746264458E-2  -2.829136513173580E-2   1.910769380629063E-2  -9.581914544105530E-1  -2.647507488727570E-1  
 4.720000000000000E7     8.402410149574280E-2  -9.932110905647278E-1  -2.970833703875542E-2   2.263586223125458E-2  -2.967828698456287E-2   2.259301766753197E-2  -9.756886363029480E-1  -1.957512944936752E-1  
 4.750000000000000E7     4.980651289224625E-2  -9.964421391487122E-1  -3.050493821501732E-2   2.579738758504391E-2  -3.046938404440880E-2   2.558926865458489E-2  -9.855373501777649E-1  -1.289656907320023E-1  
 4.780000000000000E7     1.524087786674500E-2  -9.971955418586731E-1  -3.097290359437466E-2   2.882841043174267E-2  -3.088400140404701E-2   2.868939563632011E-2  -9.922111630439758E-1  -6.679814308881760E-2  
 4.810000000000000E7    -2.045781910419464E-2  -9.967055320739746E-1  -3.086274676024914E-2   3.151187673211098E-2  -3.080278262495995E-2   3.135879710316658E-2  -9.936822056770325E-1  -8.464835584163666E-3  
 4.840000000000000E7    -5.504775792360306E-2  -9.960433244705200E-1  -3.056170791387558E-2   3.383287414908409E-2  -3.046875633299351E-2   3.383558243513107E-2  -9.925168752670288E-1   4.661445319652557E-2  
 4.870000000000000E7    -9.006309509277344E-2  -9.932748079299927E-1  -2.984041906893253E-2   3.628117591142654E-2  -2.982440032064915E-2   3.620736300945282E-2  -9.888110160827637E-1   9.883507341146469E-2  
 4.900000000000000E7    -1.250602304935455E-1  -9.899710416793823E-1  -2.889103442430496E-2   3.827506303787231E-2  -2.876854501664639E-2   3.829927742481232E-2  -9.830860495567322E-1   1.479639858007431E-1  
 4.930000000000000E7    -1.594508141279221E-1  -9.847706556320190E-1  -2.783354930579662E-2   4.013027250766754E-2  -2.770584449172020E-2   4.006998240947723E-2  -9.755649566650391E-1   1.944973021745682E-1  
 4.960000000000000E7    -1.925607472658157E-1  -9.767807722091675E-1  -2.641969546675682E-2   4.167386889457703E-2  -2.629094384610653E-2   4.155846685171127E-2  -9.656495451927185E-1   2.380560338497162E-1  
 4.990000000000000E7    -2.260176688432694E-1  -9.700560569763184E-1  -2.501924708485603E-2   4.309153929352760E-2  -2.497871778905392E-2   4.286069050431252E-2  -9.551612138748169E-1   2.776582837104797E-1  
 5.020000000000000E7    -2.588305473327637E-1  -9.628004431724548E-1  -2.360666915774345E-2   4.412131756544113E-2  -2.368270419538021E-2   4.412702471017838E-2  -9.430010318756104E-1   3.166498541831970E-1  
 5.050000000000000E7    -2.922937273979187E-1  -9.530580639839172E-1  -2.209018357098103E-2   4.518171399831772E-2  -2.200743928551674E-2   4.511803388595581E-2  -9.307773113250732E-1   3.526656031608582E-1  
 5.080000000000000E7    -3.243707418441773E-1  -9.429596066474915E-1  -2.052422799170017E-2   4.577137902379036E-2  -2.052304707467556E-2   4.580694064497948E-2  -9.156542420387268E-1   3.872349262237549E-1  
 5.110000000000000E7    -3.571197986602783E-1  -9.303771257400513E-1  -1.869153045117855E-2   4.643799737095833E-2  -1.873508840799332E-2   4.638542234897614E-2  -9.018554687500000E-1   4.187359511852264E-1  
 5.140000000000000E7    -3.883141875267029E-1  -9.173197150230408E-1  -1.705918461084366E-2   4.684831202030182E-2  -1.710209622979164E-2   4.690046608448029E-2  -8.885254263877869E-1   4.504541754722595E-1  
 5.170000000000000E7    -4.188513755798340E-1  -9.037814140319824E-1  -1.548130251467228E-2   4.726051911711693E-2  -1.549653895199299E-2   4.709959402680397E-2  -8.721526861190796E-1   4.781674742698669E-1  
 5.200000000000000E7    -4.501738548278809E-1  -8.905514478683472E-1  -1.374153979122639E-2   4.735055565834045E-2  -1.390929520130158E-2   4.727737978100777E-2  -8.549741506576538E-1   5.063826441764832E-1  
 5.230000000000000E7    -4.798601269721985E-1  -8.732995986938477E-1  -1.228739973157644E-2   4.719908162951469E-2  -1.212668232619762E-2   4.717785865068436E-2  -8.404307365417481E-1   5.317499637603760E-1  
 5.260000000000000E7    -5.089545845985413E-1  -8.554782271385193E-1  -1.066593173891306E-2   4.716825112700462E-2  -1.052856445312500E-2   4.703826457262039E-2  -8.245350718498230E-1   5.566119551658630E-1  
 5.290000000000000E7    -5.386456251144409E-1  -8.381782770156860E-1  -8.862053044140339E-3   4.688137397170067E-2  -8.916631340980530E-3   4.689709097146988E-2  -8.086828589439392E-1   5.793997049331665E-1  
 5.320000000000000E7    -5.663596987724304E-1  -8.206731677055359E-1  -7.362620905041695E-3   4.646811261773109E-2  -7.381239905953407E-3   4.653686657547951E-2  -7.927755117416382E-1   6.019861102104187E-1  
 5.350000000000000E7    -5.927647352218628E-1  -8.005512356758118E-1  -5.950775928795338E-3   4.597128927707672E-2  -6.039976608008146E-3   4.599035158753395E-2  -7.769408822059631E-1   6.215868592262268E-1  
 5.380000000000000E7    -6.186133623123169E-1  -7.800886034965515E-1  -4.482474643737078E-3   4.553166776895523E-2  -4.501763731241226E-3   4.536674916744232E-2  -7.589902877807617E-1   6.425037384033203E-1  
 5.410000000000000E7    -6.474440097808838E-1  -7.587565183639526E-1  -3.113427897915244E-3   4.476583003997803E-2  -3.110648132860661E-3   4.479611292481422E-2  -7.435786724090576E-1   6.614353656768799E-1  
 5.440000000000000E7    -6.719986200332642E-1  -7.355656623840332E-1  -1.768955029547215E-3   4.421084374189377E-2  -1.801296835765243E-3   4.411157593131065E-2  -7.269446253776550E-1   6.789991855621338E-1  
 5.470000000000000E7    -6.950926780700684E-1  -7.138106226921082E-1  -4.911250434815884E-4   4.335055127739906E-2  -3.899196162819862E-4   4.332810640335083E-2  -7.101409435272217E-1   6.969491243362427E-1  
 5.500000000000000E7    -7.196743488311768E-1  -6.896601319313049E-1   7.354724220931530E-4   4.253994300961494E-2   7.421080954372883E-4   4.248181357979775E-2  -6.942511796951294E-1   7.137853503227234E-1  
 5.530000000000000E7    -7.421306967735291E-1  -6.651734709739685E-1   1.689978875219822E-3   4.157902300357819E-2   1.840650336816907E-3   4.168800637125969E-2  -6.771797537803650E-1   7.288099527359009E-1  
 5.560000000000000E7    -7.647420167922974E-1  -6.390968561172485E-1   2.976524876430631E-3   4.071692377328873E-2   2.955011790618300E-3   4.057860374450684E-2  -6.615278720855713E-1   7.433537840843201E-1  
 5.590000000000000E7    -7.857433557510376E-1  -6.141044497489929E-1   4.072686657309532E-3   3.954879194498062E-2   4.070412367582321E-3   3.956644609570503E-2  -6.448112130165100E-1   7.586072087287903E-1  
 5.620000000000000E7    -8.058890104293823E-1  -5.854300260543823E-1   4.884178750216961E-3   3.854187577962875E-2   4.990978166460991E-3   3.834220767021179E-2  -6.291347742080689E-1   7.719172239303589E-1  
 5.650000000000000E7    -8.247671127319336E-1  -5.597061514854431E-1   5.848323926329613E-3   3.743596374988556E-2   5.777911283075810E-3   3.730754554271698E-2  -6.124019026756287E-1   7.845014333724976E-1  
 5.680000000000000E7    -8.434150815010071E-1  -5.316430330276489E-1   6.682892795652151E-3   3.621169179677963E-2   6.683154497295618E-3   3.623482584953308E-2  -5.956469774246216E-1   7.971269488334656E-1  
 5.710000000000000E7    -8.611685037612915E-1  -5.016669631004334E-1   7.525892928242683E-3   3.507343679666519E-2   7.440311834216118E-3   3.504908457398415E-2  -5.806802511215210E-1   8.086010813713074E-1  
 5.740000000000000E7    -8.782154321670532E-1  -4.728950262069702E-1   8.198640309274197E-3   3.375819325447083E-2   8.083808235824108E-3   3.377546742558479E-2  -5.640971660614014E-1   8.203867673873901E-1  
 5.770000000000000E7    -8.921245336532593E-1  -4.441231191158295E-1   8.629738353192806E-3   3.257352858781815E-2   8.573164232075214E-3   3.251155465841293E-2  -5.484974384307861E-1   8.299274444580078E-1  
 5.800000000000000E7    -9.067639112472534E-1  -4.128746092319489E-1   9.134008549153805E-3   3.142874315381050E-2   9.300961159169674E-3   3.120422735810280E-2  -5.325273275375366E-1   8.420677781105042E-1  
 5.830000000000000E7    -9.202197194099426E-1  -3.824408352375031E-1   9.745804592967033E-3   3.002732060849667E-2   9.724550880491734E-3   2.995447814464569E-2  -5.169537067413330E-1   8.513345122337341E-1  
 5.860000000000000E7    -9.339192509651184E-1  -3.518391549587250E-1   1.004082337021828E-2   2.871825359761715E-2   1.014811825007200E-2   2.870079874992371E-2  -5.006079077720642E-1   8.607950806617737E-1  
 5.890000000000000E7    -9.439838528633118E-1  -3.199551701545715E-1   1.036892551928759E-2   2.727927267551422E-2   1.038912683725357E-2   2.737488597631455E-2  -4.853167235851288E-1   8.692088127136231E-1  
 5.920000000000000E7    -9.545003771781921E-1  -2.871829867362976E-1   1.082246564328671E-2   2.611288428306580E-2   1.074023731052876E-2   2.591803297400475E-2  -4.699400663375855E-1   8.786546587944031E-1  
 5.950000000000000E7    -9.632104039192200E-1  -2.551211118698120E-1   1.092016324400902E-2   2.468792721629143E-2   1.088219042867422E-2   2.462285012006760E-2  -4.529839456081390E-1   8.856016397476196E-1  
 5.980000000000000E7    -9.716740846633911E-1  -2.225402295589447E-1   1.103786192834377E-2   2.326374687254429E-2   1.098402682691813E-2   2.325446531176567E-2  -4.374390542507172E-1   8.943825364112854E-1  
 6.010000000000000E7    -9.771234393119812E-1  -1.906254738569260E-1   1.102383248507977E-2   2.196680009365082E-2   1.100844889879227E-2   2.195896953344345E-2  -4.231515824794769E-1   9.017448425292969E-1  
 6.040000000000000E7    -9.838270545005798E-1  -1.561641395092011E-1   1.096728071570396E-2   2.064917981624603E-2   1.102576218545437E-2   2.058198861777782E-2  -4.074770510196686E-1   9.097059965133667E-1  
 6.070000000000000E7    -9.898415803909302E-1  -1.248142272233963E-1   1.092471368610859E-2   1.932848058640957E-2   1.090138591825962E-2   1.928407885134220E-2  -3.923941254615784E-1   9.154408574104309E-1  
 6.100000000000000E7    -9.923684597015381E-1  -9.125167131423950E-2   1.078221853822470E-2   1.795135624706745E-2   1.079029869288206E-2   1.791323907673359E-2  -3.765559494495392E-1   9.230232834815979E-1  
 6.130000000000000E7    -9.956980943679810E-1  -5.687481164932251E-2   1.059942878782749E-2   1.669649407267571E-2   1.053948514163494E-2   1.663808338344097E-2  -3.609778881072998E-1   9.292926192283630E-1  
 6.160000000000000E7    -9.964550733566284E-1  -2.412994205951691E-2   1.023972593247891E-2   1.531096082180738E-2   1.026030816137791E-2   1.527330186218023E-2  -3.459641337394714E-1   9.338706731796265E-1  
 6.190000000000000E7    -9.962697029113770E-1   9.257882833480835E-3   9.886825457215309E-3   1.399821601808071E-2   9.858885779976845E-3   1.393713057041168E-2  -3.307517766952515E-1   9.387233853340149E-1  
 6.220000000000000E7    -9.960863590240479E-1   4.273794591426849E-2   9.453326463699341E-3   1.273455377668142E-2   9.418943896889687E-3   1.275658141821623E-2  -3.167794942855835E-1   9.448752999305725E-1  
 6.250000000000000E7    -9.940264821052551E-1   7.634283602237701E-2   8.918265812098980E-3   1.146708894520998E-2   8.956843055784702E-3   1.149035617709160E-2  -3.021240234375000E-1   9.498546719551086E-1  
 6.280000000000000E7    -9.902926683425903E-1   1.093066856265068E-1   8.379565551877022E-3   1.029773801565170E-2   8.330997079610825E-3   1.024513971060515E-2  -2.867710590362549E-1   9.549139142036438E-1  
 6.310000000000000E7    -9.859452247619629E-1   1.437980234622955E-1   7.809398695826531E-3   9.068459272384644E-3   7.742010056972504E-3   9.041357785463333E-3  -2.715026736259460E-1   9.595442414283752E-1  
 6.340000000000000E7    -9.805279374122620E-1   1.767177581787109E-1   7.083479315042496E-3   7.873301394283772E-3   7.075798232108355E-3   7.832590490579605E-3  -2.567447423934937E-1   9.638317227363586E-1  
 6.370000000000000E7    -9.742848873138428E-1   2.095096111297607E-1   6.318167783319950E-3   6.709513720124960E-3   6.298237945884466E-3   6.692573428153992E-3  -2.415269464254379E-1   9.664892554283142E-1  
 6.400000000000000E7    -9.657233357429504E-1   2.416566908359528E-1   5.510152317583561E-3   5.575431510806084E-3   5.488299299031496E-3   5.569830536842346E-3  -2.270713895559311E-1   9.713612794876099E-1  
 6.430000000000000E7    -9.569813609123230E-1   2.755228579044342E-1   4.633112810552120E-3   4.504474811255932E-3   4.634899552911520E-3   4.480021540075541E-3  -2.120997011661530E-1   9.742254614830017E-1  
 6.460000000000000E7    -9.478298425674439E-1   3.076791763305664E-1   3.664102870970964E-3   3.426739480346441E-3   3.650029655545950E-3   3.415683750063181E-3  -1.982458829879761E-1   9.762853980064392E-1  
 6.490000000000000E7    -9.382271170616150E-1   3.388817310333252E-1   2.654386451467872E-3   2.420741831883788E-3   2.675747731700540E-3   2.439445815980434E-3  -1.840290129184723E-1   9.797881841659546E-1  
 6.520000000000000E7    -9.250747561454773E-1   3.703545033931732E-1   1.627012854442000E-3   1.440730295144022E-3   1.619644463062286E-3   1.461904030293226E-3  -1.692346632480621E-1   9.831751585006714E-1  
 6.550000000000000E7    -9.125440716743469E-1   4.008742570877075E-1   5.053173517808318E-4   5.370290018618107E-4   5.014796042814851E-4   5.460443207994103E-4  -1.543373167514801E-1   9.840620160102844E-1  
 6.580000000000000E7    -8.977019786834717E-1   4.320926666259766E-1  -6.641337531618774E-4  -3.488155780360103E-4  -6.729875458404422E-4  -3.335725341457874E-4  -1.399989724159241E-1   9.876605272293091E-1  
 6.610000000000000E7    -8.816034793853760E-1   4.619683027267456E-1  -1.924606622196734E-3  -1.165593159385026E-3  -1.895803376100957E-3  -1.134210149757564E-3  -1.241068243980408E-1   9.888566732406616E-1  
 6.640000000000000E7    -8.675166964530945E-1   4.918671846389771E-1  -3.214632859453559E-3  -1.966355368494988E-3  -3.194191725924611E-3  -1.978657674044371E-3  -1.099602282047272E-1   9.907867908477783E-1  
 6.670000000000000E7    -8.492289781570435E-1   5.207797884941101E-1  -4.535598680377007E-3  -2.688809996470809E-3  -4.531639628112316E-3  -2.697131363674998E-3  -9.705387055873871E-2   9.924424290657044E-1  
 6.700000000000000E7    -8.310405015945435E-1   5.493808984756470E-1  -5.935107823461294E-3  -3.363603726029396E-3  -5.903365090489388E-3  -3.340351628139615E-3  -8.261583745479584E-2   9.927881360054016E-1  
 6.730000000000000E7    -8.115611076354981E-1   5.771309733390808E-1  -7.343019358813763E-3  -3.970309160649777E-3  -7.373564876616001E-3  -3.959036897867918E-3  -6.807304918766022E-2   9.949610829353333E-1  
 6.760000000000000E7    -7.921421527862549E-1   6.044949293136597E-1  -8.891019038856030E-3  -4.512462299317122E-3  -8.842663839459419E-3  -4.540890455245972E-3  -5.337543785572052E-2   9.955195188522339E-1  
 6.790000000000000E7    -7.705596089363098E-1   6.313762068748474E-1  -1.037615537643433E-2  -5.041950847953558E-3  -1.039654854685068E-2  -5.005329381674528E-3  -3.974317014217377E-2   9.953857660293579E-1  
 6.820000000000000E7    -7.485525608062744E-1   6.561961174011231E-1  -1.196344196796417E-2  -5.445124581456184E-3  -1.195561233907938E-2  -5.456583108752966E-3  -2.593915909528732E-2   9.963860511779785E-1  
 6.850000000000000E7    -7.262018322944641E-1   6.827834844589233E-1  -1.362287253141403E-2  -5.859646480530500E-3  -1.361634954810143E-2  -5.809861235320568E-3  -1.257554441690445E-2   9.966397881507874E-1  
 6.880000000000000E7    -7.018999457359314E-1   7.063230872154236E-1  -1.527342107146978E-2  -6.113359704613686E-3  -1.524544879794121E-2  -6.112844683229923E-3   2.428054809570313E-3   9.963802099227905E-1  
 6.910000000000000E7    -6.774097681045532E-1   7.301752567291260E-1  -1.702571287751198E-2  -6.344866007566452E-3  -1.697856746613979E-2  -6.324745249003172E-3   1.679381355643272E-2   9.964755177497864E-1  
 6.940000000000000E7    -6.526462435722351E-1   7.531428933143616E-1  -1.876693964004517E-2  -6.553065497428179E-3  -1.874950155615807E-2  -6.524476222693920E-3   2.938045002520084E-2   9.960864186286926E-1  
 6.970000000000000E7    -6.252944469451904E-1   7.750061750411987E-1  -2.052714675664902E-2  -6.607491523027420E-3  -2.056758105754852E-2  -6.535626482218504E-3   4.403866827487946E-2   9.954960942268372E-1  
 7.000000000000000E7    -5.985797643661499E-1   7.965414524078369E-1  -2.241354435682297E-2  -6.618418265134096E-3  -2.232324518263340E-2  -6.566803436726332E-3   5.767495557665825E-2   9.952263236045837E-1  
