#  HZ   S   RI   R     50.00 
! Rohde & Schwarz ZVT8 8Ports - Version 4.11 - 1300.0000k08 SN: 100242
! Date: 2026-07-31 15:03:56
! Measurements: S11 S21 S12 S22 
! 
 1.000000000000000E7    -3.965256512165070E-1   9.134339690208435E-1   5.335341021418572E-2   5.355806648731232E-2   5.308581888675690E-2   5.358386784791946E-2  -9.191626310348511E-1   3.841241896152496E-1  
 1.030000000000000E7    -3.641207516193390E-1   9.255728721618652E-1   5.678230896592140E-2   5.419880151748657E-2   5.656674131751061E-2   5.420549586415291E-2  -9.130426645278931E-1   3.964062929153442E-1  
 1.060000000000000E7    -3.270426392555237E-1   9.387401938438416E-1   6.041265651583672E-2   5.506116151809692E-2   6.045117229223251E-2   5.484623461961746E-2  -9.097719788551331E-1   4.078706800937653E-1  
 1.090000000000000E7    -2.935568690299988E-1   9.492833614349365E-1   6.416706740856171E-2   5.540372431278229E-2   6.415332853794098E-2   5.560841411352158E-2  -9.037171006202698E-1   4.198768436908722E-1  
 1.120000000000000E7    -2.572974264621735E-1   9.584234356880188E-1   6.837505102157593E-2   5.650671198964119E-2   6.773163378238678E-2   5.626054853200913E-2  -8.982639312744141E-1   4.311667680740356E-1  
 1.150000000000000E7    -2.209563255310059E-1   9.686119556427002E-1   7.198875397443771E-2   5.628683418035507E-2   7.183194905519486E-2   5.641982704401016E-2  -8.911587595939636E-1   4.404681324958801E-1  
 1.180000000000000E7    -1.848530024290085E-1   9.739165902137756E-1   7.598568499088287E-2   5.671368166804314E-2   7.594966888427734E-2   5.678700283169746E-2  -8.866832852363586E-1   4.510862231254578E-1  
 1.210000000000000E7    -1.485837399959564E-1   9.801493287086487E-1   8.036232739686966E-2   5.700263008475304E-2   8.044625073671341E-2   5.691406503319740E-2  -8.791972994804382E-1   4.633497893810272E-1  
 1.240000000000000E7    -1.117620468139648E-1   9.842215180397034E-1   8.480718731880188E-2   5.722871795296669E-2   8.490085601806641E-2   5.663818866014481E-2  -8.725001811981201E-1   4.734953641891480E-1  
 1.270000000000000E7    -7.367460429668427E-2   9.872574210166931E-1   9.010530263185501E-2   5.653189495205879E-2   8.939251303672791E-2   5.643376335501671E-2  -8.657106757164002E-1   4.869411587715149E-1  
 1.300000000000000E7    -3.690149262547493E-2   9.895135164260864E-1   9.436268359422684E-2   5.644445866346359E-2   9.453583508729935E-2   5.638410896062851E-2  -8.582169413566589E-1   4.972922801971436E-1  
 1.330000000000000E7     1.920688897371292E-3   9.908405542373657E-1   9.976738691329956E-2   5.602337792515755E-2   9.944976866245270E-2   5.565020069479942E-2  -8.510585427284241E-1   5.092450380325317E-1  
 1.360000000000000E7     4.124645888805389E-2   9.893209934234619E-1   1.047483906149864E-1   5.572896078228951E-2   1.050346940755844E-1   5.489154160022736E-2  -8.437011241912842E-1   5.185277462005615E-1  
 1.390000000000000E7     7.916448265314102E-2   9.859917759895325E-1   1.106118783354759E-1   5.437765270471573E-2   1.101019084453583E-1   5.450533330440521E-2  -8.363157510757446E-1   5.303098559379578E-1  
 1.420000000000000E7     1.192140355706215E-1   9.818329215049744E-1   1.157646849751473E-1   5.367310345172882E-2   1.157811135053635E-1   5.370518937706947E-2  -8.301790356636047E-1   5.405517816543579E-1  
 1.450000000000000E7     1.578499674797058E-1   9.743812084197998E-1   1.219725459814072E-1   5.222893133759499E-2   1.217735558748245E-1   5.212441459298134E-2  -8.191505670547485E-1   5.529763102531433E-1  
 1.480000000000000E7     1.985408663749695E-1   9.671714901924133E-1   1.280454397201538E-1   5.061418190598488E-2   1.279008388519287E-1   5.096990242600441E-2  -8.126019239425659E-1   5.632131099700928E-1  
 1.510000000000000E7     2.371070832014084E-1   9.570763707160950E-1   1.342236846685410E-1   4.878752678632736E-2   1.340414434671402E-1   4.883018508553505E-2  -8.007700443267822E-1   5.747529268264771E-1  
 1.540000000000000E7     2.759511470794678E-1   9.454914927482605E-1   1.407651901245117E-1   4.769973456859589E-2   1.405200660228729E-1   4.716839641332626E-2  -7.951263189315796E-1   5.839779376983643E-1  
 1.570000000000000E7     3.161409497261047E-1   9.332559108734131E-1   1.475862711668015E-1   4.480670392513275E-2   1.476176381111145E-1   4.476144909858704E-2  -7.847119569778442E-1   5.967102050781250E-1  
 1.600000000000000E7     3.560326993465424E-1   9.165232777595520E-1   1.543773561716080E-1   4.208550229668617E-2   1.548952460289002E-1   4.191851243376732E-2  -7.755188345909119E-1   6.054562330245972E-1  
 1.630000000000000E7     3.949722051620483E-1   8.994550704956055E-1   1.627977639436722E-1   3.870638087391853E-2   1.619408726692200E-1   3.901890665292740E-2  -7.652719616889954E-1   6.178471446037293E-1  
 1.660000000000000E7     4.340945482254028E-1   8.784273266792297E-1   1.703206896781921E-1   3.520667552947998E-2   1.698127835988998E-1   3.459372371435165E-2  -7.534880638122559E-1   6.287800073623657E-1  
 1.690000000000000E7     4.728242456912994E-1   8.569822907447815E-1   1.785296648740768E-1   3.171560168266296E-2   1.781861931085587E-1   3.131870925426483E-2  -7.436442375183106E-1   6.382117867469788E-1  
 1.720000000000000E7     5.131049752235413E-1   8.333213925361633E-1   1.862842589616776E-1   2.641464211046696E-2   1.864273995161057E-1   2.705162391066551E-2  -7.321260571479797E-1   6.482582092285156E-1  
 1.750000000000000E7     5.474088788032532E-1   8.093340992927551E-1   1.960787922143936E-1   2.298668958246708E-2   1.961437463760376E-1   2.222611196339130E-2  -7.219022512435913E-1   6.604965925216675E-1  
 1.780000000000000E7     5.871537923812866E-1   7.766509652137756E-1   2.041226476430893E-1   1.649430394172669E-2   2.044953554868698E-1   1.672668009996414E-2  -7.087637186050415E-1   6.679138541221619E-1  
 1.810000000000000E7     6.231458783149719E-1   7.462403178215027E-1   2.151878625154495E-1   1.043502800166607E-2   2.139463126659393E-1   9.789140895009041E-3  -6.966773867607117E-1   6.815081238746643E-1  
 1.840000000000000E7     6.607857346534729E-1   7.111284136772156E-1   2.255204468965530E-1   1.954022794961929E-3   2.243704497814179E-1   2.505259588360786E-3  -6.826364398002625E-1   6.909661889076233E-1  
 1.870000000000000E7     6.943939328193665E-1   6.746025085449219E-1   2.356787770986557E-1  -5.251837894320488E-3   2.345675528049469E-1  -5.647985264658928E-3  -6.688998937606812E-1   6.995581388473511E-1  
 1.900000000000000E7     7.282296419143677E-1   6.336498856544495E-1   2.466327697038651E-1  -1.416059490293264E-2   2.460626661777496E-1  -1.473522186279297E-2  -6.540120244026184E-1   7.092816233634949E-1  
 1.930000000000000E7     7.608739733695984E-1   5.882204771041870E-1   2.576632499694824E-1  -2.612040005624294E-2   2.579420506954193E-1  -2.508352883160114E-2  -6.388161778450012E-1   7.202150821685791E-1  
 1.960000000000000E7     7.920240163803101E-1   5.391807556152344E-1   2.694471180438995E-1  -3.765502572059631E-2   2.695474028587341E-1  -3.685575351119041E-2  -6.249012351036072E-1   7.282415628433228E-1  
 1.990000000000000E7     8.184611201286316E-1   4.875517785549164E-1   2.818813621997833E-1  -5.105607956647873E-2   2.820982336997986E-1  -5.110035836696625E-2  -6.056304574012756E-1   7.383975982666016E-1  
 2.020000000000000E7     8.444561362266541E-1   4.299269318580627E-1   2.952554821968079E-1  -6.615231186151505E-2   2.942360341548920E-1  -6.555886566638947E-2  -5.892315506935120E-1   7.439050078392029E-1  
 2.050000000000000E7     8.685725927352905E-1   3.672863245010376E-1   3.081014156341553E-1  -8.333524316549301E-2   3.061642646789551E-1  -8.312652260065079E-2  -5.710926055908203E-1   7.519664168357849E-1  
 2.080000000000000E7     8.859446644783020E-1   2.994914054870606E-1   3.216436803340912E-1  -1.036389023065567E-1   3.215828835964203E-1  -1.035529226064682E-1  -5.509669184684753E-1   7.595741152763367E-1  
 2.110000000000000E7     8.997499346733093E-1   2.267399132251740E-1   3.352428376674652E-1  -1.280951648950577E-1   3.349754512310028E-1  -1.277789324522018E-1  -5.298858284950256E-1   7.650616765022278E-1  
 2.140000000000000E7     9.064684510231018E-1   1.487293392419815E-1   3.484811186790466E-1  -1.555145978927612E-1   3.473669886589050E-1  -1.536405831575394E-1  -5.077012181282044E-1   7.689423561096191E-1  
 2.170000000000000E7     9.055953025817871E-1   6.432963162660599E-2   3.611789047718048E-1  -1.859947890043259E-1   3.611817657947540E-1  -1.846663057804108E-1  -4.843689799308777E-1   7.716021537780762E-1  
 2.200000000000000E7     8.944814205169678E-1  -2.863160148262978E-2   3.713408410549164E-1  -2.221742719411850E-1   3.717378377914429E-1  -2.216547131538391E-1  -4.584061205387116E-1   7.718139886856079E-1  
 2.230000000000000E7     8.697990179061890E-1  -1.255216002464294E-1   3.801546990871429E-1  -2.639648616313934E-1   3.801485598087311E-1  -2.627056837081909E-1  -4.326061010360718E-1   7.690632939338684E-1  
 2.260000000000000E7     8.299595713615418E-1  -2.282361984252930E-1   3.844318985939026E-1  -3.116223216056824E-1   3.859509825706482E-1  -3.123094439506531E-1  -4.062935113906860E-1   7.622315287590027E-1  
 2.290000000000000E7     7.690111994743347E-1  -3.338266909122467E-1   3.836638629436493E-1  -3.667035698890686E-1   3.849404454231262E-1  -3.672834336757660E-1  -3.767463564872742E-1   7.516427636146545E-1  
 2.320000000000000E7     6.828756332397461E-1  -4.366750717163086E-1   3.741695582866669E-1  -4.303420782089233E-1   3.735922873020172E-1  -4.298599064350128E-1  -3.505083024501801E-1   7.388153672218323E-1  
 2.350000000000000E7     5.676010251045227E-1  -5.334132313728333E-1   3.517504930496216E-1  -5.006607770919800E-1   3.521028757095337E-1  -4.985969960689545E-1  -3.246402442455292E-1   7.167184948921204E-1  
 2.380000000000000E7     4.208002686500549E-1  -6.132102608680725E-1   3.140700161457062E-1  -5.723497271537781E-1   3.147565424442291E-1  -5.726019740104675E-1  -3.031118512153626E-1   6.878998875617981E-1  
 2.410000000000000E7     2.416134327650070E-1  -6.606658697128296E-1   2.543354034423828E-1  -6.449295282363892E-1   2.553028464317322E-1  -6.442926526069641E-1  -2.880437970161438E-1   6.534346342086792E-1  
 2.440000000000000E7     3.738645464181900E-2  -6.602085232734680E-1   1.716615408658981E-1  -7.105605602264404E-1   1.718724071979523E-1  -7.098167538642883E-1  -2.854907214641571E-1   6.135197281837463E-1  
 2.470000000000000E7    -1.747153252363205E-1  -6.012565493583679E-1   6.660310178995132E-2  -7.584136128425598E-1   6.804502010345459E-2  -7.565375566482544E-1  -2.914479970932007E-1   5.697006583213806E-1  
 2.500000000000000E7    -3.729183077812195E-1  -4.753037691116333E-1  -5.428028851747513E-2  -7.753431200981140E-1  -5.400429666042328E-2  -7.756052613258362E-1  -3.141766488552094E-1   5.350458621978760E-1  
 2.530000000000000E7    -5.265715718269348E-1  -2.882602214813232E-1  -1.786945313215256E-1  -7.608323097229004E-1  -1.783311963081360E-1  -7.595812082290649E-1  -3.495425581932068E-1   5.064895749092102E-1  
 2.560000000000000E7    -6.133453249931335E-1  -6.580115109682083E-2  -2.938481569290161E-1  -7.099700570106506E-1  -2.943374514579773E-1  -7.093619108200073E-1  -3.935502171516419E-1   4.937455356121063E-1  
 2.590000000000000E7    -6.254563927650452E-1   1.630757451057434E-1  -3.884769380092621E-1  -6.357591152191162E-1  -3.876570761203766E-1  -6.366068720817566E-1  -4.351439774036408E-1   4.972987771034241E-1  
 2.620000000000000E7    -5.763618946075440E-1   3.743295371532440E-1  -4.553096294403076E-1  -5.461383461952210E-1  -4.542481899261475E-1  -5.455868244171143E-1  -4.728900492191315E-1   5.137162804603577E-1  
 2.650000000000000E7    -4.802455306053162E-1   5.481982231140137E-1  -4.913715720176697E-1  -4.512504339218140E-1  -4.926690161228180E-1  -4.512472748756409E-1  -5.044227838516235E-1   5.398420691490173E-1  
 2.680000000000000E7    -3.570777773857117E-1   6.797482967376709E-1  -5.072996616363525E-1  -3.633486330509186E-1  -5.071058869361877E-1  -3.628959059715271E-1  -5.255582332611084E-1   5.726091861724854E-1  
 2.710000000000000E7    -2.250256687402725E-1   7.705997228622437E-1  -5.077658891677856E-1  -2.841607928276062E-1  -5.079950094223023E-1  -2.837956845760346E-1  -5.370478630065918E-1   6.062176823616028E-1  
 2.740000000000000E7    -9.098637104034424E-2   8.277785778045654E-1  -4.933850467205048E-1  -2.170327901840210E-1  -4.929212331771851E-1  -2.160617113113403E-1  -5.402920246124268E-1   6.409035921096802E-1  
 2.770000000000000E7     3.587627410888672E-2   8.565776348114014E-1  -4.744505286216736E-1  -1.587382405996323E-1  -4.746736884117127E-1  -1.594146490097046E-1  -5.386017560958862E-1   6.743026971817017E-1  
 2.800000000000000E7     1.534638404846191E-1   8.645167946815491E-1  -4.497908651828766E-1  -1.105362251400948E-1  -4.489000141620636E-1  -1.116089895367622E-1  -5.323169231414795E-1   7.039030790328980E-1  
 2.830000000000000E7     2.608236074447632E-1   8.562209010124207E-1  -4.242228865623474E-1  -7.142286002635956E-2  -4.253680706024170E-1  -7.215508073568344E-2  -5.228828787803650E-1   7.314470410346985E-1  
 2.860000000000000E7     3.564772307872772E-1   8.373631834983826E-1  -3.986669778823853E-1  -3.991709277033806E-2  -3.990272879600525E-1  -3.892300650477409E-2  -5.079833865165710E-1   7.589943408966065E-1  
 2.890000000000000E7     4.413365125656128E-1   8.096722364425659E-1  -3.741831779479981E-1  -1.306558772921562E-2  -3.733709454536438E-1  -1.326351985335350E-2  -4.933427274227142E-1   7.819336652755737E-1  
 2.920000000000000E7     5.187176465988159E-1   7.751170396804810E-1  -3.486950397491455E-1   7.531484588980675E-3  -3.483015894889832E-1   8.524110540747643E-3  -4.768663346767426E-1   8.025796413421631E-1  
 2.950000000000000E7     5.834545493125916E-1   7.364965677261353E-1  -3.256951868534088E-1   2.509146183729172E-2  -3.251891136169434E-1   2.558331750333309E-2  -4.582775235176086E-1   8.244417309761047E-1  
 2.980000000000000E7     6.433464288711548E-1   6.955130100250244E-1  -3.028352260589600E-1   3.917093575000763E-2  -3.031632006168366E-1   3.913320228457451E-2  -4.394975900650024E-1   8.423177599906921E-1  
 3.010000000000000E7     6.963669657707214E-1   6.512717604637146E-1  -2.821080386638641E-1   5.142688006162643E-2  -2.817496061325073E-1   5.078589171171188E-2  -4.195793569087982E-1   8.592002987861633E-1  
 3.040000000000000E7     7.429307103157044E-1   6.061367988586426E-1  -2.626752853393555E-1   5.971811711788178E-2  -2.626203596591950E-1   6.006931513547897E-2  -3.974665403366089E-1   8.738622069358826E-1  
 3.070000000000000E7     7.847353816032410E-1   5.575996041297913E-1  -2.436519563198090E-1   6.847531348466873E-2  -2.436702698469162E-1   6.813790649175644E-2  -3.761297166347504E-1   8.885671496391296E-1  
 3.100000000000000E7     8.208272457122803E-1   5.115332007408142E-1  -2.268356233835220E-1   7.441768050193787E-2  -2.262487560510635E-1   7.451880723237991E-2  -3.540584146976471E-1   9.019702076911926E-1  
 3.130000000000000E7     8.515047430992127E-1   4.642190933227539E-1  -2.100153267383575E-1   7.912373542785645E-2  -2.099987864494324E-1   7.851927727460861E-2  -3.312260806560516E-1   9.126095175743103E-1  
 3.160000000000000E7     8.800086975097656E-1   4.162002801895142E-1  -1.952719837427139E-1   8.268053084611893E-2  -1.953087896108627E-1   8.241447061300278E-2  -3.089732527732849E-1   9.249119162559509E-1  
 3.190000000000000E7     9.033701419830322E-1   3.695785403251648E-1  -1.807206869125366E-1   8.533040434122086E-2  -1.801691949367523E-1   8.500033617019653E-2  -2.849508225917816E-1   9.348157644271851E-1  
 3.220000000000000E7     9.247062802314758E-1   3.228984177112579E-1  -1.671827584505081E-1   8.660587668418884E-2  -1.667239814996719E-1   8.687885105609894E-2  -2.620908617973328E-1   9.429283738136292E-1  
 3.250000000000000E7     9.421001672744751E-1   2.759838104248047E-1  -1.546423733234406E-1   8.780837804079056E-2  -1.544088125228882E-1   8.801896870136261E-2  -2.377853840589523E-1   9.534869790077210E-1  
 3.280000000000000E7     9.551419615745544E-1   2.283082902431488E-1  -1.426934450864792E-1   8.834634721279144E-2  -1.416612863540649E-1   8.821962773799896E-2  -2.124695479869843E-1   9.602633118629456E-1  
 3.310000000000000E7     9.668442010879517E-1   1.828927993774414E-1  -1.307695060968399E-1   8.808811008930206E-2  -1.304298937320709E-1   8.806554228067398E-2  -1.860032081604004E-1   9.670050740242004E-1  
 3.340000000000000E7     9.767113327980042E-1   1.380102485418320E-1  -1.200063973665237E-1   8.788613975048065E-2  -1.195532977581024E-1   8.746311813592911E-2  -1.599587053060532E-1   9.720857143402100E-1  
 3.370000000000000E7     9.821777343750000E-1   9.303116053342819E-2  -1.097303256392479E-1   8.629015833139420E-2  -1.094660386443138E-1   8.594619482755661E-2  -1.343792974948883E-1   9.787324666976929E-1  
 3.400000000000000E7     9.868595600128174E-1   4.821231216192246E-2  -9.977809339761734E-2   8.483898639678955E-2  -9.999646991491318E-2   8.469057083129883E-2  -1.069064885377884E-1   9.822143912315369E-1  
 3.430000000000000E7     9.896689057350159E-1   4.933461546897888E-3  -9.066094458103180E-2   8.305205404758453E-2  -9.044841676950455E-2   8.264861255884171E-2  -7.915010303258896E-2   9.856631755828857E-1  
 3.460000000000000E7     9.894621968269348E-1  -3.871090710163117E-2  -8.197928965091705E-2   8.063333481550217E-2  -8.216093480587006E-2   8.060409128665924E-2  -5.059221386909485E-2   9.896537661552429E-1  
 3.490000000000000E7     9.880062937736511E-1  -8.151568472385407E-2  -7.346428185701370E-2   7.829826325178146E-2  -7.353121787309647E-2   7.786576449871063E-2  -2.280432730913162E-2   9.894092082977295E-1  
 3.520000000000000E7     9.853884577751160E-1  -1.229172199964523E-1  -6.594958156347275E-2   7.514382153749466E-2  -6.602222472429276E-2   7.494584470987320E-2   8.304297924041748E-3   9.919496774673462E-1  
 3.550000000000000E7     9.780704379081726E-1  -1.643408685922623E-1  -5.884153395891190E-2   7.173822075128555E-2  -5.887117609381676E-2   7.171871513128281E-2   3.732492029666901E-2   9.927165508270264E-1  
 3.580000000000000E7     9.719367623329163E-1  -2.048287987709045E-1  -5.181887745857239E-2   6.811510771512985E-2  -5.180100724101067E-2   6.806271523237228E-2   6.877653300762177E-2   9.899505376815796E-1  
 3.610000000000000E7     9.637346863746643E-1  -2.447952777147293E-1  -4.554351791739464E-2   6.467972695827484E-2  -4.521024972200394E-2   6.444151699542999E-2   1.024570316076279E-1   9.894899129867554E-1  
 3.640000000000000E7     9.536709189414978E-1  -2.840026021003723E-1  -3.942028433084488E-2   6.041428074240685E-2  -3.946188464760780E-2   6.027599424123764E-2   1.329894512891769E-1   9.856007099151611E-1  
 3.670000000000000E7     9.426013827323914E-1  -3.202211856842041E-1  -3.387580811977387E-2   5.602103471755981E-2  -3.366710990667343E-2   5.579547584056854E-2   1.658131182193756E-1   9.817974567413330E-1  
 3.700000000000000E7     9.295640587806702E-1  -3.577699959278107E-1  -2.845788002014160E-2   5.132351443171501E-2  -2.840506657958031E-2   5.110996961593628E-2   2.016216516494751E-1   9.747911691665649E-1  
 3.730000000000000E7     9.144553542137146E-1  -3.946532011032105E-1  -2.356544137001038E-2   4.626308381557465E-2  -2.359244786202908E-2   4.629253596067429E-2   2.332938015460968E-1   9.670815467834473E-1  
 3.760000000000000E7     8.995839357376099E-1  -4.282095134258270E-1  -1.894708722829819E-2   4.124887660145760E-2  -1.909286342561245E-2   4.124155640602112E-2   2.705259025096893E-1   9.583741426467896E-1  
 3.790000000000000E7     8.822323679924011E-1  -4.635769426822662E-1  -1.508194766938686E-2   3.590809181332588E-2  -1.497348397970200E-2   3.589906916022301E-2   3.064962625503540E-1   9.465075135231018E-1  
 3.820000000000000E7     8.642765283584595E-1  -4.979513585567474E-1  -1.143957674503326E-2   3.049559704959393E-2  -1.154144201427698E-2   3.030650503933430E-2   3.416039943695068E-1   9.348785877227783E-1  
 3.850000000000000E7     8.441692590713501E-1  -5.310143232345581E-1  -8.290022611618042E-3   2.453316561877728E-2  -8.231545798480511E-3   2.442146278917790E-2   3.799985647201538E-1   9.219262003898621E-1  
 3.880000000000000E7     8.237711191177368E-1  -5.621275305747986E-1  -5.414205603301525E-3   1.847972534596920E-2  -5.379081703722477E-3   1.830428279936314E-2   4.197142124176025E-1   9.038869738578796E-1  
 3.910000000000000E7     8.026651144027710E-1  -5.938701629638672E-1  -3.280883422121406E-3   1.226098928600550E-2  -3.191526513546705E-3   1.222537085413933E-2   4.585354924201965E-1   8.853144645690918E-1  
 3.940000000000000E7     7.788527011871338E-1  -6.213484406471252E-1  -1.517206779681146E-3   5.927021615207195E-3  -1.492921728640795E-3   5.719797220081091E-3   4.964946210384369E-1   8.633944392204285E-1  
 3.970000000000000E7     7.568248510360718E-1  -6.508015990257263E-1  -2.683029451873153E-4  -8.130878559313715E-4  -2.394431794527918E-4  -8.297570748254657E-4   5.344354510307312E-1   8.386619687080383E-1  
 4.000000000000000E7     7.316820025444031E-1  -6.781027317047119E-1   2.939770347438753E-4  -7.556570228189230E-3   4.920917563140392E-4  -7.535255048424006E-3   5.766050219535828E-1   8.120781183242798E-1  
 4.030000000000000E7     7.065753936767578E-1  -7.044369578361511E-1   4.252800717949867E-4  -1.456200331449509E-2   3.648797865025699E-4  -1.457531005144119E-2   6.157221794128418E-1   7.831848859786987E-1  
 4.060000000000000E7     6.802131533622742E-1  -7.295984625816345E-1   3.180325438734144E-5  -2.165941521525383E-2  -4.261625872459263E-5  -2.151964232325554E-2   6.553839445114136E-1   7.490395903587341E-1  
 4.090000000000000E7     6.529403924942017E-1  -7.540880441665649E-1  -1.234011142514646E-3  -2.865296043455601E-2  -1.404967857524753E-3  -2.867129817605019E-2   6.940934658050537E-1   7.123079895973206E-1  
 4.120000000000000E7     6.253092885017395E-1  -7.775316834449768E-1  -3.167634829878807E-3  -3.597426414489746E-2  -3.062218893319368E-3  -3.583544865250588E-2   7.334459424018860E-1   6.718414425849915E-1  
 4.150000000000000E7     5.972020626068115E-1  -7.981705069541931E-1  -5.834817420691252E-3  -4.309090226888657E-2  -5.636530928313732E-3  -4.280076175928116E-2   7.712751626968384E-1   6.260178089141846E-1  
 4.180000000000000E7     5.673484206199646E-1  -8.198757171630859E-1  -9.289272129535675E-3  -5.001662671566010E-2  -9.148632176220417E-3  -4.994380474090576E-2   8.087396025657654E-1   5.778686404228210E-1  
 4.210000000000000E7     5.374578237533569E-1  -8.390337228775024E-1  -1.336677838116884E-2  -5.697055906057358E-2  -1.345036178827286E-2  -5.709124356508255E-2   8.446463346481323E-1   5.226136445999146E-1  
 4.240000000000000E7     5.069743394851685E-1  -8.561496138572693E-1  -1.842026785016060E-2  -6.372309476137161E-2  -1.843757182359695E-2  -6.374854594469070E-2   8.770342469215393E-1   4.638784825801849E-1  
 4.270000000000000E7     4.750250875949860E-1  -8.734247684478760E-1  -2.447637170553207E-2  -7.009744644165039E-2  -2.447943016886711E-2  -6.998851895332336E-2   9.068210721015930E-1   4.005940556526184E-1  
 4.300000000000000E7     4.432988166809082E-1  -8.895896673202515E-1  -3.147811070084572E-2  -7.605143636465073E-2  -3.121853992342949E-2  -7.608930021524429E-2   9.332305192947388E-1   3.324580788612366E-1  
 4.330000000000000E7     4.134382307529450E-1  -9.050280451774597E-1  -3.866907581686974E-2  -8.173113316297531E-2  -3.890796750783920E-2  -8.170296996831894E-2   9.548151493072510E-1   2.596684098243713E-1  
 4.360000000000000E7     3.798866271972656E-1  -9.172871708869934E-1  -4.771881923079491E-2  -8.680620789527893E-2  -4.717760905623436E-2  -8.638377487659454E-2   9.717645049095154E-1   1.826362609863281E-1  
 4.390000000000000E7     3.464185893535614E-1  -9.302493333816528E-1  -5.711209028959274E-2  -9.067451953887940E-2  -5.700366944074631E-2  -9.085711836814880E-2   9.822801351547241E-1   1.000192463397980E-1  
 4.420000000000000E7     3.137732148170471E-1  -9.396278858184815E-1  -6.700615584850311E-2  -9.382313489913940E-2  -6.708726286888123E-2  -9.393640607595444E-2   9.865685105323792E-1   1.448637247085571E-2  
 4.450000000000000E7     2.804837524890900E-1  -9.493991136550903E-1  -7.818949967622757E-2  -9.588319808244705E-2  -7.805451005697250E-2  -9.580003470182419E-2   9.836730360984802E-1  -7.441360503435135E-2  
 4.480000000000000E7     2.474027574062347E-1  -9.573296904563904E-1  -8.977805078029633E-2  -9.687881171703339E-2  -8.972141891717911E-2  -9.683878719806671E-2   9.706537723541260E-1  -1.655010879039764E-1  
 4.510000000000000E7     2.150214761495590E-1  -9.649683237075806E-1  -1.021557450294495E-1  -9.656743705272675E-2  -1.016694083809853E-1  -9.640561789274216E-2   9.479907155036926E-1  -2.593618333339691E-1  
 4.540000000000000E7     1.812019348144531E-1  -9.696871638298035E-1  -1.136405169963837E-1  -9.407996386289597E-2  -1.137684136629105E-1  -9.436659514904022E-2   9.162856936454773E-1  -3.517096638679504E-1  
 4.570000000000000E7     1.475699394941330E-1  -9.746189713478088E-1  -1.262671351432800E-1  -9.096489101648331E-2  -1.261458396911621E-1  -9.122249484062195E-2   8.737409114837647E-1  -4.439204335212708E-1  
 4.600000000000000E7     1.172587722539902E-1  -9.774222970008850E-1  -1.390630900859833E-1  -8.587904274463654E-2  -1.391033828258514E-1  -8.628475666046143E-2   8.218294382095337E-1  -5.333782434463501E-1  
 4.630000000000000E7     8.126243948936462E-2  -9.798884987831116E-1  -1.509507298469544E-1  -7.904281467199326E-2  -1.508211940526962E-1  -7.874474674463272E-2   7.573761940002441E-1  -6.179912090301514E-1  
 4.660000000000000E7     4.813741147518158E-2  -9.817401766777039E-1  -1.618595421314240E-1  -7.095272839069367E-2  -1.618917137384415E-1  -7.085826992988586E-2   6.853573918342590E-1  -6.953926682472229E-1  
 4.690000000000000E7     1.650156080722809E-2  -9.813398122787476E-1  -1.724254488945007E-1  -6.078286468982697E-2  -1.718765050172806E-1  -6.094326823949814E-2   6.014768481254578E-1  -7.675299644470215E-1  
 4.720000000000000E7    -1.650395989418030E-2  -9.796641469001770E-1  -1.815515011548996E-1  -4.961297288537026E-2  -1.811992973089218E-1  -4.947049543261528E-2   5.123984813690186E-1  -8.287128806114197E-1  
 4.750000000000000E7    -4.782466590404511E-2  -9.781484603881836E-1  -1.889581680297852E-1  -3.729547560214996E-2  -1.886835247278214E-1  -3.731038048863411E-2   4.142059683799744E-1  -8.805345892906189E-1  
 4.780000000000000E7    -7.925830781459808E-2  -9.753793478012085E-1  -1.957398653030396E-1  -2.470961771905422E-2  -1.954188197851181E-1  -2.443226613104343E-2   3.146197199821472E-1  -9.209988117218018E-1  
 4.810000000000000E7    -1.115386933088303E-1  -9.714254736900330E-1  -2.006528824567795E-1  -1.002806611359119E-2  -1.999272555112839E-1  -1.015982311218977E-2   2.080956995487213E-1  -9.490038156509399E-1  
 4.840000000000000E7    -1.425623446702957E-1  -9.673429131507874E-1  -2.034930586814880E-1   4.015456885099411E-3  -2.029849737882614E-1   4.605966620147228E-3   1.027038842439652E-1  -9.652731418609619E-1  
 4.870000000000000E7    -1.742930412292481E-1  -9.614634513854981E-1  -2.045480161905289E-1   1.873729377985001E-2  -2.043225616216660E-1   1.863193884491921E-2  -2.239498309791088E-3  -9.705786108970642E-1  
 4.900000000000000E7    -2.060657292604446E-1  -9.554419517517090E-1  -2.041225135326386E-1   3.273965045809746E-2  -2.040621340274811E-1   3.336181491613388E-2  -1.059307903051376E-1  -9.654262065887451E-1  
 4.930000000000000E7    -2.367166876792908E-1  -9.478158950805664E-1  -2.024880349636078E-1   4.706735536456108E-2  -2.026202231645584E-1   4.711706936359406E-2  -2.052721679210663E-1  -9.497215747833252E-1  
 4.960000000000000E7    -2.663746774196625E-1  -9.377098083496094E-1  -1.988945752382278E-1   6.051124632358551E-2  -1.982554197311401E-1   6.072733551263809E-2  -3.001103997230530E-1  -9.236209392547607E-1  
 4.990000000000000E7    -2.960284948348999E-1  -9.293978810310364E-1  -1.945223808288574E-1   7.280801236629486E-2  -1.939693540334702E-1   7.272985577583313E-2  -3.878715336322784E-1  -8.910252451896668E-1  
 5.020000000000000E7    -3.256886005401611E-1  -9.207773208618164E-1  -1.886143386363983E-1   8.493939787149429E-2  -1.889993399381638E-1   8.485517650842667E-2  -4.715030193328857E-1  -8.498935699462891E-1  
 5.050000000000000E7    -3.560854196548462E-1  -9.092305898666382E-1  -1.820915937423706E-1   9.579816460609436E-2  -1.816151887178421E-1   9.577646851539612E-2  -5.462619066238403E-1  -8.041505217552185E-1  
 5.080000000000000E7    -3.850210905075073E-1  -8.984179496765137E-1  -1.743131130933762E-1   1.056634038686752E-1  -1.747091114521027E-1   1.058023348450661E-1  -6.167861223220825E-1  -7.525031566619873E-1  
 5.110000000000000E7    -4.147679805755615E-1  -8.848025202751160E-1  -1.663965284824371E-1   1.148739010095596E-1  -1.661552488803864E-1   1.144809499382973E-1  -6.770960092544556E-1  -6.978120207786560E-1  
 5.140000000000000E7    -4.433842897415161E-1  -8.709448575973511E-1  -1.578744798898697E-1   1.227529123425484E-1  -1.578949987888336E-1   1.227378323674202E-1  -7.322230339050293E-1  -6.428922414779663E-1  
 5.170000000000000E7    -4.710762202739716E-1  -8.564695715904236E-1  -1.494326144456863E-1   1.296676844358444E-1  -1.492384523153305E-1   1.293261051177979E-1  -7.803370952606201E-1  -5.843295454978943E-1  
 5.200000000000000E7    -4.996464848518372E-1  -8.426736593246460E-1  -1.400326788425446E-1   1.359819918870926E-1  -1.404863595962524E-1   1.360363662242889E-1  -8.232189416885376E-1  -5.224808454513550E-1  
 5.230000000000000E7    -5.268387794494629E-1  -8.251428008079529E-1  -1.306909620761871E-1   1.405859291553497E-1  -1.306483745574951E-1   1.405648440122604E-1  -8.577876091003418E-1  -4.637194871902466E-1  
 5.260000000000000E7    -5.533145666122437E-1  -8.068238496780396E-1  -1.219919025897980E-1   1.449031680822372E-1  -1.217559576034546E-1   1.449281424283981E-1  -8.886060714721680E-1  -4.040661156177521E-1  
 5.290000000000000E7    -5.804589986801148E-1  -7.892664074897766E-1  -1.124874502420425E-1   1.489008814096451E-1  -1.126315593719482E-1   1.483816802501679E-1  -9.138918519020081E-1  -3.459407091140747E-1  
 5.320000000000000E7    -6.061909794807434E-1  -7.714183926582336E-1  -1.037164852023125E-1   1.512605547904968E-1  -1.037699207663536E-1   1.513348519802094E-1  -9.348294138908386E-1  -2.887798249721527E-1  
 5.350000000000000E7    -6.304998397827148E-1  -7.513779401779175E-1  -9.500371664762497E-2   1.529013961553574E-1  -9.500848501920700E-2   1.527916043996811E-1  -9.490382075309753E-1  -2.327842116355896E-1  
 5.380000000000000E7    -6.542550921440125E-1  -7.308434844017029E-1  -8.677636086940765E-2   1.542481482028961E-1  -8.648994565010071E-2   1.542282551527023E-1  -9.624025225639343E-1  -1.766235977411270E-1  
 5.410000000000000E7    -6.808052659034729E-1  -7.091989517211914E-1  -7.831427454948425E-2   1.555979996919632E-1  -7.811686396598816E-2   1.554540693759918E-1  -9.718672633171082E-1  -1.248170435428619E-1  
 5.440000000000000E7    -7.032870054244995E-1  -6.861680746078491E-1  -7.032140344381332E-2   1.557653844356537E-1  -7.024305313825607E-2   1.557621806859970E-1  -9.771666526794434E-1  -7.339981198310852E-2  
 5.470000000000000E7    -7.248708009719849E-1  -6.638886332511902E-1  -6.260138750076294E-2   1.559958010911942E-1  -6.255339086055756E-2   1.558668315410614E-1  -9.804224371910095E-1  -2.417041361331940E-2  
 5.500000000000000E7    -7.474941015243530E-1  -6.398359537124634E-1  -5.551234632730484E-2   1.554563492536545E-1  -5.526136606931686E-2   1.550695151090622E-1  -9.811680316925049E-1   2.354173362255096E-2  
 5.530000000000000E7    -7.684419751167297E-1  -6.152142286300659E-1  -4.834710061550140E-2   1.544114798307419E-1  -4.785925894975662E-2   1.545783430337906E-1  -9.789817929267883E-1   6.948301196098328E-2  
 5.560000000000000E7    -7.891493439674377E-1  -5.888515710830689E-1  -4.129380732774735E-2   1.536095142364502E-1  -4.132423549890518E-2   1.531443297863007E-1  -9.753319025039673E-1   1.133448928594589E-1  
 5.590000000000000E7    -8.085489273071289E-1  -5.639062523841858E-1  -3.471013903617859E-2   1.521758437156677E-1  -3.450998663902283E-2   1.519524455070496E-1  -9.708726406097412E-1   1.557583808898926E-1  
 5.620000000000000E7    -8.270044326782227E-1  -5.355064868927002E-1  -2.871792390942574E-2   1.502374708652496E-1  -2.853572927415371E-2   1.498436778783798E-1  -9.636377096176148E-1   1.963521540164948E-1  
 5.650000000000000E7    -8.439608216285706E-1  -5.097714662551880E-1  -2.247097529470921E-2   1.482498943805695E-1  -2.269564382731915E-2   1.480287909507752E-1  -9.550499320030212E-1   2.347753942012787E-1  
 5.680000000000000E7    -8.609151244163513E-1  -4.818486869335175E-1  -1.696670055389404E-2   1.463412642478943E-1  -1.656372100114822E-2   1.460649073123932E-1  -9.459964036941528E-1   2.728384733200073E-1  
 5.710000000000000E7    -8.770408630371094E-1  -4.516386687755585E-1  -1.130159012973309E-2   1.438914984464645E-1  -1.135251671075821E-2   1.438907533884049E-1  -9.352899789810181E-1   3.066419959068298E-1  
 5.740000000000000E7    -8.924350738525391E-1  -4.229319989681244E-1  -6.347417831420898E-3   1.415983438491821E-1  -6.308058276772499E-3   1.414173543453217E-1  -9.248969554901123E-1   3.415453135967255E-1  
 5.770000000000000E7    -9.049990773200989E-1  -3.945436477661133E-1  -1.786801498383284E-3   1.387840807437897E-1  -1.761863240972161E-3   1.384320855140686E-1  -9.110772609710693E-1   3.723644018173218E-1  
 5.800000000000000E7    -9.183728098869324E-1  -3.633222579956055E-1   2.992846770212054E-3   1.364238262176514E-1   3.391294274479151E-3   1.357265859842300E-1  -9.000358581542969E-1   4.042868316173554E-1  
 5.830000000000000E7    -9.298727512359619E-1  -3.328207731246948E-1   7.479859516024590E-3   1.332041621208191E-1   7.501860614866018E-3   1.331433057785034E-1  -8.860033750534058E-1   4.334121346473694E-1  
 5.860000000000000E7    -9.420405030250549E-1  -3.022851049900055E-1   1.160244084894657E-2   1.302859634160996E-1   1.164191402494907E-2   1.304569542407990E-1  -8.721279501914978E-1   4.621643722057343E-1  
 5.890000000000000E7    -9.507964253425598E-1  -2.710085511207581E-1   1.522972434759140E-2   1.273444443941116E-1   1.514266990125179E-2   1.273562163114548E-1  -8.570635914802551E-1   4.890902936458588E-1  
 5.920000000000000E7    -9.596714377403259E-1  -2.384704649448395E-1   1.919507607817650E-2   1.244562193751335E-1   1.926493085920811E-2   1.240212097764015E-1  -8.429760336875916E-1   5.153175592422485E-1  
 5.950000000000000E7    -9.671964645385742E-1  -2.066536843776703E-1   2.257009036839008E-2   1.211933493614197E-1   2.248856052756310E-2   1.208896562457085E-1  -8.263812661170960E-1   5.397508144378662E-1  
 5.980000000000000E7    -9.739308953285217E-1  -1.740129888057709E-1   2.602053433656693E-2   1.182482838630676E-1   2.576358802616596E-2   1.177752912044525E-1  -8.112846016883850E-1   5.644470453262329E-1  
 6.010000000000000E7    -9.783349037170410E-1  -1.426665782928467E-1   2.857425808906555E-2   1.148948967456818E-1   2.839037775993347E-2   1.145699173212051E-1  -7.960585355758667E-1   5.862004756927490E-1  
 6.040000000000000E7    -9.831557869911194E-1  -1.088637709617615E-1   3.144685551524162E-2   1.114540696144104E-1   3.154417127370834E-2   1.114727929234505E-1  -7.804120182991028E-1   6.084848642349243E-1  
 6.070000000000000E7    -9.877313375473023E-1  -7.756060361862183E-2   3.392150998115540E-2   1.084462180733681E-1   3.380368649959564E-2   1.083189398050308E-1  -7.639437913894653E-1   6.280643343925476E-1  
 6.100000000000000E7    -9.894715547561646E-1  -4.464815557003021E-2   3.675504773855209E-2   1.053852811455727E-1   3.652408719062805E-2   1.050267890095711E-1  -7.476335763931274E-1   6.494632959365845E-1  
 6.130000000000000E7    -9.910517930984497E-1  -1.050756871700287E-2   3.891211748123169E-2   1.019721329212189E-1   3.884273022413254E-2   1.018783152103424E-1  -7.312184572219849E-1   6.684315204620361E-1  
 6.160000000000000E7    -9.906184077262878E-1   2.197951078414917E-2   4.092130064964294E-2   9.844593703746796E-2   4.096326604485512E-2   9.843949228525162E-2  -7.139632701873779E-1   6.860022544860840E-1  
 6.190000000000000E7    -9.893017411231995E-1   5.472785234451294E-2   4.256986826658249E-2   9.516669809818268E-2   4.271367937326431E-2   9.483594447374344E-2  -6.961983442306519E-1   7.032265067100525E-1  
 6.220000000000000E7    -9.877333045005798E-1   8.773083239793778E-2   4.435454681515694E-2   9.186620265245438E-2   4.444748535752296E-2   9.198583662509918E-2  -6.810425519943237E-1   7.194295525550842E-1  
 6.250000000000000E7    -9.845697879791260E-1   1.208864971995354E-1   4.598507285118103E-2   8.875019103288651E-2   4.592439532279968E-2   8.871707320213318E-2  -6.649487614631653E-1   7.352532148361206E-1  
 6.280000000000000E7    -9.793875217437744E-1   1.537901759147644E-1   4.734952747821808E-2   8.553298562765122E-2   4.709808528423309E-2   8.558395504951477E-2  -6.475262045860291E-1   7.502234578132629E-1  
 6.310000000000000E7    -9.735481142997742E-1   1.873807311058044E-1   4.869023710489273E-2   8.246675133705139E-2   4.857496917247772E-2   8.226956427097321E-2  -6.304916739463806E-1   7.656670212745667E-1  
 6.340000000000000E7    -9.672113656997681E-1   2.193933278322220E-1   4.973468184471130E-2   7.917226850986481E-2   4.975289106369019E-2   7.904715836048126E-2  -6.139481067657471E-1   7.798560261726379E-1  
 6.370000000000000E7    -9.596786499023438E-1   2.518312036991119E-1   5.082447081804276E-2   7.607351243495941E-2   5.078555271029472E-2   7.581306993961334E-2  -5.959464311599731E-1   7.922762036323547E-1  
 6.400000000000000E7    -9.499418735504150E-1   2.836483418941498E-1   5.181383714079857E-2   7.300607860088348E-2   5.161252245306969E-2   7.267399877309799E-2  -5.798397660255432E-1   8.056994676589966E-1  
 6.430000000000000E7    -9.399016499519348E-1   3.165491223335266E-1   5.228547006845474E-2   6.987643241882324E-2   5.232257023453713E-2   6.942655146121979E-2  -5.622069239616394E-1   8.181312084197998E-1  
 6.460000000000000E7    -9.295927882194519E-1   3.479888737201691E-1   5.292823910713196E-2   6.654239445924759E-2   5.276520550251007E-2   6.653232127428055E-2  -5.451382398605347E-1   8.283227086067200E-1  
 6.490000000000000E7    -9.190567731857300E-1   3.789953589439392E-1   5.344115197658539E-2   6.357110291719437E-2   5.329981446266174E-2   6.373013556003571E-2  -5.293692350387573E-1   8.396015167236328E-1  
 6.520000000000000E7    -9.046930074691773E-1   4.091432690620422E-1   5.365434288978577E-2   6.083323806524277E-2   5.354952812194824E-2   6.055271625518799E-2  -5.125176310539246E-1   8.509168624877930E-1  
 6.550000000000000E7    -8.912562727928162E-1   4.390738606452942E-1   5.397032573819161E-2   5.787217244505882E-2   5.388399213552475E-2   5.769866704940796E-2  -4.951167106628418E-1   8.603391647338867E-1  
 6.580000000000000E7    -8.753560185432434E-1   4.694035649299622E-1   5.419447645545006E-2   5.484615638852119E-2   5.397770553827286E-2   5.484999716281891E-2  -4.788048863410950E-1   8.708832859992981E-1  
 6.610000000000000E7    -8.583693504333496E-1   4.985369443893433E-1   5.411200970411301E-2   5.215314403176308E-2   5.395324528217316E-2   5.164162069559097E-2  -4.606064558029175E-1   8.804742097854614E-1  
 6.640000000000000E7    -8.427330255508423E-1   5.276179313659668E-1   5.387310311198235E-2   4.919805005192757E-2   5.390929430723190E-2   4.936567693948746E-2  -4.440700113773346E-1   8.892866373062134E-1  
 6.670000000000000E7    -8.238313198089600E-1   5.554231405258179E-1   5.371038615703583E-2   4.645335301756859E-2   5.355779826641083E-2   4.652231559157372E-2  -4.287289381027222E-1   8.969888687133789E-1  
 6.700000000000000E7    -8.045223355293274E-1   5.830758810043335E-1   5.329956859350205E-2   4.381543397903442E-2   5.302194505929947E-2   4.361287876963615E-2  -4.111813902854919E-1   9.042618870735169E-1  
 6.730000000000000E7    -7.843851447105408E-1   6.100723147392273E-1   5.270940437912941E-2   4.109444469213486E-2   5.266117304563522E-2   4.097096994519234E-2  -3.950784206390381E-1   9.125166535377502E-1  
 6.760000000000000E7    -7.639205455780029E-1   6.364545822143555E-1   5.246265977621079E-2   3.864440694451332E-2   5.219809710979462E-2   3.853821009397507E-2  -3.775594234466553E-1   9.196105003356934E-1  
 6.790000000000000E7    -7.411892414093018E-1   6.622223854064941E-1   5.155948549509049E-2   3.605940565466881E-2   5.160967260599136E-2   3.596629202365875E-2  -3.615181446075440E-1   9.257693290710449E-1  
 6.820000000000000E7    -7.187066078186035E-1   6.862982511520386E-1   5.092228949069977E-2   3.349150344729424E-2   5.078103765845299E-2   3.363113477826119E-2  -3.455329537391663E-1   9.322875738143921E-1  
 6.850000000000000E7    -6.951766610145569E-1   7.116586565971375E-1   5.003136768937111E-2   3.138254955410957E-2   4.992042109370232E-2   3.123473934829235E-2  -3.294207751750946E-1   9.382622838020325E-1  
 6.880000000000000E7    -6.703162193298340E-1   7.341962456703186E-1   4.907113313674927E-2   2.894407138228416E-2   4.892409220337868E-2   2.881527692079544E-2  -3.126671910285950E-1   9.438554644584656E-1  
 6.910000000000000E7    -6.450151205062866E-1   7.572127580642700E-1   4.821373894810677E-2   2.677305787801743E-2   4.807484894990921E-2   2.664011344313622E-2  -2.960755825042725E-1   9.499360322952271E-1  
 6.940000000000000E7    -6.192677617073059E-1   7.787466049194336E-1   4.700321331620216E-2   2.466299757361412E-2   4.702107235789299E-2   2.453254535794258E-2  -2.807422280311585E-1   9.544257521629334E-1  
 6.970000000000000E7    -5.912404060363770E-1   7.995094656944275E-1   4.581972211599350E-2   2.256913483142853E-2   4.582934826612473E-2   2.236182987689972E-2  -2.640208601951599E-1   9.593009352684021E-1  
 7.000000000000000E7    -5.639504790306091E-1   8.203637599945068E-1   4.464859515428543E-2   2.053407579660416E-2   4.458053410053253E-2   2.044110931456089E-2  -2.481395155191422E-1   9.638586044311523E-1  
