#  HZ   S   RI   R     50.00 
! Rohde & Schwarz ZVT8 8Ports - Version 4.11 - 1300.0000k08 SN: 100242
! Date: 2026-07-31 14:58:00
! Measurements: S11 S21 S12 S22 
! 
 1.000000000000000E7    -4.075613915920258E-1   9.093133211135864E-1   4.979099333286285E-2   5.086020752787590E-2   4.984897375106812E-2   5.086578801274300E-2  -9.200050234794617E-1   3.822010159492493E-1  
 1.030000000000000E7    -3.757850527763367E-1   9.220584630966187E-1   5.291476100683212E-2   5.112928152084351E-2   5.276001989841461E-2   5.125041678547859E-2  -9.147087335586548E-1   3.948450982570648E-1  
 1.060000000000000E7    -3.397914469242096E-1   9.349930882453919E-1   5.607686564326286E-2   5.194503068923950E-2   5.602591112256050E-2   5.186033993959427E-2  -9.109399318695068E-1   4.060251712799072E-1  
 1.090000000000000E7    -3.089955449104309E-1   9.453566670417786E-1   5.892214179039002E-2   5.210378766059876E-2   5.904068425297737E-2   5.221984535455704E-2  -9.052276015281677E-1   4.177287817001343E-1  
 1.120000000000000E7    -2.741248905658722E-1   9.548811316490173E-1   6.252817809581757E-2   5.279819667339325E-2   6.194896996021271E-2   5.256835371255875E-2  -9.000316262245178E-1   4.289197921752930E-1  
 1.150000000000000E7    -2.389822155237198E-1   9.654173851013184E-1   6.558880209922791E-2   5.258734896779060E-2   6.535200029611588E-2   5.242226272821426E-2  -8.927486538887024E-1   4.379002749919891E-1  
 1.180000000000000E7    -2.043223977088928E-1   9.709827303886414E-1   6.891859322786331E-2   5.287265032529831E-2   6.873507797718048E-2   5.269772559404373E-2  -8.888624310493469E-1   4.486363828182221E-1  
 1.210000000000000E7    -1.709977537393570E-1   9.777678847312927E-1   7.251939922571182E-2   5.291993916034699E-2   7.221686094999313E-2   5.267343297600746E-2  -8.814712762832642E-1   4.605872631072998E-1  
 1.240000000000000E7    -1.357968896627426E-1   9.825843572616577E-1   7.595551759004593E-2   5.286362022161484E-2   7.603031396865845E-2   5.229044705629349E-2  -8.752527832984924E-1   4.701594412326813E-1  
 1.270000000000000E7    -1.009277552366257E-1   9.863489270210266E-1   7.979726046323776E-2   5.209487304091454E-2   7.934366166591644E-2   5.186441540718079E-2  -8.687226772308350E-1   4.839314818382263E-1  
 1.300000000000000E7    -6.592003256082535E-2   9.895825386047363E-1   8.317597955465317E-2   5.195215344429016E-2   8.317876607179642E-2   5.179613828659058E-2  -8.615584969520569E-1   4.939198493957520E-1  
 1.330000000000000E7    -3.027793020009995E-2   9.914773702621460E-1   8.721966296434403E-2   5.138978734612465E-2   8.709312975406647E-2   5.099805817008019E-2  -8.553123474121094E-1   5.056056976318359E-1  
 1.360000000000000E7     6.181742995977402E-3   9.917804598808289E-1   9.111337363719940E-2   5.094380676746368E-2   9.128490090370178E-2   5.027088150382042E-2  -8.481840491294861E-1   5.148397088050842E-1  
 1.390000000000000E7     4.059125110507011E-2   9.900358319282532E-1   9.516346454620361E-2   4.963879287242889E-2   9.488183259963989E-2   4.984549805521965E-2  -8.412010669708252E-1   5.261406898498535E-1  
 1.420000000000000E7     7.663365453481674E-2   9.883294105529785E-1   9.895015507936478E-2   4.904985427856445E-2   9.893625229597092E-2   4.885017871856690E-2  -8.353161215782166E-1   5.361160635948181E-1  
 1.450000000000000E7     1.117257550358772E-1   9.831472635269165E-1   1.032199338078499E-1   4.766176268458366E-2   1.030105054378510E-1   4.746427014470100E-2  -8.253532648086548E-1   5.479404926300049E-1  
 1.480000000000000E7     1.482426971197128E-1   9.784272909164429E-1   1.073490381240845E-1   4.629083722829819E-2   1.071870774030685E-1   4.667728021740913E-2  -8.192902207374573E-1   5.581921339035034E-1  
 1.510000000000000E7     1.832705289125443E-1   9.714472293853760E-1   1.115049645304680E-1   4.472085461020470E-2   1.113002002239227E-1   4.499423503875732E-2  -8.084143400192261E-1   5.689448714256287E-1  
 1.540000000000000E7     2.174191027879715E-1   9.643977880477905E-1   1.154202744364739E-1   4.385493695735931E-2   1.155068501830101E-1   4.346333816647530E-2  -8.036643266677856E-1   5.784114003181458E-1  
 1.570000000000000E7     2.534056603908539E-1   9.564117789268494E-1   1.200426295399666E-1   4.168043285608292E-2   1.199565604329109E-1   4.167776554822922E-2  -7.941550612449646E-1   5.901070833206177E-1  
 1.600000000000000E7     2.886777818202972E-1   9.449845552444458E-1   1.241343244910240E-1   3.968055546283722E-2   1.244487985968590E-1   3.957999497652054E-2  -7.866142988204956E-1   5.985784530639648E-1  
 1.630000000000000E7     3.222850561141968E-1   9.331928491592407E-1   1.292375922203064E-1   3.736918792128563E-2   1.287102401256561E-1   3.759650141000748E-2  -7.771377563476563E-1   6.102492213249207E-1  
 1.660000000000000E7     3.568916916847229E-1   9.189654588699341E-1   1.338571906089783E-1   3.496515378355980E-2   1.333617120981216E-1   3.452702611684799E-2  -7.673406600952148E-1   6.214537024497986E-1  
 1.690000000000000E7     3.904641866683960E-1   9.050169587135315E-1   1.384081840515137E-1   3.274061530828476E-2   1.380549967288971E-1   3.248799964785576E-2  -7.586069107055664E-1   6.306313276290894E-1  
 1.720000000000000E7     4.260853528976440E-1   8.894963264465332E-1   1.425139307975769E-1   2.932368218898773E-2   1.424323171377182E-1   2.975148335099220E-2  -7.492150664329529E-1   6.399214863777161E-1  
 1.750000000000000E7     4.539879858493805E-1   8.748872876167297E-1   1.478043794631958E-1   2.771614119410515E-2   1.476174741983414E-1   2.728169970214367E-2  -7.408552765846252E-1   6.516771912574768E-1  
 1.780000000000000E7     4.895494282245636E-1   8.529834151268005E-1   1.516825556755066E-1   2.363581955432892E-2   1.518875062465668E-1   2.397147193551064E-2  -7.299870252609253E-1   6.594151258468628E-1  
 1.810000000000000E7     5.196519494056702E-1   8.351559042930603E-1   1.574053615331650E-1   2.065840922296047E-2   1.565272063016892E-1   2.007499337196350E-2  -7.197644710540772E-1   6.725532412528992E-1  
 1.840000000000000E7     5.523776412010193E-1   8.143205642700195E-1   1.623992770910263E-1   1.606737449765205E-2   1.616740524768829E-1   1.624063402414322E-2  -7.094138860702515E-1   6.817542910575867E-1  
 1.870000000000000E7     5.807644128799439E-1   7.926974296569824E-1   1.670074015855789E-1   1.294688601046801E-2   1.661945432424545E-1   1.214766502380371E-2  -6.980718374252319E-1   6.911874413490295E-1  
 1.900000000000000E7     6.102321743965149E-1   7.698475122451782E-1   1.716957390308380E-1   8.815955370664597E-3   1.713447719812393E-1   8.298149332404137E-3  -6.870807409286499E-1   7.005800008773804E-1  
 1.930000000000000E7     6.393092274665833E-1   7.442601919174194E-1   1.762322336435318E-1   3.295550122857094E-3   1.764789223670960E-1   4.067551344633102E-3  -6.760145425796509E-1   7.121881246566773E-1  
 1.960000000000000E7     6.679688692092896E-1   7.180271744728088E-1   1.811850070953369E-1  -1.138029620051384E-3   1.810186505317688E-1  -6.861407309770584E-4  -6.662318706512451E-1   7.202314138412476E-1  
 1.990000000000000E7     6.925122737884522E-1   6.909990906715393E-1   1.859209835529327E-1  -6.288789212703705E-3   1.862417608499527E-1  -6.148336455225945E-3  -6.523774266242981E-1   7.315940260887146E-1  
 2.020000000000000E7     7.188022136688232E-1   6.628294587135315E-1   1.912286728620529E-1  -1.130920276045799E-2   1.904210746288300E-1  -1.124297920614481E-2  -6.410628557205200E-1   7.381946444511414E-1  
 2.050000000000000E7     7.451713681221008E-1   6.333552598953247E-1   1.959196478128433E-1  -1.677116565406323E-2   1.945690363645554E-1  -1.720868237316608E-2  -6.287081837654114E-1   7.479493021965027E-1  
 2.080000000000000E7     7.679829001426697E-1   6.013786792755127E-1   2.009709179401398E-1  -2.289991825819016E-2   2.006545960903168E-1  -2.283224649727345E-2  -6.167108416557312E-1   7.586298584938049E-1  
 2.110000000000000E7     7.913063168525696E-1   5.698678493499756E-1   2.058962732553482E-1  -2.983680739998817E-2   2.057279199361801E-1  -2.978105284273624E-2  -6.030660867691040E-1   7.675492167472839E-1  
 2.140000000000000E7     8.123581409454346E-1   5.376779437065125E-1   2.108880579471588E-1  -3.692162781953812E-2   2.097510248422623E-1  -3.610227629542351E-2  -5.898569822311401E-1   7.754735350608826E-1  
 2.170000000000000E7     8.308734893798828E-1   5.053074955940247E-1   2.154673188924789E-1  -4.346144944429398E-2   2.148479968309403E-1  -4.279129579663277E-2  -5.762990713119507E-1   7.843218445777893E-1  
 2.200000000000000E7     8.511987924575806E-1   4.685817956924439E-1   2.196937650442123E-1  -5.119757354259491E-2   2.196912318468094E-1  -5.092818662524223E-2  -5.610759258270264E-1   7.926931977272034E-1  
 2.230000000000000E7     8.674007654190064E-1   4.329090416431427E-1   2.243248820304871E-1  -5.916674062609673E-2   2.238919883966446E-1  -5.863055214285851E-2  -5.469613075256348E-1   8.008410930633545E-1  
 2.260000000000000E7     8.836423754692078E-1   3.960571587085724E-1   2.285214960575104E-1  -6.744639575481415E-2   2.297341972589493E-1  -6.702565401792526E-2  -5.325716733932495E-1   8.085247278213501E-1  
 2.290000000000000E7     8.980348110198975E-1   3.582569360733032E-1   2.328612804412842E-1  -7.614159584045410E-2   2.333012968301773E-1  -7.549675554037094E-2  -5.161957144737244E-1   8.159062862396240E-1  
 2.320000000000000E7     9.095460772514343E-1   3.200665414333344E-1   2.375680506229401E-1  -8.584340661764145E-2   2.370081394910812E-1  -8.592854440212250E-2  -5.013296008110046E-1   8.249998092651367E-1  
 2.350000000000000E7     9.205683469772339E-1   2.794798612594605E-1   2.418495714664459E-1  -9.616641700267792E-2   2.410626560449600E-1  -9.544423967599869E-2  -4.855039119720459E-1   8.320944905281067E-1  
 2.380000000000000E7     9.294987916946411E-1   2.397827208042145E-1   2.451725155115128E-1  -1.055745482444763E-1   2.452686578035355E-1  -1.052620112895966E-1  -4.695655703544617E-1   8.389294147491455E-1  
 2.410000000000000E7     9.377524852752686E-1   1.979469656944275E-1   2.487224340438843E-1  -1.171163469552994E-1   2.482193559408188E-1  -1.166228353977203E-1  -4.521090388298035E-1   8.457454442977905E-1  
 2.440000000000000E7     9.424057602882385E-1   1.569668352603912E-1   2.525491118431091E-1  -1.287607848644257E-1   2.524890899658203E-1  -1.287143826484680E-1  -4.359189271926880E-1   8.518843650817871E-1  
 2.470000000000000E7     9.457833170890808E-1   1.148622706532478E-1   2.556412816047669E-1  -1.410998851060867E-1   2.550632059574127E-1  -1.392437368631363E-1  -4.172397255897522E-1   8.566099405288696E-1  
 2.500000000000000E7     9.482818245887756E-1   7.168747484683991E-2   2.578617334365845E-1  -1.531960666179657E-1   2.578382194042206E-1  -1.535088419914246E-1  -3.987006843090057E-1   8.636717796325684E-1  
 2.530000000000000E7     9.480544924736023E-1   2.917806431651115E-2   2.610750794410706E-1  -1.658297181129456E-1   2.608569562435150E-1  -1.655295938253403E-1  -3.806142210960388E-1   8.679117560386658E-1  
 2.560000000000000E7     9.449629187583923E-1  -1.356941834092140E-2   2.628123462200165E-1  -1.792476475238800E-1   2.634543776512146E-1  -1.791709065437317E-1  -3.620304167270660E-1   8.726262450218201E-1  
 2.590000000000000E7     9.394045472145081E-1  -5.688592046499252E-2   2.642969191074371E-1  -1.946801692247391E-1   2.645969688892365E-1  -1.946329176425934E-1  -3.424991965293884E-1   8.789107203483582E-1  
 2.620000000000000E7     9.319328665733337E-1  -1.016564667224884E-1   2.653813958168030E-1  -2.105690538883209E-1   2.650399804115295E-1  -2.095959484577179E-1  -3.206397891044617E-1   8.824853301048279E-1  
 2.650000000000000E7     9.226124882698059E-1  -1.446609348058701E-1   2.664059996604919E-1  -2.249912470579147E-1   2.663213908672333E-1  -2.255212664604187E-1  -3.015181124210358E-1   8.850315809249878E-1  
 2.680000000000000E7     9.094012975692749E-1  -1.880463063716888E-1   2.668658792972565E-1  -2.416068762540817E-1   2.665171325206757E-1  -2.421330660581589E-1  -2.810242772102356E-1   8.873113989830017E-1  
 2.710000000000000E7     8.946558833122253E-1  -2.324741929769516E-1   2.649092972278595E-1  -2.601067721843720E-1   2.641970217227936E-1  -2.593437731266022E-1  -2.595734298229218E-1   8.905903100967407E-1  
 2.740000000000000E7     8.772054314613342E-1  -2.756181657314301E-1   2.647010982036591E-1  -2.770349383354187E-1   2.637869119644165E-1  -2.780644893646240E-1  -2.371374219655991E-1   8.895496726036072E-1  
 2.770000000000000E7     8.578328490257263E-1  -3.168010711669922E-1   2.617241442203522E-1  -2.962893843650818E-1   2.613828182220459E-1  -2.971929907798767E-1  -2.147298157215118E-1   8.908855915069580E-1  
 2.800000000000000E7     8.362654447555542E-1  -3.582383692264557E-1   2.585357129573822E-1  -3.151963055133820E-1   2.594100534915924E-1  -3.152890503406525E-1  -1.914444714784622E-1   8.891605734825134E-1  
 2.830000000000000E7     8.096067309379578E-1  -3.998524844646454E-1   2.537331879138947E-1  -3.348542451858521E-1   2.530753910541534E-1  -3.357973098754883E-1  -1.704782098531723E-1   8.886074423789978E-1  
 2.860000000000000E7     7.811229228973389E-1  -4.395563602447510E-1   2.483026832342148E-1  -3.563678860664368E-1   2.470487505197525E-1  -3.573839068412781E-1  -1.437203735113144E-1   8.863562941551209E-1  
 2.890000000000000E7     7.498928904533386E-1  -4.768384397029877E-1   2.404791414737701E-1  -3.789797127246857E-1   2.403626590967178E-1  -3.783295750617981E-1  -1.208054572343826E-1   8.827183842658997E-1  
 2.920000000000000E7     7.162665724754334E-1  -5.146277546882629E-1   2.335532754659653E-1  -4.000484049320221E-1   2.315864115953445E-1  -4.001505970954895E-1  -9.733758121728897E-2   8.775249719619751E-1  
 2.950000000000000E7     6.800171732902527E-1  -5.487498641014099E-1   2.230766117572784E-1  -4.250858128070831E-1   2.222482711076737E-1  -4.237560331821442E-1  -7.109011709690094E-2   8.723537921905518E-1  
 2.980000000000000E7     6.399126052856445E-1  -5.814633965492249E-1   2.114963233470917E-1  -4.471294879913330E-1   2.112879455089569E-1  -4.484049081802368E-1  -4.673431813716888E-2   8.649459481239319E-1  
 3.010000000000000E7     5.980104207992554E-1  -6.123383641242981E-1   1.971444189548492E-1  -4.723434150218964E-1   1.982352733612061E-1  -4.718518257141113E-1  -2.175686135888100E-2   8.560504317283630E-1  
 3.040000000000000E7     5.511940121650696E-1  -6.402103900909424E-1   1.824792176485062E-1  -4.970570504665375E-1   1.812997907400131E-1  -4.976475536823273E-1   3.600597381591797E-3   8.437654972076416E-1  
 3.070000000000000E7     5.034051537513733E-1  -6.635670661926270E-1   1.632507145404816E-1  -5.209544897079468E-1   1.628483384847641E-1  -5.201365947723389E-1   2.894526720046997E-2   8.331794738769531E-1  
 3.100000000000000E7     4.523679614067078E-1  -6.838390231132507E-1   1.425228565931320E-1  -5.469183325767517E-1   1.422335356473923E-1  -5.449311733245850E-1   5.466171726584435E-2   8.197596669197083E-1  
 3.130000000000000E7     4.004733860492706E-1  -7.019193172454834E-1   1.188211590051651E-1  -5.712448954582214E-1   1.198826432228088E-1  -5.705442428588867E-1   7.823733985424042E-2   8.027941584587097E-1  
 3.160000000000000E7     3.444301784038544E-1  -7.128134369850159E-1   9.346710145473480E-2  -5.962480306625366E-1   9.329351782798767E-2  -5.959577560424805E-1   1.023288518190384E-1   7.872495651245117E-1  
 3.190000000000000E7     2.874293327331543E-1  -7.202003002166748E-1   6.433473527431488E-2  -6.197752356529236E-1   6.462164223194122E-2  -6.181147098541260E-1   1.266965419054031E-1   7.673540115356445E-1  
 3.220000000000000E7     2.284386008977890E-1  -7.249991893768311E-1   3.347661718726158E-2  -6.428195834159851E-1   3.285302966833115E-2  -6.412276029586792E-1   1.476468890905380E-1   7.461225986480713E-1  
 3.250000000000000E7     1.700668334960938E-1  -7.209805250167847E-1  -1.737719401717186E-3  -6.651400327682495E-1  -2.817323431372643E-3  -6.642418503761292E-1   1.691998690366745E-1   7.245287895202637E-1  
 3.280000000000000E7     1.102903261780739E-1  -7.110826969146729E-1  -4.054747521877289E-2  -6.858441829681397E-1  -3.979172557592392E-2  -6.828029155731201E-1   1.895326524972916E-1   6.982767581939697E-1  
 3.310000000000000E7     5.110171809792519E-2  -6.986448764801025E-1  -8.157757669687271E-2  -7.020620107650757E-1  -8.299295604228973E-2  -7.013218998908997E-1   2.071663141250610E-1   6.706846952438355E-1  
 3.340000000000000E7    -6.336897611618042E-3  -6.781151294708252E-1  -1.287603229284287E-1  -7.174469828605652E-1  -1.269095391035080E-1  -7.156171202659607E-1   2.228110432624817E-1   6.418712139129639E-1  
 3.370000000000000E7    -6.315679848194122E-2  -6.508931517601013E-1  -1.755842417478561E-1  -7.289931774139404E-1  -1.755407750606537E-1  -7.293032407760620E-1   2.364512085914612E-1   6.108684539794922E-1  
 3.400000000000000E7    -1.167616397142410E-1  -6.175711750984192E-1  -2.275991439819336E-1  -7.367727756500244E-1  -2.276365906000137E-1  -7.369498610496521E-1   2.460296750068665E-1   5.788667798042297E-1  
 3.430000000000000E7    -1.662077754735947E-1  -5.785754919052124E-1  -2.821778953075409E-1  -7.398049235343933E-1  -2.808370888233185E-1  -7.401900887489319E-1   2.554134726524353E-1   5.463402867317200E-1  
 3.460000000000000E7    -2.121846973896027E-1  -5.325190424919128E-1  -3.377434611320496E-1  -7.395221590995789E-1  -3.384561538696289E-1  -7.382805347442627E-1   2.589037418365479E-1   5.133829712867737E-1  
 3.490000000000000E7    -2.503026425838471E-1  -4.833383560180664E-1  -3.971191048622131E-1  -7.311357855796814E-1  -3.944679796695709E-1  -7.326219081878662E-1   2.612862288951874E-1   4.791048467159271E-1  
 3.520000000000000E7    -2.846729755401611E-1  -4.264922142028809E-1  -4.553020298480988E-1  -7.201356887817383E-1  -4.539863467216492E-1  -7.209972143173218E-1   2.591721415519714E-1   4.444739818572998E-1  
 3.550000000000000E7    -3.102558553218842E-1  -3.644923269748688E-1  -5.148004889488220E-1  -7.030585408210754E-1  -5.149758458137512E-1  -7.021092176437378E-1   2.509911656379700E-1   4.125730097293854E-1  
 3.580000000000000E7    -3.293842971324921E-1  -3.026858866214752E-1  -5.736450552940369E-1  -6.775352358818054E-1  -5.723493695259094E-1  -6.775053143501282E-1   2.417308092117310E-1   3.793587684631348E-1  
 3.610000000000000E7    -3.364860117435455E-1  -2.395659834146500E-1  -6.327986717224121E-1  -6.467182040214539E-1  -6.307427883148193E-1  -6.461229324340820E-1   2.294153422117233E-1   3.493115007877350E-1  
 3.640000000000000E7    -3.383920788764954E-1  -1.732715070247650E-1  -6.872420310974121E-1  -6.091215014457703E-1  -6.871684789657593E-1  -6.091369986534119E-1   2.099150568246841E-1   3.213662207126617E-1  
 3.670000000000000E7    -3.300923407077789E-1  -1.094219312071800E-1  -7.407879829406738E-1  -5.673188567161560E-1  -7.376739978790283E-1  -5.655000805854797E-1   1.928321570158005E-1   2.975503206253052E-1  
 3.700000000000000E7    -3.149291574954987E-1  -4.836222156882286E-2  -7.881386876106262E-1  -5.160580873489380E-1  -7.874180674552918E-1  -5.163435935974121E-1   1.696764826774597E-1   2.750002145767212E-1  
 3.730000000000000E7    -2.924117445945740E-1   1.069189328700304E-2  -8.304421901702881E-1  -4.618912339210510E-1  -8.292869329452515E-1  -4.617489278316498E-1   1.452556550502777E-1   2.586873769760132E-1  
 3.760000000000000E7    -2.612878084182739E-1   6.086586415767670E-2  -8.681417107582092E-1  -4.027238190174103E-1  -8.684534430503845E-1  -4.027729630470276E-1   1.204905882477760E-1   2.448214292526245E-1  
 3.790000000000000E7    -2.213137298822403E-1   1.081423982977867E-1  -9.017369151115418E-1  -3.408610522747040E-1  -8.993000984191895E-1  -3.417597115039825E-1   9.663324058055878E-2   2.333006858825684E-1  
 3.820000000000000E7    -1.788482517004013E-1   1.470871269702911E-1  -9.264587759971619E-1  -2.764757871627808E-1  -9.254935383796692E-1  -2.752774953842163E-1   6.868577003479004E-2   2.297054082155228E-1  
 3.850000000000000E7    -1.313694268465042E-1   1.826895922422409E-1  -9.466192126274109E-1  -2.114017605781555E-1  -9.459022283554077E-1  -2.086495161056519E-1   4.415284842252731E-2   2.258760333061218E-1  
 3.880000000000000E7    -8.499985188245773E-2   2.074864357709885E-1  -9.589816331863403E-1  -1.407808363437653E-1  -9.582194685935974E-1  -1.424322426319122E-1   1.985137537121773E-2   2.262432426214218E-1  
 3.910000000000000E7    -3.150821849703789E-2   2.278967946767807E-1  -9.651156663894653E-1  -7.388751953840256E-2  -9.653201103210449E-1  -7.471247017383575E-2  -7.953783497214317E-4   2.333426028490067E-1  
 3.940000000000000E7     2.070345543324947E-2   2.369876056909561E-1  -9.650139212608337E-1  -6.807945668697357E-3  -9.653155803680420E-1  -7.168348878622055E-3  -2.275151759386063E-2   2.413114756345749E-1  
 3.970000000000000E7     7.260838150978088E-2   2.423300743103027E-1  -9.598698616027832E-1   5.830311402678490E-2  -9.589621424674988E-1   5.858573317527771E-2  -3.927449136972427E-2   2.553066909313202E-1  
 4.000000000000000E7     1.216964945197105E-1   2.408470213413239E-1  -9.494757652282715E-1   1.220299527049065E-1  -9.484165310859680E-1   1.227308660745621E-1  -5.402150005102158E-2   2.679716348648071E-1  
 4.030000000000000E7     1.669116467237473E-1   2.310743182897568E-1  -9.352798461914063E-1   1.850485801696777E-1  -9.342294931411743E-1   1.833317875862122E-1  -6.532812863588333E-2   2.816201150417328E-1  
 4.060000000000000E7     2.141644060611725E-1   2.186117470264435E-1  -9.150980114936829E-1   2.430959939956665E-1  -9.137773513793945E-1   2.439150363206863E-1  -7.467567920684815E-2   3.016524612903595E-1  
 4.090000000000000E7     2.575973868370056E-1   2.022831887006760E-1  -8.908620476722717E-1   2.994763255119324E-1  -8.907860517501831E-1   2.998859584331513E-1  -8.084885776042938E-2   3.168406486511231E-1  
 4.120000000000000E7     2.975462675094605E-1   1.775183677673340E-1  -8.642717003822327E-1   3.522407412528992E-1  -8.624783754348755E-1   3.536973297595978E-1  -8.232007920742035E-2   3.389983773231506E-1  
 4.150000000000000E7     3.282482624053955E-1   1.527796834707260E-1  -8.340963125228882E-1   4.051522314548492E-1  -8.318714499473572E-1   4.017859697341919E-1  -7.970439642667770E-2   3.574686646461487E-1  
 4.180000000000000E7     3.598408102989197E-1   1.258423328399658E-1  -8.010194897651672E-1   4.517028629779816E-1  -8.004527688026428E-1   4.508764445781708E-1  -7.703302800655365E-2   3.740547299385071E-1  
 4.210000000000000E7     3.846034407615662E-1   9.589496999979019E-2  -7.657566666603088E-1   4.962791204452515E-1  -7.665773630142212E-1   4.960706830024719E-1  -6.796500831842423E-2   3.923001885414124E-1  
 4.240000000000000E7     4.071545302867889E-1   6.319964677095413E-2  -7.292077541351318E-1   5.373309254646301E-1  -7.290013432502747E-1   5.370377898216248E-1  -5.649054422974587E-2   4.097402095794678E-1  
 4.270000000000000E7     4.249635636806488E-1   3.273919224739075E-2  -6.903793215751648E-1   5.770719647407532E-1  -6.896302700042725E-1   5.760681629180908E-1  -4.249912872910500E-2   4.251488447189331E-1  
 4.300000000000000E7     4.400663077831268E-1  -5.545141175389290E-4  -6.501985192298889E-1   6.136184334754944E-1  -6.494808793067932E-1   6.117006540298462E-1  -2.551979944109917E-2   4.403160512447357E-1  
 4.330000000000000E7     4.523493051528931E-1  -3.435873240232468E-2  -6.078062653541565E-1   6.442389488220215E-1  -6.081553697586060E-1   6.455314159393311E-1  -5.372456740587950E-3   4.527271687984467E-1  
 4.360000000000000E7     4.573905169963837E-1  -6.982302665710449E-2  -5.664575099945068E-1   6.762063503265381E-1  -5.643121004104614E-1   6.751242280006409E-1   1.549674756824970E-2   4.641556739807129E-1  
 4.390000000000000E7     4.618247747421265E-1  -1.003198176622391E-1  -5.217891931533814E-1   7.046678662300110E-1  -5.211784839630127E-1   7.034321427345276E-1   4.386038333177567E-2   4.699743986129761E-1  
 4.420000000000000E7     4.648133516311646E-1  -1.316166669130325E-1  -4.748592078685761E-1   7.295420169830322E-1  -4.753899276256561E-1   7.284184694290161E-1   7.037369906902313E-2   4.756040871143341E-1  
 4.450000000000000E7     4.626327455043793E-1  -1.616385430097580E-1  -4.301773905754089E-1   7.528785467147827E-1  -4.280881881713867E-1   7.524856328964233E-1   9.895361214876175E-2   4.802063703536987E-1  
 4.480000000000000E7     4.595550596714020E-1  -1.905926913022995E-1  -3.818224966526032E-1   7.732916474342346E-1  -3.812755346298218E-1   7.730482220649719E-1   1.312537938356400E-1   4.784621596336365E-1  
 4.510000000000000E7     4.538180530071259E-1  -2.179118543863297E-1  -3.333921134471893E-1   7.925860881805420E-1  -3.327805101871491E-1   7.907907366752625E-1   1.655153781175613E-1   4.739134311676025E-1  
 4.540000000000000E7     4.489273726940155E-1  -2.412892580032349E-1  -2.807129025459290E-1   8.074983358383179E-1  -2.822869420051575E-1   8.074985742568970E-1   2.004187852144241E-1   4.668156802654266E-1  
 4.570000000000000E7     4.410765469074249E-1  -2.666978538036346E-1  -2.295555472373962E-1   8.213112950325012E-1  -2.306701093912125E-1   8.192077875137329E-1   2.391833961009979E-1   4.534092247486115E-1  
 4.600000000000000E7     4.292102456092835E-1  -2.879157066345215E-1  -1.791656911373138E-1   8.317438364028931E-1  -1.795256435871124E-1   8.314316272735596E-1   2.764460146427155E-1   4.346670806407929E-1  
 4.630000000000000E7     4.202190637588501E-1  -3.087018132209778E-1  -1.240096837282181E-1   8.400730490684509E-1  -1.229312270879746E-1   8.389242291450501E-1   3.139651715755463E-1   4.116485714912415E-1  
 4.660000000000000E7     4.126775860786438E-1  -3.271067738533020E-1  -6.702760607004166E-2   8.435531258583069E-1  -6.767726689577103E-2   8.424665331840515E-1   3.532375991344452E-1   3.816299140453339E-1  
 4.690000000000000E7     4.006777107715607E-1  -3.436787128448486E-1  -1.006082445383072E-2   8.449032902717590E-1  -9.732119739055634E-3   8.426685929298401E-1   3.934357762336731E-1   3.488859832286835E-1  
 4.720000000000000E7     3.914309442043304E-1  -3.595840334892273E-1   4.900533705949783E-2   8.408101797103882E-1   4.923632368445396E-2   8.399599194526672E-1   4.271870553493500E-1   3.060728907585144E-1  
 4.750000000000000E7     3.838258981704712E-1  -3.728652894496918E-1   1.096250489354134E-1   8.325909972190857E-1   1.090698391199112E-1   8.320681452751160E-1   4.639775454998016E-1   2.588370442390442E-1  
 4.780000000000000E7     3.766402006149292E-1  -3.876390457153320E-1   1.693986356258392E-1   8.193944096565247E-1   1.681114882230759E-1   8.189700245857239E-1   4.939032196998596E-1   2.005041539669037E-1  
 4.810000000000000E7     3.683764338493347E-1  -3.988315165042877E-1   2.308023571968079E-1   8.026061654090881E-1   2.301388382911682E-1   8.007080554962158E-1   5.209008455276489E-1   1.363656818866730E-1  
 4.840000000000000E7     3.642673194408417E-1  -4.110171794891357E-1   2.916344702243805E-1   7.782379984855652E-1   2.921978235244751E-1   7.764084339141846E-1   5.392107367515564E-1   6.497047841548920E-2  
 4.870000000000000E7     3.621930480003357E-1  -4.240484535694122E-1   3.534021377563477E-1   7.463042736053467E-1   3.513966500759125E-1   7.459456920623779E-1   5.507319569587708E-1  -1.353215426206589E-2  
 4.900000000000000E7     3.606792986392975E-1  -4.391368627548218E-1   4.102616310119629E-1   7.075094580650330E-1   4.111097157001495E-1   7.077214717864990E-1   5.517148375511169E-1  -9.695675969123840E-2  
 4.930000000000000E7     3.590326905250549E-1  -4.552095830440521E-1   4.653089344501495E-1   6.627755761146545E-1   4.653236567974091E-1   6.624511480331421E-1   5.411713719367981E-1  -1.882571130990982E-1  
 4.960000000000000E7     3.589507937431335E-1  -4.737611114978790E-1   5.167652964591980E-1   6.091876626014710E-1   5.163084864616394E-1   6.082004904747009E-1   5.171278715133667E-1  -2.772714495658875E-1  
 4.990000000000000E7     3.601121902465820E-1  -4.959709048271179E-1   5.594059824943543E-1   5.494318008422852E-1   5.592524409294128E-1   5.485395789146423E-1   4.797553420066834E-1  -3.706412017345429E-1  
 5.020000000000000E7     3.605563044548035E-1  -5.199697613716126E-1   5.965709686279297E-1   4.837436974048615E-1   5.957003831863403E-1   4.846918284893036E-1   4.234632849693298E-1  -4.609980285167694E-1  
 5.050000000000000E7     3.581753373146057E-1  -5.489613413810730E-1   6.250290870666504E-1   4.139145612716675E-1   6.241984367370606E-1   4.128010571002960E-1   3.555544912815094E-1  -5.422251820564270E-1  
 5.080000000000000E7     3.548277616500855E-1  -5.806443691253662E-1   6.421835422515869E-1   3.396362960338593E-1   6.414393186569214E-1   3.404786288738251E-1   2.694418728351593E-1  -6.180199384689331E-1  
 5.110000000000000E7     3.459851741790772E-1  -6.148797273635864E-1   6.492556929588318E-1   2.661903500556946E-1   6.488004922866821E-1   2.654355168342590E-1   1.745022982358933E-1  -6.774831414222717E-1  
 5.140000000000000E7     3.337267339229584E-1  -6.521311402320862E-1   6.464142799377441E-1   1.930454820394516E-1   6.455859541893005E-1   1.927095204591751E-1   6.976258754730225E-2  -7.236807346343994E-1  
 5.170000000000000E7     3.152016997337341E-1  -6.898669600486755E-1   6.311991214752197E-1   1.248376369476318E-1   6.311559677124023E-1   1.239064037799835E-1  -4.142460227012634E-2  -7.532850503921509E-1  
 5.200000000000000E7     2.934108078479767E-1  -7.284968495368958E-1   6.097230315208435E-1   5.880449712276459E-2   6.093696355819702E-1   6.072739511728287E-2  -1.584486067295075E-1  -7.639169096946716E-1  
 5.230000000000000E7     2.650758624076843E-1  -7.654768824577332E-1   5.783160924911499E-1   1.394756138324738E-3   5.784876942634583E-1   1.044910401105881E-3  -2.681582868099213E-1  -7.579017877578735E-1  
 5.260000000000000E7     2.305499613285065E-1  -7.999141812324524E-1   5.429236888885498E-1  -4.819878935813904E-2   5.432051420211792E-1  -4.816000163555145E-2  -3.766670823097229E-1  -7.375740408897400E-1  
 5.290000000000000E7     1.933038234710693E-1  -8.316950798034668E-1   5.044323205947876E-1  -9.136437624692917E-2   5.032694339752197E-1  -9.042209386825562E-2  -4.773923754692078E-1  -7.036531567573547E-1  
 5.320000000000000E7     1.520616859197617E-1  -8.603206276893616E-1   4.619568586349487E-1  -1.248623803257942E-1   4.623650610446930E-1  -1.246613115072250E-1  -5.689173936843872E-1  -6.576108932495117E-1  
 5.350000000000000E7     1.068508923053742E-1  -8.839849829673767E-1   4.185069799423218E-1  -1.510756909847260E-1   4.185902178287506E-1  -1.508899331092835E-1  -6.485447287559509E-1  -6.023873090744019E-1  
 5.380000000000000E7     5.964730679988861E-2  -9.027375578880310E-1   3.770184516906738E-1  -1.703037768602371E-1   3.762868642807007E-1  -1.705490052700043E-1  -7.216642498970032E-1  -5.411726236343384E-1  
 5.410000000000000E7     1.027061045169830E-2  -9.198883771896362E-1   3.373402953147888E-1  -1.847154796123505E-1   3.372825682163239E-1  -1.845902651548386E-1  -7.817542552947998E-1  -4.773023724555969E-1  
 5.440000000000000E7    -4.011724889278412E-2  -9.295610785484314E-1   2.989259660243988E-1  -1.929505765438080E-1   2.990759015083313E-1  -1.928022503852844E-1  -8.322048187255859E-1  -4.085716307163239E-1  
 5.470000000000000E7    -8.826392889022827E-2  -9.357732534408569E-1   2.635376751422882E-1  -1.974471509456635E-1   2.638357579708099E-1  -1.970485299825668E-1  -8.734904527664185E-1  -3.402962386608124E-1  
 5.500000000000000E7    -1.390468329191208E-1  -9.388693571090698E-1   2.311987727880478E-1  -1.974996924400330E-1   2.306855618953705E-1  -1.971140801906586E-1  -9.058437347412109E-1  -2.717513144016266E-1  
 5.530000000000000E7    -1.882569193840027E-1  -9.374285340309143E-1   2.012209892272949E-1  -1.949827671051025E-1   2.010871767997742E-1  -1.956188678741455E-1  -9.307020902633667E-1  -2.042695730924606E-1  
 5.560000000000000E7    -2.375809997320175E-1  -9.326737523078919E-1   1.742903441190720E-1  -1.913166642189026E-1   1.739789694547653E-1  -1.904216110706329E-1  -9.489267468452454E-1  -1.386402845382690E-1  
 5.590000000000000E7    -2.837970554828644E-1  -9.257019758224487E-1   1.499193906784058E-1  -1.850252151489258E-1   1.500203162431717E-1  -1.849595010280609E-1  -9.622300267219544E-1  -7.633465528488159E-2  
 5.620000000000000E7    -3.311592936515808E-1  -9.139183759689331E-1   1.285292953252792E-1  -1.773475110530853E-1   1.278280913829804E-1  -1.769458800554276E-1  -9.696283340454102E-1  -1.545226573944092E-2  
 5.650000000000000E7    -3.745066225528717E-1  -9.012161493301392E-1   1.089247316122055E-1  -1.694686114788055E-1   1.090510562062264E-1  -1.689718067646027E-1  -9.724270105361939E-1   4.187761247158051E-2  
 5.680000000000000E7    -4.178517460823059E-1  -8.859470486640930E-1   9.236584603786469E-2  -1.608537137508392E-1   9.211295098066330E-2  -1.608816832304001E-1  -9.723505377769470E-1   9.785759449005127E-2  
 5.710000000000000E7    -4.603700339794159E-1  -8.675426244735718E-1   7.723486423492432E-2  -1.520499736070633E-1   7.739144563674927E-2  -1.519334912300110E-1  -9.686046242713928E-1   1.479643285274506E-1  
 5.740000000000000E7    -5.011384487152100E-1  -8.477957844734192E-1   6.418463587760925E-2  -1.428404003381729E-1   6.424047052860260E-2  -1.425453722476959E-1  -9.625933766365051E-1   1.975547522306442E-1  
 5.770000000000000E7    -5.380850434303284E-1  -8.263134360313416E-1   5.301692709326744E-2  -1.332449764013290E-1   5.290393158793449E-2  -1.329103857278824E-1  -9.525734186172485E-1   2.431344091892242E-1  
 5.800000000000000E7    -5.759403705596924E-1  -8.026636838912964E-1   4.316496104001999E-2  -1.248232796788216E-1   4.252759367227554E-2  -1.243790537118912E-1  -9.436812400817871E-1   2.874391376972199E-1  
 5.830000000000000E7    -6.108696460723877E-1  -7.780619263648987E-1   3.428141400218010E-2  -1.157020404934883E-1   3.429865092039108E-2  -1.155877858400345E-1  -9.311296939849854E-1   3.285502791404724E-1  
 5.860000000000000E7    -6.453810334205627E-1  -7.532895803451538E-1   2.698179520666599E-2  -1.072940528392792E-1   2.691949903964996E-2  -1.073577105998993E-1  -9.180513024330139E-1   3.677296936511993E-1  
 5.890000000000000E7    -6.765750646591187E-1  -7.250174283981323E-1   2.072108536958695E-2  -9.890210628509522E-2   2.073720097541809E-2  -9.880948066711426E-2  -9.030550718307495E-1   4.043044745922089E-1  
 5.920000000000000E7    -7.081446647644043E-1  -6.961025595664978E-1   1.519655156880617E-2  -9.131714701652527E-2   1.493467856198549E-2  -9.109641611576080E-2  -8.891168236732483E-1   4.389953613281250E-1  
 5.950000000000000E7    -7.358731031417847E-1  -6.666861176490784E-1   1.060898415744305E-2  -8.366596698760986E-2   1.048982609063387E-2  -8.340257406234741E-2  -8.714610338211060E-1   4.717532098293304E-1  
 5.980000000000000E7    -7.641090750694275E-1  -6.358775496482849E-1   6.620496511459351E-3  -7.663989812135696E-2   6.672256626188755E-3  -7.630745321512222E-2  -8.555877804756165E-1   5.030918121337891E-1  
 6.010000000000000E7    -7.879218459129334E-1  -6.048008203506470E-1   3.745540976524353E-3  -6.969653069972992E-2   3.658387111499906E-3  -6.957612931728363E-2  -8.386889696121216E-1   5.314463376998901E-1  
 6.040000000000000E7    -8.136621713638306E-1  -5.718047022819519E-1   8.318484760820866E-4  -6.335831433534622E-2   8.660634048283100E-4  -6.333163380622864E-2  -8.215616941452026E-1   5.596432685852051E-1  
 6.070000000000000E7    -8.358465433120728E-1  -5.411644577980042E-1  -1.139117171987891E-3  -5.743836611509323E-2  -1.033858163282275E-3  -5.733822286128998E-2  -8.033415675163269E-1   5.841158032417297E-1  
 6.100000000000000E7    -8.562968969345093E-1  -5.071100592613220E-1  -2.987933112308383E-3  -5.191339552402496E-2  -2.919821534305811E-3  -5.171607062220573E-2  -7.854252457618713E-1   6.103954315185547E-1  
 6.130000000000000E7    -8.767610788345337E-1  -4.729451239109039E-1  -4.130714107304812E-3  -4.660388454794884E-2  -4.176329821348190E-3  -4.649382084608078E-2  -7.673977017402649E-1   6.336340308189392E-1  
 6.160000000000000E7    -8.941924571990967E-1  -4.385747611522675E-1  -5.201302934437990E-3  -4.160539060831070E-2  -5.329261068254709E-3  -4.161668568849564E-2  -7.484789490699768E-1   6.549161672592163E-1  
 6.190000000000000E7    -9.102819561958313E-1  -4.032940864562988E-1  -5.847809370607138E-3  -3.703626245260239E-2  -5.994113627821207E-3  -3.691025823354721E-2  -7.290196418762207E-1   6.759263277053833E-1  
 6.220000000000000E7    -9.254484772682190E-1  -3.684059381484985E-1  -6.229070480912924E-3  -3.264954686164856E-2  -6.183278746902943E-3  -3.273158892989159E-2  -7.122458815574646E-1   6.950124502182007E-1  
 6.250000000000000E7    -9.395204782485962E-1  -3.323553502559662E-1  -6.470177322626114E-3  -2.884255163371563E-2  -6.437212694436312E-3  -2.883820235729218E-2  -6.941759586334229E-1   7.135919928550720E-1  
 6.280000000000000E7    -9.506583213806152E-1  -2.958981990814209E-1  -6.417344324290752E-3  -2.513416670262814E-2  -6.355327088385820E-3  -2.515387535095215E-2  -6.755831837654114E-1   7.311922311782837E-1  
 6.310000000000000E7    -9.621576666831970E-1  -2.585194706916809E-1  -6.321121938526630E-3  -2.186492644250393E-2  -6.288558710366488E-3  -2.175630442798138E-2  -6.566793918609619E-1   7.491214275360107E-1  
 6.340000000000000E7    -9.707974791526794E-1  -2.226043343544006E-1  -6.011537276208401E-3  -1.868211105465889E-2  -6.013376638293266E-3  -1.865801960229874E-2  -6.383675336837769E-1   7.655785083770752E-1  
 6.370000000000000E7    -9.786816239356995E-1  -1.859943568706513E-1  -5.660049151629210E-3  -1.583944447338581E-2  -5.651306826621294E-3  -1.581668481230736E-2  -6.189907789230347E-1   7.797423601150513E-1  
 6.400000000000000E7    -9.844202995300293E-1  -1.489629149436951E-1  -5.188968963921070E-3  -1.322826370596886E-2  -5.164111033082008E-3  -1.316014025360346E-2  -6.016707420349121E-1   7.944034337997437E-1  
 6.430000000000000E7    -9.898103475570679E-1  -1.111589521169663E-1  -4.541414789855480E-3  -1.083983667194843E-2  -4.585596732795239E-3  -1.078268419951201E-2  -5.828164219856262E-1   8.083022832870483E-1  
 6.460000000000000E7    -9.937685132026672E-1  -7.451818883419037E-2  -3.924073185771704E-3  -8.633927442133427E-3  -3.936030901968479E-3  -8.626478724181652E-3  -5.642439126968384E-1   8.198352456092835E-1  
 6.490000000000000E7    -9.964492321014404E-1  -3.869773447513580E-2  -3.236921038478613E-3  -6.639497354626656E-3  -3.233007621020079E-3  -6.687474902719259E-3  -5.474194884300232E-1   8.323310613632202E-1  
 6.520000000000000E7    -9.964308738708496E-1  -1.634240150451660E-3  -2.477883361279964E-3  -4.901424050331116E-3  -2.523493487387896E-3  -4.872716497629881E-3  -5.294792056083679E-1   8.446074724197388E-1  
 6.550000000000000E7    -9.960083365440369E-1   3.451547026634216E-2  -1.794924028217793E-3  -3.260320052504540E-3  -1.780971186235547E-3  -3.278673393651843E-3  -5.103465318679810E-1   8.550242781639099E-1  
 6.580000000000000E7    -9.938673973083496E-1   7.175682485103607E-2  -1.014410518109798E-3  -1.856691553257406E-3  -1.020906376652420E-3  -1.873831730335951E-3  -4.929904341697693E-1   8.663270473480225E-1  
 6.610000000000000E7    -9.894483089447022E-1   1.084205210208893E-1  -2.349186252104119E-4  -5.831504240632057E-4  -2.610020164866000E-4  -6.088060908950865E-4  -4.737449586391449E-1   8.764812946319580E-1  
 6.640000000000000E7    -9.865422844886780E-1   1.436472684144974E-1   5.121462745591998E-4   5.374904721975327E-4   5.269303219392896E-4   5.350996507331729E-4  -4.565024375915527E-1   8.859938383102417E-1  
 6.670000000000000E7    -9.798991084098816E-1   1.798172295093536E-1   1.260204240679741E-3   1.536591444164515E-3   1.265271916054189E-3   1.512245973572135E-3  -4.401265978813171E-1   8.943450450897217E-1  
 6.700000000000000E7    -9.725231528282166E-1   2.152095139026642E-1   2.039122395217419E-3   2.366598695516586E-3   1.983201596885920E-3   2.335409866645932E-3  -4.218758940696716E-1   9.019769430160523E-1  
 6.730000000000000E7    -9.639415740966797E-1   2.506875991821289E-1   2.724895020946860E-3   3.068858990445733E-3   2.708985935896635E-3   3.046793863177300E-3  -4.047617316246033E-1   9.108041524887085E-1  
 6.760000000000000E7    -9.549659490585327E-1   2.845224142074585E-1   3.430509474128485E-3   3.686138894408941E-3   3.395895473659039E-3   3.682855051010847E-3  -3.867630064487457E-1   9.183334112167358E-1  
 6.790000000000000E7    -9.435096383094788E-1   3.195151984691620E-1   4.053705371916294E-3   4.218050744384527E-3   4.079199861735106E-3   4.175977781414986E-3  -3.696362078189850E-1   9.249205589294434E-1  
 6.820000000000000E7    -9.311212301254273E-1   3.528946638107300E-1   4.682590253651142E-3   4.599016625434160E-3   4.662347026169300E-3   4.599059466272593E-3  -3.532606363296509E-1   9.315200448036194E-1  
 6.850000000000000E7    -9.187423586845398E-1   3.865334987640381E-1   5.262645892798901E-3   4.946823697537184E-3   5.261928774416447E-3   4.904815461486578E-3  -3.364362120628357E-1   9.376720190048218E-1  
 6.880000000000000E7    -9.037953615188599E-1   4.190502166748047E-1   5.809064023196697E-3   5.145366303622723E-3   5.780115723609924E-3   5.123549140989780E-3  -3.186763525009155E-1   9.432305693626404E-1  
 6.910000000000000E7    -8.879848122596741E-1   4.512554109096527E-1   6.311483215540648E-3   5.304096266627312E-3   6.299713160842657E-3   5.283591337502003E-3  -3.014036417007446E-1   9.497066140174866E-1  
 6.940000000000000E7    -8.721638917922974E-1   4.822871088981628E-1   6.727733649313450E-3   5.435058381408453E-3   6.747397594153881E-3   5.394202191382647E-3  -2.860019207000732E-1   9.546599388122559E-1  
 6.970000000000000E7    -8.533194661140442E-1   5.137917399406433E-1   7.147897500544787E-3   5.405494011938572E-3   7.151452358812094E-3   5.376087035983801E-3  -2.686834335327148E-1   9.593875408172607E-1  
 7.000000000000000E7    -8.347673416137695E-1   5.444910526275635E-1   7.460632361471653E-3   5.402259062975645E-3   7.495640311390162E-3   5.349966697394848E-3  -2.525119185447693E-1   9.643321633338928E-1  
