#  HZ   S   RI   R     50.00 
! Rohde & Schwarz ZVT8 8Ports - Version 4.11 - 1300.0000k08 SN: 100242
! Date: 2026-07-31 15:11:16
! Measurements: S11 S21 S12 S22 
! 
 1.000000000000000E7    -4.093424081802368E-1   9.086350798606873E-1   4.913131520152092E-2   5.024284124374390E-2   4.891419038176537E-2   5.020711943507195E-2  -9.204226136207581E-1   3.814072012901306E-1  
 1.030000000000000E7    -3.772659301757813E-1   9.205725193023682E-1   5.196682363748550E-2   5.045160651206970E-2   5.184672772884369E-2   5.067226290702820E-2  -9.145138859748840E-1   3.940812647342682E-1  
 1.060000000000000E7    -3.420001268386841E-1   9.344322085380554E-1   5.518830567598343E-2   5.121161788702011E-2   5.503984168171883E-2   5.102778598666191E-2  -9.116403460502625E-1   4.047977924346924E-1  
 1.090000000000000E7    -3.109384775161743E-1   9.446069002151489E-1   5.803180485963821E-2   5.128658935427666E-2   5.789236724376679E-2   5.143859609961510E-2  -9.059503674507141E-1   4.162819981575012E-1  
 1.120000000000000E7    -2.764371633529663E-1   9.541771411895752E-1   6.145073473453522E-2   5.194383114576340E-2   6.080048158764839E-2   5.166776105761528E-2  -9.004298448562622E-1   4.277837276458740E-1  
 1.150000000000000E7    -2.418189495801926E-1   9.647575616836548E-1   6.417036801576614E-2   5.177719518542290E-2   6.400503963232040E-2   5.175050720572472E-2  -8.938191533088684E-1   4.367926120758057E-1  
 1.180000000000000E7    -2.075981944799423E-1   9.697567224502564E-1   6.724160909652710E-2   5.189543589949608E-2   6.717644631862640E-2   5.179341882467270E-2  -8.897654414176941E-1   4.471692144870758E-1  
 1.210000000000000E7    -1.742342710494995E-1   9.774812459945679E-1   7.084479182958603E-2   5.193714797496796E-2   7.076000422239304E-2   5.174278467893601E-2  -8.824585676193237E-1   4.591837525367737E-1  
 1.240000000000000E7    -1.395018994808197E-1   9.819571971893311E-1   7.415557652711868E-2   5.168956518173218E-2   7.408487796783447E-2   5.137436836957932E-2  -8.764203786849976E-1   4.682027101516724E-1  
 1.270000000000000E7    -1.045997142791748E-1   9.855400323867798E-1   7.788494229316711E-2   5.116982385516167E-2   7.758663594722748E-2   5.105763301253319E-2  -8.697404861450195E-1   4.821208119392395E-1  
 1.300000000000000E7    -7.080724835395813E-2   9.895641207695007E-1   8.103563636541367E-2   5.102373659610748E-2   8.108684420585632E-2   5.072480067610741E-2  -8.630675077438355E-1   4.919471740722656E-1  
 1.330000000000000E7    -3.511939942836762E-2   9.916099309921265E-1   8.495736867189407E-2   5.041638389229775E-2   8.477888256311417E-2   4.995216801762581E-2  -8.563942313194275E-1   5.035209059715271E-1  
 1.360000000000000E7     9.435117244720459E-4   9.916376471519470E-1   8.847802132368088E-2   4.974475502967835E-2   8.881964534521103E-2   4.927847161889076E-2  -8.497256636619568E-1   5.123920440673828E-1  
 1.390000000000000E7     3.459310159087181E-2   9.905294775962830E-1   9.226837009191513E-2   4.869773611426354E-2   9.211049228906632E-2   4.870988056063652E-2  -8.430870771408081E-1   5.235888957977295E-1  
 1.420000000000000E7     7.070602476596832E-2   9.890917539596558E-1   9.587851911783218E-2   4.801576957106590E-2   9.572453796863556E-2   4.805053770542145E-2  -8.371227979660034E-1   5.334377288818359E-1  
 1.450000000000000E7     1.059579253196716E-1   9.841692447662354E-1   9.975130856037140E-2   4.654126986861229E-2   9.960462152957916E-2   4.668140411376953E-2  -8.278188705444336E-1   5.453366041183472E-1  
 1.480000000000000E7     1.420576870441437E-1   9.797133207321167E-1   1.037750765681267E-1   4.519484564661980E-2   1.035866364836693E-1   4.553502425551415E-2  -8.213939070701599E-1   5.551418662071228E-1  
 1.510000000000000E7     1.763448417186737E-1   9.733983874320984E-1   1.073813140392304E-1   4.384640976786614E-2   1.073265895247459E-1   4.386105760931969E-2  -8.117282390594482E-1   5.657620429992676E-1  
 1.540000000000000E7     2.101906538009644E-1   9.664373397827148E-1   1.112701967358589E-1   4.321030527353287E-2   1.110049039125443E-1   4.244686290621758E-2  -8.064402341842651E-1   5.749309659004211E-1  
 1.570000000000000E7     2.450214177370071E-1   9.590010643005371E-1   1.154124513268471E-1   4.109873622655869E-2   1.155136153101921E-1   4.088207706809044E-2  -7.972025275230408E-1   5.868631601333618E-1  
 1.600000000000000E7     2.803528904914856E-1   9.479040503501892E-1   1.190891042351723E-1   3.903432562947273E-2   1.194715946912766E-1   3.891740739345551E-2  -7.895555496215820E-1   5.950688719749451E-1  
 1.630000000000000E7     3.139165639877319E-1   9.369790554046631E-1   1.238194629549980E-1   3.680802136659622E-2   1.232633367180824E-1   3.696359694004059E-2  -7.811392545700073E-1   6.064713001251221E-1  
 1.660000000000000E7     3.477589190006256E-1   9.233175516128540E-1   1.278027445077896E-1   3.460099548101425E-2   1.274879127740860E-1   3.412632271647453E-2  -7.715813517570496E-1   6.170004010200501E-1  
 1.690000000000000E7     3.808616399765015E-1   9.103504419326782E-1   1.319612860679627E-1   3.266652300953865E-2   1.317627280950546E-1   3.214746713638306E-2  -7.630161046981812E-1   6.262028813362122E-1  
 1.720000000000000E7     4.155107736587524E-1   8.953939676284790E-1   1.358453482389450E-1   2.940778434276581E-2   1.357873678207398E-1   2.964079007506371E-2  -7.541430592536926E-1   6.353633999824524E-1  
 1.750000000000000E7     4.433454275131226E-1   8.816456198692322E-1   1.403749734163284E-1   2.774791978299618E-2   1.405100077390671E-1   2.720806375145912E-2  -7.460160851478577E-1   6.471427679061890E-1  
 1.780000000000000E7     4.783126115798950E-1   8.608741164207459E-1   1.438705921173096E-1   2.395259961485863E-2   1.440968513488770E-1   2.442011795938015E-2  -7.355561256408691E-1   6.541637182235718E-1  
 1.810000000000000E7     5.082560777664185E-1   8.436673879623413E-1   1.490622907876968E-1   2.124500274658203E-2   1.481966078281403E-1   2.070939540863037E-2  -7.268129587173462E-1   6.672424674034119E-1  
 1.840000000000000E7     5.407899618148804E-1   8.241981267929077E-1   1.535600870847702E-1   1.702633686363697E-2   1.526901721954346E-1   1.724563539028168E-2  -7.159898281097412E-1   6.761504411697388E-1  
 1.870000000000000E7     5.685884356498718E-1   8.033510446548462E-1   1.574545353651047E-1   1.413169968873262E-2   1.568213701248169E-1   1.367930416017771E-2  -7.057474255561829E-1   6.852374076843262E-1  
 1.900000000000000E7     5.976674556732178E-1   7.816285490989685E-1   1.615138351917267E-1   1.052212994545698E-2   1.613299548625946E-1   1.009571831673384E-2  -6.955110430717468E-1   6.946811676025391E-1  
 1.930000000000000E7     6.264051198959351E-1   7.577812671661377E-1   1.655609756708145E-1   5.709588527679443E-3   1.658671498298645E-1   6.516754627227783E-3  -6.853141188621521E-1   7.055882811546326E-1  
 1.960000000000000E7     6.547572612762451E-1   7.325980067253113E-1   1.697081327438355E-1   1.566724851727486E-3   1.697399169206619E-1   1.993469893932343E-3  -6.755747199058533E-1   7.137931585311890E-1  
 1.990000000000000E7     6.792732477188110E-1   7.072746753692627E-1   1.739071905612946E-1  -2.843981608748436E-3   1.740380823612213E-1  -2.810869365930557E-3  -6.625425219535828E-1   7.249356508255005E-1  
 2.020000000000000E7     7.053078413009644E-1   6.804155707359314E-1   1.783480942249298E-1  -7.215779274702072E-3   1.778437644243240E-1  -7.119083777070046E-3  -6.526253223419190E-1   7.309637069702148E-1  
 2.050000000000000E7     7.313733696937561E-1   6.528328061103821E-1   1.822430938482285E-1  -1.196317654103041E-2   1.813295483589172E-1  -1.243537198752165E-2  -6.411562561988831E-1   7.407796978950501E-1  
 2.080000000000000E7     7.544815540313721E-1   6.227437853813171E-1   1.865776181221008E-1  -1.733338460326195E-2   1.864895820617676E-1  -1.704291813075542E-2  -6.301382780075073E-1   7.511209249496460E-1  
 2.110000000000000E7     7.779080867767334E-1   5.934978127479553E-1   1.908316314220429E-1  -2.338181994855404E-2   1.907411217689514E-1  -2.334059961140156E-2  -6.170543432235718E-1   7.599228024482727E-1  
 2.140000000000000E7     7.993402481079102E-1   5.636396408081055E-1   1.949596256017685E-1  -2.944957278668881E-2   1.941444575786591E-1  -2.882420085370541E-2  -6.052035689353943E-1   7.682100534439087E-1  
 2.170000000000000E7     8.180271983146668E-1   5.328015089035034E-1   1.988763809204102E-1  -3.499248251318932E-2   1.983917504549027E-1  -3.425385430455208E-2  -5.929409265518189E-1   7.765065431594849E-1  
 2.200000000000000E7     8.390061259269714E-1   4.990135133266449E-1   2.024125903844833E-1  -4.151908308267593E-2   2.024404257535934E-1  -4.116373881697655E-2  -5.788322091102600E-1   7.847857475280762E-1  
 2.230000000000000E7     8.555889129638672E-1   4.656291007995606E-1   2.061840593814850E-1  -4.819196090102196E-2   2.057944089174271E-1  -4.777362197637558E-2  -5.658704042434692E-1   7.931134104728699E-1  
 2.260000000000000E7     8.727493286132813E-1   4.316300153732300E-1   2.093732655048370E-1  -5.507589504122734E-2   2.107105404138565E-1  -5.473686009645462E-2  -5.530694723129273E-1   8.005439639091492E-1  
 2.290000000000000E7     8.877319693565369E-1   3.965899944305420E-1   2.131561189889908E-1  -6.208625435829163E-2   2.135241329669952E-1  -6.161094829440117E-2  -5.379359722137451E-1   8.084136247634888E-1  
 2.320000000000000E7     9.007107019424439E-1   3.607056140899658E-1   2.170099020004273E-1  -7.011499255895615E-2   2.165701240301132E-1  -7.022997736930847E-2  -5.246013402938843E-1   8.175949454307556E-1  
 2.350000000000000E7     9.132939577102661E-1   3.233014941215515E-1   2.204139232635498E-1  -7.841798663139343E-2   2.197915762662888E-1  -7.794854044914246E-2  -5.104080438613892E-1   8.248243927955627E-1  
 2.380000000000000E7     9.239082336425781E-1   2.868849635124207E-1   2.232020348310471E-1  -8.617175370454788E-2   2.232322096824646E-1  -8.585621416568756E-2  -4.963174462318420E-1   8.318488597869873E-1  
 2.410000000000000E7     9.339932799339294E-1   2.483584582805634E-1   2.260976284742355E-1  -9.530913829803467E-2   2.256184518337250E-1  -9.490209817886353E-2  -4.805687069892883E-1   8.386943340301514E-1  
 2.440000000000000E7     9.410914778709412E-1   2.106718122959137E-1   2.292216867208481E-1  -1.045451164245606E-1   2.292396277189255E-1  -1.045473664999008E-1  -4.666546881198883E-1   8.454960584640503E-1  
 2.470000000000000E7     9.471399188041687E-1   1.714470088481903E-1   2.316609323024750E-1  -1.142349168658257E-1   2.311386168003082E-1  -1.128097549080849E-1  -4.498861432075501E-1   8.506891131401062E-1  
 2.500000000000000E7     9.525672197341919E-1   1.322765648365021E-1   2.335411310195923E-1  -1.236006766557694E-1   2.335932254791260E-1  -1.240554600954056E-1  -4.337376356124878E-1   8.585062623023987E-1  
 2.530000000000000E7     9.558297395706177E-1   9.295558184385300E-2   2.361275553703308E-1  -1.333596557378769E-1   2.361138463020325E-1  -1.330430060625076E-1  -4.179020524024963E-1   8.632137179374695E-1  
 2.560000000000000E7     9.564431905746460E-1   5.358203500509262E-2   2.376739382743835E-1  -1.434806585311890E-1   2.384157478809357E-1  -1.434303522109985E-1  -4.019266366958618E-1   8.694348335266113E-1  
 2.590000000000000E7     9.549816250801086E-1   1.381895318627358E-2   2.391200959682465E-1  -1.553243845701218E-1   2.396286576986313E-1  -1.552517563104630E-1  -3.853732645511627E-1   8.764693140983582E-1  
 2.620000000000000E7     9.528339505195618E-1  -2.754112333059311E-2   2.404601275920868E-1  -1.673687249422073E-1   2.402436435222626E-1  -1.665002256631851E-1  -3.659563064575195E-1   8.813158869743347E-1  
 2.650000000000000E7     9.480802416801453E-1  -6.643994152545929E-2   2.415269762277603E-1  -1.776491552591324E-1   2.415567785501480E-1  -1.783102154731751E-1  -3.497503101825714E-1   8.853757381439209E-1  
 2.680000000000000E7     9.413756132125855E-1  -1.065897941589356E-1   2.423519045114517E-1  -1.898861080408096E-1   2.423000186681747E-1  -1.906610578298569E-1  -3.320548832416534E-1   8.896408081054688E-1  
 2.710000000000000E7     9.332062602043152E-1  -1.477228105068207E-1   2.415984421968460E-1  -2.036823034286499E-1   2.411397397518158E-1  -2.033327072858810E-1  -3.138390183448792E-1   8.947657942771912E-1  
 2.740000000000000E7     9.231846928596497E-1  -1.879533082246780E-1   2.421709746122360E-1  -2.156321257352829E-1   2.417521178722382E-1  -2.165355980396271E-1  -2.946833968162537E-1   8.957675099372864E-1  
 2.770000000000000E7     9.113904833793640E-1  -2.267493903636932E-1   2.408142834901810E-1  -2.297403365373612E-1   2.407912164926529E-1  -2.305361479520798E-1  -2.752990722656250E-1   9.000235199928284E-1  
 2.800000000000000E7     8.986464142799377E-1  -2.652459144592285E-1   2.395034730434418E-1  -2.429395914077759E-1   2.403331995010376E-1  -2.429709136486054E-1  -2.552649080753326E-1   9.011101722717285E-1  
 2.830000000000000E7     8.812577724456787E-1  -3.048491775989533E-1   2.371167987585068E-1  -2.567006051540375E-1   2.368791997432709E-1  -2.577429711818695E-1  -2.380477637052536E-1   9.035543799400330E-1  
 2.860000000000000E7     8.633637428283691E-1  -3.435406088829041E-1   2.347283959388733E-1  -2.720205485820770E-1   2.341761589050293E-1  -2.731621861457825E-1  -2.150427103042603E-1   9.056299328804016E-1  
 2.890000000000000E7     8.432639241218567E-1  -3.801169395446777E-1   2.309220135211945E-1  -2.880788743495941E-1   2.310316413640976E-1  -2.876143753528595E-1  -1.958230584859848E-1   9.058236479759216E-1  
 2.920000000000000E7     8.218334913253784E-1  -4.171826541423798E-1   2.280138134956360E-1  -3.022380769252777E-1   2.265844047069550E-1  -3.028000295162201E-1  -1.760616004467011E-1   9.054487347602844E-1  
 2.950000000000000E7     7.986861467361450E-1  -4.522994458675385E-1   2.232355922460556E-1  -3.199439942836762E-1   2.224828302860260E-1  -3.192074596881867E-1  -1.532275378704071E-1   9.060111045837402E-1  
 2.980000000000000E7     7.721936702728272E-1  -4.870156943798065E-1   2.174030542373657E-1  -3.351483643054962E-1   2.175283432006836E-1  -3.362145423889160E-1  -1.324880868196487E-1   9.047358036041260E-1  
 3.010000000000000E7     7.447900176048279E-1  -5.210972428321838E-1   2.103818207979202E-1  -3.527516126632690E-1   2.113263756036758E-1  -3.523350954055786E-1  -1.110200881958008E-1   9.027181863784790E-1  
 3.040000000000000E7     7.144773006439209E-1  -5.539761185646057E-1   2.041342258453369E-1  -3.699216842651367E-1   2.033817023038864E-1  -3.708525598049164E-1  -8.820539712905884E-2   8.983994722366333E-1  
 3.070000000000000E7     6.817227602005005E-1  -5.834171175956726E-1   1.943822056055069E-1  -3.868523240089417E-1   1.938441246747971E-1  -3.867332637310028E-1  -6.571699678897858E-2   8.957302570343018E-1  
 3.100000000000000E7     6.473740339279175E-1  -6.122178435325623E-1   1.847792565822601E-1  -4.055714607238770E-1   1.841475367546082E-1  -4.043505787849426E-1  -4.263737797737122E-2   8.914898037910461E-1  
 3.130000000000000E7     6.129609346389771E-1  -6.399796009063721E-1   1.735451519489288E-1  -4.231617748737335E-1   1.741813868284226E-1  -4.228812158107758E-1  -2.060426957905293E-2   8.843815326690674E-1  
 3.160000000000000E7     5.738776922225952E-1  -6.644967794418335E-1   1.619789600372315E-1  -4.417581558227539E-1   1.617089211940765E-1  -4.419403076171875E-1   2.426121383905411E-3   8.794083595275879E-1  
 3.190000000000000E7     5.342064499855042E-1  -6.869703531265259E-1   1.481464803218842E-1  -4.598809480667114E-1   1.482094079256058E-1  -4.587057828903198E-1   2.595832198858261E-2   8.715144395828247E-1  
 3.220000000000000E7     4.937614202499390E-1  -7.096271514892578E-1   1.347086429595947E-1  -4.780572950839996E-1   1.337314993143082E-1  -4.773601889610291E-1   4.753366112709045E-2   8.627344965934753E-1  
 3.250000000000000E7     4.508646726608276E-1  -7.270352840423584E-1   1.183175221085548E-1  -4.969621896743774E-1   1.173392832279205E-1  -4.968588352203369E-1   7.093700021505356E-2   8.546373248100281E-1  
 3.280000000000000E7     4.062961041927338E-1  -7.414983510971069E-1   1.008177772164345E-1  -5.160228610038757E-1   1.004605963826180E-1  -5.134794116020203E-1   9.420095384120941E-2   8.430595993995667E-1  
 3.310000000000000E7     3.618066608905792E-1  -7.554288506507874E-1   8.143644034862518E-2  -5.323697328567505E-1   8.022785186767578E-2  -5.323724150657654E-1   1.175117492675781E-1   8.299070596694946E-1  
 3.340000000000000E7     3.155002892017365E-1  -7.656078338623047E-1   5.872225761413574E-2  -5.507528185844421E-1   5.955447256565094E-2  -5.492374300956726E-1   1.398534774780273E-1   8.165229558944702E-1  
 3.370000000000000E7     2.684070765972138E-1  -7.724314332008362E-1   3.690824657678604E-2  -5.672414898872376E-1   3.740186616778374E-2  -5.677688717842102E-1   1.627227514982224E-1   8.022106885910034E-1  
 3.400000000000000E7     2.200681716203690E-1  -7.759340405464172E-1   1.160313002765179E-2  -5.837703943252564E-1   1.199898496270180E-2  -5.843289494514465E-1   1.838812083005905E-1   7.852282524108887E-1  
 3.430000000000000E7     1.721045523881912E-1  -7.766236066818237E-1  -1.584300771355629E-2  -5.993891358375549E-1  -1.438565738499165E-2  -5.990973114967346E-1   2.056457847356796E-1   7.683128118515015E-1  
 3.460000000000000E7     1.226162090897560E-1  -7.727560400962830E-1  -4.398643970489502E-2  -6.144357323646545E-1  -4.435394704341888E-2  -6.147499680519104E-1   2.263084501028061E-1   7.496849894523621E-1  
 3.490000000000000E7     7.589481770992279E-2  -7.657282948493958E-1  -7.624208927154541E-2  -6.268627643585205E-1  -7.355389744043350E-2  -6.270006299018860E-1   2.457777261734009E-1   7.294728159904480E-1  
 3.520000000000000E7     2.711115404963493E-2  -7.548303008079529E-1  -1.076157614588738E-1  -6.397989392280579E-1  -1.062965989112854E-1  -6.402518749237061E-1   2.667176425457001E-1   7.076190710067749E-1  
 3.550000000000000E7    -2.151638269424439E-2  -7.383962869644165E-1  -1.415546536445618E-1  -6.516820788383484E-1  -1.418718099594116E-1  -6.513357162475586E-1   2.831003069877625E-1   6.847215294837952E-1  
 3.580000000000000E7    -6.729136407375336E-2  -7.203882336616516E-1  -1.779296845197678E-1  -6.595818400382996E-1  -1.773647367954254E-1  -6.596685051918030E-1   3.000637590885162E-1   6.596393585205078E-1  
 3.610000000000000E7    -1.105594560503960E-1  -6.967353820800781E-1  -2.179984450340271E-1  -6.671836376190186E-1  -2.164603769779205E-1  -6.660934090614319E-1   3.168178796768189E-1   6.338118910789490E-1  
 3.640000000000000E7    -1.543999910354614E-1  -6.704064011573792E-1  -2.566774487495422E-1  -6.715760827064514E-1  -2.566816508769989E-1  -6.723886132240295E-1   3.289408087730408E-1   6.057160496711731E-1  
 3.670000000000000E7    -1.943112760782242E-1  -6.401664614677429E-1  -2.990615069866180E-1  -6.749929785728455E-1  -2.979263365268707E-1  -6.722121238708496E-1   3.415317833423615E-1   5.792301297187805E-1  
 3.700000000000000E7    -2.326907962560654E-1  -6.066974401473999E-1  -3.428219854831696E-1  -6.722306609153748E-1  -3.419224023818970E-1  -6.717169284820557E-1   3.520041406154633E-1   5.477861762046814E-1  
 3.730000000000000E7    -2.676747441291809E-1  -5.701457858085632E-1  -3.853988349437714E-1  -6.668508052825928E-1  -3.862013220787048E-1  -6.670761108398438E-1   3.577159345149994E-1   5.185155272483826E-1  
 3.760000000000000E7    -2.965974807739258E-1  -5.314400792121887E-1  -4.316418766975403E-1  -6.585010290145874E-1  -4.327429234981537E-1  -6.591535210609436E-1   3.642791509628296E-1   4.874489605426788E-1  
 3.790000000000000E7    -3.220281600952148E-1  -4.879474341869354E-1  -4.786304235458374E-1  -6.484200954437256E-1  -4.767442047595978E-1  -6.466783881187439E-1   3.684497475624085E-1   4.566286504268646E-1  
 3.820000000000000E7    -3.436823785305023E-1  -4.430657327175140E-1  -5.255712866783142E-1  -6.321017146110535E-1  -5.254288315773010E-1  -6.326233744621277E-1   3.674282431602478E-1   4.251294136047363E-1  
 3.850000000000000E7    -3.615603744983673E-1  -3.957018554210663E-1  -5.707778334617615E-1  -6.148363351821899E-1  -5.715360045433044E-1  -6.124835014343262E-1   3.681789338588715E-1   3.937736749649048E-1  
 3.880000000000000E7    -3.736037611961365E-1  -3.506679534912109E-1  -6.175469160079956E-1  -5.882687568664551E-1  -6.160676479339600E-1  -5.896778106689453E-1   3.649912178516388E-1   3.608457744121552E-1  
 3.910000000000000E7    -3.816738724708557E-1  -3.007530272006989E-1  -6.617983579635620E-1  -5.615631937980652E-1  -6.619948148727417E-1  -5.612334609031677E-1   3.579920232295990E-1   3.324434459209442E-1  
 3.940000000000000E7    -3.816919326782227E-1  -2.525962293148041E-1  -7.061074972152710E-1  -5.297293066978455E-1  -7.049049735069275E-1  -5.312892198562622E-1   3.481327593326569E-1   3.011538386344910E-1  
 3.970000000000000E7    -3.798001110553742E-1  -2.049350589513779E-1  -7.483248710632324E-1  -4.948758184909821E-1  -7.477234601974487E-1  -4.940316975116730E-1   3.341141641139984E-1   2.748304307460785E-1  
 4.000000000000000E7    -3.713670372962952E-1  -1.590950340032578E-1  -7.868301272392273E-1  -4.550088942050934E-1  -7.869659662246704E-1  -4.535145759582520E-1   3.216156959533691E-1   2.473334223031998E-1  
 4.030000000000000E7    -3.574887216091156E-1  -1.176679655909538E-1  -8.251988291740418E-1  -4.103970527648926E-1  -8.228121995925903E-1  -4.121067523956299E-1   3.077739477157593E-1   2.228322774171829E-1  
 4.060000000000000E7    -3.398315608501434E-1  -7.407227158546448E-2  -8.577849864959717E-1  -3.649617135524750E-1  -8.584991097450256E-1  -3.644135594367981E-1   2.865135371685028E-1   1.996191740036011E-1  
 4.090000000000000E7    -3.191417753696442E-1  -3.381919488310814E-2  -8.873630762100220E-1  -3.159213662147522E-1  -8.867354989051819E-1  -3.156279325485230E-1   2.692876160144806E-1   1.780983507633209E-1  
 4.120000000000000E7    -2.908704280853272E-1   2.445886842906475E-3  -9.144701957702637E-1  -2.643069326877594E-1  -9.149413704872131E-1  -2.624737322330475E-1   2.448759377002716E-1   1.606029570102692E-1  
 4.150000000000000E7    -2.629388272762299E-1   3.026981279253960E-2  -9.368750452995300E-1  -2.064812332391739E-1  -9.348965287208557E-1  -2.082541286945343E-1   2.229631692171097E-1   1.459154486656189E-1  
 4.180000000000000E7    -2.325119972229004E-1   5.867227911949158E-2  -9.536670446395874E-1  -1.506994813680649E-1  -9.532581567764282E-1  -1.523452550172806E-1   2.024692595005035E-1   1.309304237365723E-1  
 4.210000000000000E7    -1.995252519845963E-1   7.939794659614563E-2  -9.660953879356384E-1  -9.271637350320816E-2  -9.677225947380066E-1  -9.360785037279129E-2   1.793485283851624E-1   1.210928931832314E-1  
 4.240000000000000E7    -1.631120294332504E-1   9.725213050842285E-2  -9.757276177406311E-1  -3.450405225157738E-2  -9.758183956146240E-1  -3.449117019772530E-2   1.564853340387344E-1   1.142062321305275E-1  
 4.270000000000000E7    -1.299839168787003E-1   1.111072078347206E-1  -9.798440933227539E-1   2.508704364299774E-2  -9.793733954429627E-1   2.525346353650093E-2   1.345387846231461E-1   1.088692471385002E-1  
 4.300000000000000E7    -9.332132339477539E-2   1.197353154420853E-1  -9.796726703643799E-1   8.481811732053757E-2  -9.793717861175537E-1   8.445461094379425E-2   1.119498461484909E-1   1.067253351211548E-1  
 4.330000000000000E7    -5.718056485056877E-2   1.252743899822235E-1  -9.739759564399719E-1   1.430397033691406E-1  -9.760534763336182E-1   1.436018645763397E-1   9.044624119997025E-2   1.065677702426910E-1  
 4.360000000000000E7    -2.011857181787491E-2   1.217924728989601E-1  -9.671220779418945E-1   2.012599110603333E-1  -9.662827253341675E-1   2.010369449853897E-1   6.890978664159775E-2   1.077274829149246E-1  
 4.390000000000000E7     1.068995334208012E-2   1.182287335395813E-1  -9.535827040672302E-1   2.580543160438538E-1  -9.523513317108154E-1   2.588216364383698E-1   5.418767407536507E-2   1.148151382803917E-1  
 4.420000000000000E7     4.285597056150436E-2   1.131797134876251E-1  -9.363648891448975E-1   3.143501579761505E-1  -9.355681538581848E-1   3.133158981800079E-1   3.668966516852379E-2   1.196706816554070E-1  
 4.450000000000000E7     7.214618474245071E-2   1.008742600679398E-1  -9.166932106018066E-1   3.666636645793915E-1  -9.157683849334717E-1   3.680242598056793E-1   1.942836493253708E-2   1.267097890377045E-1  
 4.480000000000000E7     9.969207644462585E-2   8.769628405570984E-2  -8.923400640487671E-1   4.185416102409363E-1  -8.922223448753357E-1   4.192652404308319E-1   7.215280551463366E-3   1.359109729528427E-1  
 4.510000000000000E7     1.244960203766823E-1   7.041688263416290E-2  -8.661305308341980E-1   4.691146314144135E-1  -8.653504252433777E-1   4.681670069694519E-1  -4.060833714902401E-3   1.465247869491577E-1  
 4.540000000000000E7     1.441030949354172E-1   5.612175539135933E-2  -8.353055119514465E-1   5.160902142524719E-1  -8.372967243194580E-1   5.163182020187378E-1  -1.510992925614119E-2   1.563628315925598E-1  
 4.570000000000000E7     1.647049486637116E-1   3.630571812391281E-2  -8.042801022529602E-1   5.621827840805054E-1  -8.036925792694092E-1   5.609819293022156E-1  -2.186002209782600E-2   1.704271286725998E-1  
 4.600000000000000E7     1.806523501873016E-1   1.170192193239927E-2  -7.706158161163330E-1   6.031653881072998E-1  -7.702707648277283E-1   6.031044125556946E-1  -2.489883638918400E-2   1.816103905439377E-1  
 4.630000000000000E7     1.937540322542191E-1  -8.572650142014027E-3  -7.340369224548340E-1   6.438626646995544E-1  -7.328189015388489E-1   6.436944007873535E-1  -2.858797647058964E-2   1.915160566568375E-1  
 4.660000000000000E7     2.048326879739761E-1  -2.757259085774422E-2  -6.948395371437073E-1   6.826605796813965E-1  -6.948756575584412E-1   6.815346479415894E-1  -2.879296243190765E-2   2.038953751325607E-1  
 4.690000000000000E7     2.117832452058792E-1  -5.246204882860184E-2  -6.555040478706360E-1   7.172366976737976E-1  -6.537585258483887E-1   7.167990207672119E-1  -2.997774071991444E-2   2.182475477457047E-1  
 4.720000000000000E7     2.178709506988525E-1  -7.405138015747070E-2  -6.129049062728882E-1   7.501174807548523E-1  -6.125293374061585E-1   7.493641376495361E-1  -2.672131732106209E-2   2.260247617959976E-1  
 4.750000000000000E7     2.199759781360626E-1  -9.446437656879425E-2  -5.696464776992798E-1   7.805709242820740E-1  -5.699768662452698E-1   7.802040576934815E-1  -2.300534956157208E-2   2.396413534879684E-1  
 4.780000000000000E7     2.229451835155487E-1  -1.146413907408714E-1  -5.249937772750855E-1   8.085991740226746E-1  -5.254716873168945E-1   8.066918849945068E-1  -1.346235908567905E-2   2.478772550821304E-1  
 4.810000000000000E7     2.192579805850983E-1  -1.369421631097794E-1  -4.803661704063416E-1   8.334417343139648E-1  -4.791847765445709E-1   8.320711851119995E-1  -4.537762142717838E-3   2.575119435787201E-1  
 4.840000000000000E7     2.153812497854233E-1  -1.550874412059784E-1  -4.340630173683167E-1   8.559197783470154E-1  -4.324211478233337E-1   8.552474379539490E-1   6.145863328129053E-3   2.629538774490356E-1  
 4.870000000000000E7     2.100802659988403E-1  -1.712016761302948E-1  -3.854264914989471E-1   8.776367306709290E-1  -3.865037560462952E-1   8.755180835723877E-1   1.827321574091911E-2   2.692700028419495E-1  
 4.900000000000000E7     2.042623311281204E-1  -1.869421154260635E-1  -3.373187482357025E-1   8.947799801826477E-1  -3.368729352951050E-1   8.951129317283630E-1   3.067566268146038E-2   2.736154198646545E-1  
 4.930000000000000E7     1.974646002054215E-1  -2.029055058956146E-1  -2.876534461975098E-1   9.098702669143677E-1  -2.875266671180725E-1   9.105480909347534E-1   4.848106950521469E-2   2.761603295803070E-1  
 4.960000000000000E7     1.891850680112839E-1  -2.158501297235489E-1  -2.363040447235107E-1   9.239531755447388E-1  -2.364255785942078E-1   9.229725003242493E-1   6.125965341925621E-2   2.764110565185547E-1  
 4.990000000000000E7     1.819161027669907E-1  -2.263253331184387E-1  -1.851885318756104E-1   9.345053434371948E-1  -1.854209452867508E-1   9.331011176109314E-1   8.049171417951584E-2   2.761446535587311E-1  
 5.020000000000000E7     1.714962571859360E-1  -2.364729940891266E-1  -1.332859098911285E-1   9.419714212417603E-1  -1.348086744546890E-1   9.422487616539002E-1   1.011705100536346E-1   2.710173726081848E-1  
 5.050000000000000E7     1.626661121845245E-1  -2.443419694900513E-1  -8.049496263265610E-2   9.484519958496094E-1  -8.026037365198135E-2   9.476169943809509E-1   1.181242465972900E-1   2.651885747909546E-1  
 5.080000000000000E7     1.528882682323456E-1  -2.507470846176148E-1  -2.629360184073448E-2   9.504289627075195E-1  -2.735573053359985E-2   9.506387710571289E-1   1.407313644886017E-1   2.552114129066467E-1  
 5.110000000000000E7     1.450978368520737E-1  -2.561051249504089E-1   2.831855043768883E-2   9.499082565307617E-1   2.773771807551384E-2   9.501603245735169E-1   1.590650081634522E-1   2.435277700424194E-1  
 5.140000000000000E7     1.367129385471344E-1  -2.600716948509216E-1   8.290827274322510E-2   9.477608203887940E-1   8.450710773468018E-2   9.474121332168579E-1   1.798681765794754E-1   2.277098298072815E-1  
 5.170000000000000E7     1.328875422477722E-1  -2.631417810916901E-1   1.397570818662643E-1   9.389445781707764E-1   1.398581713438034E-1   9.407323598861694E-1   2.007082998752594E-1   2.095652669668198E-1  
 5.200000000000000E7     1.249718889594078E-1  -2.649094462394714E-1   1.966277211904526E-1   9.304438829421997E-1   1.950978785753250E-1   9.311544299125671E-1   2.213268280029297E-1   1.836334764957428E-1  
 5.230000000000000E7     1.215713694691658E-1  -2.635504603385925E-1   2.531237006187439E-1   9.173578023910523E-1   2.540741264820099E-1   9.170857071876526E-1   2.376953363418579E-1   1.607331633567810E-1  
 5.260000000000000E7     1.210601627826691E-1  -2.642469406127930E-1   3.108897805213928E-1   8.988863229751587E-1   3.105913698673248E-1   8.994759917259216E-1   2.552001774311066E-1   1.301735341548920E-1  
 5.290000000000000E7     1.179644763469696E-1  -2.662869691848755E-1   3.668385148048401E-1   8.780099749565125E-1   3.676326274871826E-1   8.772088885307312E-1   2.701652348041534E-1   9.636184573173523E-2  
 5.320000000000000E7     1.206574663519859E-1  -2.656859457492828E-1   4.242781996726990E-1   8.513569831848145E-1   4.248502552509308E-1   8.512902855873108E-1   2.807692289352417E-1   5.782698094844818E-2  
 5.350000000000000E7     1.253562271595001E-1  -2.656078338623047E-1   4.809083640575409E-1   8.197150230407715E-1   4.805057048797607E-1   8.193428516387940E-1   2.903381288051605E-1   1.897418685257435E-2  
 5.380000000000000E7     1.322782337665558E-1  -2.691830396652222E-1   5.351882576942444E-1   7.831234335899353E-1   5.351242423057556E-1   7.807834744453430E-1   2.972278892993927E-1  -2.753422781825066E-2  
 5.410000000000000E7     1.397834718227387E-1  -2.743736803531647E-1   5.886148214340210E-1   7.417722344398499E-1   5.877115726470947E-1   7.405501604080200E-1   2.940529286861420E-1  -7.541491836309433E-2  
 5.440000000000000E7     1.498932540416718E-1  -2.824760973453522E-1   6.381904482841492E-1   6.927216053009033E-1   6.376557946205139E-1   6.928991079330444E-1   2.886024713516235E-1  -1.275704056024551E-1  
 5.470000000000000E7     1.585308164358139E-1  -2.934825420379639E-1   6.832620501518250E-1   6.409696340560913E-1   6.836153864860535E-1   6.401224732398987E-1   2.756422162055969E-1  -1.812936514616013E-1  
 5.500000000000000E7     1.729622036218643E-1  -3.078745603561401E-1   7.260020971298218E-1   5.808210372924805E-1   7.247070074081421E-1   5.808117389678955E-1   2.571219801902771E-1  -2.352532595396042E-1  
 5.530000000000000E7     1.843475103378296E-1  -3.252603411674500E-1   7.620224952697754E-1   5.182382464408875E-1   7.615726590156555E-1   5.173457264900208E-1   2.275489568710327E-1  -2.899698317050934E-1  
 5.560000000000000E7     1.937854588031769E-1  -3.487327694892883E-1   7.928413152694702E-1   4.504551589488983E-1   7.908735275268555E-1   4.499625563621521E-1   1.928092837333679E-1  -3.443904519081116E-1  
 5.590000000000000E7     2.023913562297821E-1  -3.747963011264801E-1   8.146411180496216E-1   3.785213232040405E-1   8.144330978393555E-1   3.793224394321442E-1   1.481114327907562E-1  -3.941121101379395E-1  
 5.620000000000000E7     2.098296433687210E-1  -4.059757590293884E-1   8.290894627571106E-1   3.042922019958496E-1   8.280733823776245E-1   3.037238121032715E-1   9.852214157581329E-2  -4.421668350696564E-1  
 5.650000000000000E7     2.117670625448227E-1  -4.387651085853577E-1   8.355644941329956E-1   2.300596535205841E-1   8.338632583618164E-1   2.288685590028763E-1   3.649951145052910E-2  -4.842412769794464E-1  
 5.680000000000000E7     2.088927775621414E-1  -4.780145883560181E-1   8.324859738349915E-1   1.549592465162277E-1   8.320479393005371E-1   1.552110910415649E-1  -3.062485158443451E-2  -5.168867707252502E-1  
 5.710000000000000E7     1.999633908271790E-1  -5.179015398025513E-1   8.206089735031128E-1   8.131514489650726E-2   8.204865455627441E-1   8.182680606842041E-2  -1.024921685457230E-1  -5.412089824676514E-1  
 5.740000000000000E7     1.865833699703217E-1  -5.604339241981506E-1   8.007886409759522E-1   1.034354418516159E-2   8.000466823577881E-1   1.194003969430924E-2  -1.774827837944031E-1  -5.602703690528870E-1  
 5.770000000000000E7     1.667776107788086E-1  -6.024689674377441E-1   7.711920142173767E-1  -5.460786074399948E-2   7.697356343269348E-1  -5.521275103092194E-2  -2.566418051719666E-1  -5.673519968986511E-1  
 5.800000000000000E7     1.386452019214630E-1  -6.431245803833008E-1   7.370547056198120E-1  -1.143911182880402E-1   7.361724972724915E-1  -1.161356791853905E-1  -3.331637680530548E-1  -5.620297193527222E-1  
 5.830000000000000E7     1.072236299514771E-1  -6.812217831611633E-1   6.959909796714783E-1  -1.690542995929718E-1   6.960070133209229E-1  -1.692916303873062E-1  -4.115811288356781E-1  -5.482935905456543E-1  
 5.860000000000000E7     6.878744810819626E-2  -7.173506021499634E-1   6.519176363945007E-1  -2.153956592082977E-1   6.524235606193543E-1  -2.153090536594391E-1  -4.862879216670990E-1  -5.266537666320801E-1  
 5.890000000000000E7     2.422351390123367E-2  -7.483732104301453E-1   6.032671928405762E-1  -2.547643184661865E-1   6.035567522048950E-1  -2.538564205169678E-1  -5.581378936767578E-1  -4.952103197574616E-1  
 5.920000000000000E7    -2.352683246135712E-2  -7.747691869735718E-1   5.550560355186462E-1  -2.866864502429962E-1   5.539537668228149E-1  -2.882578670978546E-1  -6.210571527481079E-1  -4.578823745250702E-1  
 5.950000000000000E7    -7.435230910778046E-2  -7.950754165649414E-1   5.040493607521057E-1  -3.117673993110657E-1   5.033318400382996E-1  -3.124751746654511E-1  -6.811388731002808E-1  -4.131130874156952E-1  
 5.980000000000000E7    -1.282773464918137E-1  -8.108392357826233E-1   4.558008313179016E-1  -3.310049474239349E-1   4.541530907154083E-1  -3.302129209041596E-1  -7.337764501571655E-1  -3.646679222583771E-1  
 6.010000000000000E7    -1.826069056987763E-1  -8.204805850982666E-1   4.068182408809662E-1  -3.412694931030273E-1   4.055470824241638E-1  -3.409623205661774E-1  -7.793382406234741E-1  -3.122666180133820E-1  
 6.040000000000000E7    -2.392372190952301E-1  -8.253858685493469E-1   3.602588474750519E-1  -3.483253717422485E-1   3.610415458679199E-1  -3.491332530975342E-1  -8.178687691688538E-1  -2.571495175361633E-1  
 6.070000000000000E7    -2.936041355133057E-1  -8.255802392959595E-1   3.176555335521698E-1  -3.504192531108856E-1   3.175501823425293E-1  -3.499037921428680E-1  -8.497517108917236E-1  -2.007991522550583E-1  
 6.100000000000000E7    -3.476795852184296E-1  -8.179619312286377E-1   2.777259647846222E-1  -3.495897352695465E-1   2.770079970359802E-1  -3.491330444812775E-1  -8.766514062881470E-1  -1.447292268276215E-1  
 6.130000000000000E7    -4.022364020347595E-1  -8.087577819824219E-1   2.400054037570953E-1  -3.444114327430725E-1   2.400553673505783E-1  -3.439826667308807E-1  -8.967761993408203E-1  -8.737538754940033E-2  
 6.160000000000000E7    -4.539508521556854E-1  -7.937486171722412E-1   2.050315141677856E-1  -3.369006812572479E-1   2.053189724683762E-1  -3.367576301097870E-1  -9.118113517761231E-1  -3.154098615050316E-2  
 6.190000000000000E7    -5.038294196128845E-1  -7.744637727737427E-1   1.738279014825821E-1  -3.264806568622589E-1   1.729185432195664E-1  -3.270070850849152E-1  -9.219488501548767E-1   2.389877289533615E-2  
 6.220000000000000E7    -5.510563850402832E-1  -7.523321509361267E-1   1.454056501388550E-1  -3.152034282684326E-1   1.459509730339050E-1  -3.154203593730927E-1  -9.277871847152710E-1   7.550233602523804E-2  
 6.250000000000000E7    -5.972425341606140E-1  -7.270752787590027E-1   1.207278370857239E-1  -3.028362691402435E-1   1.204368919134140E-1  -3.029429614543915E-1  -9.310334920883179E-1   1.261317878961563E-1  
 6.280000000000000E7    -6.399704217910767E-1  -6.982693672180176E-1   9.787297248840332E-2  -2.893857955932617E-1   9.840046614408493E-2  -2.889378368854523E-1  -9.289546012878418E-1   1.748314797878265E-1  
 6.310000000000000E7    -6.816385984420776E-1  -6.670383214950562E-1   7.806507498025894E-2  -2.764406204223633E-1   7.791307568550110E-2  -2.756919562816620E-1  -9.261261224746704E-1   2.232393026351929E-1  
 6.340000000000000E7    -7.181611061096191E-1  -6.343375444412231E-1   6.017165631055832E-2  -2.620114088058472E-1   6.001701951026917E-2  -2.618766129016876E-1  -9.200375080108643E-1   2.679190635681152E-1  
 6.370000000000000E7    -7.532902956008911E-1  -5.997424721717835E-1   4.464058578014374E-2  -2.480697035789490E-1   4.429671168327332E-2  -2.482015192508698E-1  -9.104523658752441E-1   3.106483221054077E-1  
 6.400000000000000E7    -7.855677008628845E-1  -5.628001093864441E-1   3.090665489435196E-2  -2.344967424869537E-1   3.016982227563858E-2  -2.338055521249771E-1  -9.005756378173828E-1   3.509606122970581E-1  
 6.430000000000000E7    -8.161990046501160E-1  -5.250304341316223E-1   1.900574937462807E-2  -2.205626517534256E-1   1.829708367586136E-2  -2.203441709280014E-1  -8.885430097579956E-1   3.902090191841126E-1  
 6.460000000000000E7    -8.435153961181641E-1  -4.872603416442871E-1   8.205372840166092E-3  -2.068307846784592E-1   8.342124521732330E-3  -2.066643983125687E-1  -8.738054633140564E-1   4.259705543518066E-1  
 6.490000000000000E7    -8.678782582283020E-1  -4.485658407211304E-1  -4.012957215309143E-4  -1.937566548585892E-1  -9.289383888244629E-5  -1.937418431043625E-1  -8.602416515350342E-1   4.601072371006012E-1  
 6.520000000000000E7    -8.903129696846008E-1  -4.077886343002319E-1  -7.690964266657829E-3  -1.812436729669571E-1  -7.954845204949379E-3  -1.811658591032028E-1  -8.449565768241882E-1   4.934104979038239E-1  
 6.550000000000000E7    -9.095246195793152E-1  -3.670150935649872E-1  -1.421341672539711E-2  -1.693233251571655E-1  -1.435913331806660E-2  -1.691288799047470E-1  -8.279512524604797E-1   5.244045257568359E-1  
 6.580000000000000E7    -9.276721477508545E-1  -3.250560760498047E-1  -1.987756974995136E-2  -1.579917669296265E-1  -1.985382661223412E-2  -1.575392931699753E-1  -8.116235136985779E-1   5.538561344146729E-1  
 6.610000000000000E7    -9.421877861022949E-1  -2.820531725883484E-1  -2.425294183194637E-2  -1.467918455600739E-1  -2.484980970621109E-2  -1.462253481149674E-1  -7.936010956764221E-1   5.827596187591553E-1  
 6.640000000000000E7    -9.563897848129273E-1  -2.418103367090225E-1  -2.800723537802696E-2  -1.363437622785568E-1  -2.773337811231613E-2  -1.362277269363403E-1  -7.755470275878906E-1   6.089619398117065E-1  
 6.670000000000000E7    -9.667305946350098E-1  -1.986703425645828E-1  -3.102493658661842E-2  -1.262404769659042E-1  -3.071297705173492E-2  -1.261228024959564E-1  -7.578164935112000E-1   6.323027610778809E-1  
 6.700000000000000E7    -9.755451679229736E-1  -1.563674658536911E-1  -3.317908942699432E-2  -1.165604814887047E-1  -3.330741822719574E-2  -1.163479536771774E-1  -7.380793094635010E-1   6.561231613159180E-1  
 6.730000000000000E7    -9.825772047042847E-1  -1.141595542430878E-1  -3.489604592323303E-2  -1.074987053871155E-1  -3.524436056613922E-2  -1.074809581041336E-1  -7.200818061828613E-1   6.783076524734497E-1  
 6.760000000000000E7    -9.873391389846802E-1  -7.260261476039887E-2  -3.643944859504700E-2  -9.938354790210724E-2  -3.616975992918015E-2  -9.904263913631439E-2  -6.999927759170532E-1   6.995272636413574E-1  
 6.790000000000000E7    -9.904323816299439E-1  -3.008423745632172E-2  -3.699841722846031E-2  -9.130102396011353E-2  -3.709392994642258E-2  -9.113994985818863E-2  -6.811686754226685E-1   7.193669676780701E-1  
 6.820000000000000E7    -9.911727905273438E-1   1.150588691234589E-2  -3.753359615802765E-2  -8.372397720813751E-2  -3.736373037099838E-2  -8.360009640455246E-2  -6.617094278335571E-1   7.377576828002930E-1  
 6.850000000000000E7    -9.912646412849426E-1   5.311651527881622E-2  -3.734023496508598E-2  -7.681610435247421E-2  -3.731201216578484E-2  -7.675923407077789E-2  -6.425628066062927E-1   7.551391124725342E-1  
 6.880000000000000E7    -9.882200360298157E-1   9.369501471519470E-2  -3.727306425571442E-2  -7.024888694286346E-2  -3.721265494823456E-2  -6.996173411607742E-2  -6.225023865699768E-1   7.719449996948242E-1  
 6.910000000000000E7    -9.835293889045715E-1   1.344941258430481E-1  -3.679908066987991E-2  -6.418335437774658E-2  -3.669798746705055E-2  -6.398211419582367E-2  -6.031100749969482E-1   7.887420654296875E-1  
 6.940000000000000E7    -9.786391258239746E-1   1.740654855966568E-1  -3.588733449578285E-2  -5.839775875210762E-2  -3.591497987508774E-2  -5.837229639291763E-2  -5.845358967781067E-1   8.031051158905029E-1  
 6.970000000000000E7    -9.701439738273621E-1   2.144031524658203E-1  -3.512137010693550E-2  -5.298457294702530E-2  -3.523057699203491E-2  -5.298352986574173E-2  -5.647422075271606E-1   8.174782395362854E-1  
 7.000000000000000E7    -9.618936777114868E-1   2.535024881362915E-1  -3.405152261257172E-2  -4.807765036821365E-2  -3.406095504760742E-2  -4.791857302188873E-2  -5.458099842071533E-1   8.315514922142029E-1  
