#  HZ   S   RI   R     50.00 
! Rohde & Schwarz ZVT8 8Ports - Version 4.11 - 1300.0000k08 SN: 100242
! Date: 2026-07-31 15:05:32
! Measurements: S11 S21 S12 S22 
! 
 1.000000000000000E7    -3.988988995552063E-1   9.127743244171143E-1   5.258625745773315E-2   5.309613794088364E-2   5.234546214342117E-2   5.290144681930542E-2  -9.192541837692261E-1   3.827448785305023E-1  
 1.030000000000000E7    -3.660218715667725E-1   9.254322052001953E-1   5.584660917520523E-2   5.333310738205910E-2   5.552994459867477E-2   5.334952473640442E-2  -9.139434099197388E-1   3.950776457786560E-1  
 1.060000000000000E7    -3.294883370399475E-1   9.382226467132568E-1   5.930111557245255E-2   5.438331514596939E-2   5.928953364491463E-2   5.406349152326584E-2  -9.102776646614075E-1   4.066906571388245E-1  
 1.090000000000000E7    -2.966734170913696E-1   9.486914873123169E-1   6.283416599035263E-2   5.464458093047142E-2   6.267551332712174E-2   5.470738187432289E-2  -9.047453403472900E-1   4.180526137351990E-1  
 1.120000000000000E7    -2.605794966220856E-1   9.580709338188171E-1   6.672500073909760E-2   5.551148578524590E-2   6.638643145561218E-2   5.507193133234978E-2  -8.986879587173462E-1   4.295340776443481E-1  
 1.150000000000000E7    -2.243165373802185E-1   9.680899977684021E-1   7.031903415918350E-2   5.528977513313294E-2   7.011930644512177E-2   5.531268566846848E-2  -8.920177817344666E-1   4.386589527130127E-1  
 1.180000000000000E7    -1.886525154113770E-1   9.733611345291138E-1   7.403019070625305E-2   5.573429912328720E-2   7.412514835596085E-2   5.560766160488129E-2  -8.877214193344116E-1   4.493029713630676E-1  
 1.210000000000000E7    -1.527982950210571E-1   9.799916744232178E-1   7.838351279497147E-2   5.606297403573990E-2   7.812923192977905E-2   5.584117025136948E-2  -8.800863623619080E-1   4.611262679100037E-1  
 1.240000000000000E7    -1.166741847991943E-1   9.837797284126282E-1   8.233019709587097E-2   5.596163868904114E-2   8.254746347665787E-2   5.568794161081314E-2  -8.739326000213623E-1   4.710888862609863E-1  
 1.270000000000000E7    -7.916711270809174E-2   9.871333241462708E-1   8.721227198839188E-2   5.540064349770546E-2   8.684670180082321E-2   5.527640134096146E-2  -8.673568367958069E-1   4.850268363952637E-1  
 1.300000000000000E7    -4.299360886216164E-2   9.895277023315430E-1   9.131428599357605E-2   5.522359535098076E-2   9.128474444150925E-2   5.512497946619988E-2  -8.598774075508118E-1   4.950421452522278E-1  
 1.330000000000000E7    -5.261845886707306E-3   9.907295703887940E-1   9.632131457328796E-2   5.494922026991844E-2   9.625519067049027E-2   5.444777011871338E-2  -8.530890345573425E-1   5.070999860763550E-1  
 1.360000000000000E7     3.407521545886993E-2   9.899674057960510E-1   1.012360900640488E-1   5.445015057921410E-2   1.012519299983978E-1   5.373290181159973E-2  -8.460865020751953E-1   5.156685113906860E-1  
 1.390000000000000E7     7.035786658525467E-2   9.870614409446716E-1   1.062808409333229E-1   5.323842912912369E-2   1.058917269110680E-1   5.344093590974808E-2  -8.388645052909851E-1   5.272696614265442E-1  
 1.420000000000000E7     1.100414693355560E-1   9.837467670440674E-1   1.110407412052155E-1   5.232501775026321E-2   1.112174913287163E-1   5.232955142855644E-2  -8.321974277496338E-1   5.376898050308228E-1  
 1.450000000000000E7     1.478263884782791E-1   9.770528078079224E-1   1.167046204209328E-1   5.099616199731827E-2   1.165438219904900E-1   5.100318044424057E-2  -8.223758935928345E-1   5.499158501625061E-1  
 1.480000000000000E7     1.875459551811218E-1   9.701371788978577E-1   1.224543899297714E-1   4.938090592622757E-2   1.223102062940598E-1   4.986065253615379E-2  -8.154892325401306E-1   5.598662495613098E-1  
 1.510000000000000E7     2.252183109521866E-1   9.606586098670960E-1   1.277107447385788E-1   4.777372255921364E-2   1.275765597820282E-1   4.781815409660339E-2  -8.048270344734192E-1   5.713843107223511E-1  
 1.540000000000000E7     2.627881467342377E-1   9.505115151405335E-1   1.334558278322220E-1   4.698776081204414E-2   1.335263848304749E-1   4.629461094737053E-2  -7.991183996200562E-1   5.805214643478394E-1  
 1.570000000000000E7     3.022112250328064E-1   9.393493533134460E-1   1.398979276418686E-1   4.416366294026375E-2   1.396779567003250E-1   4.405047744512558E-2  -7.892363667488098E-1   5.922482013702393E-1  
 1.600000000000000E7     3.412137329578400E-1   9.238922595977783E-1   1.458074897527695E-1   4.167363792657852E-2   1.461014300584793E-1   4.134036973118782E-2  -7.802128195762634E-1   6.013967394828796E-1  
 1.630000000000000E7     3.785916864871979E-1   9.079532623291016E-1   1.529846489429474E-1   3.850060701370239E-2   1.524653583765030E-1   3.874507173895836E-2  -7.708595395088196E-1   6.132661700248718E-1  
 1.660000000000000E7     4.162388443946838E-1   8.891813158988953E-1   1.597225368022919E-1   3.538109734654427E-2   1.595069169998169E-1   3.501006588339806E-2  -7.600209116935730E-1   6.238361001014710E-1  
 1.690000000000000E7     4.537127912044525E-1   8.702233433723450E-1   1.668486148118973E-1   3.246208280324936E-2   1.664656400680542E-1   3.214107081294060E-2  -7.506282329559326E-1   6.332171559333801E-1  
 1.720000000000000E7     4.928636550903320E-1   8.484938144683838E-1   1.733562797307968E-1   2.762719243764877E-2   1.736391782760620E-1   2.821926958858967E-2  -7.402187585830689E-1   6.433178782463074E-1  
 1.750000000000000E7     5.253136754035950E-1   8.272772431373596E-1   1.816307157278061E-1   2.499599754810333E-2   1.818713545799255E-1   2.440745010972023E-2  -7.307267785072327E-1   6.545814275741577E-1  
 1.780000000000000E7     5.638745427131653E-1   7.976243495941162E-1   1.884259283542633E-1   1.930676400661469E-2   1.887789517641068E-1   1.956522651016712E-2  -7.184492945671082E-1   6.624044179916382E-1  
 1.810000000000000E7     5.984327793121338E-1   7.713416218757629E-1   1.979155093431473E-1   1.442074775695801E-2   1.964432448148727E-1   1.376399025321007E-2  -7.070865631103516E-1   6.752032041549683E-1  
 1.840000000000000E7     6.349947452545166E-1   7.403476834297180E-1   2.063962072134018E-1   7.316587492823601E-3   2.052231580018997E-1   7.784998044371605E-3  -6.947999000549316E-1   6.848029494285584E-1  
 1.870000000000000E7     6.670573353767395E-1   7.086898684501648E-1   2.145425528287888E-1   1.599196344614029E-3   2.136448472738266E-1   1.178290694952011E-3  -6.822496652603149E-1   6.934858560562134E-1  
 1.900000000000000E7     7.000925540924072E-1   6.733840703964233E-1   2.234448641538620E-1  -5.469806492328644E-3   2.228617370128632E-1  -5.879377014935017E-3  -6.696751713752747E-1   7.028133869171143E-1  
 1.930000000000000E7     7.319754362106323E-1   6.347324252128601E-1   2.322716861963272E-1  -1.477145031094551E-2   2.326680123806000E-1  -1.373960450291634E-2  -6.563339829444885E-1   7.140197157859802E-1  
 1.960000000000000E7     7.626322507858276E-1   5.930889844894409E-1   2.416150867938995E-1  -2.341963350772858E-2   2.414914965629578E-1  -2.266442775726318E-2  -6.439543366432190E-1   7.212680578231812E-1  
 1.990000000000000E7     7.892573475837708E-1   5.506541132926941E-1   2.514108121395111E-1  -3.342226892709732E-2   2.515493035316467E-1  -3.352479264140129E-2  -6.270295381546021E-1   7.325643301010132E-1  
 2.020000000000000E7     8.166096210479736E-1   5.035524368286133E-1   2.619004547595978E-1  -4.420741647481918E-2   2.609893083572388E-1  -4.399354383349419E-2  -6.131755113601685E-1   7.389523983001709E-1  
 2.050000000000000E7     8.428693413734436E-1   4.528174996376038E-1   2.721063494682312E-1  -5.638281255960465E-2   2.702668011188507E-1  -5.648395791649818E-2  -5.978101491928101E-1   7.472481727600098E-1  
 2.080000000000000E7     8.639463782310486E-1   3.982641398906708E-1   2.828533053398132E-1  -7.038639485836029E-2   2.826997339725494E-1  -7.039846479892731E-2  -5.816572308540344E-1   7.565873265266419E-1  
 2.110000000000000E7     8.836145997047424E-1   3.414156436920166E-1   2.936227023601532E-1  -8.690501004457474E-2   2.935127913951874E-1  -8.690546452999115E-2  -5.639106631278992E-1   7.636367082595825E-1  
 2.140000000000000E7     8.994349837303162E-1   2.809381783008575E-1   3.046135902404785E-1  -1.050887107849121E-1   3.035225272178650E-1  -1.037005931138992E-1  -5.461511015892029E-1   7.701662778854370E-1  
 2.170000000000000E7     9.105885624885559E-1   2.169633805751801E-1   3.153743743896484E-1  -1.242470964789391E-1   3.154442012310028E-1  -1.229580938816071E-1  -5.277555584907532E-1   7.757962942123413E-1  
 2.200000000000000E7     9.177548885345459E-1   1.460105776786804E-1   3.253020346164703E-1  -1.466871201992035E-1   3.254981040954590E-1  -1.462551206350327E-1  -5.063226222991943E-1   7.807444334030151E-1  
 2.230000000000000E7     9.177106022834778E-1   7.290248572826386E-2   3.354024291038513E-1  -1.719046682119370E-1   3.351859450340271E-1  -1.708696484565735E-1  -4.858672916889191E-1   7.842785120010376E-1  
 2.260000000000000E7     9.116257429122925E-1  -5.493022501468658E-3   3.439827561378479E-1  -2.002420127391815E-1   3.458689451217651E-1  -2.004324793815613E-1  -4.647287726402283E-1   7.862213850021362E-1  
 2.290000000000000E7     8.965671062469482E-1  -8.807120472192764E-2   3.519018888473511E-1  -2.324219644069672E-1   3.534238040447235E-1  -2.319451719522476E-1  -4.401561021804810E-1   7.865523099899292E-1  
 2.320000000000000E7     8.699939250946045E-1  -1.728058457374573E-1   3.583488762378693E-1  -2.695928514003754E-1   3.576167225837708E-1  -2.694998681545258E-1  -4.173423945903778E-1   7.874814867973328E-1  
 2.350000000000000E7     8.309379220008850E-1  -2.627274096012116E-1   3.608253002166748E-1  -3.120336234569550E-1   3.605358600616455E-1  -3.102763295173645E-1  -3.928236365318298E-1   7.829612493515015E-1  
 2.380000000000000E7     7.776681184768677E-1  -3.528680205345154E-1   3.593843877315521E-1  -3.569326400756836E-1   3.600313067436218E-1  -3.568001687526703E-1  -3.680262267589569E-1   7.759640216827393E-1  
 2.410000000000000E7     7.058046460151672E-1  -4.428530633449554E-1   3.508951663970947E-1  -4.091133773326874E-1   3.510690033435822E-1  -4.080035090446472E-1  -3.422009646892548E-1   7.652059793472290E-1  
 2.440000000000000E7     6.124581098556519E-1  -5.259525775909424E-1   3.354798555374146E-1  -4.663966596126556E-1   3.349556922912598E-1  -4.662229418754578E-1  -3.194489181041718E-1   7.496406435966492E-1  
 2.470000000000000E7     4.968616664409638E-1  -6.003172993659973E-1   3.084829747676849E-1  -5.276694297790527E-1   3.096354901790619E-1  -5.253698229789734E-1  -2.948172688484192E-1   7.284767627716065E-1  
 2.500000000000000E7     3.561678826808929E-1  -6.582095026969910E-1   2.680532932281494E-1  -5.890634059906006E-1   2.679723799228668E-1  -5.891585350036621E-1  -2.761784791946411E-1   7.047116160392761E-1  
 2.530000000000000E7     1.921443194150925E-1  -6.873886585235596E-1   2.133572548627853E-1  -6.507785320281982E-1   2.129324674606323E-1  -6.500157117843628E-1  -2.622281610965729E-1   6.731356978416443E-1  
 2.560000000000000E7     1.126206666231155E-2  -6.790786981582642E-1   1.384510546922684E-1  -7.045869827270508E-1   1.381406188011169E-1  -7.051878571510315E-1  -2.574673295021057E-1   6.379826068878174E-1  
 2.590000000000000E7    -1.724535524845123E-1  -6.201764345169067E-1   4.567965120077133E-2  -7.466934919357300E-1   4.705367237329483E-2  -7.467839121818543E-1  -2.602012455463409E-1   6.046158671379089E-1  
 2.620000000000000E7    -3.467599451541901E-1  -5.094595551490784E-1  -6.044370308518410E-2  -7.672849893569946E-1  -5.912187695503235E-2  -7.661757469177246E-1  -2.732745409011841E-1   5.696735382080078E-1  
 2.650000000000000E7    -4.919765591621399E-1  -3.501563072204590E-1  -1.719428598880768E-1  -7.602196931838989E-1  -1.729114800691605E-1  -7.606145143508911E-1  -3.006291687488556E-1   5.407567024230957E-1  
 2.680000000000000E7    -5.851458907127380E-1  -1.532384157180786E-1  -2.809774577617645E-1  -7.261303663253784E-1  -2.814761400222778E-1  -7.249632477760315E-1  -3.354343473911285E-1   5.227149128913879E-1  
 2.710000000000000E7    -6.183878779411316E-1   5.610566958785057E-2  -3.771203160285950E-1  -6.661840081214905E-1  -3.768644332885742E-1  -6.668460369110107E-1  -3.708988428115845E-1   5.176869630813599E-1  
 2.740000000000000E7    -5.956873893737793E-1   2.637392580509186E-1  -4.504267573356628E-1  -5.891476273536682E-1  -4.506166279315949E-1  -5.866305828094482E-1  -4.095756113529205E-1   5.239896774291992E-1  
 2.770000000000000E7    -5.230094194412231E-1   4.434776902198792E-1  -5.030770897865295E-1  -5.015535354614258E-1  -5.027749538421631E-1  -5.017304420471191E-1  -4.416298866271973E-1   5.420335531234741E-1  
 2.800000000000000E7    -4.173701107501984E-1   5.918552875518799E-1  -5.322387218475342E-1  -4.120399355888367E-1  -5.313252806663513E-1  -4.121027588844299E-1  -4.683323800563812E-1   5.653033852577210E-1  
 2.830000000000000E7    -2.921537458896637E-1   7.012527585029602E-1  -5.421704649925232E-1  -3.297272026538849E-1  -5.422195792198181E-1  -3.307441473007202E-1  -4.851894080638886E-1   5.940052866935730E-1  
 2.860000000000000E7    -1.591482162475586E-1   7.757526636123657E-1  -5.380247235298157E-1  -2.555446326732636E-1  -5.391610860824585E-1  -2.542737722396851E-1  -4.949274659156799E-1   6.267641782760620E-1  
 2.890000000000000E7    -2.825900912284851E-2   8.192721605300903E-1  -5.256780982017517E-1  -1.900180578231812E-1  -5.244605541229248E-1  -1.899850666522980E-1  -4.989438354969025E-1   6.577640175819397E-1  
 2.920000000000000E7     9.769614785909653E-2   8.395516872406006E-1  -5.037100315093994E-1  -1.351016759872437E-1  -5.039451122283936E-1  -1.337385624647141E-1  -4.973788857460022E-1   6.875646710395813E-1  
 2.950000000000000E7     2.115405499935150E-1   8.379672765731812E-1  -4.802431464195252E-1  -8.821010589599609E-2  -4.797211289405823E-1  -8.758132904767990E-2  -4.908583164215088E-1   7.185167074203491E-1  
 2.980000000000000E7     3.160927891731262E-1   8.243502378463745E-1  -4.530891776084900E-1  -4.949919134378433E-2  -4.532490372657776E-1  -4.966371878981590E-2  -4.813359975814819E-1   7.451201081275940E-1  
 3.010000000000000E7     4.103339016437531E-1   7.982979416847229E-1  -4.268235862255096E-1  -1.660207286477089E-2  -4.258630275726318E-1  -1.728257909417152E-2  -4.690338969230652E-1   7.702190876007080E-1  
 3.040000000000000E7     4.937584400177002E-1   7.642574906349182E-1  -4.001475870609283E-1   8.150954730808735E-3  -4.000206291675568E-1   8.427324704825878E-3  -4.530738592147827E-1   7.929006218910217E-1  
 3.070000000000000E7     5.694705843925476E-1   7.232833504676819E-1  -3.742298781871796E-1   3.172774985432625E-2  -3.740710616111755E-1   3.107317537069321E-2  -4.366154670715332E-1   8.139045834541321E-1  
 3.100000000000000E7     6.347293257713318E-1   6.799109578132629E-1  -3.501823246479034E-1   4.901320487260819E-2  -3.493916094303131E-1   4.936037957668304E-2  -4.190681576728821E-1   8.335521817207336E-1  
 3.130000000000000E7     6.911678910255432E-1   6.331137418746948E-1  -3.258972764015198E-1   6.367684155702591E-2  -3.255982100963593E-1   6.288677453994751E-2  -3.999718427658081E-1   8.502601385116577E-1  
 3.160000000000000E7     7.425077557563782E-1   5.838733315467835E-1  -3.043108582496643E-1   7.508774101734161E-2  -3.043525516986847E-1   7.480134069919586E-2  -3.812921643257141E-1   8.673290610313416E-1  
 3.190000000000000E7     7.859635353088379E-1   5.343942046165466E-1  -2.830731272697449E-1   8.452647179365158E-2  -2.825066149234772E-1   8.452560752630234E-2  -3.603647053241730E-1   8.819237947463989E-1  
 3.220000000000000E7     8.247799277305603E-1   4.843313992023468E-1  -2.632528543472290E-1   9.134432673454285E-2  -2.627464532852173E-1   9.191443026065826E-2  -3.401722908020020E-1   8.944804668426514E-1  
 3.250000000000000E7     8.581471443176270E-1   4.336163103580475E-1  -2.450302243232727E-1   9.741887450218201E-2  -2.447932362556458E-1   9.775055944919586E-2  -3.195666670799255E-1   9.087989330291748E-1  
 3.280000000000000E7     8.853847384452820E-1   3.809587359428406E-1  -2.276278585195541E-1   1.019477769732475E-1  -2.261993288993835E-1   1.020579263567925E-1  -2.975117564201355E-1   9.189740419387817E-1  
 3.310000000000000E7     9.094983935356140E-1   3.306815028190613E-1  -2.103027552366257E-1   1.052102297544479E-1  -2.101800292730331E-1   1.054483130574226E-1  -2.742423117160797E-1   9.297038316726685E-1  
 3.340000000000000E7     9.304819703102112E-1   2.808864116668701E-1  -1.952026188373566E-1   1.082303524017334E-1  -1.944859623908997E-1   1.076297909021378E-1  -2.513107061386108E-1   9.383191466331482E-1  
 3.370000000000000E7     9.455094933509827E-1   2.305460572242737E-1  -1.801459640264511E-1   1.090278476476669E-1  -1.799527257680893E-1   1.088261082768440E-1  -2.291446328163147E-1   9.480323791503906E-1  
 3.400000000000000E7     9.588143229484558E-1   1.809938102960587E-1  -1.664860546588898E-1   1.100097298622131E-1  -1.664711385965347E-1   1.096700727939606E-1  -2.051747143268585E-1   9.544049501419067E-1  
 3.430000000000000E7     9.696831107139587E-1   1.324024051427841E-1  -1.533218920230866E-1   1.102438792586327E-1  -1.531337797641754E-1   1.098292693495750E-1  -1.817046999931335E-1   9.614528417587280E-1  
 3.460000000000000E7     9.768148064613342E-1   8.419089019298554E-2  -1.412221789360046E-1   1.095851585268974E-1  -1.415071487426758E-1   1.095588505268097E-1  -1.572278738021851E-1   9.690775871276856E-1  
 3.490000000000000E7     9.816205501556397E-1   3.628441691398621E-2  -1.290978193283081E-1   1.091088652610779E-1  -1.293136775493622E-1   1.084953621029854E-1  -1.338024139404297E-1   9.719961881637573E-1  
 3.520000000000000E7     9.844553470611572E-1  -9.694561362266541E-3  -1.185825467109680E-1   1.071708872914314E-1  -1.186256855726242E-1   1.069532558321953E-1  -1.071788147091866E-1   9.783433079719544E-1  
 3.550000000000000E7     9.827001690864563E-1  -5.654130876064301E-2  -1.087244376540184E-1   1.051208972930908E-1  -1.085891649127007E-1   1.049849241971970E-1  -8.330173790454865E-2   9.830428361892700E-1  
 3.580000000000000E7     9.813802242279053E-1  -1.011907309293747E-1  -9.866750240325928E-2   1.029028519988060E-1  -9.865907579660416E-2   1.027018502354622E-1  -5.672655254602432E-2   9.846267104148865E-1  
 3.610000000000000E7     9.776816964149475E-1  -1.450698226690292E-1  -8.985419571399689E-2   1.007155925035477E-1  -8.941040933132172E-2   1.002895087003708E-1  -2.900098264217377E-2   9.887467622756958E-1  
 3.640000000000000E7     9.709461331367493E-1  -1.883658170700073E-1  -8.118297904729843E-2   9.729727357625961E-2  -8.106540143489838E-2   9.701398015022278E-2  -4.003062844276428E-3   9.894195199012756E-1  
 3.670000000000000E7     9.637006521224976E-1  -2.295648008584976E-1  -7.330770790576935E-2   9.420473873615265E-2  -7.289129495620728E-2   9.397986531257629E-2   2.278529107570648E-2   9.908285737037659E-1  
 3.700000000000000E7     9.535331130027771E-1  -2.702722549438477E-1  -6.547874212265015E-2   9.050783514976502E-2  -6.520272046327591E-2   9.039516001939774E-2   5.192352831363678E-2   9.901706576347351E-1  
 3.730000000000000E7     9.417327642440796E-1  -3.113377094268799E-1  -5.786995962262154E-2   8.638191968202591E-2  -5.807150155305862E-2   8.650948852300644E-2   7.779742777347565E-2   9.877765774726868E-1  
 3.760000000000000E7     9.285738468170166E-1  -3.487976193428040E-1  -5.103896558284760E-2   8.249247819185257E-2  -5.129870027303696E-2   8.259482681751251E-2   1.074615940451622E-1   9.868546724319458E-1  
 3.790000000000000E7     9.142327904701233E-1  -3.876144289970398E-1  -4.484557360410690E-2   7.839354872703552E-2  -4.470434784889221E-2   7.821419090032578E-2   1.364078521728516E-1   9.828310012817383E-1  
 3.820000000000000E7     8.988462686538696E-1  -4.255892634391785E-1  -3.897801041603088E-2   7.402031123638153E-2  -3.900526836514473E-2   7.381577789783478E-2   1.639962643384934E-1   9.789659976959229E-1  
 3.850000000000000E7     8.803861141204834E-1  -4.622048735618591E-1  -3.358487412333489E-2   6.925642490386963E-2  -3.322429209947586E-2   6.922189146280289E-2   1.943862736225128E-1   9.760957956314087E-1  
 3.880000000000000E7     8.618268966674805E-1  -4.963137507438660E-1  -2.808059751987457E-2   6.439622491598129E-2  -2.813830785453320E-2   6.416741013526917E-2   2.265780866146088E-1   9.689769744873047E-1  
 3.910000000000000E7     8.426117897033691E-1  -5.311783552169800E-1  -2.357662096619606E-2   5.919327586889267E-2  -2.342788502573967E-2   5.925590172410011E-2   2.580201923847199E-1   9.618168473243713E-1  
 3.940000000000000E7     8.205985426902771E-1  -5.625608563423157E-1  -1.941793411970139E-2   5.403497070074081E-2  -1.930793747305870E-2   5.380444601178169E-2   2.875686287879944E-1   9.525928497314453E-1  
 3.970000000000000E7     7.996609807014465E-1  -5.947584509849548E-1  -1.562232803553343E-2   4.857469350099564E-2  -1.557891536504030E-2   4.850629344582558E-2   3.180315792560577E-1   9.417064785957336E-1  
 4.000000000000000E7     7.755265831947327E-1  -6.253088116645813E-1  -1.215743459761143E-2   4.295931383967400E-2  -1.191942952573299E-2   4.288738593459129E-2   3.519798517227173E-1   9.317739009857178E-1  
 4.030000000000000E7     7.518067955970764E-1  -6.545931696891785E-1  -9.044829756021500E-3   3.721604123711586E-2  -9.035107679665089E-3   3.716887533664703E-2   3.833201527595520E-1   9.196606278419495E-1  
 4.060000000000000E7     7.266643643379211E-1  -6.827930808067322E-1  -6.521693430840969E-3   3.136822581291199E-2  -6.532072089612484E-3   3.128471970558167E-2   4.158748388290405E-1   9.048302173614502E-1  
 4.090000000000000E7     6.997087001800537E-1  -7.108212709426880E-1  -4.351179115474224E-3   2.529484964907169E-2  -4.394067451357842E-3   2.519136853516102E-2   4.479027390480042E-1   8.893640041351318E-1  
 4.120000000000000E7     6.734128594398499E-1  -7.366323471069336E-1  -2.673925133422017E-3   1.904901675879955E-2  -2.644872991368175E-3   1.904911920428276E-2   4.809969961643219E-1   8.721242547035217E-1  
 4.150000000000000E7     6.463283896446228E-1  -7.601627707481384E-1  -1.465835608541966E-3   1.281241141259670E-2  -1.490591559559107E-3   1.290344633162022E-2   5.149353146553040E-1   8.517118692398071E-1  
 4.180000000000000E7     6.168313026428223E-1  -7.846181988716126E-1  -6.206652033142746E-4   6.582825444638729E-3  -6.691731978207827E-4   6.448419298976660E-3   5.486399531364441E-1   8.315545320510864E-1  
 4.210000000000000E7     5.879058837890625E-1  -8.065783381462097E-1  -4.619966784957796E-4   1.464860542910174E-4  -4.595606005750597E-4   1.846782542997971E-4   5.835434198379517E-1   8.070799112319946E-1  
 4.240000000000000E7     5.576080679893494E-1  -8.265851736068726E-1  -7.751018274575472E-4  -6.207197438925505E-3  -5.868739681318402E-4  -6.217815913259983E-3   6.173915266990662E-1   7.814072370529175E-1  
 4.270000000000000E7     5.262693166732788E-1  -8.468992710113525E-1  -1.373087288811803E-3  -1.281789503991604E-2  -1.365456264466047E-3  -1.280562859028578E-2   6.512204408645630E-1   7.528977990150452E-1  
 4.300000000000000E7     4.941122233867645E-1  -8.659404516220093E-1  -2.809117315337062E-3  -1.925868541002274E-2  -2.760133473202586E-3  -1.929328590631485E-2   6.851247549057007E-1   7.229225635528565E-1  
 4.330000000000000E7     4.648576974868774E-1  -8.839327096939087E-1  -4.531760700047016E-3  -2.570627816021442E-2  -4.665498621761799E-3  -2.563858404755592E-2   7.175809144973755E-1   6.891751289367676E-1  
 4.360000000000000E7     4.310947954654694E-1  -8.989716172218323E-1  -7.047591730952263E-3  -3.219291940331459E-2  -7.106392178684473E-3  -3.198086842894554E-2   7.495196461677551E-1   6.540353894233704E-1  
 4.390000000000000E7     3.978019058704376E-1  -9.152760505676270E-1  -1.022931933403015E-2  -3.858130425214768E-2  -1.018989831209183E-2  -3.853105008602142E-2   7.811904549598694E-1   6.150393486022949E-1  
 4.420000000000000E7     3.643935620784760E-1  -9.273721575737000E-1  -1.375931315124035E-2  -4.458697140216827E-2  -1.371430978178978E-2  -4.457681253552437E-2   8.114274740219116E-1   5.735026001930237E-1  
 4.450000000000000E7     3.305625021457672E-1  -9.392789006233215E-1  -1.806451193988323E-2  -5.058899894356728E-2  -1.807022653520107E-2  -5.050845816731453E-2   8.412259817123413E-1   5.303055047988892E-1  
 4.480000000000000E7     2.969872057437897E-1  -9.501767754554749E-1  -2.308794856071472E-2  -5.631737038493156E-2  -2.307876944541931E-2  -5.630693957209587E-2   8.682784438133240E-1   4.825190305709839E-1  
 4.510000000000000E7     2.635678052902222E-1  -9.605150222778320E-1  -2.864160388708115E-2  -6.191524490714073E-2  -2.853849902749062E-2  -6.175279989838600E-2   8.944018483161926E-1   4.305865764617920E-1  
 4.540000000000000E7     2.287727743387222E-1  -9.680793285369873E-1  -3.486958891153336E-2  -6.653750687837601E-2  -3.469187393784523E-2  -6.672842055559158E-2   9.176915287971497E-1   3.764361143112183E-1  
 4.570000000000000E7     1.940434724092484E-1  -9.756305217742920E-1  -4.175098240375519E-2  -7.139430195093155E-2  -4.154402390122414E-2  -7.147186249494553E-2   9.377472400665283E-1   3.191387355327606E-1  
 4.600000000000000E7     1.618118733167648E-1  -9.802702665328980E-1  -4.930260032415390E-2  -7.583953440189362E-2  -4.920574650168419E-2  -7.593432068824768E-2   9.563467502593994E-1   2.595872879028320E-1  
 4.630000000000000E7     1.246138513088226E-1  -9.852987527847290E-1  -5.758884921669960E-2  -7.928200066089630E-2  -5.766864493489265E-2  -7.908797264099121E-2   9.706501960754395E-1   1.947085559368134E-1  
 4.660000000000000E7     8.942376077175140E-2  -9.891444444656372E-1  -6.616051495075226E-2  -8.185264468193054E-2  -6.611621379852295E-2  -8.196116983890533E-2   9.791396856307983E-1   1.278378218412399E-1  
 4.690000000000000E7     5.573481321334839E-2  -9.897502660751343E-1  -7.559546828269959E-2  -8.410166203975678E-2  -7.518748939037323E-2  -8.408470451831818E-2   9.857013225555420E-1   5.819329619407654E-2  
 4.720000000000000E7     2.086557447910309E-2  -9.898751974105835E-1  -8.530526608228684E-2  -8.538181334733963E-2  -8.513604104518890E-2  -8.517543226480484E-2   9.853351116180420E-1  -1.304759085178375E-2  
 4.750000000000000E7    -1.282817125320435E-2  -9.899982810020447E-1  -9.548396617174149E-2  -8.546736091375351E-2  -9.526732563972473E-2  -8.565308898687363E-2   9.818555712699890E-1  -8.795066177845001E-2  
 4.780000000000000E7    -4.639019817113876E-2  -9.879037141799927E-1  -1.058147773146629E-1  -8.513695746660233E-2  -1.057879626750946E-1  -8.520216494798660E-2   9.705464839935303E-1  -1.616353392601013E-1  
 4.810000000000000E7    -8.082391321659088E-2  -9.841265678405762E-1  -1.170301139354706E-1  -8.348970115184784E-2  -1.168354898691177E-1  -8.326876908540726E-2   9.537131190299988E-1  -2.392919808626175E-1  
 4.840000000000000E7    -1.140937656164169E-1  -9.802415966987610E-1  -1.280991137027741E-1  -8.056697994470596E-2  -1.279574632644653E-1  -8.003167808055878E-2   9.295046925544739E-1  -3.161278367042542E-1  
 4.870000000000000E7    -1.478585004806519E-1  -9.743465781211853E-1  -1.389388591051102E-1  -7.601080089807510E-2  -1.387538164854050E-1  -7.625829428434372E-2   8.989009261131287E-1  -3.917742073535919E-1  
 4.900000000000000E7    -1.809305697679520E-1  -9.683379530906677E-1  -1.495600342750549E-1  -7.076786458492279E-2  -1.497218608856201E-1  -7.069352269172669E-2   8.611288666725159E-1  -4.665542840957642E-1  
 4.930000000000000E7    -2.137966454029083E-1  -9.602313041687012E-1  -1.602635830640793E-1  -6.435128301382065E-2  -1.604195684194565E-1  -6.455126404762268E-2   8.159971237182617E-1  -5.398874282836914E-1  
 4.960000000000000E7    -2.444964349269867E-1  -9.496654868125916E-1  -1.699697524309158E-1  -5.652899667620659E-2  -1.699391901493073E-1  -5.594500526785851E-2   7.634757161140442E-1  -6.098123192787170E-1  
 4.990000000000000E7    -2.756647169589996E-1  -9.403498172760010E-1  -1.791019886732101E-1  -4.772851243615151E-2  -1.789180487394333E-1  -4.763413220643997E-2   7.050082683563232E-1  -6.744880080223084E-1  
 5.020000000000000E7    -3.058162331581116E-1  -9.310148358345032E-1  -1.880223453044891E-1  -3.756235167384148E-2  -1.881964206695557E-1  -3.787096217274666E-2   6.391167640686035E-1  -7.361530661582947E-1  
 5.050000000000000E7    -3.367878794670105E-1  -9.186578989028931E-1  -1.955572962760925E-1  -2.653329446911812E-2  -1.951421350240707E-1  -2.612225152552128E-2   5.675294399261475E-1  -7.904459238052368E-1  
 5.080000000000000E7    -3.658710122108460E-1  -9.065088033676148E-1  -2.019686996936798E-1  -1.421462371945381E-2  -2.022547274827957E-1  -1.472610607743263E-2   4.901624023914337E-1  -8.403326869010925E-1  
 5.110000000000000E7    -3.956660032272339E-1  -8.920460939407349E-1  -2.073071449995041E-1  -1.602274365723133E-3  -2.071584910154343E-1  -1.351234503090382E-3   4.085513949394226E-1  -8.811720013618469E-1  
 5.140000000000000E7    -4.239263534545898E-1  -8.775992989540100E-1  -2.115007489919663E-1   1.189130172133446E-2  -2.110126316547394E-1   1.199681311845779E-2   3.250764012336731E-1  -9.147539138793945E-1  
 5.170000000000000E7    -4.516636729240418E-1  -8.625184893608093E-1  -2.137872129678726E-1   2.487543784081936E-2  -2.137749195098877E-1   2.509518526494503E-2   2.384996116161346E-1  -9.400868415832520E-1  
 5.200000000000000E7    -4.795514047145844E-1  -8.482549190521240E-1  -2.154777944087982E-1   3.976048901677132E-2  -2.160750329494476E-1   3.938296437263489E-2   1.478776931762695E-1  -9.588075876235962E-1  
 5.230000000000000E7    -5.063225626945496E-1  -8.306914567947388E-1  -2.147529423236847E-1   5.365401878952980E-2  -2.146669477224350E-1   5.372678115963936E-2   5.939246714115143E-2  -9.656948447227478E-1  
 5.260000000000000E7    -5.317404866218567E-1  -8.126451969146729E-1  -2.132108360528946E-1   6.706270575523377E-2  -2.135153561830521E-1   6.755559146404266E-2  -2.910539507865906E-2  -9.679804444313049E-1  
 5.290000000000000E7    -5.586975216865540E-1  -7.946856021881104E-1  -2.111351191997528E-1   8.144071698188782E-2  -2.107704132795334E-1   8.093055337667465E-2  -1.155763715505600E-1  -9.617308378219605E-1  
 5.320000000000000E7    -5.834269523620606E-1  -7.773898243904114E-1  -2.068516463041306E-1   9.451657533645630E-2  -2.067531496286392E-1   9.432187676429749E-2  -1.997685134410858E-1  -9.474765062332153E-1  
 5.350000000000000E7    -6.067917943000794E-1  -7.576320171356201E-1  -2.010254561901093E-1   1.066567450761795E-1  -2.009069472551346E-1   1.063038706779480E-1  -2.798241376876831E-1  -9.245951175689697E-1  
 5.380000000000000E7    -6.300262212753296E-1  -7.378519773483276E-1  -1.952876746654511E-1   1.180712208151817E-1  -1.949266195297241E-1   1.179359406232834E-1  -3.583946824073792E-1  -8.981949090957642E-1  
 5.410000000000000E7    -6.559565663337708E-1  -7.171363830566406E-1  -1.882868856191635E-1   1.297508031129837E-1  -1.880467534065247E-1   1.293361335992813E-1  -4.303792715072632E-1  -8.671866059303284E-1  
 5.440000000000000E7    -6.780186891555786E-1  -6.948178410530090E-1  -1.802049577236176E-1   1.396028548479080E-1  -1.804299354553223E-1   1.395465284585953E-1  -4.991542696952820E-1  -8.291647434234619E-1  
 5.470000000000000E7    -6.988321542739868E-1  -6.738756299018860E-1  -1.723836660385132E-1   1.492567360401154E-1  -1.720810383558273E-1   1.489179134368897E-1  -5.618842840194702E-1  -7.884947061538696E-1  
 5.500000000000000E7    -7.213684320449829E-1  -6.508154869079590E-1  -1.632278263568878E-1   1.572225987911224E-1  -1.630299836397171E-1   1.567419320344925E-1  -6.196247339248657E-1  -7.430650591850281E-1  
 5.530000000000000E7    -7.419559359550476E-1  -6.277543902397156E-1  -1.538301259279251E-1   1.644440591335297E-1  -1.534535288810730E-1   1.649061590433121E-1  -6.732131242752075E-1  -6.954653263092041E-1  
 5.560000000000000E7    -7.625413537025452E-1  -6.024404168128967E-1  -1.442674100399017E-1   1.715588271617889E-1  -1.439361870288849E-1   1.710514277219772E-1  -7.214950919151306E-1  -6.456233263015747E-1  
 5.590000000000000E7    -7.820619344711304E-1  -5.790517330169678E-1  -1.343324780464172E-1   1.772507876157761E-1  -1.343355625867844E-1   1.772869825363159E-1  -7.649911046028137E-1  -5.960880517959595E-1  
 5.620000000000000E7    -8.005810976028442E-1  -5.513627529144287E-1  -1.239826530218124E-1   1.818318068981171E-1  -1.239833310246468E-1   1.813020557165146E-1  -8.033261895179749E-1  -5.429064631462097E-1  
 5.650000000000000E7    -8.176791071891785E-1  -5.274360179901123E-1  -1.140720546245575E-1   1.863608062267304E-1  -1.142220422625542E-1   1.857690811157227E-1  -8.370459079742432E-1  -4.902597367763519E-1  
 5.680000000000000E7    -8.352437019348145E-1  -5.005416870117188E-1  -1.042591333389282E-1   1.894899755716324E-1  -1.040482074022293E-1   1.894566565752029E-1  -8.673552870750427E-1  -4.373084902763367E-1  
 5.710000000000000E7    -8.515591621398926E-1  -4.720505475997925E-1  -9.425434470176697E-2   1.924709975719452E-1  -9.416072070598602E-2   1.921169012784958E-1  -8.910302519798279E-1  -3.858464360237122E-1  
 5.740000000000000E7    -8.677501678466797E-1  -4.446681141853333E-1  -8.447782695293427E-2   1.941257417201996E-1  -8.477808535099030E-2   1.939130425453186E-1  -9.139871597290039E-1  -3.340384960174561E-1  
 5.770000000000000E7    -8.810367584228516E-1  -4.172985255718231E-1  -7.531893253326416E-2   1.949142813682556E-1  -7.527997344732285E-2   1.946231275796890E-1  -9.303368926048279E-1  -2.812776565551758E-1  
 5.800000000000000E7    -8.949748277664185E-1  -3.872595429420471E-1  -6.609515100717545E-2   1.959738731384277E-1  -6.512916088104248E-2   1.953301727771759E-1  -9.450474977493286E-1  -2.317514866590500E-1  
 5.830000000000000E7    -9.076191782951355E-1  -3.582126796245575E-1  -5.659519508481026E-2   1.959659904241562E-1  -5.643604323267937E-2   1.956510692834854E-1  -9.559890627861023E-1  -1.816160678863525E-1  
 5.860000000000000E7    -9.203478693962097E-1  -3.285762369632721E-1  -4.771349206566811E-2   1.956834197044373E-1  -4.782363399863243E-2   1.957256942987442E-1  -9.655106663703919E-1  -1.333741247653961E-1  
 5.890000000000000E7    -9.302086234092712E-1  -2.986019849777222E-1  -3.949111700057983E-2   1.947227567434311E-1  -3.967528790235519E-2   1.949294358491898E-1  -9.710066914558411E-1  -8.551940321922302E-2  
 5.920000000000000E7    -9.403039813041687E-1  -2.670091092586517E-1  -3.093019500374794E-2   1.938015818595886E-1  -3.044340945780277E-2   1.934087574481964E-1  -9.748759865760803E-1  -4.053529724478722E-2  
 5.950000000000000E7    -9.486356973648071E-1  -2.361610978841782E-1  -2.311186678707600E-2   1.921549290418625E-1  -2.277730405330658E-2   1.917996406555176E-1  -9.756168723106384E-1   5.505566950887442E-3  
 5.980000000000000E7    -9.567711949348450E-1  -2.046406865119934E-1  -1.512669585645199E-2   1.906784772872925E-1  -1.531607843935490E-2   1.898942291736603E-1  -9.764223098754883E-1   4.846382141113281E-2  
 6.010000000000000E7    -9.620866775512695E-1  -1.743756681680679E-1  -8.529517799615860E-3   1.877269297838211E-1  -8.442141115665436E-3   1.874969303607941E-1  -9.731951355934143E-1   8.955652266740799E-2  
 6.040000000000000E7    -9.685696363449097E-1  -1.408529877662659E-1  -1.081994734704495E-3   1.852194219827652E-1  -9.430162608623505E-4   1.852823793888092E-1  -9.693675041198731E-1   1.304598748683929E-1  
 6.070000000000000E7    -9.743478298187256E-1  -1.102861016988754E-1   5.412485450506210E-3   1.827533990144730E-1   5.175128579139710E-3   1.825699955224991E-1  -9.633656740188599E-1   1.687539517879486E-1  
 6.100000000000000E7    -9.773301482200623E-1  -7.801953703165054E-2   1.224708184599876E-2   1.802800893783569E-1   1.212830469012260E-2   1.798036694526672E-1  -9.576277136802673E-1   2.068020403385162E-1  
 6.130000000000000E7    -9.804028868675232E-1  -4.467524588108063E-2   1.827278919517994E-2   1.769565194845200E-1   1.810881868004799E-2   1.767954528331757E-1  -9.493999481201172E-1   2.428307384252548E-1  
 6.160000000000000E7    -9.811535477638245E-1  -1.262632012367249E-2   2.404830791056156E-2   1.732446849346161E-1   2.404141798615456E-2   1.732572466135025E-1  -9.398683905601502E-1   2.780038714408875E-1  
 6.190000000000000E7    -9.812905192375183E-1   1.987181603908539E-2   2.951763384044170E-2   1.695070117712021E-1   2.972008474171162E-2   1.691767126321793E-1  -9.286558032035828E-1   3.125113248825073E-1  
 6.220000000000000E7    -9.809961318969727E-1   5.209301412105560E-2   3.475401178002358E-2   1.659712940454483E-1   3.443553298711777E-2   1.661614775657654E-1  -9.185400605201721E-1   3.430623412132263E-1  
 6.250000000000000E7    -9.791853427886963E-1   8.459627628326416E-2   3.931559622287750E-2   1.624568402767181E-1   3.949794918298721E-2   1.623583137989044E-1  -9.073544144630432E-1   3.739612102508545E-1  
 6.280000000000000E7    -9.753988385200501E-1   1.172142848372459E-1   4.398433864116669E-2   1.585517972707748E-1   4.351092129945755E-2   1.587031185626984E-1  -8.947121500968933E-1   4.034249782562256E-1  
 6.310000000000000E7    -9.712054133415222E-1   1.506994664669037E-1   4.858680441975594E-2   1.549114584922791E-1   4.850082471966744E-2   1.547900438308716E-1  -8.818293809890747E-1   4.337299466133118E-1  
 6.340000000000000E7    -9.660317897796631E-1   1.826719194650650E-1   5.265091732144356E-2   1.509070843458176E-1   5.265414342284203E-2   1.506918966770172E-1  -8.686510324478149E-1   4.610930681228638E-1  
 6.370000000000000E7    -9.601712822914124E-1   2.150139957666397E-1   5.658895522356033E-2   1.469354927539825E-1   5.681516975164414E-2   1.467154920101166E-1  -8.534454107284546E-1   4.873572587966919E-1  
 6.400000000000000E7    -9.518151283264160E-1   2.464706003665924E-1   6.041567772626877E-2   1.431622505187988E-1   6.041405722498894E-2   1.423774808645248E-1  -8.398518562316895E-1   5.125160217285156E-1  
 6.430000000000000E7    -9.433163404464722E-1   2.795786857604981E-1   6.364153325557709E-2   1.387022286653519E-1   6.394973397254944E-2   1.383847147226334E-1  -8.247460126876831E-1   5.376805067062378E-1  
 6.460000000000000E7    -9.343925118446350E-1   3.112860918045044E-1   6.719617545604706E-2   1.342986971139908E-1   6.702709197998047E-2   1.342499852180481E-1  -8.081632852554321E-1   5.603898763656616E-1  
 6.490000000000000E7    -9.251363277435303E-1   3.419198393821716E-1   6.999340653419495E-2   1.303354799747467E-1   6.980814039707184E-2   1.306602209806442E-1  -7.942508459091187E-1   5.819590687751770E-1  
 6.520000000000000E7    -9.124122262001038E-1   3.722773194313049E-1   7.244600355625153E-2   1.263878941535950E-1   7.256099581718445E-2   1.260232627391815E-1  -7.783148884773254E-1   6.043483018875122E-1  
 6.550000000000000E7    -9.001517295837402E-1   4.027251601219177E-1   7.518807053565979E-2   1.222171857953072E-1   7.519531250000000E-2   1.220538318157196E-1  -7.614806294441223E-1   6.248744726181030E-1  
 6.580000000000000E7    -8.857628703117371E-1   4.334236383438110E-1   7.793883979320526E-2   1.179711744189262E-1   7.746148854494095E-2   1.178842037916184E-1  -7.461793422698975E-1   6.448267102241516E-1  
 6.610000000000000E7    -8.701119422912598E-1   4.625598788261414E-1   7.985446602106094E-2   1.138934865593910E-1   7.985168695449829E-2   1.130590662360191E-1  -7.286039590835571E-1   6.652101278305054E-1  
 6.640000000000000E7    -8.561863303184509E-1   4.922496080398560E-1   8.182451128959656E-2   1.096299290657044E-1   8.184227347373962E-2   1.099017560482025E-1  -7.122192978858948E-1   6.832169294357300E-1  
 6.670000000000000E7    -8.384965062141419E-1   5.206177234649658E-1   8.372278511524200E-2   1.055679991841316E-1   8.343890309333801E-2   1.054174378514290E-1  -6.959841251373291E-1   6.997635960578919E-1  
 6.700000000000000E7    -8.207257986068726E-1   5.488647222518921E-1   8.519550412893295E-2   1.013415381312370E-1   8.485668152570725E-2   1.009720265865326E-1  -6.783738732337952E-1   7.164413928985596E-1  
 6.730000000000000E7    -8.019651174545288E-1   5.763037800788879E-1   8.643354475498200E-2   9.702773392200470E-2   8.646915107965469E-2   9.686543047428131E-2  -6.623526811599731E-1   7.326961159706116E-1  
 6.760000000000000E7    -7.828505635261536E-1   6.030051112174988E-1   8.821384608745575E-2   9.330205619335175E-2   8.776382356882095E-2   9.295340627431870E-2  -6.444134712219238E-1   7.484893798828125E-1  
 6.790000000000000E7    -7.614120244979858E-1   6.296935081481934E-1   8.884979784488678E-2   8.905389904975891E-2   8.890822529792786E-2   8.891674131155014E-2  -6.275922060012817E-1   7.627930641174316E-1  
 6.820000000000000E7    -7.398126125335693E-1   6.543871760368347E-1   9.005964547395706E-2   8.487822115421295E-2   8.959095925092697E-2   8.495198190212250E-2  -6.107459068298340E-1   7.766929268836975E-1  
 6.850000000000000E7    -7.180708050727844E-1   6.802790164947510E-1   9.052434563636780E-2   8.117195218801498E-2   9.049218893051148E-2   8.098290115594864E-2  -5.935798883438110E-1   7.899192571640015E-1  
 6.880000000000000E7    -6.944123506546021E-1   7.037088274955750E-1   9.132985770702362E-2   7.708710432052612E-2   9.095814079046249E-2   7.683022320270538E-2  -5.758125782012940E-1   8.030663132667542E-1  
 6.910000000000000E7    -6.703351140022278E-1   7.274819612503052E-1   9.204513579607010E-2   7.343521714210510E-2   9.162079542875290E-2   7.319847494363785E-2  -5.587491989135742E-1   8.164604902267456E-1  
 6.940000000000000E7    -6.457608938217163E-1   7.500499486923218E-1   9.205235540866852E-2   6.968118250370026E-2   9.211283177137375E-2   6.952567398548126E-2  -5.420677661895752E-1   8.277570009231567E-1  
 6.970000000000000E7    -6.189007759094238E-1   7.716928124427795E-1   9.234198182821274E-2   6.573647260665894E-2   9.243924170732498E-2   6.550461798906326E-2  -5.244498252868652E-1   8.389798998832703E-1  
 7.000000000000000E7    -5.925570130348206E-1   7.933751940727234E-1   9.234149754047394E-2   6.214709952473640E-2   9.223849326372147E-2   6.189205124974251E-2  -5.075466632843018E-1   8.503962159156799E-1  
