#  HZ   S   RI   R     50.00 
! Rohde & Schwarz ZVT8 8Ports - Version 4.11 - 1300.0000k08 SN: 100242
! Date: 2026-07-31 14:54:17
! Measurements: S11 S21 S12 S22 
! 
 1.000000000000000E7    -4.098337292671204E-1   9.082784652709961E-1   4.960563406348229E-2   5.062431842088699E-2   4.933508485555649E-2   5.075513571500778E-2  -9.196031689643860E-1   3.834663331508637E-1  
 1.030000000000000E7    -3.782841861248016E-1   9.207671880722046E-1   5.254111066460609E-2   5.090163275599480E-2   5.231663584709168E-2   5.086733028292656E-2  -9.143164753913879E-1   3.959060013294220E-1  
 1.060000000000000E7    -3.429040908813477E-1   9.343488812446594E-1   5.574648827314377E-2   5.172127485275269E-2   5.558287724852562E-2   5.141909793019295E-2  -9.105401635169983E-1   4.076367020606995E-1  
 1.090000000000000E7    -3.116675615310669E-1   9.445487856864929E-1   5.877259001135826E-2   5.167283490300179E-2   5.872908979654312E-2   5.187568813562393E-2  -9.046415686607361E-1   4.192517697811127E-1  
 1.120000000000000E7    -2.770064473152161E-1   9.544612765312195E-1   6.206081435084343E-2   5.241199955344200E-2   6.167638301849365E-2   5.233031138777733E-2  -8.991843461990356E-1   4.303419888019562E-1  
 1.150000000000000E7    -2.428708076477051E-1   9.646641612052918E-1   6.505796313285828E-2   5.228537321090698E-2   6.491598486900330E-2   5.208091065287590E-2  -8.918808698654175E-1   4.394908249378204E-1  
 1.180000000000000E7    -2.087888419628143E-1   9.701995849609375E-1   6.830801069736481E-2   5.242932960391045E-2   6.834670156240463E-2   5.221948400139809E-2  -8.879913687705994E-1   4.506914615631104E-1  
 1.210000000000000E7    -1.755825877189636E-1   9.774513840675354E-1   7.196209579706192E-2   5.245919153094292E-2   7.165516167879105E-2   5.229443311691284E-2  -8.805449008941650E-1   4.633288085460663E-1  
 1.240000000000000E7    -1.404176801443100E-1   9.820907711982727E-1   7.531935721635819E-2   5.243051797151566E-2   7.539968937635422E-2   5.200900509953499E-2  -8.743820786476135E-1   4.727208912372589E-1  
 1.270000000000000E7    -1.060844883322716E-1   9.858298301696777E-1   7.912679761648178E-2   5.193637311458588E-2   7.881943136453629E-2   5.171005800366402E-2  -8.678290247917175E-1   4.864231348037720E-1  
 1.300000000000000E7    -7.175185531377792E-2   9.891986250877380E-1   8.243811130523682E-2   5.159139260649681E-2   8.230713754892349E-2   5.138223990797997E-2  -8.603134155273438E-1   4.967945516109467E-1  
 1.330000000000000E7    -3.646263480186462E-2   9.916827678680420E-1   8.637532591819763E-2   5.106161162257195E-2   8.638542890548706E-2   5.047094076871872E-2  -8.532717823982239E-1   5.086343288421631E-1  
 1.360000000000000E7    -5.279369652271271E-4   9.916604757308960E-1   9.012541174888611E-2   5.042538046836853E-2   9.015566855669022E-2   4.994535818696022E-2  -8.467282056808472E-1   5.178521275520325E-1  
 1.390000000000000E7     3.319301456212997E-2   9.907265901565552E-1   9.413440525531769E-2   4.937494918704033E-2   9.372576326131821E-2   4.959664866328239E-2  -8.394550085067749E-1   5.293568968772888E-1  
 1.420000000000000E7     6.932578980922699E-2   9.888746142387390E-1   9.764257073402405E-2   4.870392754673958E-2   9.777772426605225E-2   4.865249246358872E-2  -8.331471681594849E-1   5.396525859832764E-1  
 1.450000000000000E7     1.039096787571907E-1   9.840812087059021E-1   1.019512191414833E-1   4.720236361026764E-2   1.017819195985794E-1   4.708425328135490E-2  -8.230381608009338E-1   5.519059300422669E-1  
 1.480000000000000E7     1.400965452194214E-1   9.800360798835754E-1   1.061056405305862E-1   4.595205187797546E-2   1.057968959212303E-1   4.628309607505798E-2  -8.166484236717224E-1   5.624212026596069E-1  
 1.510000000000000E7     1.740827262401581E-1   9.735417962074280E-1   1.099787279963493E-1   4.460208117961884E-2   1.097218170762062E-1   4.449579864740372E-2  -8.059535622596741E-1   5.735616683959961E-1  
 1.540000000000000E7     2.081171870231628E-1   9.665511250495911E-1   1.140225380659103E-1   4.366686940193176E-2   1.137036904692650E-1   4.308918863534927E-2  -8.005079030990601E-1   5.828273296356201E-1  
 1.570000000000000E7     2.431637644767761E-1   9.594867229461670E-1   1.185247823596001E-1   4.135794937610626E-2   1.182065233588219E-1   4.130823165178299E-2  -7.905901670455933E-1   5.950580835342407E-1  
 1.600000000000000E7     2.780183553695679E-1   9.486335515975952E-1   1.223789304494858E-1   3.940934687852860E-2   1.225163489580154E-1   3.934260830283165E-2  -7.825768589973450E-1   6.039034724235535E-1  
 1.630000000000000E7     3.113760650157929E-1   9.374396800994873E-1   1.272364407777786E-1   3.721502423286438E-2   1.267217993736267E-1   3.732494637370110E-2  -7.732344865798950E-1   6.161930561065674E-1  
 1.660000000000000E7     3.452797532081604E-1   9.242256283760071E-1   1.316714882850647E-1   3.473913669586182E-2   1.312801688909531E-1   3.460128977894783E-2  -7.628069519996643E-1   6.270181536674500E-1  
 1.690000000000000E7     3.774841129779816E-1   9.108498692512512E-1   1.358645260334015E-1   3.284924849867821E-2   1.358556896448135E-1   3.231660649180412E-2  -7.539156079292297E-1   6.364066600799561E-1  
 1.720000000000000E7     4.128438234329224E-1   8.964331150054932E-1   1.399900317192078E-1   2.924749255180359E-2   1.398556381464005E-1   2.962630614638329E-2  -7.437338829040527E-1   6.464213132858276E-1  
 1.750000000000000E7     4.400318562984467E-1   8.827331066131592E-1   1.449488401412964E-1   2.748852223157883E-2   1.451094746589661E-1   2.736817672848702E-2  -7.350307106971741E-1   6.587517261505127E-1  
 1.780000000000000E7     4.747422635555267E-1   8.622452616691589E-1   1.488349586725235E-1   2.378382533788681E-2   1.490127444267273E-1   2.415931411087513E-2  -7.238463759422302E-1   6.665943861007690E-1  
 1.810000000000000E7     5.044898390769959E-1   8.452601432800293E-1   1.544372290372849E-1   2.082818374037743E-2   1.532695293426514E-1   2.024424076080322E-2  -7.134994864463806E-1   6.802758574485779E-1  
 1.840000000000000E7     5.369517803192139E-1   8.252580165863037E-1   1.591397076845169E-1   1.624985598027706E-2   1.583531200885773E-1   1.649338565766811E-2  -7.020986676216126E-1   6.899711489677429E-1  
 1.870000000000000E7     5.646076798439026E-1   8.053976893424988E-1   1.635707169771195E-1   1.336184144020081E-2   1.628359556198120E-1   1.281687431037426E-2  -6.906058192253113E-1   6.996255517005920E-1  
 1.900000000000000E7     5.933858752250671E-1   7.834312915802002E-1   1.678919941186905E-1   9.451379999518395E-3   1.675948351621628E-1   8.881218731403351E-3  -6.785090565681458E-1   7.094233036041260E-1  
 1.930000000000000E7     6.222456097602844E-1   7.597855329513550E-1   1.724000871181488E-1   4.095131531357765E-3   1.725013703107834E-1   4.863625392317772E-3  -6.671670675277710E-1   7.212265133857727E-1  
 1.960000000000000E7     6.500658988952637E-1   7.353437542915344E-1   1.769063919782639E-1  -1.645050942897797E-4   1.769855618476868E-1   3.880169242620468E-4  -6.568546295166016E-1   7.299963235855103E-1  
 1.990000000000000E7     6.745218634605408E-1   7.097064852714539E-1   1.813985556364059E-1  -5.000796169042587E-3   1.817647069692612E-1  -4.986509680747986E-3  -6.413286924362183E-1   7.421801090240479E-1  
 2.020000000000000E7     7.001863718032837E-1   6.839498281478882E-1   1.866766214370728E-1  -9.883601218461990E-3   1.858980655670166E-1  -9.727306663990021E-3  -6.299746036529541E-1   7.488663196563721E-1  
 2.050000000000000E7     7.264310121536255E-1   6.558120250701904E-1   1.909126192331314E-1  -1.500085089355707E-2   1.897924989461899E-1  -1.561516057699919E-2  -6.166355013847351E-1   7.590498328208923E-1  
 2.080000000000000E7     7.491058707237244E-1   6.265000700950623E-1   1.955685168504715E-1  -2.090829424560070E-2   1.955947130918503E-1  -2.072518132627010E-2  -6.035054922103882E-1   7.701461315155029E-1  
 2.110000000000000E7     7.726804018020630E-1   5.978647470474243E-1   2.006215155124664E-1  -2.747100777924061E-2   2.003127783536911E-1  -2.740031480789185E-2  -5.886219739913940E-1   7.796908617019653E-1  
 2.140000000000000E7     7.936733365058899E-1   5.679021477699280E-1   2.050423026084900E-1  -3.417961671948433E-2   2.039914876222611E-1  -3.341051191091538E-2  -5.746222734451294E-1   7.884858250617981E-1  
 2.170000000000000E7     8.122566938400269E-1   5.374417901039124E-1   2.093225121498108E-1  -4.044037684798241E-2   2.090207338333130E-1  -3.961353003978729E-2  -5.605218410491943E-1   7.975208163261414E-1  
 2.200000000000000E7     8.329847455024719E-1   5.041083097457886E-1   2.135166674852371E-1  -4.772556945681572E-2   2.134372740983963E-1  -4.743521660566330E-2  -5.433014035224915E-1   8.066420555114746E-1  
 2.230000000000000E7     8.495485782623291E-1   4.711002707481384E-1   2.177905142307282E-1  -5.512498319149017E-2   2.173528969287872E-1  -5.456936731934547E-2  -5.282998085021973E-1   8.151210546493530E-1  
 2.260000000000000E7     8.662806153297424E-1   4.371757805347443E-1   2.215818464756012E-1  -6.302140653133392E-2   2.228669673204422E-1  -6.254728138446808E-2  -5.124123692512512E-1   8.237297534942627E-1  
 2.290000000000000E7     8.813674449920654E-1   4.030735790729523E-1   2.258318066596985E-1  -7.099685072898865E-2   2.262230366468430E-1  -7.028926908969879E-2  -4.944993853569031E-1   8.314738869667053E-1  
 2.320000000000000E7     8.938102126121521E-1   3.676589727401733E-1   2.302818447351456E-1  -8.024084568023682E-2   2.297382950782776E-1  -8.039104938507080E-2  -4.781298041343689E-1   8.416420221328735E-1  
 2.350000000000000E7     9.063355922698975E-1   3.305268287658691E-1   2.340649366378784E-1  -8.968469500541687E-2   2.334710359573364E-1  -8.919043838977814E-2  -4.604032039642334E-1   8.493344187736511E-1  
 2.380000000000000E7     9.166801571846008E-1   2.949487566947937E-1   2.375054359436035E-1  -9.857904165983200E-2   2.373843938112259E-1  -9.837786853313446E-2  -4.427163600921631E-1   8.566745519638062E-1  
 2.410000000000000E7     9.267918467521668E-1   2.568936944007874E-1   2.408347874879837E-1  -1.092887818813324E-1   2.401607185602188E-1  -1.088691353797913E-1  -4.229869246482849E-1   8.636565208435059E-1  
 2.440000000000000E7     9.334496259689331E-1   2.198322564363480E-1   2.442300021648407E-1  -1.201651394367218E-1   2.442681193351746E-1  -1.202021613717079E-1  -4.048581719398499E-1   8.705131411552429E-1  
 2.470000000000000E7     9.391966462135315E-1   1.817406415939331E-1   2.471623569726944E-1  -1.314473450183868E-1   2.466067671775818E-1  -1.298445910215378E-1  -3.840589523315430E-1   8.756031990051270E-1  
 2.500000000000000E7     9.445405602455139E-1   1.426461338996887E-1   2.494208812713623E-1  -1.425865441560745E-1   2.492939233779907E-1  -1.430609524250031E-1  -3.630024194717407E-1   8.832618594169617E-1  
 2.530000000000000E7     9.472211003303528E-1   1.040058508515358E-1   2.521747946739197E-1  -1.544285714626312E-1   2.521371543407440E-1  -1.540779620409012E-1  -3.422248661518097E-1   8.880828619003296E-1  
 2.560000000000000E7     9.480386376380920E-1   6.599882245063782E-2   2.541004121303558E-1  -1.665460616350174E-1   2.546839714050293E-1  -1.664554923772812E-1  -3.212847411632538E-1   8.934740424156189E-1  
 2.590000000000000E7     9.459730982780457E-1   2.667940780520439E-2   2.554408311843872E-1  -1.809015870094299E-1   2.559551298618317E-1  -1.808278113603592E-1  -2.989166676998138E-1   9.002036452293396E-1  
 2.620000000000000E7     9.433491230010986E-1  -1.318560913205147E-2   2.566649913787842E-1  -1.952801197767258E-1   2.564800381660461E-1  -1.944277733564377E-1  -2.738316357135773E-1   9.041051864624023E-1  
 2.650000000000000E7     9.386994242668152E-1  -5.148104578256607E-2   2.577981054782867E-1  -2.084870189428330E-1   2.576645314693451E-1  -2.089896947145462E-1  -2.512314915657044E-1   9.070187807083130E-1  
 2.680000000000000E7     9.314249157905579E-1  -9.034711867570877E-2   2.584607899188995E-1  -2.235470563173294E-1   2.582479119300842E-1  -2.240442335605621E-1  -2.272842526435852E-1   9.096596837043762E-1  
 2.710000000000000E7     9.232618808746338E-1  -1.302776634693146E-1   2.569981813430786E-1  -2.404726296663284E-1   2.563031017780304E-1  -2.399141043424606E-1  -2.017736583948135E-1   9.129804968833923E-1  
 2.740000000000000E7     9.128051996231079E-1  -1.689125448465347E-1   2.571282088756561E-1  -2.557396292686462E-1   2.564043998718262E-1  -2.566960453987122E-1  -1.755697280168533E-1   9.122644066810608E-1  
 2.770000000000000E7     9.007169008255005E-1  -2.058312743902206E-1   2.547475993633270E-1  -2.732279896736145E-1   2.543424069881439E-1  -2.739958167076111E-1  -1.481256037950516E-1   9.130778908729553E-1  
 2.800000000000000E7     8.875094056129456E-1  -2.432205080986023E-1   2.521136403083801E-1  -2.902844250202179E-1   2.531590163707733E-1  -2.902350723743439E-1  -1.205549091100693E-1   9.116202592849731E-1  
 2.830000000000000E7     8.697605133056641E-1  -2.809024155139923E-1   2.483991086483002E-1  -3.077917695045471E-1   2.478203922510147E-1  -3.089505136013031E-1  -9.440880268812180E-2   9.106082916259766E-1  
 2.860000000000000E7     8.515365719795227E-1  -3.174414932727814E-1   2.440250217914581E-1  -3.273206651210785E-1   2.430575788021088E-1  -3.285315334796906E-1  -6.241518259048462E-2   9.075465202331543E-1  
 2.890000000000000E7     8.316205739974976E-1  -3.514935374259949E-1   2.379270941019058E-1  -3.479985594749451E-1   2.375072538852692E-1  -3.473609685897827E-1  -3.358387947082520E-2   9.032522439956665E-1  
 2.920000000000000E7     8.093131780624390E-1  -3.865800797939301E-1   2.321848124265671E-1  -3.668450713157654E-1   2.305489927530289E-1  -3.669312298297882E-1  -4.571270197629929E-3   8.973116278648377E-1  
 2.950000000000000E7     7.860297560691834E-1  -4.184152483940125E-1   2.238487601280212E-1  -3.893385231494904E-1   2.229398936033249E-1  -3.881888687610626E-1   2.869635075330734E-2   8.905788064002991E-1  
 2.980000000000000E7     7.595902681350708E-1  -4.503200352191925E-1   2.144175320863724E-1  -4.093737006187439E-1   2.141154557466507E-1  -4.103949069976807E-1   6.025582924485207E-2   8.813121318817139E-1  
 3.010000000000000E7     7.323544025421143E-1  -4.806570410728455E-1   2.026700228452683E-1  -4.318384826183319E-1   2.036122083663940E-1  -4.314327239990234E-1   9.260219335556030E-2   8.707604408264160E-1  
 3.040000000000000E7     7.020124197006226E-1  -5.098709464073181E-1   1.908947825431824E-1  -4.548402726650238E-1   1.902718096971512E-1  -4.551784098148346E-1   1.253176033496857E-1   8.559440970420837E-1  
 3.070000000000000E7     6.699150800704956E-1  -5.351593494415283E-1   1.751896142959595E-1  -4.762883782386780E-1   1.746409237384796E-1  -4.757961928844452E-1   1.591117382049561E-1   8.421703577041626E-1  
 3.100000000000000E7     6.363319754600525E-1  -5.594180822372437E-1   1.580221056938171E-1  -5.002323985099793E-1   1.574390381574631E-1  -4.987498819828033E-1   1.942632198333740E-1   8.250368237495422E-1  
 3.130000000000000E7     6.030954718589783E-1  -5.818508267402649E-1   1.388608813285828E-1  -5.225895643234253E-1   1.395849436521530E-1  -5.222579240798950E-1   2.270657867193222E-1   8.036414980888367E-1  
 3.160000000000000E7     5.657862424850464E-1  -6.004830598831177E-1   1.175340637564659E-1  -5.462963581085205E-1   1.178282648324966E-1  -5.462875366210938E-1   2.612517476081848E-1   7.824914455413818E-1  
 3.190000000000000E7     5.281338691711426E-1  -6.171432137489319E-1   9.353289008140564E-2  -5.686919093132019E-1   9.392315149307251E-2  -5.672725439071655E-1   2.958174049854279E-1   7.567179203033447E-1  
 3.220000000000000E7     4.899849593639374E-1  -6.327525973320007E-1   6.872573494911194E-2  -5.911563634872437E-1   6.781397014856339E-2  -5.896605253219605E-1   3.277190029621124E-1   7.281489968299866E-1  
 3.250000000000000E7     4.509351253509522E-1  -6.426896452903748E-1   3.892775624990463E-2  -6.128848195075989E-1   3.816545754671097E-2  -6.123878359794617E-1   3.612143695354462E-1   6.976799964904785E-1  
 3.280000000000000E7     4.112105667591095E-1  -6.489807963371277E-1   6.621841341257095E-3  -6.338296532630920E-1   7.390785962343216E-3  -6.308658719062805E-1   3.928141593933106E-1   6.617380380630493E-1  
 3.310000000000000E7     3.720744550228119E-1  -6.553267240524292E-1  -2.715828269720078E-2  -6.514214277267456E-1  -2.827363088726997E-2  -6.505217552185059E-1   4.224373400211334E-1   6.221949458122253E-1  
 3.340000000000000E7     3.334890902042389E-1  -6.566584706306458E-1  -6.713229417800903E-2  -6.686711311340332E-1  -6.541144102811813E-2  -6.670765876770020E-1   4.502289295196533E-1   5.806479454040527E-1  
 3.370000000000000E7     2.943308055400848E-1  -6.543169617652893E-1  -1.069495230913162E-1  -6.830393075942993E-1  -1.063293516635895E-1  -6.828571557998657E-1   4.761419296264648E-1   5.341309905052185E-1  
 3.400000000000000E7     2.568566203117371E-1  -6.487151384353638E-1  -1.513941586017609E-1  -6.944427490234375E-1  -1.513085067272186E-1  -6.951103806495667E-1   4.981694817543030E-1   4.844919443130493E-1  
 3.430000000000000E7     2.214306443929672E-1  -6.409059762954712E-1  -1.985559463500977E-1  -7.028659582138062E-1  -1.976126432418823E-1  -7.027140855789185E-1   5.183207988739014E-1   4.326327145099640E-1  
 3.460000000000000E7     1.868417263031006E-1  -6.283530592918396E-1  -2.474312186241150E-1  -7.086066603660584E-1  -2.482801824808121E-1  -7.079605460166931E-1   5.325872302055359E-1   3.773603439331055E-1  
 3.490000000000000E7     1.574187576770783E-1  -6.146650314331055E-1  -2.996093034744263E-1  -7.068037986755371E-1  -2.983442544937134E-1  -7.078684568405151E-1   5.436905622482300E-1   3.192832767963409E-1  
 3.520000000000000E7     1.282476782798767E-1  -5.963842868804932E-1  -3.531221151351929E-1  -7.047036886215210E-1  -3.521386981010437E-1  -7.044256329536438E-1   5.496024489402771E-1   2.571930885314941E-1  
 3.550000000000000E7     1.026736795902252E-1  -5.744823813438416E-1  -4.083097279071808E-1  -6.960276365280151E-1  -4.084553420543671E-1  -6.955482363700867E-1   5.481557250022888E-1   1.951179355382919E-1  
 3.580000000000000E7     8.095827698707581E-2  -5.539534091949463E-1  -4.632838964462280E-1  -6.807292103767395E-1  -4.624843895435333E-1  -6.805815100669861E-1   5.416525602340698E-1   1.312604099512100E-1  
 3.610000000000000E7     6.572949886322022E-2  -5.319745540618897E-1  -5.199732184410095E-1  -6.595668196678162E-1  -5.184465646743774E-1  -6.593104600906372E-1   5.292897820472717E-1   6.679973006248474E-2  
 3.640000000000000E7     5.147309601306915E-2  -5.083075165748596E-1  -5.741718411445618E-1  -6.330943703651428E-1  -5.735093951225281E-1  -6.340821981430054E-1   5.071570873260498E-1   3.179807448759675E-3  
 3.670000000000000E7     4.351524263620377E-2  -4.856971502304077E-1  -6.281477212905884E-1  -6.020452976226807E-1  -6.255511045455933E-1  -5.997456312179565E-1   4.825590550899506E-1  -5.801146849989891E-2  
 3.700000000000000E7     3.720944747328758E-2  -4.652242064476013E-1  -6.778885126113892E-1  -5.617612600326538E-1  -6.760261058807373E-1  -5.622794032096863E-1   4.482339322566986E-1  -1.184446960687637E-1  
 3.730000000000000E7     3.436979651451111E-2  -4.451314508914948E-1  -7.238668203353882E-1  -5.188857316970825E-1  -7.231685519218445E-1  -5.180717110633850E-1   4.080913364887238E-1  -1.723722368478775E-1  
 3.760000000000000E7     3.677251562476158E-2  -4.305939376354218E-1  -7.648782134056091E-1  -4.692930877208710E-1  -7.656922936439514E-1  -4.686705470085144E-1   3.626275956630707E-1  -2.240191698074341E-1  
 3.790000000000000E7     4.370619356632233E-2  -4.165880978107452E-1  -8.032103776931763E-1  -4.148549735546112E-1  -8.009141683578491E-1  -4.150590896606445E-1   3.144256472587585E-1  -2.704892158508301E-1  
 3.820000000000000E7     5.003203824162483E-2  -4.078268706798554E-1  -8.343031406402588E-1  -3.581281304359436E-1  -8.353900909423828E-1  -3.578165173530579E-1   2.578993141651154E-1  -3.102025091648102E-1  
 3.850000000000000E7     5.820779874920845E-2  -3.998169302940369E-1  -8.610280752182007E-1  -2.985518574714661E-1  -8.604089617729187E-1  -2.963447272777557E-1   2.010739147663117E-1  -3.463717401027679E-1  
 3.880000000000000E7     6.427033245563507E-2  -3.989120125770569E-1  -8.794542551040649E-1  -2.358616292476654E-1  -8.778908848762512E-1  -2.360130250453949E-1   1.405040323734283E-1  -3.748652338981628E-1  
 3.910000000000000E7     7.373730838298798E-2  -3.987881541252136E-1  -8.938786387443543E-1  -1.724684536457062E-1  -8.929879665374756E-1  -1.720205545425415E-1   7.999381422996521E-2  -3.947332501411438E-1  
 3.940000000000000E7     8.241803944110870E-2  -4.052090644836426E-1  -8.992531299591065E-1  -1.090454012155533E-1  -8.993250131607056E-1  -1.099164038896561E-1   1.651877909898758E-2  -4.097081720829010E-1  
 3.970000000000000E7     8.864374458789825E-2  -4.136120080947876E-1  -9.011456370353699E-1  -4.650641232728958E-2  -9.017112851142883E-1  -4.609841853380203E-2  -4.547132924199104E-2  -4.147951006889343E-1  
 4.000000000000000E7     9.138014912605286E-2  -4.244025945663452E-1  -8.967363238334656E-1   1.468905806541443E-2  -8.956775069236755E-1   1.524493098258972E-2  -1.057214513421059E-1  -4.175145924091339E-1  
 4.030000000000000E7     9.095975011587143E-2  -4.415821731090546E-1  -8.860588073730469E-1   7.343591004610062E-2  -8.855939507484436E-1   7.462182641029358E-2  -1.637780368328095E-1  -4.150938689708710E-1  
 4.060000000000000E7     9.076912701129913E-2  -4.565891027450562E-1  -8.716382384300232E-1   1.304105073213577E-1  -8.719057440757752E-1   1.320556551218033E-1  -2.219470590353012E-1  -4.036938548088074E-1  
 4.090000000000000E7     8.642735332250595E-2  -4.725951254367828E-1  -8.533338904380798E-1   1.859868019819260E-1  -8.514374494552612E-1   1.862879395484924E-1  -2.753457427024841E-1  -3.927394151687622E-1  
 4.120000000000000E7     8.026800304651260E-2  -4.934652447700501E-1  -8.295961618423462E-1   2.380436956882477E-1  -8.303938508033752E-1   2.375719845294952E-1  -3.273514807224274E-1  -3.720968365669251E-1  
 4.150000000000000E7     6.511013209819794E-2  -5.123752355575562E-1  -8.043062090873718E-1   2.854808568954468E-1  -8.038040399551392E-1   2.835832834243774E-1  -3.728606402873993E-1  -3.507253229618073E-1  
 4.180000000000000E7     4.985875263810158E-2  -5.299785137176514E-1  -7.755287885665894E-1   3.303788900375366E-1  -7.738119959831238E-1   3.290151357650757E-1  -4.170871675014496E-1  -3.296112120151520E-1  
 4.210000000000000E7     2.953661978244782E-2  -5.489838719367981E-1  -7.441037297248840E-1   3.700849711894989E-1  -7.444860339164734E-1   3.708482384681702E-1  -4.565002620220184E-1  -3.031521141529083E-1  
 4.240000000000000E7     8.211582899093628E-3  -5.667508244514465E-1  -7.111657261848450E-1   4.076635241508484E-1  -7.113311886787415E-1   4.079484939575195E-1  -4.922630786895752E-1  -2.756956517696381E-1  
 4.270000000000000E7    -1.862692460417748E-2  -5.801005959510803E-1  -6.780002713203430E-1   4.430377781391144E-1  -6.760448813438416E-1   4.432308077812195E-1  -5.260926485061646E-1  -2.467672675848007E-1  
 4.300000000000000E7    -4.700617119669914E-2  -5.942153930664063E-1  -6.417154669761658E-1   4.750331342220306E-1  -6.410545706748962E-1   4.739640355110169E-1  -5.560971498489380E-1  -2.158288806676865E-1  
 4.330000000000000E7    -7.666423171758652E-2  -6.073596477508545E-1  -6.053592562675476E-1   5.031697154045105E-1  -6.055911183357239E-1   5.028962492942810E-1  -5.822695493698120E-1  -1.850979030132294E-1  
 4.360000000000000E7    -1.117087826132774E-1  -6.178411245346069E-1  -5.677425861358643E-1   5.266652703285217E-1  -5.679718255996704E-1   5.264183878898621E-1  -6.073212623596191E-1  -1.536476761102676E-1  
 4.390000000000000E7    -1.491367220878601E-1  -6.222165822982788E-1  -5.308782458305359E-1   5.499615073204041E-1  -5.301924347877502E-1   5.515406131744385E-1  -6.245847344398499E-1  -1.230485588312149E-1  
 4.420000000000000E7    -1.847946196794510E-1  -6.245683431625366E-1  -4.929924011230469E-1   5.709990262985230E-1  -4.920383691787720E-1   5.704847574234009E-1  -6.436400413513184E-1  -9.169442206621170E-2  
 4.450000000000000E7    -2.253246158361435E-1  -6.243140101432800E-1  -4.561659991741180E-1   5.867177844047546E-1  -4.547286927700043E-1   5.869338512420654E-1  -6.604913473129273E-1  -6.069277971982956E-2  
 4.480000000000000E7    -2.660192549228668E-1  -6.203972697257996E-1  -4.176946580410004E-1   6.018620133399963E-1  -4.173963665962219E-1   6.022911071777344E-1  -6.731970906257629E-1  -3.063998185098171E-2  
 4.510000000000000E7    -3.079553246498108E-1  -6.134759783744812E-1  -3.802845478057861E-1   6.147226095199585E-1  -3.805984854698181E-1   6.142074465751648E-1  -6.845083832740784E-1  -1.029787585139275E-3  
 4.540000000000000E7    -3.488693535327911E-1  -5.997935533523560E-1  -3.434014320373535E-1   6.258944272994995E-1  -3.443671464920044E-1   6.248612403869629E-1  -6.949243545532227E-1   2.885161899030209E-2  
 4.570000000000000E7    -3.914496302604675E-1  -5.849742293357849E-1  -3.061747848987579E-1   6.354141831398010E-1  -3.073058128356934E-1   6.343758702278137E-1  -7.017066478729248E-1   5.804395303130150E-2  
 4.600000000000000E7    -4.344936907291412E-1  -5.673173666000366E-1  -2.710805535316467E-1   6.392031311988831E-1  -2.698670923709869E-1   6.415825486183167E-1  -7.079969048500061E-1   8.432385325431824E-2  
 4.630000000000000E7    -4.770237505435944E-1  -5.417758822441101E-1  -2.337490767240524E-1   6.450211405754089E-1  -2.325940132141113E-1   6.447231173515320E-1  -7.130305767059326E-1   1.106029376387596E-1  
 4.660000000000000E7    -5.178111791610718E-1  -5.126771926879883E-1  -1.967404484748840E-1   6.504967212677002E-1  -1.968779563903809E-1   6.494982242584229E-1  -7.171238660812378E-1   1.368679404258728E-1  
 4.690000000000000E7    -5.583919286727905E-1  -4.809696078300476E-1  -1.623042821884155E-1   6.497799754142761E-1  -1.627814173698425E-1   6.504235863685608E-1  -7.187640666961670E-1   1.640712618827820E-1  
 4.720000000000000E7    -5.964849591255188E-1  -4.441100955009460E-1  -1.261238157749176E-1   6.500282883644104E-1  -1.258750110864639E-1   6.490252017974854E-1  -7.214082479476929E-1   1.876486539840698E-1  
 4.750000000000000E7    -6.333491802215576E-1  -4.023942053318024E-1  -9.117706865072250E-2   6.486537456512451E-1  -9.272659569978714E-2   6.474658250808716E-1  -7.208525538444519E-1   2.131092250347138E-1  
 4.780000000000000E7    -6.665554046630859E-1  -3.577916026115418E-1  -5.581589415669441E-2   6.462132930755615E-1  -5.656099319458008E-2   6.439096331596375E-1  -7.199198603630066E-1   2.347508221864700E-1  
 4.810000000000000E7    -6.983208656311035E-1  -3.065255284309387E-1  -2.257822453975678E-2   6.392847299575806E-1  -2.263810485601425E-2   6.388099193572998E-1  -7.186563611030579E-1   2.563175559043884E-1  
 4.840000000000000E7    -7.263947129249573E-1  -2.515184879302979E-1   1.136312633752823E-2   6.334035396575928E-1   1.203734427690506E-2   6.315658688545227E-1  -7.176461219787598E-1   2.773347496986389E-1  
 4.870000000000000E7    -7.490525841712952E-1  -1.924997121095657E-1   4.485937952995300E-2   6.251308917999268E-1   4.469297081232071E-2   6.234507560729981E-1  -7.155084013938904E-1   2.977616488933563E-1  
 4.900000000000000E7    -7.678277492523193E-1  -1.294290721416473E-1   7.785620540380478E-2   6.148194074630737E-1   7.818992435932159E-2   6.132367849349976E-1  -7.130333781242371E-1   3.179495334625244E-1  
 4.930000000000000E7    -7.804770469665527E-1  -6.316184997558594E-2   1.106819063425064E-1   6.018513441085815E-1   1.117567643523216E-1   6.026335954666138E-1  -7.098551988601685E-1   3.365653157234192E-1  
 4.960000000000000E7    -7.876526713371277E-1   5.266606807708740E-3   1.421345770359039E-1   5.888882875442505E-1   1.418695598840714E-1   5.867646932601929E-1  -7.072542309761047E-1   3.564243912696838E-1  
 4.990000000000000E7    -7.880319356918335E-1   7.805652916431427E-2   1.736708581447601E-1   5.738510489463806E-1   1.728120446205139E-1   5.730213522911072E-1  -7.030252814292908E-1   3.729724586009979E-1  
 5.020000000000000E7    -7.826887965202332E-1   1.541308462619782E-1   2.046217024326325E-1   5.560366511344910E-1   2.048097699880600E-1   5.562226772308350E-1  -6.994591355323792E-1   3.900387585163117E-1  
 5.050000000000000E7    -7.682201266288757E-1   2.312225699424744E-1   2.342106997966766E-1   5.370908379554749E-1   2.334700971841812E-1   5.363232493400574E-1  -6.966803073883057E-1   4.078901708126068E-1  
 5.080000000000000E7    -7.455750107765198E-1   3.096048831939697E-1   2.624940276145935E-1   5.154316425323486E-1   2.634802460670471E-1   5.150175690650940E-1  -6.910617351531982E-1   4.229331612586975E-1  
 5.110000000000000E7    -7.124322652816773E-1   3.876510560512543E-1   2.904247939586639E-1   4.911569356918335E-1   2.892443537712097E-1   4.913924038410187E-1  -6.882004737854004E-1   4.391575753688812E-1  
 5.140000000000000E7    -6.721522808074951E-1   4.640720188617706E-1   3.155957460403442E-1   4.666229486465454E-1   3.163903951644898E-1   4.661318659782410E-1  -6.850590109825134E-1   4.560167193412781E-1  
 5.170000000000000E7    -6.195521950721741E-1   5.391601920127869E-1   3.413611948490143E-1   4.381468594074249E-1   3.407739996910095E-1   4.390215277671814E-1  -6.796888709068298E-1   4.699610173702240E-1  
 5.200000000000000E7    -5.579926371574402E-1   6.110844016075134E-1   3.635559380054474E-1   4.077993631362915E-1   3.637500405311585E-1   4.075256884098053E-1  -6.758245229721069E-1   4.846253693103790E-1  
 5.230000000000000E7    -4.853127002716065E-1   6.763631105422974E-1   3.819972276687622E-1   3.770880401134491E-1   3.827038109302521E-1   3.767898380756378E-1  -6.724418997764587E-1   5.007321834564209E-1  
 5.260000000000000E7    -4.033730328083038E-1   7.336798906326294E-1   4.003286659717560E-1   3.440444767475128E-1   4.000741839408875E-1   3.428695797920227E-1  -6.686731576919556E-1   5.161449909210205E-1  
 5.290000000000000E7    -3.123774230480194E-1   7.841627001762390E-1   4.142158329486847E-1   3.073900341987610E-1   4.149502217769623E-1   3.077980875968933E-1  -6.652098298072815E-1   5.307781100273132E-1  
 5.320000000000000E7    -2.115206569433212E-1   8.237631320953369E-1   4.259920716285706E-1   2.715028226375580E-1   4.259207844734192E-1   2.711568772792816E-1  -6.622318625450134E-1   5.468892455101013E-1  
 5.350000000000000E7    -1.050279662013054E-1   8.511370420455933E-1   4.335366785526276E-1   2.349427044391632E-1   4.331320822238922E-1   2.354752719402313E-1  -6.578273773193359E-1   5.614320039749146E-1  
 5.380000000000000E7     8.612345904111862E-3   8.655816316604614E-1   4.389683604240418E-1   1.971549093723297E-1   4.389004111289978E-1   1.960173845291138E-1  -6.525572538375855E-1   5.773058533668518E-1  
 5.410000000000000E7     1.240565627813339E-1   8.631339073181152E-1   4.386885464191437E-1   1.587118357419968E-1   4.383068978786469E-1   1.587638556957245E-1  -6.495820879936218E-1   5.938009023666382E-1  
 5.440000000000000E7     2.417568713426590E-1   8.457761406898499E-1   4.355385899543762E-1   1.210418492555618E-1   4.350220263004303E-1   1.208067089319229E-1  -6.443769931793213E-1   6.095147728919983E-1  
 5.470000000000000E7     3.570763468742371E-1   8.124497532844544E-1   4.278988540172577E-1   8.352525532245636E-2   4.273989200592041E-1   8.368406444787979E-2  -6.389666795730591E-1   6.267513036727905E-1  
 5.500000000000000E7     4.677561521530151E-1   7.623766064643860E-1   4.175352454185486E-1   4.939462617039681E-2   4.172922372817993E-1   4.936419054865837E-2  -6.332044601440430E-1   6.439325213432312E-1  
 5.530000000000000E7     5.729342699050903E-1   6.978158950805664E-1   4.027612209320068E-1   1.663457602262497E-2   4.015511572360992E-1   1.608054339885712E-2  -6.264503002166748E-1   6.606730818748474E-1  
 5.560000000000000E7     6.671440601348877E-1   6.198029518127441E-1   3.857533633708954E-1  -1.426642388105393E-2   3.843260109424591E-1  -1.387345418334007E-2  -6.198654770851135E-1   6.777473092079163E-1  
 5.590000000000000E7     7.504335641860962E-1   5.279257893562317E-1   3.644790649414063E-1  -4.178043454885483E-2   3.645553886890411E-1  -4.102637618780136E-2  -6.109991669654846E-1   6.955811977386475E-1  
 5.620000000000000E7     8.199908733367920E-1   4.278542697429657E-1   3.427355587482452E-1  -6.502603739500046E-2   3.428184092044830E-1  -6.570564210414887E-2  -6.025871038436890E-1   7.117170095443726E-1  
 5.650000000000000E7     8.765534162521362E-1   3.195310831069946E-1   3.182688355445862E-1  -8.598855137825012E-2   3.180575072765350E-1  -8.641199767589569E-2  -5.929360389709473E-1   7.285417914390564E-1  
 5.680000000000000E7     9.158138036727905E-1   2.063365876674652E-1   2.937742173671722E-1  -1.031051725149155E-1   2.932008206844330E-1  -1.027227491140366E-1  -5.815345048904419E-1   7.459345459938049E-1  
 5.710000000000000E7     9.407640695571899E-1   9.045663475990295E-2   2.683280408382416E-1  -1.169866919517517E-1   2.683865725994110E-1  -1.158605143427849E-1  -5.708389878273010E-1   7.619714736938477E-1  
 5.740000000000000E7     9.510064125061035E-1  -2.597530931234360E-2   2.432859241962433E-1  -1.273417174816132E-1   2.431098371744156E-1  -1.269004642963409E-1  -5.581755638122559E-1   7.776242494583130E-1  
 5.770000000000000E7     9.459319710731506E-1  -1.402588486671448E-1   2.185971140861511E-1  -1.339720487594605E-1   2.175511717796326E-1  -1.342884600162506E-1  -5.462601184844971E-1   7.911494970321655E-1  
 5.800000000000000E7     9.282016754150391E-1  -2.500044107437134E-1   1.952579170465469E-1  -1.389547139406204E-1   1.950042545795441E-1  -1.387624442577362E-1  -5.325224995613098E-1   8.078747987747192E-1  
 5.830000000000000E7     8.984298110008240E-1  -3.535404503345490E-1   1.717457771301270E-1  -1.400713771581650E-1   1.722353845834732E-1  -1.402784734964371E-1  -5.189432501792908E-1   8.208016157150269E-1  
 5.860000000000000E7     8.591518998146057E-1  -4.507769942283630E-1   1.507677435874939E-1  -1.397519111633301E-1   1.507793813943863E-1  -1.398512572050095E-1  -5.040748119354248E-1   8.341802954673767E-1  
 5.890000000000000E7     8.089795112609863E-1  -5.421580672264099E-1   1.308658719062805E-1  -1.378912776708603E-1   1.304487884044647E-1  -1.372083127498627E-1  -4.896601736545563E-1   8.459569215774536E-1  
 5.920000000000000E7     7.525449991226196E-1  -6.239700913429260E-1   1.127308085560799E-1  -1.342011988162994E-1   1.128400862216950E-1  -1.343091279268265E-1  -4.746280014514923E-1   8.586315512657166E-1  
 5.950000000000000E7     6.881161928176880E-1  -6.966534256935120E-1   9.578705579042435E-2  -1.289747506380081E-1   9.578138589859009E-2  -1.290553063154221E-1  -4.585837423801422E-1   8.684118986129761E-1  
 5.980000000000000E7     6.205701231956482E-1  -7.614655494689941E-1   8.091158419847488E-2  -1.233145520091057E-1   8.076118677854538E-2  -1.229425445199013E-1  -4.430396258831024E-1   8.795514106750488E-1  
 6.010000000000000E7     5.473042726516724E-1  -8.165684342384338E-1   6.775055825710297E-2  -1.161373406648636E-1   6.722925603389740E-2  -1.159052029252052E-1  -4.283359050750732E-1   8.894346952438355E-1  
 6.040000000000000E7     4.738233983516693E-1  -8.646758794784546E-1   5.589024350047112E-2  -1.091021001338959E-1   5.598744004964829E-2  -1.090931147336960E-1  -4.127530157566071E-1   8.991521000862122E-1  
 6.070000000000000E7     3.988674581050873E-1  -9.035364985466003E-1   4.563515633344650E-2  -1.013010069727898E-1   4.549837484955788E-2  -1.009569913148880E-1  -3.973477482795715E-1   9.067249894142151E-1  
 6.100000000000000E7     3.212256431579590E-1  -9.337893128395081E-1   3.617070615291596E-2  -9.358233213424683E-2   3.624155372381210E-2  -9.348934143781662E-2  -3.805572688579559E-1   9.158141016960144E-1  
 6.130000000000000E7     2.453785091638565E-1  -9.596702456474304E-1   2.867186069488525E-2  -8.592537790536881E-2   2.867545746266842E-2  -8.566799759864807E-2  -3.650261461734772E-1   9.235117435455322E-1  
 6.160000000000000E7     1.684899181127548E-1  -9.764730930328369E-1   2.189823798835278E-2  -7.773371040821075E-2   2.188251540064812E-2  -7.770664989948273E-2  -3.494355976581574E-1   9.290766716003418E-1  
 6.190000000000000E7     9.333988279104233E-2  -9.872660636901856E-1   1.635624840855598E-2  -7.009992003440857E-2   1.612711697816849E-2  -7.011438906192780E-2  -3.336915671825409E-1   9.350056648254395E-1  
 6.220000000000000E7     2.015006355941296E-2  -9.913414716720581E-1   1.162494160234928E-2  -6.249919533729553E-2   1.166168972849846E-2  -6.267292052507401E-2  -3.194146156311035E-1   9.419309496879578E-1  
 6.250000000000000E7    -5.229906737804413E-2  -9.915780425071716E-1   7.870420813560486E-3  -5.544447153806686E-2   7.686419412493706E-3  -5.546632036566734E-2  -3.042207062244415E-1   9.475371241569519E-1  
 6.280000000000000E7    -1.211328208446503E-1  -9.855172634124756E-1   4.819502122700214E-3  -4.862055927515030E-2   4.755937494337559E-3  -4.854881763458252E-2  -2.885979413986206E-1   9.529361724853516E-1  
 6.310000000000000E7    -1.898893415927887E-1  -9.758499264717102E-1   2.321319421753287E-3  -4.207988828420639E-2   2.317310543730855E-3  -4.187570884823799E-2  -2.731190919876099E-1   9.578157067298889E-1  
 6.340000000000000E7    -2.540310323238373E-1  -9.608347415924072E-1   5.828291177749634E-4  -3.574797883629799E-2   5.849306471645832E-4  -3.574391454458237E-2  -2.577450871467590E-1   9.629425406455994E-1  
 6.370000000000000E7    -3.163319826126099E-1  -9.424360990524292E-1  -6.470390362665057E-4  -2.986135147511959E-2  -6.765631260350347E-4  -2.983517572283745E-2  -2.426604628562927E-1   9.657865166664124E-1  
 6.400000000000000E7    -3.762745261192322E-1  -9.205337762832642E-1  -1.510142697952688E-3  -2.431810088455677E-2  -1.518673030659556E-3  -2.425741776823998E-2  -2.277401387691498E-1   9.705898761749268E-1  
 6.430000000000000E7    -4.331965148448944E-1  -8.958152532577515E-1  -1.797784585505724E-3  -1.915459521114826E-2  -1.869307830929756E-3  -1.904112845659256E-2  -2.127571105957031E-1   9.737609624862671E-1  
 6.460000000000000E7    -4.863113760948181E-1  -8.683295249938965E-1  -1.819937373511493E-3  -1.423170603811741E-2  -1.790296169929206E-3  -1.421025767922401E-2  -1.983733922243118E-1   9.759382605552673E-1  
 6.490000000000000E7    -5.363507270812988E-1  -8.378884792327881E-1  -1.531295711174607E-3  -9.739794768393040E-3  -1.527942251414061E-3  -9.741040877997875E-3  -1.840423792600632E-1   9.795993566513062E-1  
 6.520000000000000E7    -5.847696065902710E-1  -8.057280778884888E-1  -9.662038064561784E-4  -5.611467640846968E-3  -9.740859968587756E-4  -5.616325419396162E-3  -1.693750172853470E-1   9.831393361091614E-1  
 6.550000000000000E7    -6.289595961570740E-1  -7.705713510513306E-1  -1.634702784940600E-4  -1.799956313334405E-3  -1.532777969259769E-4  -1.809908659197390E-3  -1.542856097221375E-1   9.839029908180237E-1  
 6.580000000000000E7    -6.721789240837097E-1  -7.342149615287781E-1   8.538633701391518E-4   1.690856064669788E-3   8.057059021666646E-4   1.675978535786271E-3  -1.401066780090332E-1   9.875824451446533E-1  
 6.610000000000000E7    -7.118400335311890E-1  -6.944790482521057E-1   2.004901412874460E-3   4.882296547293663E-3   2.020909916609526E-3   4.838109482079744E-3  -1.242615655064583E-1   9.888401627540588E-1  
 6.640000000000000E7    -7.479665279388428E-1  -6.571846008300781E-1   3.276742994785309E-3   7.741521112620831E-3   3.268319647759199E-3   7.727583870291710E-3  -1.101164743304253E-1   9.908881187438965E-1  
 6.670000000000000E7    -7.826229333877564E-1  -6.153877973556519E-1   4.695623181760311E-3   1.036455854773521E-2   4.645012784749270E-3   1.029684580862522E-2  -9.721060842275620E-2   9.924424886703491E-1  
 6.700000000000000E7    -8.133592605590820E-1  -5.728728175163269E-1   6.164557766169310E-3   1.266483403742313E-2   6.161205936223269E-3   1.260878518223763E-2  -8.284430950880051E-2   9.926982522010803E-1  
 6.730000000000000E7    -8.420743942260742E-1  -5.305505990982056E-1   7.693764753639698E-3   1.474788598716259E-2   7.766574621200562E-3   1.470587030053139E-2  -6.861402839422226E-2   9.949006438255310E-1  
 6.760000000000000E7    -8.673338890075684E-1  -4.874147176742554E-1   9.358018636703491E-3   1.658024638891220E-2   9.294754825532436E-3   1.649042591452599E-2  -5.392371863126755E-2   9.950970411300659E-1  
 6.790000000000000E7    -8.909466266632080E-1  -4.431544840335846E-1   1.092918962240219E-2   1.815922744572163E-2   1.093878690153360E-2   1.808839663863182E-2  -4.056864976882935E-2   9.951476454734802E-1  
 6.820000000000000E7    -9.119837284088135E-1  -3.981491625308991E-1   1.261214911937714E-2   1.948293671011925E-2   1.256376877427101E-2   1.946712657809258E-2  -2.721332013607025E-2   9.959688186645508E-1  
 6.850000000000000E7    -9.314071536064148E-1  -3.533209860324860E-1   1.425316743552685E-2   2.075400762259960E-2   1.419637631624937E-2   2.064874954521656E-2  -1.358629018068314E-2   9.963582754135132E-1  
 6.880000000000000E7    -9.466532468795776E-1  -3.083725571632385E-1   1.590434461832047E-2   2.168019674718380E-2   1.588856987655163E-2   2.154457569122315E-2   9.570792317390442E-4   9.962241649627686E-1  
 6.910000000000000E7    -9.593070745468140E-1  -2.625475227832794E-1   1.757762208580971E-2   2.245319820940495E-2   1.748569123446941E-2   2.237013168632984E-2   1.471274346113205E-2   9.963835477828980E-1  
 6.940000000000000E7    -9.713844656944275E-1  -2.178336530923843E-1   1.910929009318352E-2   2.308898977935314E-2   1.911556720733643E-2   2.296756394207478E-2   2.749872580170631E-2   9.960866570472717E-1  
 6.970000000000000E7    -9.802330136299133E-1  -1.712696254253388E-1   2.070664241909981E-2   2.350214309990406E-2   2.073157019913197E-2   2.344364300370216E-2   4.168658703565598E-2   9.953215718269348E-1  
 7.000000000000000E7    -9.874453544616699E-1  -1.261185407638550E-1   2.227114327251911E-2   2.382894791662693E-2   2.223273552954197E-2   2.370365895330906E-2   5.470141023397446E-2   9.951573014259338E-1  
