#  HZ   S   RI   R     50.00 
! Rohde & Schwarz ZVT8 8Ports - Version 4.11 - 1300.0000k08 SN: 100242
! Date: 2026-07-31 15:08:33
! Measurements: S11 S21 S12 S22 
! 
 1.000000000000000E7    -4.045006334781647E-1   9.105404019355774E-1   5.070960894227028E-2   5.165307223796845E-2   5.029947310686112E-2   5.163000151515007E-2  -9.198652505874634E-1   3.819283843040466E-1  
 1.030000000000000E7    -3.720133602619171E-1   9.228332638740540E-1   5.389537289738655E-2   5.169953033328056E-2   5.352974310517311E-2   5.189158022403717E-2  -9.143575429916382E-1   3.944217264652252E-1  
 1.060000000000000E7    -3.359088003635407E-1   9.364642500877380E-1   5.711929500102997E-2   5.263185873627663E-2   5.694485455751419E-2   5.239639431238174E-2  -9.110155105590820E-1   4.059154391288757E-1  
 1.090000000000000E7    -3.043281137943268E-1   9.466130137443543E-1   6.039822474122047E-2   5.298344790935516E-2   6.003871932625771E-2   5.284883826971054E-2  -9.051720499992371E-1   4.172551929950714E-1  
 1.120000000000000E7    -2.693001329898834E-1   9.557515382766724E-1   6.389483809471130E-2   5.369800329208374E-2   6.336746364831924E-2   5.337875336408615E-2  -9.001147747039795E-1   4.288094937801361E-1  
 1.150000000000000E7    -2.336605787277222E-1   9.665290117263794E-1   6.709210574626923E-2   5.345205217599869E-2   6.692515313625336E-2   5.342148244380951E-2  -8.928980827331543E-1   4.379919767379761E-1  
 1.180000000000000E7    -1.989211142063141E-1   9.717589616775513E-1   7.041963189840317E-2   5.359628051519394E-2   7.055412977933884E-2   5.349656939506531E-2  -8.889591097831726E-1   4.485979378223419E-1  
 1.210000000000000E7    -1.643840372562408E-1   9.785323739051819E-1   7.421130686998367E-2   5.370215326547623E-2   7.414410263299942E-2   5.376764014363289E-2  -8.817286491394043E-1   4.602379798889160E-1  
 1.240000000000000E7    -1.285347044467926E-1   9.829272031784058E-1   7.798919081687927E-2   5.383228883147240E-2   7.792404294013977E-2   5.358801037073135E-2  -8.753196597099304E-1   4.697386026382446E-1  
 1.270000000000000E7    -9.314960986375809E-2   9.866283535957336E-1   8.219515532255173E-2   5.327822268009186E-2   8.181043714284897E-2   5.312076210975647E-2  -8.690012097358704E-1   4.828430712223053E-1  
 1.300000000000000E7    -5.802656710147858E-2   9.898961186408997E-1   8.574503660202026E-2   5.300400406122208E-2   8.584553003311157E-2   5.291295796632767E-2  -8.619225025177002E-1   4.931892454624176E-1  
 1.330000000000000E7    -2.157217822968960E-2   9.913958907127380E-1   9.009702503681183E-2   5.238967388868332E-2   8.985379338264465E-2   5.206325277686119E-2  -8.543701171875000E-1   5.047090649604797E-1  
 1.360000000000000E7     1.567212119698525E-2   9.908936023712158E-1   9.415099769830704E-2   5.199911817908287E-2   9.426871687173843E-2   5.140339210629463E-2  -8.482862114906311E-1   5.141387581825256E-1  
 1.390000000000000E7     5.065332353115082E-2   9.890109300613403E-1   9.862899780273438E-2   5.075100064277649E-2   9.823444485664368E-2   5.092655494809151E-2  -8.410406708717346E-1   5.250673294067383E-1  
 1.420000000000000E7     8.844542503356934E-2   9.864778518676758E-1   1.025410741567612E-1   4.999250546097755E-2   1.023881807923317E-1   5.002321675419807E-2  -8.351408243179321E-1   5.353397727012634E-1  
 1.450000000000000E7     1.240313425660133E-1   9.812168478965759E-1   1.071856841444969E-1   4.858932271599770E-2   1.070637851953507E-1   4.875738918781281E-2  -8.252811431884766E-1   5.471974611282349E-1  
 1.480000000000000E7     1.617542207241058E-1   9.754717350006104E-1   1.116917058825493E-1   4.733601212501526E-2   1.118011251091957E-1   4.770666733384132E-2  -8.191688060760498E-1   5.568956732749939E-1  
 1.510000000000000E7     1.973312348127365E-1   9.683930873870850E-1   1.162284165620804E-1   4.565025866031647E-2   1.159942299127579E-1   4.582932591438294E-2  -8.086067438125610E-1   5.680246949195862E-1  
 1.540000000000000E7     2.326085269451141E-1   9.599213004112244E-1   1.208141595125198E-1   4.477226361632347E-2   1.208203434944153E-1   4.434079676866531E-2  -8.033518195152283E-1   5.772109031677246E-1  
 1.570000000000000E7     2.696015536785126E-1   9.512683749198914E-1   1.256881356239319E-1   4.245169088244438E-2   1.256253421306610E-1   4.242235049605370E-2  -7.939035892486572E-1   5.891175866127014E-1  
 1.600000000000000E7     3.060666322708130E-1   9.384970068931580E-1   1.304513216018677E-1   4.042393714189529E-2   1.307003051042557E-1   4.015426710247994E-2  -7.861425876617432E-1   5.974270105361939E-1  
 1.630000000000000E7     3.410502672195435E-1   9.256355166435242E-1   1.360793858766556E-1   3.796072676777840E-2   1.355444788932800E-1   3.808864951133728E-2  -7.771927118301392E-1   6.093561053276062E-1  
 1.660000000000000E7     3.767144680023193E-1   9.101876020431519E-1   1.412878036499023E-1   3.513953834772110E-2   1.406186670064926E-1   3.486359864473343E-2  -7.665311098098755E-1   6.198121905326843E-1  
 1.690000000000000E7     4.110411703586578E-1   8.948476314544678E-1   1.463637202978134E-1   3.301170840859413E-2   1.460639685392380E-1   3.280389681458473E-2  -7.580903172492981E-1   6.291974782943726E-1  
 1.720000000000000E7     4.476382136344910E-1   8.775831460952759E-1   1.511046737432480E-1   2.908742800354958E-2   1.511168777942658E-1   2.945360168814659E-2  -7.484894990921021E-1   6.390105485916138E-1  
 1.750000000000000E7     4.771928191184998E-1   8.609488606452942E-1   1.572013199329376E-1   2.712258696556091E-2   1.572176665067673E-1   2.676543407142162E-2  -7.402721643447876E-1   6.503547430038452E-1  
 1.780000000000000E7     5.134726166725159E-1   8.371896147727966E-1   1.617339849472046E-1   2.280891314148903E-2   1.620290428400040E-1   2.313027903437614E-2  -7.290462851524353E-1   6.579840779304504E-1  
 1.810000000000000E7     5.451818704605103E-1   8.167387247085571E-1   1.683211922645569E-1   1.948601752519608E-2   1.672985255718231E-1   1.862754113972187E-2  -7.191388010978699E-1   6.708387732505798E-1  
 1.840000000000000E7     5.789229869842529E-1   7.929739952087402E-1   1.741381436586380E-1   1.427724026143551E-2   1.732329130172730E-1   1.449790224432945E-2  -7.079522609710693E-1   6.798700094223023E-1  
 1.870000000000000E7     6.082894206047058E-1   7.691183090209961E-1   1.796169579029083E-1   1.042292080819607E-2   1.788667142391205E-1   1.001070067286491E-2  -6.971998214721680E-1   6.888471841812134E-1  
 1.900000000000000E7     6.386605501174927E-1   7.426505684852600E-1   1.852628439664841E-1   5.922887474298477E-3   1.849792152643204E-1   5.327211692929268E-3  -6.855673193931580E-1   6.985771656036377E-1  
 1.930000000000000E7     6.687998771667481E-1   7.143940925598145E-1   1.910320371389389E-1  -3.449041396379471E-4   1.910332888364792E-1   4.262048751115799E-4  -6.745275259017944E-1   7.090229988098145E-1  
 1.960000000000000E7     6.979746222496033E-1   6.842090487480164E-1   1.967557817697525E-1  -5.837188102304936E-3   1.967045366764069E-1  -5.165845155715942E-3  -6.644141674041748E-1   7.172907590866089E-1  
 1.990000000000000E7     7.233588099479675E-1   6.534618139266968E-1   2.026822119951248E-1  -1.180933881551027E-2   2.030251473188400E-1  -1.169104781001806E-2  -6.500416398048401E-1   7.286884784698486E-1  
 2.020000000000000E7     7.497828006744385E-1   6.214174032211304E-1   2.090889364480972E-1  -1.803509518504143E-2   2.083408087491989E-1  -1.785292662680149E-2  -6.386761069297791E-1   7.349133491516113E-1  
 2.050000000000000E7     7.765964269638062E-1   5.871589779853821E-1   2.150213271379471E-1  -2.450129389762878E-2   2.134278267621994E-1  -2.504186891019344E-2  -6.261380910873413E-1   7.441992759704590E-1  
 2.080000000000000E7     7.991978526115418E-1   5.503214597702026E-1   2.211085706949234E-1  -3.217575326561928E-2   2.211250811815262E-1  -3.197630494832993E-2  -6.137866377830505E-1   7.546637654304504E-1  
 2.110000000000000E7     8.226795196533203E-1   5.136482715606690E-1   2.275045663118362E-1  -4.084131866693497E-2   2.274531424045563E-1  -4.072757065296173E-2  -5.995815396308899E-1   7.633283138275147E-1  
 2.140000000000000E7     8.431612849235535E-1   4.754379391670227E-1   2.337112426757813E-1  -4.954667016863823E-2   2.326723486185074E-1  -4.872152209281921E-2  -5.859329104423523E-1   7.710381746292114E-1  
 2.170000000000000E7     8.613208532333374E-1   4.367116093635559E-1   2.397931069135666E-1  -5.822198837995529E-2   2.394986301660538E-1  -5.734291672706604E-2  -5.724326968193054E-1   7.791618108749390E-1  
 2.200000000000000E7     8.801687955856323E-1   3.932895660400391E-1   2.453984320163727E-1  -6.821292638778687E-2   2.454305738210678E-1  -6.790329515933991E-2  -5.561400651931763E-1   7.869626283645630E-1  
 2.230000000000000E7     8.946062326431274E-1   3.509075045585632E-1   2.513802647590637E-1  -7.861086726188660E-2   2.510374486446381E-1  -7.802610099315643E-2  -5.414186120033264E-1   7.944839000701904E-1  
 2.260000000000000E7     9.084548354148865E-1   3.062397539615631E-1   2.568260133266449E-1  -8.971659839153290E-2   2.583289742469788E-1  -8.943814039230347E-2  -5.264771580696106E-1   8.014345765113831E-1  
 2.290000000000000E7     9.201318025588989E-1   2.605642080307007E-1   2.629073262214661E-1  -1.015645116567612E-1   2.635016143321991E-1  -1.009618267416954E-1  -5.090097784996033E-1   8.080123662948608E-1  
 2.320000000000000E7     9.284033179283142E-1   2.137368619441986E-1   2.689998745918274E-1  -1.149650290608406E-1   2.683580219745636E-1  -1.151107698678970E-1  -4.935145974159241E-1   8.168196678161621E-1  
 2.350000000000000E7     9.345074892044067E-1   1.637251079082489E-1   2.743313312530518E-1  -1.293824315071106E-1   2.737011313438416E-1  -1.284501403570175E-1  -4.766901135444641E-1   8.225743770599365E-1  
 2.380000000000000E7     9.383624196052551E-1   1.147167608141899E-1   2.790694236755371E-1  -1.431529223918915E-1   2.792552113533020E-1  -1.430220156908035E-1  -4.597061872482300E-1   8.283573389053345E-1  
 2.410000000000000E7     9.395712018013001E-1   6.263679265975952E-2   2.834909260272980E-1  -1.596421599388123E-1   2.829303741455078E-1  -1.591714918613434E-1  -4.409722089767456E-1   8.332033753395081E-1  
 2.440000000000000E7     9.368431568145752E-1   1.085442677140236E-2   2.881529927253723E-1  -1.770326346158981E-1   2.879987061023712E-1  -1.771266460418701E-1  -4.235665500164032E-1   8.378782868385315E-1  
 2.470000000000000E7     9.308221340179443E-1  -4.224278032779694E-2   2.915748655796051E-1  -1.955975741147995E-1   2.913497984409332E-1  -1.936264783143997E-1  -4.035193622112274E-1   8.408434391021729E-1  
 2.500000000000000E7     9.223184585571289E-1  -9.718293696641922E-2   2.941871881484985E-1  -2.142955660820007E-1   2.940285801887512E-1  -2.147613316774368E-1  -3.838497996330261E-1   8.452882170677185E-1  
 2.530000000000000E7     9.094280004501343E-1  -1.521551012992859E-1   2.972460389137268E-1  -2.347887158393860E-1   2.971503138542175E-1  -2.342544943094254E-1  -3.642642796039581E-1   8.467602729797363E-1  
 2.560000000000000E7     8.915427923202515E-1  -2.071204036474228E-1   2.980969846248627E-1  -2.564236223697662E-1   2.989811599254608E-1  -2.565816342830658E-1  -3.439946174621582E-1   8.484385013580322E-1  
 2.590000000000000E7     8.687736988067627E-1  -2.615071237087250E-1   2.980540990829468E-1  -2.810905873775482E-1   2.985526919364929E-1  -2.810544669628143E-1  -3.232258856296539E-1   8.511264324188232E-1  
 2.620000000000000E7     8.408994078636169E-1  -3.179153800010681E-1   2.967590987682343E-1  -3.072525560855866E-1   2.967970669269562E-1  -3.058857321739197E-1  -3.000021576881409E-1   8.507275581359863E-1  
 2.650000000000000E7     8.088480234146118E-1  -3.727943003177643E-1   2.947361469268799E-1  -3.325762152671814E-1   2.945572435855866E-1  -3.331773877143860E-1  -2.789976596832275E-1   8.481766581535339E-1  
 2.680000000000000E7     7.699654698371887E-1  -4.262998700141907E-1   2.906912863254547E-1  -3.613019287586212E-1   2.900803387165070E-1  -3.622152805328369E-1  -2.569653987884522E-1   8.451640009880066E-1  
 2.710000000000000E7     7.248973250389099E-1  -4.785718321800232E-1   2.818721234798431E-1  -3.923422992229462E-1   2.814574241638184E-1  -3.916046023368835E-1  -2.342634946107864E-1   8.423340916633606E-1  
 2.740000000000000E7     6.734842061996460E-1  -5.296136736869812E-1   2.741670608520508E-1  -4.235623478889465E-1   2.723883092403412E-1  -4.244566857814789E-1  -2.111699581146240E-1   8.333618640899658E-1  
 2.770000000000000E7     6.167678833007813E-1  -5.754251480102539E-1   2.602792680263519E-1  -4.573425054550171E-1   2.591973245143890E-1  -4.581199586391449E-1  -1.881247013807297E-1   8.261050581932068E-1  
 2.800000000000000E7     5.527276396751404E-1  -6.190230846405029E-1   2.440312653779984E-1  -4.917545616626740E-1   2.452616542577744E-1  -4.924098551273346E-1  -1.647050082683563E-1   8.145778775215149E-1  
 2.830000000000000E7     4.800131320953369E-1  -6.561279296875000E-1   2.236398160457611E-1  -5.265396833419800E-1   2.223500460386276E-1  -5.269888043403626E-1  -1.450805813074112E-1   8.035509586334229E-1  
 2.860000000000000E7     3.992795348167419E-1  -6.855950355529785E-1   1.976558715105057E-1  -5.634313821792603E-1   1.956983357667923E-1  -5.646104812622070E-1  -1.208428665995598E-1   7.884229421615601E-1  
 2.890000000000000E7     3.143981099128723E-1  -7.054313421249390E-1   1.658038198947907E-1  -6.010765433311462E-1   1.654935330152512E-1  -6.002969741821289E-1  -1.015101820230484E-1   7.714461088180542E-1  
 2.920000000000000E7     2.213818877935410E-1  -7.180403470993042E-1   1.311960667371750E-1  -6.359105706214905E-1   1.289177387952805E-1  -6.353553533554077E-1  -8.422420173883438E-2   7.510975599288940E-1  
 2.950000000000000E7     1.241925507783890E-1  -7.155406475067139E-1   8.574423193931580E-2  -6.721600890159607E-1   8.541689068078995E-2  -6.704588532447815E-1  -6.681990623474121E-2   7.288624644279480E-1  
 2.980000000000000E7     2.236184477806091E-2  -7.003571987152100E-1   3.582900762557983E-2  -7.017930150032044E-1   3.461667895317078E-2  -7.029922604560852E-1  -5.456199124455452E-2   7.036953568458557E-1  
 3.010000000000000E7    -7.931743562221527E-2  -6.688966155052185E-1  -2.308749035000801E-2  -7.293877601623535E-1  -2.225196175277233E-2  -7.296316623687744E-1  -4.466319829225540E-2   6.765400171279907E-1  
 3.040000000000000E7    -1.808093041181564E-1  -6.175749301910400E-1  -8.677532523870468E-2  -7.500010728836060E-1  -8.891069889068604E-2  -7.496122121810913E-1  -4.112287983298302E-2   6.475079059600830E-1  
 3.070000000000000E7    -2.733664512634277E-1  -5.513346791267395E-1  -1.573603451251984E-1  -7.620419263839722E-1  -1.569088995456696E-1  -7.605378031730652E-1  -3.932239115238190E-2   6.208078861236572E-1  
 3.100000000000000E7    -3.565604388713837E-1  -4.641621708869934E-1  -2.327551841735840E-1  -7.652179598808289E-1  -2.319781482219696E-1  -7.638804316520691E-1  -4.302532225847244E-2   5.927398204803467E-1  
 3.130000000000000E7    -4.270727336406708E-1  -3.637064397335053E-1  -3.118705749511719E-1  -7.557451128959656E-1  -3.107909560203552E-1  -7.555565834045410E-1  -5.538881570100784E-2   5.652810931205750E-1  
 3.160000000000000E7    -4.767118394374847E-1  -2.462727427482605E-1  -3.892146050930023E-1  -7.360994815826416E-1  -3.886134624481201E-1  -7.348822355270386E-1  -7.072110474109650E-2   5.434305667877197E-1  
 3.190000000000000E7    -5.060251355171204E-1  -1.214178428053856E-1  -4.649889171123505E-1  -7.024656534194946E-1  -4.638359546661377E-1  -7.014605402946472E-1  -8.930570632219315E-2   5.231692194938660E-1  
 3.220000000000000E7    -5.130188465118408E-1   8.778158575296402E-3  -5.351583957672119E-1  -6.575413942337036E-1  -5.348151922225952E-1  -6.564435362815857E-1  -1.137672439217567E-1   5.096223354339600E-1  
 3.250000000000000E7    -4.924483001232147E-1   1.364186406135559E-1  -5.984304547309876E-1  -6.023176908493042E-1  -5.982111692428589E-1  -6.012591719627380E-1  -1.396377384662628E-1   5.038067102432251E-1  
 3.280000000000000E7    -4.477362632751465E-1   2.576171457767487E-1  -6.523648500442505E-1  -5.379250049591065E-1  -6.517911553382874E-1  -5.366026759147644E-1  -1.663304716348648E-1   5.001224279403687E-1  
 3.310000000000000E7    -3.879033923149109E-1   3.666625320911408E-1  -6.936311125755310E-1  -4.664283096790314E-1  -6.929352879524231E-1  -4.643329679965973E-1  -1.924318075180054E-1   5.070205926895142E-1  
 3.340000000000000E7    -3.075076341629028E-1   4.590662419795990E-1  -7.252655029296875E-1  -3.916788697242737E-1  -7.231492996215820E-1  -3.909451961517334E-1  -2.147532701492310E-1   5.175234079360962E-1  
 3.370000000000000E7    -2.143548280000687E-1   5.350747108459473E-1  -7.416739463806152E-1  -3.162007629871368E-1  -7.414218783378601E-1  -3.154562711715698E-1  -2.377878576517105E-1   5.345592498779297E-1  
 3.400000000000000E7    -1.149935126304627E-1   5.910053849220276E-1  -7.493523955345154E-1  -2.431214451789856E-1  -7.481230497360230E-1  -2.430692762136459E-1  -2.527732551097870E-1   5.550439357757568E-1  
 3.430000000000000E7    -1.166680920869112E-2   6.284455060958862E-1  -7.474563121795654E-1  -1.720192879438400E-1  -7.468744516372681E-1  -1.724601984024048E-1  -2.645131051540375E-1   5.766115188598633E-1  
 3.460000000000000E7     9.219595044851303E-2   6.495392322540283E-1  -7.374974489212036E-1  -1.070888042449951E-1  -7.364553213119507E-1  -1.082277595996857E-1  -2.708125114440918E-1   6.038387417793274E-1  
 3.490000000000000E7     1.920650303363800E-1   6.531599760055542E-1  -7.211827635765076E-1  -4.469472914934158E-2  -7.204640507698059E-1  -4.667668417096138E-2  -2.747561335563660E-1   6.265487670898438E-1  
 3.520000000000000E7     2.890881597995758E-1   6.442226767539978E-1  -6.983033418655396E-1   8.323866873979569E-3  -6.987901329994202E-1   7.241811603307724E-3  -2.732895016670227E-1   6.550522446632385E-1  
 3.550000000000000E7     3.796374201774597E-1   6.210441589355469E-1  -6.728702187538147E-1   5.562326312065125E-2  -6.725623011589050E-1   5.509560555219650E-2  -2.679948210716248E-1   6.824138760566711E-1  
 3.580000000000000E7     4.615286290645599E-1   5.918980240821838E-1  -6.438164114952087E-1   9.923404455184937E-2  -6.438610553741455E-1   9.874013066291809E-2  -2.588453292846680E-1   7.069930434226990E-1  
 3.610000000000000E7     5.346626639366150E-1   5.529895424842835E-1  -6.161531805992127E-1   1.374461650848389E-1  -6.139851212501526E-1   1.374323666095734E-1  -2.460887730121613E-1   7.332704067230225E-1  
 3.640000000000000E7     6.018227338790894E-1   5.079461932182312E-1  -5.837351679801941E-1   1.687503457069397E-1  -5.825656056404114E-1   1.687442362308502E-1  -2.314737737178803E-1   7.565668821334839E-1  
 3.670000000000000E7     6.604216694831848E-1   4.589900076389313E-1  -5.531163811683655E-1   1.970571130514145E-1  -5.513141751289368E-1   1.971208155155182E-1  -2.145415544509888E-1   7.774599194526672E-1  
 3.700000000000000E7     7.104452848434448E-1   4.065247178077698E-1  -5.204578638076782E-1   2.215330451726914E-1  -5.194715261459351E-1   2.217539250850678E-1  -1.934735774993897E-1   7.982346415519714E-1  
 3.730000000000000E7     7.556636333465576E-1   3.506504595279694E-1  -4.874424338340759E-1   2.418532520532608E-1  -4.886541366577148E-1   2.411819696426392E-1  -1.726582050323486E-1   8.151487112045288E-1  
 3.760000000000000E7     7.905690670013428E-1   2.959959506988525E-1  -4.573244750499725E-1   2.596324086189270E-1  -4.583998918533325E-1   2.592474520206451E-1  -1.488327980041504E-1   8.332907557487488E-1  
 3.790000000000000E7     8.218716382980347E-1   2.372739017009735E-1  -4.286050200462341E-1   2.742908596992493E-1  -4.281641244888306E-1   2.745273113250732E-1  -1.237661689519882E-1   8.470573425292969E-1  
 3.820000000000000E7     8.470024466514587E-1   1.799398511648178E-1  -4.002755880355835E-1   2.866401672363281E-1  -3.996495902538300E-1   2.852315902709961E-1  -9.818571805953980E-2   8.607466816902161E-1  
 3.850000000000000E7     8.669986724853516E-1   1.213747859001160E-1  -3.726360499858856E-1   2.958056926727295E-1  -3.711791932582855E-1   2.964313626289368E-1  -7.160925865173340E-2   8.739426136016846E-1  
 3.880000000000000E7     8.811878561973572E-1   6.550122797489166E-2  -3.440992236137390E-1   3.051345646381378E-1  -3.439603149890900E-1   3.042231202125549E-1  -4.155097901821137E-2   8.842417597770691E-1  
 3.910000000000000E7     8.921887874603272E-1   8.911699056625366E-3  -3.188141882419586E-1   3.100291490554810E-1  -3.188033699989319E-1   3.108967244625092E-1  -1.133964210748673E-2   8.927709460258484E-1  
 3.940000000000000E7     8.962002992630005E-1  -4.598749428987503E-2  -2.941413521766663E-1   3.144341409206390E-1  -2.934306561946869E-1   3.141797184944153E-1   1.828210055828095E-2   8.987272381782532E-1  
 3.970000000000000E7     8.992091417312622E-1  -9.982966631650925E-2  -2.704299688339233E-1   3.168382048606873E-1  -2.700957953929901E-1   3.167766630649567E-1   4.969387501478195E-2   9.027110934257507E-1  
 4.000000000000000E7     8.977030515670776E-1  -1.528399884700775E-1  -2.471142262220383E-1   3.192799985408783E-1  -2.466433048248291E-1   3.194090723991394E-1   8.289920538663864E-2   9.073436260223389E-1  
 4.030000000000000E7     8.929793238639832E-1  -2.033517062664032E-1  -2.248029410839081E-1   3.214831054210663E-1  -2.248514145612717E-1   3.205957710742950E-1   1.148349195718765E-1   9.095334410667419E-1  
 4.060000000000000E7     8.854988813400269E-1  -2.536059021949768E-1  -2.038151919841766E-1   3.200197517871857E-1  -2.037933617830277E-1   3.193047642707825E-1   1.489994376897812E-1   9.091769456863403E-1  
 4.090000000000000E7     8.759930729866028E-1  -3.027195930480957E-1  -1.831904947757721E-1   3.184308111667633E-1  -1.826787889003754E-1   3.186410069465637E-1   1.823645830154419E-1   9.075638055801392E-1  
 4.120000000000000E7     8.629876971244812E-1  -3.494689464569092E-1  -1.648057699203491E-1   3.161918818950653E-1  -1.638935804367065E-1   3.156633079051971E-1   2.181045860052109E-1   9.041839241981506E-1  
 4.150000000000000E7     8.477517366409302E-1  -3.928284049034119E-1  -1.449706703424454E-1   3.144835233688355E-1  -1.456176638603210E-1   3.124064207077026E-1   2.543277740478516E-1   8.980698585510254E-1  
 4.180000000000000E7     8.310188651084900E-1  -4.376220405101776E-1  -1.267953515052795E-1   3.105066418647766E-1  -1.267451494932175E-1   3.097934424877167E-1   2.895294129848480E-1   8.921464681625366E-1  
 4.210000000000000E7     8.118424415588379E-1  -4.785398840904236E-1  -1.092709824442864E-1   3.064142763614655E-1  -1.096878871321678E-1   3.064065277576447E-1   3.282343745231628E-1   8.823831081390381E-1  
 4.240000000000000E7     7.904089093208313E-1  -5.182736515998840E-1  -9.304802119731903E-2   3.016920983791351E-1  -9.292758256196976E-2   3.014405369758606E-1   3.657331466674805E-1   8.709708452224731E-1  
 4.270000000000000E7     7.675419449806213E-1  -5.562922954559326E-1  -7.653842121362686E-2   2.963671386241913E-1  -7.656320184469223E-2   2.960861921310425E-1   4.041077792644501E-1   8.571185469627380E-1  
 4.300000000000000E7     7.434742450714111E-1  -5.943109393119812E-1  -6.087906658649445E-2   2.908830642700195E-1  -6.152049079537392E-2   2.900417447090149E-1   4.426103234291077E-1   8.416044712066650E-1  
 4.330000000000000E7     7.193744778633118E-1  -6.283258795738220E-1  -4.724090546369553E-2   2.834648191928864E-1  -4.695072025060654E-2   2.839317619800568E-1   4.810244441032410E-1   8.223544359207153E-1  
 4.360000000000000E7     6.908649802207947E-1  -6.619923114776611E-1  -3.344124555587769E-2   2.777076661586762E-1  -3.294400125741959E-2   2.762404084205627E-1   5.194308161735535E-1   8.023964166641235E-1  
 4.390000000000000E7     6.632100343704224E-1  -6.950715184211731E-1  -1.956320554018021E-2   2.703838348388672E-1  -1.997832395136356E-2   2.701200842857361E-1   5.584535002708435E-1   7.777366638183594E-1  
 4.420000000000000E7     6.333600282669067E-1  -7.242558002471924E-1  -6.902821362018585E-3   2.615132331848145E-1  -7.154867053031921E-3   2.616482675075531E-1   5.971627831459045E-1   7.510852813720703E-1  
 4.450000000000000E7     6.026811599731445E-1  -7.522572278976440E-1   5.037683993577957E-3   2.534986138343811E-1   5.063811317086220E-3   2.530899643898010E-1   6.359072923660278E-1   7.235451340675354E-1  
 4.480000000000000E7     5.715137720108032E-1  -7.793110609054565E-1   1.656761951744556E-2   2.446303069591522E-1   1.646181009709835E-2   2.443352341651917E-1   6.739062070846558E-1   6.898939609527588E-1  
 4.510000000000000E7     5.406939387321472E-1  -8.043636083602905E-1   2.715660259127617E-2   2.357150167226791E-1   2.703344449400902E-2   2.351165860891342E-1   7.125306725502014E-1   6.534318923950195E-1  
 4.540000000000000E7     5.072535872459412E-1  -8.275206089019775E-1   3.772851079702377E-2   2.247661799192429E-1   3.735010698437691E-2   2.250916063785553E-1   7.493909001350403E-1   6.133635640144348E-1  
 4.570000000000000E7     4.728756844997406E-1  -8.500247001647949E-1   4.699777066707611E-2   2.146862447261810E-1   4.596959054470062E-2   2.147389948368073E-1   7.843555212020874E-1   5.697575211524963E-1  
 4.600000000000000E7     4.405078291893005E-1  -8.687185645103455E-1   5.492653697729111E-2   2.049603462219238E-1   5.485720187425613E-2   2.050314843654633E-1   8.190337419509888E-1   5.239936709403992E-1  
 4.630000000000000E7     4.037659168243408E-1  -8.891928195953369E-1   6.312593817710877E-2   1.938133239746094E-1   6.337172538042069E-2   1.934537589550018E-1   8.517171144485474E-1   4.717571139335632E-1  
 4.660000000000000E7     3.684278726577759E-1  -9.072354435920715E-1   7.022149115800858E-2   1.818170845508575E-1   7.007084041833878E-2   1.819731891155243E-1   8.807026147842407E-1   4.152094423770905E-1  
 4.690000000000000E7     3.325779139995575E-1  -9.218186140060425E-1   7.637940347194672E-2   1.704819202423096E-1   7.589846104383469E-2   1.700631827116013E-1   9.094036221504211E-1   3.563730716705322E-1  
 4.720000000000000E7     2.953152060508728E-1  -9.355564713478088E-1   8.142112195491791E-2   1.582819670438767E-1   8.162900805473328E-2   1.578844785690308E-1   9.316939711570740E-1   2.928699851036072E-1  
 4.750000000000000E7     2.597884535789490E-1  -9.485136270523071E-1   8.584599941968918E-2   1.458590924739838E-1   8.564727753400803E-2   1.457150131464005E-1   9.535019397735596E-1   2.254758179187775E-1  
 4.780000000000000E7     2.230747193098068E-1  -9.593273401260376E-1   8.868762850761414E-2   1.335176825523377E-1   8.858305960893631E-2   1.336965113878250E-1   9.674940109252930E-1   1.553114056587219E-1  
 4.810000000000000E7     1.851598024368286E-1  -9.682753086090088E-1   9.118629246950150E-2   1.214289218187332E-1   9.097900241613388E-2   1.211601570248604E-1   9.790238142013550E-1   7.941436767578125E-2  
 4.840000000000000E7     1.477827578783035E-1  -9.768580794334412E-1   9.231934696435928E-2   1.088728606700897E-1   9.245739132165909E-2   1.085185483098030E-1   9.832327961921692E-1   1.064151525497437E-3  
 4.870000000000000E7     1.097376197576523E-1  -9.828594923019409E-1   9.246493130922318E-2   9.612031280994415E-2   9.225487709045410E-2   9.627154469490051E-2   9.812946915626526E-1  -7.985077053308487E-2  
 4.900000000000000E7     7.191498577594757E-2  -9.884939789772034E-1   9.103831648826599E-2   8.393945544958115E-2   9.115763753652573E-2   8.388888835906982E-2   9.719203114509583E-1  -1.621693372726440E-1  
 4.930000000000000E7     3.330226242542267E-2  -9.913666844367981E-1   8.873537182807922E-2   7.224989682435989E-2   8.876764774322510E-2   7.238420844078064E-2   9.550381898880005E-1  -2.473288327455521E-1  
 4.960000000000000E7    -4.575468599796295E-3  -9.909571409225464E-1   8.523281663656235E-2   6.069923937320709E-2   8.524876832962036E-2   6.046286225318909E-2   9.293800592422485E-1  -3.321874737739563E-1  
 4.990000000000000E7    -4.139811918139458E-2  -9.915858507156372E-1   8.036565035581589E-2   4.996926337480545E-2   8.049084246158600E-2   4.991906136274338E-2   8.962679505348206E-1  -4.163076877593994E-1  
 5.020000000000000E7    -7.826809585094452E-2  -9.912629127502441E-1   7.499019801616669E-2   3.994831815361977E-2   7.497505843639374E-2   4.023279994726181E-2   8.538022637367249E-1  -4.997718632221222E-1  
 5.050000000000000E7    -1.165905296802521E-1  -9.880514740943909E-1   6.836968660354614E-2   3.098348900675774E-2   6.830067187547684E-2   3.072414919734001E-2   8.021553158760071E-1  -5.794273614883423E-1  
 5.080000000000000E7    -1.530372649431229E-1  -9.841334819793701E-1   6.096760556101799E-2   2.272086590528488E-2   6.093899160623550E-2   2.298318408429623E-2   7.419793009757996E-1  -6.563835740089417E-1  
 5.110000000000000E7    -1.906373202800751E-1  -9.776445627212524E-1   5.280254781246185E-2   1.575460284948349E-2   5.274744704365730E-2   1.574058271944523E-2   6.731206774711609E-1  -7.271535992622376E-1  
 5.140000000000000E7    -2.274296581745148E-1  -9.701195955276489E-1   4.416295140981674E-2   1.006500795483589E-2   4.413616284728050E-2   1.002980396151543E-2   5.978772640228272E-1  -7.912753224372864E-1  
 5.170000000000000E7    -2.626740932464600E-1  -9.610702991485596E-1   3.487136960029602E-2   5.679163150489330E-3   3.492160513997078E-2   5.632731132209301E-3   5.156111121177673E-1  -8.471711874008179E-1  
 5.200000000000000E7    -2.984778583049774E-1  -9.527498483657837E-1   2.572751976549625E-2   2.464552409946919E-3   2.572007104754448E-2   2.575037069618702E-3   4.259954690933228E-1  -8.975186347961426E-1  
 5.230000000000000E7    -3.334042429924011E-1  -9.400420784950256E-1   1.635121554136276E-2   7.184649584814906E-4   1.634409092366695E-2   6.910349475219846E-4   3.326447308063507E-1  -9.343780875205994E-1  
 5.260000000000000E7    -3.674466013908386E-1  -9.260994791984558E-1   7.196756545454264E-3   2.183787291869521E-4   7.216891739517450E-3   1.759357983246446E-4   2.372835874557495E-1  -9.644685387611389E-1  
 5.290000000000000E7    -4.022980332374573E-1  -9.128300547599793E-1  -1.573275076225400E-3   8.499638643115759E-4  -1.540589262731373E-3   8.495457004755735E-4   1.397082507610321E-1  -9.840463399887085E-1  
 5.320000000000000E7    -4.342150986194611E-1  -8.987413644790649E-1  -9.811942465603352E-3   2.668293192982674E-3  -9.812062606215477E-3   2.666936255991459E-3   4.157432913780212E-2  -9.931117892265320E-1  
 5.350000000000000E7    -4.657228291034699E-1  -8.816616535186768E-1  -1.740763522684574E-2   5.460678599774838E-3  -1.741853542625904E-2   5.434734281152487E-3  -5.488002300262451E-2  -9.902398586273193E-1  
 5.380000000000000E7    -4.962244331836700E-1  -8.640080690383911E-1  -2.429268136620522E-2   9.083913639187813E-3  -2.423591911792755E-2   9.059378877282143E-3  -1.507029384374619E-1  -9.812975525856018E-1  
 5.410000000000000E7    -5.292627215385437E-1  -8.461344242095947E-1  -3.039765544235706E-2   1.352762803435326E-2  -3.034849837422371E-2   1.350381132215262E-2  -2.405065149068832E-1  -9.638831615447998E-1  
 5.440000000000000E7    -5.587048530578613E-1  -8.253463506698608E-1  -3.547469899058342E-2   1.843182183802128E-2  -3.550495207309723E-2   1.844428479671478E-2  -3.286879658699036E-1  -9.374273419380188E-1  
 5.470000000000000E7    -5.861616134643555E-1  -8.055666685104370E-1  -3.987366333603859E-2   2.396341413259506E-2  -3.985903039574623E-2   2.377671189606190E-2  -4.101746678352356E-1  -9.042196869850159E-1  
 5.500000000000000E7    -6.149415373802185E-1  -7.839043736457825E-1  -4.329551011323929E-2   2.950957044959068E-2  -4.318608343601227E-2   2.933906763792038E-2  -4.863221347332001E-1  -8.645868897438049E-1  
 5.530000000000000E7    -6.421091556549072E-1  -7.614156603813171E-1  -4.577973857522011E-2   3.527169302105904E-2  -4.575620964169502E-2   3.531276807188988E-2  -5.572806000709534E-1  -8.202434182167053E-1  
 5.560000000000000E7    -6.686435341835022E-1  -7.376073598861694E-1  -4.749465361237526E-2   4.127268865704536E-2  -4.743921011686325E-2   4.104420542716980E-2  -6.228019595146179E-1  -7.712642550468445E-1  
 5.590000000000000E7    -6.938819885253906E-1  -7.145595550537109E-1  -4.836864769458771E-2   4.700715839862824E-2  -4.833426699042320E-2   4.692708700895309E-2  -6.811121106147766E-1  -7.209820151329041E-1  
 5.620000000000000E7    -7.180933952331543E-1  -6.879798173904419E-1  -4.843673855066299E-2   5.246375501155853E-2  -4.843046516180039E-2   5.246330425143242E-2  -7.340710759162903E-1  -6.658801436424255E-1  
 5.650000000000000E7    -7.405193448066711E-1  -6.636387109756470E-1  -4.801580309867859E-2   5.807219073176384E-2  -4.797440022230148E-2   5.796686559915543E-2  -7.806632518768311E-1  -6.098402738571167E-1  
 5.680000000000000E7    -7.632727622985840E-1  -6.374706029891968E-1  -4.706536978483200E-2   6.326231360435486E-2  -4.696782678365707E-2   6.330168247222900E-2  -8.226226568222046E-1  -5.531854033470154E-1  
 5.710000000000000E7    -7.851905226707459E-1  -6.094157099723816E-1  -4.543571546673775E-2   6.825312227010727E-2  -4.540189355611801E-2   6.807383894920349E-2  -8.568780422210693E-1  -4.967331886291504E-1  
 5.740000000000000E7    -8.063672780990601E-1  -5.818146467208862E-1  -4.343834519386292E-2   7.279253751039505E-2  -4.344166070222855E-2   7.274150103330612E-2  -8.884764313697815E-1  -4.403669834136963E-1  
 5.770000000000000E7    -8.237807750701904E-1  -5.542692542076111E-1  -4.100656509399414E-2   7.679940760135651E-2  -4.107054695487022E-2   7.650627195835114E-2  -9.128240346908569E-1  -3.818930685520172E-1  
 5.800000000000000E7    -8.433681726455689E-1  -5.244696736335754E-1  -3.849665448069572E-2   8.085179328918457E-2  -3.797154873609543E-2   8.044242858886719E-2  -9.347843527793884E-1  -3.267455697059631E-1  
 5.830000000000000E7    -8.602052927017212E-1  -4.950003027915955E-1  -3.506751731038094E-2   8.408483117818832E-2  -3.518252819776535E-2   8.403305709362030E-2  -9.517471790313721E-1  -2.707178592681885E-1  
 5.860000000000000E7    -8.778213262557983E-1  -4.660523831844330E-1  -3.207615017890930E-2   8.727647364139557E-2  -3.193941339850426E-2   8.722396939992905E-2  -9.663597345352173E-1  -2.171287834644318E-1  
 5.890000000000000E7    -8.922479748725891E-1  -4.350377321243286E-1  -2.854196354746819E-2   8.994550257921219E-2  -2.871453016996384E-2   8.996916562318802E-2  -9.761668443679810E-1  -1.637112349271774E-1  
 5.920000000000000E7    -9.067244529724121E-1  -4.034663736820221E-1  -2.510513179004192E-2   9.241375327110291E-2  -2.469857782125473E-2   9.208113700151444E-2  -9.839431047439575E-1  -1.130224019289017E-1  
 5.950000000000000E7    -9.194194674491882E-1  -3.723219335079193E-1  -2.116670273244381E-2   9.439189732074738E-2  -2.115500345826149E-2   9.417921304702759E-2  -9.875662326812744E-1  -6.185826659202576E-2  
 5.980000000000000E7    -9.322416186332703E-1  -3.402993381023407E-1  -1.746604964137077E-2   9.628558158874512E-2  -1.749569922685623E-2   9.588456153869629E-2  -9.904628992080689E-1  -1.404183544218540E-2  
 6.010000000000000E7    -9.416792988777161E-1  -3.094786107540131E-1  -1.393493358045816E-2   9.731785207986832E-2  -1.386239938437939E-2   9.707094728946686E-2  -9.890985488891602E-1   3.128681331872940E-2  
 6.040000000000000E7    -9.522777795791626E-1  -2.755818665027618E-1  -9.878573007881641E-3   9.823822230100632E-2  -9.910177439451218E-3   9.829526394605637E-2  -9.873936772346497E-1   7.693879306316376E-2  
 6.070000000000000E7    -9.620571136474609E-1  -2.447236776351929E-1  -6.188779603689909E-3   9.912808984518051E-2  -6.373518612235785E-3   9.894533455371857E-2  -9.823074936866760E-1   1.192800849676132E-1  
 6.100000000000000E7    -9.690698385238648E-1  -2.114548534154892E-1  -2.297693863511086E-3   9.989335387945175E-2  -2.385889180004597E-3   9.950945526361466E-2  -9.776536822319031E-1   1.617401242256165E-1  
 6.130000000000000E7    -9.762480854988098E-1  -1.779854297637940E-1   1.396747305989265E-3   9.998693317174912E-2   1.210092566907406E-3   9.982703626155853E-2  -9.697298407554627E-1   2.013751715421677E-1  
 6.160000000000000E7    -9.811078310012817E-1  -1.451243609189987E-1   5.085707642138004E-3   9.973970800638199E-2   5.151230841875076E-3   9.982195496559143E-2  -9.608907103538513E-1   2.398436665534973E-1  
 6.190000000000000E7    -9.849590659141541E-1  -1.119057536125183E-1   8.551259525120258E-3   9.943065047264099E-2   8.825570344924927E-3   9.910021722316742E-2  -9.499592185020447E-1   2.777969837188721E-1  
 6.220000000000000E7    -9.889107942581177E-1  -7.859937846660614E-2   1.225506700575352E-2   9.899935871362686E-2   1.215272210538387E-2   9.906725585460663E-2  -9.398345351219177E-1   3.111825585365295E-1  
 6.250000000000000E7    -9.910600781440735E-1  -4.468515515327454E-2   1.546995993703604E-2   9.845709055662155E-2   1.547226868569851E-2   9.837070107460022E-2  -9.288285374641419E-1   3.445404171943665E-1  
 6.280000000000000E7    -9.914767742156982E-1  -1.106752455234528E-2   1.876653544604778E-2   9.758577495813370E-2   1.851692050695419E-2   9.747751057147980E-2  -9.151393771171570E-1   3.765099644660950E-1  
 6.310000000000000E7    -9.911885857582092E-1   2.380783855915070E-2   2.217932790517807E-2   9.675230830907822E-2   2.188852056860924E-2   9.659168869256973E-2  -9.024831056594849E-1   4.091747999191284E-1  
 6.340000000000000E7    -9.896683096885681E-1   5.695270001888275E-2   2.516685798764229E-2   9.556484222412109E-2   2.509457990527153E-2   9.527274221181870E-2  -8.890614509582520E-1   4.388754367828369E-1  
 6.370000000000000E7    -9.873924851417542E-1   9.024330973625183E-2   2.827753871679306E-2   9.421173483133316E-2   2.830217033624649E-2   9.406664222478867E-2  -8.728112578392029E-1   4.671576917171478E-1  
 6.400000000000000E7    -9.827174544334412E-1   1.237797811627388E-1   3.120402991771698E-2   9.291817992925644E-2   3.112025186419487E-2   9.255735576152802E-2  -8.589826822280884E-1   4.941877126693726E-1  
 6.430000000000000E7    -9.783523678779602E-1   1.582380682229996E-1   3.383988142013550E-2   9.124630689620972E-2   3.405135497450829E-2   9.097481518983841E-2  -8.432078957557678E-1   5.211335420608521E-1  
 6.460000000000000E7    -9.733340144157410E-1   1.912032961845398E-1   3.673579543828964E-2   8.941769599914551E-2   3.653966262936592E-2   8.929587900638580E-2  -8.264373540878296E-1   5.451241731643677E-1  
 6.490000000000000E7    -9.671007394790649E-1   2.234694808721542E-1   3.911050036549568E-2   8.772051334381104E-2   3.897928819060326E-2   8.787392824888229E-2  -8.114181756973267E-1   5.685164928436279E-1  
 6.520000000000000E7    -9.580164551734924E-1   2.559590637683868E-1   4.134440422058106E-2   8.594813942909241E-2   4.144198074936867E-2   8.573405444622040E-2  -7.949756979942322E-1   5.920836925506592E-1  
 6.550000000000000E7    -9.492859840393066E-1   2.876192033290863E-1   4.381740093231201E-2   8.409605175256729E-2   4.373982548713684E-2   8.391618728637695E-2  -7.776713371276856E-1   6.138283610343933E-1  
 6.580000000000000E7    -9.385892748832703E-1   3.207894861698151E-1   4.610859230160713E-2   8.208754658699036E-2   4.591556638479233E-2   8.184899389743805E-2  -7.616054415702820E-1   6.353573203086853E-1  
 6.610000000000000E7    -9.262745380401611E-1   3.520175516605377E-1   4.804525896906853E-2   7.998498529195786E-2   4.806670546531677E-2   7.940559834241867E-2  -7.435916066169739E-1   6.563872098922730E-1  
 6.640000000000000E7    -9.157813191413879E-1   3.834317922592163E-1   5.004660785198212E-2   7.788640260696411E-2   4.999502748250961E-2   7.792259007692337E-2  -7.264024019241333E-1   6.756134033203125E-1  
 6.670000000000000E7    -9.013003110885620E-1   4.142668843269348E-1   5.187806487083435E-2   7.560369372367859E-2   5.166003108024597E-2   7.553192228078842E-2  -7.095715403556824E-1   6.927070617675781E-1  
 6.700000000000000E7    -8.865706324577332E-1   4.445364773273468E-1   5.347134172916412E-2   7.329302281141281E-2   5.330412834882736E-2   7.301843166351318E-2  -6.915512084960938E-1   7.099797725677490E-1  
 6.730000000000000E7    -8.710116147994995E-1   4.747023284435272E-1   5.495165288448334E-2   7.079024612903595E-2   5.506399273872376E-2   7.070007920265198E-2  -6.746864318847656E-1   7.273186445236206E-1  
 6.760000000000000E7    -8.548025488853455E-1   5.039560198783875E-1   5.673569068312645E-2   6.868330389261246E-2   5.641243606805801E-2   6.841665506362915E-2  -6.564695835113525E-1   7.436625957489014E-1  
 6.790000000000000E7    -8.370295763015747E-1   5.331897735595703E-1   5.773777142167091E-2   6.623655557632446E-2   5.791801586747170E-2   6.610433757305145E-2  -6.391289830207825E-1   7.586150765419006E-1  
 6.820000000000000E7    -8.182035088539124E-1   5.604848861694336E-1   5.918867141008377E-2   6.374640017747879E-2   5.886135995388031E-2   6.371231377124786E-2  -6.212966442108154E-1   7.730926275253296E-1  
 6.850000000000000E7    -7.993357181549072E-1   5.889939665794373E-1   6.010842323303223E-2   6.151709333062172E-2   6.006643176078796E-2   6.138785928487778E-2  -6.035308241844177E-1   7.868040204048157E-1  
 6.880000000000000E7    -7.785829305648804E-1   6.152742505073547E-1   6.122832000255585E-2   5.891737714409828E-2   6.089480966329575E-2   5.868555977940559E-2  -5.853177905082703E-1   8.004093170166016E-1  
 6.910000000000000E7    -7.572094202041626E-1   6.416331529617310E-1   6.214265525341034E-2   5.668834596872330E-2   6.196529045701027E-2   5.648132041096687E-2  -5.676740407943726E-1   8.142462372779846E-1  
 6.940000000000000E7    -7.354862689971924E-1   6.674743294715881E-1   6.275595724582672E-2   5.431963503360748E-2   6.276311725378037E-2   5.405779927968979E-2  -5.507552027702332E-1   8.256073594093323E-1  
 6.970000000000000E7    -7.111859321594238E-1   6.921806335449219E-1   6.337323784828186E-2   5.168389901518822E-2   6.350415945053101E-2   5.150378495454788E-2  -5.327316522598267E-1   8.372263312339783E-1  
 7.000000000000000E7    -6.873930096626282E-1   7.169721126556397E-1   6.399430334568024E-2   4.922905936837196E-2   6.388656049966812E-2   4.915773123502731E-2  -5.154769420623779E-1   8.489753007888794E-1  
