#  HZ   S   RI   R     50.00 
! Rohde & Schwarz ZVT8 8Ports - Version 4.11 - 1300.0000k08 SN: 100242
! Date: 2026-07-31 15:15:46
! Measurements: S11 S21 S12 S22 
! 
 1.000000000000000E7    -4.045151472091675E-1   9.101907014846802E-1   5.054824799299240E-2   5.139523372054100E-2   5.045745149254799E-2   5.131794512271881E-2  -9.199782609939575E-1   3.815670013427734E-1  
 1.030000000000000E7    -3.724181652069092E-1   9.228838682174683E-1   5.350787192583084E-2   5.167370289564133E-2   5.319124832749367E-2   5.165052786469460E-2  -9.144154787063599E-1   3.940788805484772E-1  
 1.060000000000000E7    -3.362093865871429E-1   9.362747669219971E-1   5.669355019927025E-2   5.248192697763443E-2   5.675010010600090E-2   5.227063596248627E-2  -9.111079573631287E-1   4.050356149673462E-1  
 1.090000000000000E7    -3.043051958084106E-1   9.462010264396668E-1   6.010422855615616E-2   5.274451524019241E-2   6.001741066575050E-2   5.268387496471405E-2  -9.056808948516846E-1   4.162846803665161E-1  
 1.120000000000000E7    -2.691817879676819E-1   9.559519290924072E-1   6.360541284084320E-2   5.346469953656197E-2   6.316284835338593E-2   5.330497771501541E-2  -9.001537561416626E-1   4.277210831642151E-1  
 1.150000000000000E7    -2.336251139640808E-1   9.664849042892456E-1   6.678798794746399E-2   5.311489105224609E-2   6.656643748283386E-2   5.328990891575813E-2  -8.933674693107605E-1   4.364925026893616E-1  
 1.180000000000000E7    -1.990242451429367E-1   9.717621207237244E-1   7.011043280363083E-2   5.328942462801933E-2   7.011152803897858E-2   5.341586098074913E-2  -8.892263770103455E-1   4.472602009773254E-1  
 1.210000000000000E7    -1.647112220525742E-1   9.786752462387085E-1   7.387173175811768E-2   5.345054343342781E-2   7.384108752012253E-2   5.346622690558434E-2  -8.820380568504334E-1   4.593822360038757E-1  
 1.240000000000000E7    -1.291678249835968E-1   9.829573631286621E-1   7.746317982673645E-2   5.357659235596657E-2   7.756152749061585E-2   5.315780639648438E-2  -8.757526874542236E-1   4.684496819972992E-1  
 1.270000000000000E7    -9.333653748035431E-2   9.866558313369751E-1   8.171349018812180E-2   5.310664698481560E-2   8.137679845094681E-2   5.269072577357292E-2  -8.692362904548645E-1   4.820854663848877E-1  
 1.300000000000000E7    -5.790144577622414E-2   9.898663759231567E-1   8.523511886596680E-2   5.263122171163559E-2   8.520579338073731E-2   5.265478417277336E-2  -8.623080849647522E-1   4.920940697193146E-1  
 1.330000000000000E7    -2.217217534780502E-2   9.914854168891907E-1   8.932948112487793E-2   5.229890719056130E-2   8.945953845977783E-2   5.189625918865204E-2  -8.557665944099426E-1   5.035253763198853E-1  
 1.360000000000000E7     1.559102907776833E-2   9.911688566207886E-1   9.343670308589935E-2   5.173323675990105E-2   9.364973008632660E-2   5.108370259404182E-2  -8.489199876785278E-1   5.126405358314514E-1  
 1.390000000000000E7     5.055729299783707E-2   9.888357520103455E-1   9.781201183795929E-2   5.043739825487137E-2   9.750326722860336E-2   5.069336295127869E-2  -8.416632413864136E-1   5.237990617752075E-1  
 1.420000000000000E7     8.765362948179245E-2   9.868094325065613E-1   1.017972156405449E-1   4.984942078590393E-2   1.017530113458633E-1   4.973008483648300E-2  -8.362071514129639E-1   5.336977243423462E-1  
 1.450000000000000E7     1.237918436527252E-1   9.811021685600281E-1   1.061229482293129E-1   4.843956604599953E-2   1.062882915139198E-1   4.836906120181084E-2  -8.260403275489807E-1   5.457031726837158E-1  
 1.480000000000000E7     1.613262593746185E-1   9.757422804832459E-1   1.107860505580902E-1   4.691557213664055E-2   1.108431294560432E-1   4.744821786880493E-2  -8.200365304946899E-1   5.551190972328186E-1  
 1.510000000000000E7     1.967283040285111E-1   9.681937694549561E-1   1.151771768927574E-1   4.554238542914391E-2   1.151299551129341E-1   4.561670497059822E-2  -8.096783757209778E-1   5.659871101379395E-1  
 1.540000000000000E7     2.322520464658737E-1   9.599952697753906E-1   1.196897998452187E-1   4.477487504482269E-2   1.196756660938263E-1   4.426507279276848E-2  -8.048598170280457E-1   5.750100612640381E-1  
 1.570000000000000E7     2.690370380878449E-1   9.515619277954102E-1   1.244529336690903E-1   4.227893799543381E-2   1.246263608336449E-1   4.237246513366699E-2  -7.957814931869507E-1   5.871202349662781E-1  
 1.600000000000000E7     3.054517805576325E-1   9.389725923538208E-1   1.290943175554276E-1   4.028435423970223E-2   1.295753121376038E-1   3.993207216262817E-2  -7.875303030014038E-1   5.956020355224609E-1  
 1.630000000000000E7     3.404545187950134E-1   9.259981513023377E-1   1.345458030700684E-1   3.774357587099075E-2   1.341361403465271E-1   3.796098381280899E-2  -7.788164019584656E-1   6.069759130477905E-1  
 1.660000000000000E7     3.757648169994354E-1   9.104034304618835E-1   1.395498812198639E-1   3.511219471693039E-2   1.392725855112076E-1   3.481526672840118E-2  -7.690242528915405E-1   6.173666119575501E-1  
 1.690000000000000E7     4.105013906955719E-1   8.952121138572693E-1   1.447440832853317E-1   3.296959400177002E-2   1.444892883300781E-1   3.268231078982353E-2  -7.608082294464111E-1   6.264840960502625E-1  
 1.720000000000000E7     4.471012055873871E-1   8.778303265571594E-1   1.491303145885468E-1   2.912660874426365E-2   1.494045406579971E-1   2.957244962453842E-2  -7.510815858840942E-1   6.359737515449524E-1  
 1.750000000000000E7     4.763503670692444E-1   8.615703582763672E-1   1.550292074680328E-1   2.726984024047852E-2   1.552994847297669E-1   2.676813676953316E-2  -7.426747083663940E-1   6.473941802978516E-1  
 1.780000000000000E7     5.128433108329773E-1   8.377893567085266E-1   1.596361249685288E-1   2.303089946508408E-2   1.600821763277054E-1   2.330992743372917E-2  -7.321540117263794E-1   6.549634933471680E-1  
 1.810000000000000E7     5.444150567054749E-1   8.172678351402283E-1   1.661776155233383E-1   1.961376145482063E-2   1.650653928518295E-1   1.907237060368061E-2  -7.224464416503906E-1   6.674150228500366E-1  
 1.840000000000000E7     5.783269405364990E-1   7.942187786102295E-1   1.719032824039459E-1   1.446280628442764E-2   1.710435897111893E-1   1.492233853787184E-2  -7.113144397735596E-1   6.766557097434998E-1  
 1.870000000000000E7     6.074118614196777E-1   7.698339223861694E-1   1.770720481872559E-1   1.079979166388512E-2   1.764549314975739E-1   1.055856607854366E-2  -7.007788419723511E-1   6.856379508972168E-1  
 1.900000000000000E7     6.379069089889526E-1   7.441325783729553E-1   1.826254576444626E-1   6.346467882394791E-3   1.822992265224457E-1   5.870122462511063E-3  -6.897051334381104E-1   6.946659088134766E-1  
 1.930000000000000E7     6.679411530494690E-1   7.158187031745911E-1   1.880864948034287E-1   2.871993929147720E-4   1.882428228855133E-1   9.392686188220978E-4  -6.785556077957153E-1   7.056433558464050E-1  
 1.960000000000000E7     6.968966722488403E-1   6.858935356140137E-1   1.935881078243256E-1  -4.926374182105064E-3   1.938493847846985E-1  -4.432970657944679E-3  -6.691656112670898E-1   7.135834097862244E-1  
 1.990000000000000E7     7.226321697235107E-1   6.554434895515442E-1   1.994349658489227E-1  -1.075592264533043E-2   1.998689621686935E-1  -1.078256499022245E-2  -6.550742983818054E-1   7.250834703445435E-1  
 2.020000000000000E7     7.490171194076538E-1   6.229403614997864E-1   2.055465877056122E-1  -1.662699691951275E-2   2.051713317632675E-1  -1.666164398193359E-2  -6.446276903152466E-1   7.311390638351440E-1  
 2.050000000000000E7     7.755977511405945E-1   5.890448689460754E-1   2.112199366092682E-1  -2.314001694321632E-2   2.100024223327637E-1  -2.351221442222595E-2  -6.322548985481262E-1   7.398670911788940E-1  
 2.080000000000000E7     7.987895607948303E-1   5.526061654090881E-1   2.173441648483276E-1  -3.049078397452831E-2   2.172311395406723E-1  -3.031468950212002E-2  -6.202846765518189E-1   7.500846385955811E-1  
 2.110000000000000E7     8.222844004631043E-1   5.161111950874329E-1   2.235470414161682E-1  -3.881398215889931E-2   2.234571874141693E-1  -3.879231959581375E-2  -6.065486073493958E-1   7.587275505065918E-1  
 2.140000000000000E7     8.429486751556397E-1   4.782552719116211E-1   2.295410782098770E-1  -4.735516011714935E-2   2.285541743040085E-1  -4.648462310433388E-2  -5.938152074813843E-1   7.664653658866882E-1  
 2.170000000000000E7     8.611688613891602E-1   4.398608207702637E-1   2.353932410478592E-1  -5.558849126100540E-2   2.351282387971878E-1  -5.476464331150055E-2  -5.803184509277344E-1   7.745390534400940E-1  
 2.200000000000000E7     8.799254894256592E-1   3.967849016189575E-1   2.407428175210953E-1  -6.512862443923950E-2   2.410013526678085E-1  -6.492891907691956E-2  -5.648891925811768E-1   7.824984192848206E-1  
 2.230000000000000E7     8.951156139373779E-1   3.543976545333862E-1   2.467695623636246E-1  -7.527860254049301E-2   2.462760657072067E-1  -7.460083812475205E-2  -5.507226586341858E-1   7.896109819412231E-1  
 2.260000000000000E7     9.089547395706177E-1   3.102312088012695E-1   2.518385350704193E-1  -8.587469160556793E-2   2.533456683158875E-1  -8.573171496391296E-2  -5.365153551101685E-1   7.969740629196167E-1  
 2.290000000000000E7     9.208258986473084E-1   2.645504176616669E-1   2.574208676815033E-1  -9.721300750970841E-2   2.584765553474426E-1  -9.665366262197495E-2  -5.197963714599609E-1   8.036121129989624E-1  
 2.320000000000000E7     9.292567968368530E-1   2.177510559558868E-1   2.634646892547607E-1  -1.100355088710785E-1   2.630158066749573E-1  -1.101028919219971E-1  -5.049157142639160E-1   8.118627667427063E-1  
 2.350000000000000E7     9.361706376075745E-1   1.683302819728851E-1   2.687285840511322E-1  -1.239021420478821E-1   2.683701217174530E-1  -1.230218857526779E-1  -4.889257252216339E-1   8.179264664649963E-1  
 2.380000000000000E7     9.405563473701477E-1   1.197423115372658E-1   2.733918130397797E-1  -1.369685083627701E-1   2.736319005489349E-1  -1.367801129817963E-1  -4.730090498924255E-1   8.238828182220459E-1  
 2.410000000000000E7     9.421175718307495E-1   6.790035963058472E-2   2.777957022190094E-1  -1.526191532611847E-1   2.772662639617920E-1  -1.522108614444733E-1  -4.550283253192902E-1   8.287765383720398E-1  
 2.440000000000000E7     9.398536086082459E-1   1.648376137018204E-2   2.823382019996643E-1  -1.691068708896637E-1   2.822626531124115E-1  -1.692888736724854E-1  -4.387356042861939E-1   8.335127830505371E-1  
 2.470000000000000E7     9.347733259201050E-1  -3.652963042259216E-2   2.859004437923431E-1  -1.868018954992294E-1   2.855318188667297E-1  -1.848876029253006E-1  -4.194401502609253E-1   8.365072011947632E-1  
 2.500000000000000E7     9.270930886268616E-1  -9.102633595466614E-2   2.883982062339783E-1  -2.045355439186096E-1   2.882796823978424E-1  -2.051953226327896E-1  -4.007696509361267E-1   8.417263627052307E-1  
 2.530000000000000E7     9.146161675453186E-1  -1.458419710397720E-1   2.914597988128662E-1  -2.238200902938843E-1   2.915465831756592E-1  -2.235616594552994E-1  -3.824208378791809E-1   8.435420989990234E-1  
 2.560000000000000E7     8.982810378074646E-1  -2.007527053356171E-1   2.926233410835266E-1  -2.444307357072830E-1   2.937388718128204E-1  -2.446135729551315E-1  -3.633923828601837E-1   8.458058238029480E-1  
 2.590000000000000E7     8.765166997909546E-1  -2.552229166030884E-1   2.931077480316162E-1  -2.678970098495483E-1   2.935655415058136E-1  -2.677717804908752E-1  -3.438663184642792E-1   8.488601446151733E-1  
 2.620000000000000E7     8.501102328300476E-1  -3.115373253822327E-1   2.923177778720856E-1  -2.923349440097809E-1   2.922121584415436E-1  -2.914384603500366E-1  -3.215541839599609E-1   8.493798971176148E-1  
 2.650000000000000E7     8.195692896842957E-1  -3.666591346263886E-1   2.908325195312500E-1  -3.164604604244232E-1   2.907040119171143E-1  -3.172942996025085E-1  -3.019891083240509E-1   8.480045795440674E-1  
 2.680000000000000E7     7.825774550437927E-1  -4.207926988601685E-1   2.875264585018158E-1  -3.436428606510162E-1   2.870503664016724E-1  -3.445429503917694E-1  -2.814678549766541E-1   8.458036780357361E-1  
 2.710000000000000E7     7.387826442718506E-1  -4.737075567245483E-1   2.798929810523987E-1  -3.732193112373352E-1   2.796465158462524E-1  -3.725141584873200E-1  -2.599788606166840E-1   8.439043164253235E-1  
 2.740000000000000E7     6.893976926803589E-1  -5.253613591194153E-1   2.733591794967651E-1  -4.024279415607452E-1   2.719051539897919E-1  -4.039084613323212E-1  -2.380803376436234E-1   8.366871476173401E-1  
 2.770000000000000E7     6.347790360450745E-1  -5.727270245552063E-1   2.614829540252686E-1  -4.348751306533814E-1   2.605277299880981E-1  -4.358143508434296E-1  -2.164054661989212E-1   8.310487270355225E-1  
 2.800000000000000E7     5.727608799934387E-1  -6.183059215545654E-1   2.470345199108124E-1  -4.676279127597809E-1   2.484688609838486E-1  -4.684065878391266E-1  -1.940136700868607E-1   8.212288022041321E-1  
 2.830000000000000E7     5.019573569297791E-1  -6.575349569320679E-1   2.290004193782806E-1  -5.008854269981384E-1   2.278622686862946E-1  -5.018309354782105E-1  -1.751566678285599E-1   8.123442530632019E-1  
 2.860000000000000E7     4.235090315341950E-1  -6.900392174720764E-1   2.060879021883011E-1  -5.365731716156006E-1   2.045262604951859E-1  -5.380765199661255E-1  -1.517466753721237E-1   7.997633814811707E-1  
 2.890000000000000E7     3.399416208267212E-1  -7.138774991035461E-1   1.774493455886841E-1  -5.731416940689087E-1   1.773957163095474E-1  -5.726361274719238E-1  -1.329260319471359E-1   7.849959135055542E-1  
 2.920000000000000E7     2.480652332305908E-1  -7.309439778327942E-1   1.465111672878265E-1  -6.076084375381470E-1   1.442060023546219E-1  -6.070252060890198E-1  -1.155326515436173E-1   7.673488259315491E-1  
 2.950000000000000E7     1.510647386312485E-1  -7.334612011909485E-1   1.051866933703423E-1  -6.436749696731567E-1   1.050535216927528E-1  -6.423808336257935E-1  -9.794735163450241E-2   7.482844591140747E-1  
 2.980000000000000E7     4.953502863645554E-2  -7.244083285331726E-1   6.016544252634049E-2  -6.741208434104919E-1   5.899809300899506E-2  -6.753500699996948E-1  -8.488152921199799E-2   7.259929180145264E-1  
 3.010000000000000E7    -5.418691039085388E-2  -6.989514231681824E-1   5.786306224763393E-3  -7.030531764030457E-1   6.591323763132095E-3  -7.037974596023560E-1  -7.393434643745422E-2   7.019001841545105E-1  
 3.040000000000000E7    -1.592266559600830E-1  -6.544045805931091E-1  -5.317912995815277E-2  -7.260686755180359E-1  -5.559362471103668E-2  -7.266856431961060E-1  -6.808959692716599E-2   6.755738258361816E-1  
 3.070000000000000E7    -2.568776905536652E-1  -5.942957997322083E-1  -1.195202097296715E-1  -7.419617772102356E-1  -1.194017827510834E-1  -7.406982779502869E-1  -6.402122229337692E-2   6.508125662803650E-1  
 3.100000000000000E7    -3.473740220069885E-1  -5.123195052146912E-1  -1.914065331220627E-1  -7.495949864387512E-1  -1.909144967794418E-1  -7.486226558685303E-1  -6.482259929180145E-2   6.244429349899292E-1  
 3.130000000000000E7    -4.263507127761841E-1  -4.158701598644257E-1  -2.675975859165192E-1  -7.455856204032898E-1  -2.665468156337738E-1  -7.455596327781677E-1  -7.412509620189667E-2   5.977690219879150E-1  
 3.160000000000000E7    -4.864092767238617E-1  -3.003308773040772E-1  -3.435193598270416E-1  -7.319470643997192E-1  -3.429706990718842E-1  -7.313628792762756E-1  -8.641746640205383E-2   5.765120387077332E-1  
 3.190000000000000E7    -5.263202786445618E-1  -1.747014522552490E-1  -4.192076027393341E-1  -7.043201327323914E-1  -4.181953072547913E-1  -7.037391066551209E-1  -1.014713943004608E-1   5.559220910072327E-1  
 3.220000000000000E7    -5.440424084663391E-1  -4.146597534418106E-2  -4.901424050331116E-1  -6.655050516128540E-1  -4.899581968784332E-1  -6.646608710289002E-1  -1.233335733413696E-1   5.407972931861877E-1  
 3.250000000000000E7    -5.333533883094788E-1   9.242343902587891E-2  -5.559535026550293E-1  -6.157874464988709E-1  -5.558443665504456E-1  -6.147176027297974E-1  -1.466842889785767E-1   5.334315896034241E-1  
 3.280000000000000E7    -4.966919422149658E-1   2.218912988901138E-1  -6.128875017166138E-1  -5.561270117759705E-1  -6.128087639808655E-1  -5.549263358116150E-1  -1.716998964548111E-1   5.277142524719238E-1  
 3.310000000000000E7    -4.423080384731293E-1   3.409228622913361E-1  -6.582958102226257E-1  -4.876832962036133E-1  -6.580982208251953E-1  -4.857564270496368E-1  -1.969017237424851E-1   5.320373773574829E-1  
 3.340000000000000E7    -3.644994199275971E-1   4.434089362621307E-1  -6.935016512870789E-1  -4.149980843067169E-1  -6.921665668487549E-1  -4.148248732089996E-1  -2.189083993434906E-1   5.399883985519409E-1  
 3.370000000000000E7    -2.719200551509857E-1   5.302194356918335E-1  -7.139731645584106E-1  -3.407594561576843E-1  -7.144458293914795E-1  -3.402750790119171E-1  -2.418228387832642E-1   5.544939041137695E-1  
 3.400000000000000E7    -1.706521809101105E-1   5.960665345191956E-1  -7.252311110496521E-1  -2.682849466800690E-1  -7.243365049362183E-1  -2.677804827690125E-1  -2.572550475597382E-1   5.730054974555969E-1  
 3.430000000000000E7    -6.375227123498917E-2   6.417249441146851E-1  -7.258808016777039E-1  -1.972227841615677E-1  -7.259554862976074E-1  -1.975004225969315E-1  -2.702076435089111E-1   5.925174951553345E-1  
 3.460000000000000E7     4.525725170969963E-2   6.701359152793884E-1  -7.186767458915710E-1  -1.315501928329468E-1  -7.176126241683960E-1  -1.329320967197418E-1  -2.778275907039642E-1   6.181249022483826E-1  
 3.490000000000000E7     1.509556174278259E-1   6.791111826896668E-1  -7.041516900062561E-1  -6.862559169530869E-2  -7.034336924552918E-1  -7.065168023109436E-2  -2.828546464443207E-1   6.394453644752502E-1  
 3.520000000000000E7     2.537838220596314E-1   6.744164228439331E-1  -6.825255751609802E-1  -1.541913487017155E-2  -6.834588050842285E-1  -1.604652404785156E-2  -2.831653952598572E-1   6.670622825622559E-1  
 3.550000000000000E7     3.508140146732330E-1   6.538702249526978E-1  -6.580873727798462E-1   3.269988670945168E-2  -6.579381823539734E-1   3.224441781640053E-2  -2.798187136650085E-1   6.933549642562866E-1  
 3.580000000000000E7     4.386648833751679E-1   6.262089610099793E-1  -6.299620866775513E-1   7.667854428291321E-2  -6.304231286048889E-1   7.633123546838760E-2  -2.727992534637451E-1   7.172110080718994E-1  
 3.610000000000000E7     5.170382261276245E-1   5.876354575157166E-1  -6.025424003601074E-1   1.145535409450531E-1  -6.008611321449280E-1   1.150974035263062E-1  -2.619232833385468E-1   7.424896359443665E-1  
 3.640000000000000E7     5.896766781806946E-1   5.427157282829285E-1  -5.707920789718628E-1   1.464668959379196E-1  -5.697264075279236E-1   1.460694521665573E-1  -2.497058957815170E-1   7.651159763336182E-1  
 3.670000000000000E7     6.526412963867188E-1   4.924439787864685E-1  -5.403362512588501E-1   1.743613928556442E-1  -5.391422510147095E-1   1.745818555355072E-1  -2.349565625190735E-1   7.859756350517273E-1  
 3.700000000000000E7     7.068732380867004E-1   4.388419687747955E-1  -5.082545280456543E-1   1.983641088008881E-1  -5.074664354324341E-1   1.991534531116486E-1  -2.158433049917221E-1   8.065761923789978E-1  
 3.730000000000000E7     7.550053596496582E-1   3.814198374748230E-1  -4.757020175457001E-1   2.181396484375000E-1  -4.771496653556824E-1   2.177134752273560E-1  -1.980914473533630E-1   8.230155110359192E-1  
 3.760000000000000E7     7.928193211555481E-1   3.240424990653992E-1  -4.459289312362671E-1   2.355358600616455E-1  -4.472223520278931E-1   2.356300950050354E-1  -1.762952506542206E-1   8.411751985549927E-1  
 3.790000000000000E7     8.268517851829529E-1   2.637754678726196E-1  -4.177404344081879E-1   2.494266033172607E-1  -4.178286790847778E-1   2.500563263893127E-1  -1.546198129653931E-1   8.551950454711914E-1  
 3.820000000000000E7     8.540083765983582E-1   2.045946717262268E-1  -3.901283144950867E-1   2.610341310501099E-1  -3.897435665130615E-1   2.600056827068329E-1  -1.321654319763184E-1   8.688962459564209E-1  
 3.850000000000000E7     8.760421276092529E-1   1.440148949623108E-1  -3.633520007133484E-1   2.695515751838684E-1  -3.618789315223694E-1   2.704473733901978E-1  -1.087801754474640E-1   8.825896382331848E-1  
 3.880000000000000E7     8.913465142250061E-1   8.606906980276108E-2  -3.356295526027679E-1   2.779724299907684E-1  -3.356905281543732E-1   2.772789299488068E-1  -8.248075097799301E-2   8.933672308921814E-1  
 3.910000000000000E7     9.032693505287170E-1   2.729155123233795E-2  -3.112029135227203E-1   2.822870612144470E-1  -3.113756477832794E-1   2.833455801010132E-1  -5.587857961654663E-2   9.031754732131958E-1  
 3.940000000000000E7     9.082226753234863E-1  -2.943442761898041E-2  -2.874635159969330E-1   2.858952581882477E-1  -2.868941724300385E-1   2.857733964920044E-1  -3.022272139787674E-2   9.101023674011231E-1  
 3.970000000000000E7     9.120834469795227E-1  -8.553317934274674E-2  -2.649771273136139E-1   2.877046167850494E-1  -2.646833062171936E-1   2.876440286636353E-1  -3.087855875492096E-3   9.156013727188110E-1  
 4.000000000000000E7     9.108668565750122E-1  -1.402384042739868E-1  -2.428573668003082E-1   2.892712354660034E-1  -2.425157278776169E-1   2.896175384521484E-1   2.582774311304092E-2   9.222507476806641E-1  
 4.030000000000000E7     9.063814878463745E-1  -1.923124790191650E-1  -2.219815552234650E-1   2.905785143375397E-1  -2.220029085874558E-1   2.899588048458099E-1   5.318936705589294E-2   9.262024164199829E-1  
 4.060000000000000E7     8.994506597518921E-1  -2.444118857383728E-1  -2.023726999759674E-1   2.887879610061646E-1  -2.023299783468247E-1   2.883023023605347E-1   8.229093998670578E-2   9.283784031867981E-1  
 4.090000000000000E7     8.893146514892578E-1  -2.946961820125580E-1  -1.831031739711762E-1   2.865900397300720E-1  -1.828240454196930E-1   2.870603799819946E-1   1.103413254022598E-1   9.298312067985535E-1  
 4.120000000000000E7     8.765936493873596E-1  -3.429547548294067E-1  -1.662746816873550E-1   2.839516103267670E-1  -1.655543744564056E-1   2.835413813591003E-1   1.410862654447556E-1   9.296524524688721E-1  
 4.150000000000000E7     8.609053492546082E-1  -3.876185715198517E-1  -1.481315493583679E-1   2.818315327167511E-1  -1.487322002649307E-1   2.800760269165039E-1   1.717614978551865E-1   9.277919530868530E-1  
 4.180000000000000E7     8.436206579208374E-1  -4.334149360656738E-1  -1.315790712833405E-1   2.775255739688873E-1  -1.315650939941406E-1   2.771829068660736E-1   2.016289234161377E-1   9.262764453887940E-1  
 4.210000000000000E7     8.239907622337341E-1  -4.758248031139374E-1  -1.159128621220589E-1   2.732839286327362E-1  -1.162830516695976E-1   2.734372615814209E-1   2.339209616184235E-1   9.218329191207886E-1  
 4.240000000000000E7     8.021973371505737E-1  -5.160526633262634E-1  -1.014621481299400E-1   2.685087025165558E-1  -1.015316098928452E-1   2.685849964618683E-1   2.655496299266815E-1   9.166952967643738E-1  
 4.270000000000000E7     7.788153886795044E-1  -5.555486679077148E-1  -8.687401562929153E-2   2.634399831295013E-1  -8.698553591966629E-2   2.632115185260773E-1   2.979012727737427E-1   9.095993041992188E-1  
 4.300000000000000E7     7.543438076972961E-1  -5.942772030830383E-1  -7.323591411113739E-2   2.579963505268097E-1  -7.367086410522461E-2   2.575293481349945E-1   3.303318321704865E-1   9.015953540802002E-1  
 4.330000000000000E7     7.295097708702087E-1  -6.289401054382324E-1  -6.140328943729401E-2   2.509488463401794E-1  -6.126357987523079E-2   2.515169978141785E-1   3.625304400920868E-1   8.907096982002258E-1  
 4.360000000000000E7     7.004249691963196E-1  -6.633921861648560E-1  -4.954158887267113E-2   2.454308718442917E-1  -4.916671663522720E-2   2.444452792406082E-1   3.944316804409027E-1   8.802015185356140E-1  
 4.390000000000000E7     6.722277402877808E-1  -6.967231631278992E-1  -3.786417096853256E-2   2.388005405664444E-1  -3.813861310482025E-2   2.386392205953598E-1   4.273040592670441E-1   8.660879135131836E-1  
 4.420000000000000E7     6.414743661880493E-1  -7.265160083770752E-1  -2.690862305462360E-2   2.309693694114685E-1  -2.741343528032303E-2   2.310027778148651E-1   4.601219296455383E-1   8.509186506271362E-1  
 4.450000000000000E7     6.102128028869629E-1  -7.552832961082459E-1  -1.718304865062237E-2   2.238710671663284E-1  -1.721722260117531E-2   2.235106676816940E-1   4.928776025772095E-1   8.362206816673279E-1  
 4.480000000000000E7     5.790758132934570E-1  -7.825822234153748E-1  -7.847575470805168E-3   2.161790728569031E-1  -7.746342569589615E-3   2.160814404487610E-1   5.259878039360046E-1   8.175680637359619E-1  
 4.510000000000000E7     5.472055077552795E-1  -8.077095746994019E-1   9.150505065917969E-4   2.085819691419601E-1   8.949320763349533E-4   2.081728726625443E-1   5.599117279052734E-1   7.970813512802124E-1  
 4.540000000000000E7     5.130688548088074E-1  -8.314276337623596E-1   9.834192693233490E-3   1.995323151350021E-1   9.410868398845196E-3   1.998025774955750E-1   5.931758880615234E-1   7.744588851928711E-1  
 4.570000000000000E7     4.781759977340698E-1  -8.538287878036499E-1   1.732208579778671E-2   1.912347376346588E-1   1.646693423390389E-2   1.910844445228577E-1   6.253095269203186E-1   7.494441866874695E-1  
 4.600000000000000E7     4.449289739131928E-1  -8.729144334793091E-1   2.366602979600430E-2   1.832384616136551E-1   2.349586226046085E-2   1.833231449127197E-1   6.579571962356567E-1   7.246711254119873E-1  
 4.630000000000000E7     4.076135754585266E-1  -8.931779265403748E-1   3.044301271438599E-2   1.742416918277741E-1   3.054481372237206E-2   1.741151958703995E-1   6.906822919845581E-1   6.951929926872253E-1  
 4.660000000000000E7     3.718400895595551E-1  -9.111039638519287E-1   3.638019412755966E-2   1.649230569601059E-1   3.615987300872803E-2   1.649444550275803E-1   7.218999266624451E-1   6.620166301727295E-1  
 4.690000000000000E7     3.350517749786377E-1  -9.256521463394165E-1   4.136321321129799E-2   1.559340059757233E-1   4.107078537344933E-2   1.555391252040863E-1   7.538852691650391E-1   6.295411586761475E-1  
 4.720000000000000E7     2.975530624389648E-1  -9.392109513282776E-1   4.588857293128967E-2   1.462429761886597E-1   4.603519663214684E-2   1.462450325489044E-1   7.830744385719299E-1   5.926124453544617E-1  
 4.750000000000000E7     2.613450288772583E-1  -9.519897699356079E-1   4.985319823026657E-2   1.369640678167343E-1   4.952355474233627E-2   1.368592530488968E-1   8.135097026824951E-1   5.550574660301209E-1  
 4.780000000000000E7     2.244632244110107E-1  -9.621824622154236E-1   5.266040563583374E-2   1.273357570171356E-1   5.245736241340637E-2   1.275261789560318E-1   8.395782709121704E-1   5.137252807617188E-1  
 4.810000000000000E7     1.864553093910217E-1  -9.713419079780579E-1   5.507343262434006E-2   1.183032765984535E-1   5.509687960147858E-2   1.180825382471085E-1   8.672691583633423E-1   4.701142311096191E-1  
 4.840000000000000E7     1.486018747091293E-1  -9.792464971542358E-1   5.702784284949303E-2   1.087349280714989E-1   5.719056725502014E-2   1.085246875882149E-1   8.923361301422119E-1   4.230834841728210E-1  
 4.870000000000000E7     1.101543679833412E-1  -9.852942824363709E-1   5.836334079504013E-2   9.907953441143036E-2   5.798688158392906E-2   9.922437369823456E-2   9.146128892898560E-1   3.736659288406372E-1  
 4.900000000000000E7     7.222854346036911E-2  -9.904715418815613E-1   5.849599093198776E-2   8.961306512355804E-2   5.858848989009857E-2   8.967167884111404E-2   9.347563385963440E-1   3.225080370903015E-1  
 4.930000000000000E7     3.398372232913971E-2  -9.930129051208496E-1   5.795291438698769E-2   8.043334633111954E-2   5.807706713676453E-2   8.051209896802902E-2   9.528009891510010E-1   2.666167318820953E-1  
 4.960000000000000E7    -4.081919789314270E-3  -9.922265410423279E-1   5.682805553078651E-2   7.112232595682144E-2   5.695226415991783E-2   7.103339582681656E-2   9.674049019813538E-1   2.093404531478882E-1  
 4.990000000000000E7    -4.132388904690743E-2  -9.928941130638123E-1   5.486612766981125E-2   6.214107945561409E-2   5.482310801744461E-2   6.217532232403755E-2   9.791441559791565E-1   1.495409309864044E-1  
 5.020000000000000E7    -7.789656519889832E-2  -9.921394586563110E-1   5.223608762025833E-2   5.368094146251679E-2   5.230643600225449E-2   5.386022105813026E-2   9.875547289848328E-1   8.722537755966187E-2  
 5.050000000000000E7    -1.160848960280418E-1  -9.886942505836487E-1   4.893380403518677E-2   4.542728140950203E-2   4.897637665271759E-2   4.534582421183586E-2   9.917540550231934E-1   2.222342789173126E-2  
 5.080000000000000E7    -1.526468843221664E-1  -9.844875931739807E-1   4.486909136176109E-2   3.759104013442993E-2   4.483909159898758E-2   3.770906105637550E-2   9.913618564605713E-1  -4.411039873957634E-2  
 5.110000000000000E7    -1.903480291366577E-1  -9.782151579856873E-1   4.016951099038124E-2   3.020576015114784E-2   4.016819968819618E-2   3.019089251756668E-2   9.868769645690918E-1  -1.126669421792030E-1  
 5.140000000000000E7    -2.266030311584473E-1  -9.703867435455322E-1   3.469435125589371E-2   2.346863597631455E-2   3.463394194841385E-2   2.327124215662479E-2   9.765924811363220E-1  -1.824406385421753E-1  
 5.170000000000000E7    -2.619701325893402E-1  -9.617111086845398E-1   2.846560254693031E-2   1.726835034787655E-2   2.849533595144749E-2   1.722913049161434E-2   9.600494503974915E-1  -2.518936395645142E-1  
 5.200000000000000E7    -2.978313863277435E-1  -9.529885053634644E-1   2.184032276272774E-2   1.184111554175615E-2   2.197753265500069E-2   1.194756198674440E-2   9.400957226753235E-1  -3.229813873767853E-1  
 5.230000000000000E7    -3.328272104263306E-1  -9.403641819953919E-1   1.482622232288122E-2   7.136980537325144E-3   1.479711383581162E-2   7.136438041925430E-3   9.120303392410278E-1  -3.935625255107880E-1  
 5.260000000000000E7    -3.664562404155731E-1  -9.266189336776733E-1   7.235299330204725E-3   3.341683419421315E-3   7.219035644084215E-3   3.392573678866029E-3   8.802135586738586E-1  -4.628717303276062E-1  
 5.290000000000000E7    -4.013518393039703E-1  -9.132559299468994E-1  -6.843741284683347E-4   4.476948524825275E-4  -6.497268332168460E-4   4.698497359640896E-4   8.410662412643433E-1  -5.308722257614136E-1  
 5.320000000000000E7    -4.335881769657135E-1  -8.989369869232178E-1  -8.847004733979702E-3  -1.513285213150084E-3  -8.848012425005436E-3  -1.508299028500915E-3   7.958459258079529E-1  -5.964479446411133E-1  
 5.350000000000000E7    -4.649035036563873E-1  -8.818736076354981E-1  -1.712725497782230E-2  -2.507774159312248E-3  -1.708007976412773E-2  -2.485142322257161E-3   7.435760498046875E-1  -6.586905717849731E-1  
 5.380000000000000E7    -4.955507218837738E-1  -8.642432689666748E-1  -2.547290548682213E-2  -2.514797495678067E-3  -2.537279576063156E-2  -2.494704909622669E-3   6.866595745086670E-1  -7.180614471435547E-1  
 5.410000000000000E7    -5.287052989006043E-1  -8.463584184646606E-1  -3.378557413816452E-2  -1.438255421817303E-3  -3.361670300364494E-2  -1.462320331484079E-3   6.256629228591919E-1  -7.717521190643311E-1  
 5.440000000000000E7    -5.579879283905029E-1  -8.254491686820984E-1  -4.170080646872520E-2   5.693132989108563E-4  -4.169248789548874E-2   5.070650950074196E-4   5.579458475112915E-1  -8.222973346710205E-1  
 5.470000000000000E7    -5.855783224105835E-1  -8.056271672248840E-1  -4.952844232320786E-2   3.391450271010399E-3  -4.939878731966019E-2   3.441052511334419E-3   4.872084259986877E-1  -8.654767870903015E-1  
 5.500000000000000E7    -6.145613193511963E-1  -7.837302684783936E-1  -5.659160017967224E-2   7.371311075985432E-3  -5.651658400893211E-2   7.249626331031323E-3   4.114338755607605E-1  -9.022068381309509E-1  
 5.530000000000000E7    -6.412410140037537E-1  -7.611402273178101E-1  -6.325245648622513E-2   1.199049875140190E-2  -6.314547359943390E-2   1.211899518966675E-2   3.329735994338989E-1  -9.335535168647766E-1  
 5.560000000000000E7    -6.683632731437683E-1  -7.367796897888184E-1  -6.941209733486176E-2   1.749576628208160E-2  -6.917323172092438E-2   1.752531342208386E-2   2.521761357784271E-1  -9.585391283035278E-1  
 5.590000000000000E7    -6.934251785278320E-1  -7.136092185974121E-1  -7.472922652959824E-2   2.371174655854702E-2  -7.458958029747009E-2   2.366689033806324E-2   1.714858412742615E-1  -9.754344224929810E-1  
 5.620000000000000E7    -7.175893783569336E-1  -6.867593526840210E-1  -7.901021838188171E-2   3.032517433166504E-2  -7.894939929246903E-2   3.014168888330460E-2   8.851253986358643E-2  -9.861586093902588E-1  
 5.650000000000000E7    -7.396486401557922E-1  -6.623049974441528E-1  -8.296918123960495E-2   3.750890493392944E-2  -8.286293596029282E-2   3.724796324968338E-2   6.081178784370422E-3  -9.894567131996155E-1  
 5.680000000000000E7    -7.624963521957398E-1  -6.358969211578369E-1  -8.583310991525650E-2   4.484408348798752E-2  -8.574850112199783E-2   4.494661837816238E-2  -7.577717304229736E-2  -9.871896505355835E-1  
 5.710000000000000E7    -7.838649749755859E-1  -6.074819564819336E-1  -8.772768080234528E-2   5.246103927493095E-2  -8.763103932142258E-2   5.261432379484177E-2  -1.544206291437149E-1  -9.759954214096069E-1  
 5.740000000000000E7    -8.045371174812317E-1  -5.799170732498169E-1  -8.880221098661423E-2   6.044572591781616E-2  -8.877793699502945E-2   6.017591431736946E-2  -2.314129173755646E-1  -9.619892835617065E-1  
 5.770000000000000E7    -8.222844600677490E-1  -5.526304244995117E-1  -8.904059231281281E-2   6.782162189483643E-2  -8.902449905872345E-2   6.780739873647690E-2  -3.065585792064667E-1  -9.381893873214722E-1  
 5.800000000000000E7    -8.408096432685852E-1  -5.223994255065918E-1  -8.850676566362381E-2   7.558306306600571E-2  -8.791596442461014E-2   7.568097859621048E-2  -3.771912455558777E-1  -9.118038415908814E-1  
 5.830000000000000E7    -8.576824665069580E-1  -4.930517971515656E-1  -8.708934485912323E-2   8.322125673294067E-2  -8.690126985311508E-2   8.314571529626846E-2  -4.448882639408112E-1  -8.795238733291626E-1  
 5.860000000000000E7    -8.749496340751648E-1  -4.639734029769898E-1  -8.517903089523315E-2   9.056074917316437E-2  -8.520612120628357E-2   9.056449681520462E-2  -5.078142881393433E-1  -8.456617593765259E-1  
 5.890000000000000E7    -8.887625932693481E-1  -4.330279231071472E-1  -8.226186037063599E-2   9.720952808856964E-2  -8.260226249694824E-2   9.734821319580078E-2  -5.679236650466919E-1  -8.058217763900757E-1  
 5.920000000000000E7    -9.027650952339172E-1  -4.016765356063843E-1  -7.919273525476456E-2   1.040934622287750E-1  -7.869278639554977E-2   1.040485650300980E-1  -6.225859522819519E-1  -7.641035318374634E-1  
 5.950000000000000E7    -9.152559041976929E-1  -3.709215819835663E-1  -7.513854652643204E-2   1.102216988801956E-1  -7.496556639671326E-2   1.102282926440239E-1  -6.740003824234009E-1  -7.186645269393921E-1  
 5.980000000000000E7    -9.278410077095032E-1  -3.392990827560425E-1  -7.108865678310394E-2   1.163155362010002E-1  -7.065260410308838E-2   1.157759353518486E-1  -7.200880646705627E-1  -6.731477379798889E-1  
 6.010000000000000E7    -9.366358518600464E-1  -3.083938360214233E-1  -6.630758941173554E-2   1.210801750421524E-1  -6.626852601766586E-2   1.207468062639237E-1  -7.610248923301697E-1  -6.246218085289002E-1  
 6.040000000000000E7    -9.475773572921753E-1  -2.751023173332214E-1  -6.090648099780083E-2   1.257788538932800E-1  -6.100677326321602E-2   1.258560717105866E-1  -7.991870641708374E-1  -5.748903751373291E-1  
 6.070000000000000E7    -9.564495086669922E-1  -2.441955059766769E-1  -5.567890033125877E-2   1.301562339067459E-1  -5.591154098510742E-2   1.299753636121750E-1  -8.316895961761475E-1  -5.249362587928772E-1  
 6.100000000000000E7    -9.636084437370300E-1  -2.119694203138351E-1  -5.042590573430061E-2   1.343893259763718E-1  -5.008180812001228E-2   1.340915858745575E-1  -8.621698021888733E-1  -4.751669764518738E-1  
 6.130000000000000E7    -9.704599976539612E-1  -1.782388687133789E-1  -4.421410337090492E-2   1.376214623451233E-1  -4.424858093261719E-2   1.375080943107605E-1  -8.883372545242310E-1  -4.242186844348908E-1  
 6.160000000000000E7    -9.752346873283386E-1  -1.459380835294724E-1  -3.815010190010071E-2   1.403410285711289E-1  -3.823714330792427E-2   1.402332931756973E-1  -9.107959270477295E-1  -3.735889494419098E-1  
 6.190000000000000E7    -9.791186451911926E-1  -1.131018623709679E-1  -3.224406391382217E-2   1.425580829381943E-1  -3.187830746173859E-2   1.424084454774857E-1  -9.296340942382813E-1  -3.218490779399872E-1  
 6.220000000000000E7    -9.829562306404114E-1  -8.017601072788239E-2  -2.612784504890442E-2   1.444627195596695E-1  -2.634478732943535E-2   1.445172131061554E-1  -9.445079565048218E-1  -2.739928960800171E-1  
 6.250000000000000E7    -9.848045706748962E-1  -4.690242558717728E-2  -2.027405053377152E-2   1.461047679185867E-1  -2.016653306782246E-2   1.459430456161499E-1  -9.575477242469788E-1  -2.257963716983795E-1  
 6.280000000000000E7    -9.850229024887085E-1  -1.354011893272400E-2  -1.422792300581932E-2   1.469103395938873E-1  -1.478422060608864E-2   1.467516720294952E-1  -9.662858843803406E-1  -1.785077750682831E-1  
 6.310000000000000E7    -9.850869178771973E-1   2.063675224781036E-2  -8.392404764890671E-3   1.478716284036636E-1  -8.410308510065079E-3   1.478544473648071E-1  -9.754143953323364E-1  -1.304390132427216E-1  
 6.340000000000000E7    -9.834855794906616E-1   5.357915908098221E-2  -2.237508073449135E-3   1.480896174907684E-1  -2.449883148074150E-3   1.480173617601395E-1  -9.805637598037720E-1  -8.533822000026703E-2  
 6.370000000000000E7    -9.814711809158325E-1   8.627738058567047E-2   3.394145518541336E-3   1.481872349977493E-1   3.716267645359039E-3   1.482273638248444E-1  -9.828670620918274E-1  -4.030548036098480E-2  
 6.400000000000000E7    -9.770027399063110E-1   1.193289756774902E-1   9.057600051164627E-3   1.480110287666321E-1   9.385708719491959E-3   1.474599391222000E-1  -9.839575886726379E-1   2.219587564468384E-3  
 6.430000000000000E7    -9.728959202766419E-1   1.532272547483444E-1   1.483168825507164E-2   1.472423374652863E-1   1.515598408877850E-2   1.470862627029419E-1  -9.836549758911133E-1   4.513691365718842E-2  
 6.460000000000000E7    -9.677873253822327E-1   1.859691888093948E-1   2.068770676851273E-2   1.462216973304749E-1   2.041231468319893E-2   1.460603922605515E-1  -9.795280694961548E-1   8.613105118274689E-2  
 6.490000000000000E7    -9.619377255439758E-1   2.177985608577728E-1   2.589071169495583E-2   1.450885087251663E-1   2.536452934145927E-2   1.452177464962006E-1  -9.755715727806091E-1   1.242586523294449E-1  
 6.520000000000000E7    -9.535441398620606E-1   2.497309744358063E-1   3.065548650920391E-2   1.434757858514786E-1   3.080308437347412E-2   1.434998065233231E-1  -9.703052639961243E-1   1.633513271808624E-1  
 6.550000000000000E7    -9.445045590400696E-1   2.813820838928223E-1   3.560581058263779E-2   1.420458257198334E-1   3.575046360492706E-2   1.421145200729370E-1  -9.634640812873840E-1   2.004560530185700E-1  
 6.580000000000000E7    -9.341319203376770E-1   3.137177228927612E-1   4.063224419951439E-2   1.402607858181000E-1   4.051917418837547E-2   1.400140225887299E-1  -9.560519456863403E-1   2.359387576580048E-1  
 6.610000000000000E7    -9.224683046340942E-1   3.452307283878326E-1   4.525619372725487E-2   1.381903290748596E-1   4.564922302961350E-2   1.374676078557968E-1  -9.472070932388306E-1   2.719194293022156E-1  
 6.640000000000000E7    -9.118886590003967E-1   3.760422766208649E-1   5.000538378953934E-2   1.358081996440888E-1   4.989482834935188E-2   1.362050324678421E-1  -9.369351863861084E-1   3.055026233196259E-1  
 6.670000000000000E7    -8.980895876884460E-1   4.063296914100647E-1   5.431724339723587E-2   1.333676874637604E-1   5.392133817076683E-2   1.333748698234558E-1  -9.259483814239502E-1   3.360102176666260E-1  
 6.700000000000000E7    -8.837487101554871E-1   4.368898272514343E-1   5.830346420407295E-2   1.306791007518768E-1   5.818222463130951E-2   1.303294599056244E-1  -9.133810997009277E-1   3.675001561641693E-1  
 6.730000000000000E7    -8.685078024864197E-1   4.664140939712524E-1   6.218423321843147E-2   1.277148276567459E-1   6.239444017410278E-2   1.275222599506378E-1  -9.015231728553772E-1   3.970411717891693E-1  
 6.760000000000000E7    -8.526828289031982E-1   4.953429102897644E-1   6.638245284557343E-2   1.254753172397614E-1   6.617650389671326E-2   1.250046044588089E-1  -8.881568908691406E-1   4.267640411853790E-1  
 6.790000000000000E7    -8.351393938064575E-1   5.245730876922607E-1   6.963132321834564E-2   1.220585480332375E-1   6.990192830562592E-2   1.220347434282303E-1  -8.749618530273438E-1   4.539414942264557E-1  
 6.820000000000000E7    -8.169233202934265E-1   5.515693426132202E-1   7.336135208606720E-2   1.189864128828049E-1   7.287777215242386E-2   1.189209744334221E-1  -8.605370521545410E-1   4.797952175140381E-1  
 6.850000000000000E7    -7.984866499900818E-1   5.799636840820313E-1   7.632898539304733E-2   1.158775389194489E-1   7.640676945447922E-2   1.157728955149651E-1  -8.452811241149902E-1   5.056760311126709E-1  
 6.880000000000000E7    -7.782680392265320E-1   6.060650348663330E-1   7.953120768070221E-2   1.125335544347763E-1   7.937020063400269E-2   1.121765822172165E-1  -8.299783468246460E-1   5.305739641189575E-1  
 6.910000000000000E7    -7.573236823081970E-1   6.324871778488159E-1   8.251792937517166E-2   1.095682904124260E-1   8.240532130002976E-2   1.091759204864502E-1  -8.152918815612793E-1   5.548923611640930E-1  
 6.940000000000000E7    -7.361694574356079E-1   6.578810811042786E-1   8.496615290641785E-2   1.061036661267281E-1   8.521896600723267E-2   1.058838218450546E-1  -7.997316718101502E-1   5.768468379974365E-1  
 6.970000000000000E7    -7.124438881874085E-1   6.825822591781616E-1   8.754469454288483E-2   1.024539321660996E-1   8.798586577177048E-2   1.022244915366173E-1  -7.837083935737610E-1   5.988619327545166E-1  
 7.000000000000000E7    -6.891965866088867E-1   7.071796655654907E-1   8.997708559036255E-2   9.900189191102982E-2   9.008718281984329E-2   9.880962967872620E-2  -7.678384184837341E-1   6.203793883323669E-1  
