#  HZ   S   RI   R     50.00 
! Rohde & Schwarz ZVT8 8Ports - Version 4.11 - 1300.0000k08 SN: 100242
! Date: 2026-07-31 15:14:49
! Measurements: S11 S21 S12 S22 
! 
 1.000000000000000E7    -4.062205553054810E-1   9.097613096237183E-1   4.990074783563614E-2   5.089340358972549E-2   4.979703575372696E-2   5.090436339378357E-2  -9.205340743064880E-1   3.811750411987305E-1  
 1.030000000000000E7    -3.740245997905731E-1   9.222846627235413E-1   5.282673239707947E-2   5.124493688344955E-2   5.276481062173843E-2   5.136939883232117E-2  -9.145735502243042E-1   3.936304450035095E-1  
 1.060000000000000E7    -3.385098874568939E-1   9.351206421852112E-1   5.615493282675743E-2   5.211459472775459E-2   5.610330402851105E-2   5.174297094345093E-2  -9.110574126243591E-1   4.046047031879425E-1  
 1.090000000000000E7    -3.067186176776886E-1   9.459129571914673E-1   5.924825370311737E-2   5.224105715751648E-2   5.900711193680763E-2   5.222366377711296E-2  -9.058130383491516E-1   4.164918661117554E-1  
 1.120000000000000E7    -2.717920243740082E-1   9.556463360786438E-1   6.267851591110230E-2   5.288016051054001E-2   6.218251213431358E-2   5.254240334033966E-2  -9.005244970321655E-1   4.276970028877258E-1  
 1.150000000000000E7    -2.367977499961853E-1   9.658032059669495E-1   6.570284068584442E-2   5.272159725427628E-2   6.561482697725296E-2   5.249967426061630E-2  -8.934988379478455E-1   4.362951517105103E-1  
 1.180000000000000E7    -2.020243108272553E-1   9.711784720420837E-1   6.893936544656754E-2   5.288657546043396E-2   6.892795860767365E-2   5.287118628621101E-2  -8.899357318878174E-1   4.467212855815888E-1  
 1.210000000000000E7    -1.682636290788651E-1   9.784798026084900E-1   7.271803915500641E-2   5.288003012537956E-2   7.246704399585724E-2   5.285203829407692E-2  -8.823971152305603E-1   4.591785967350006E-1  
 1.240000000000000E7    -1.326162517070770E-1   9.824244379997253E-1   7.611314952373505E-2   5.302717536687851E-2   7.626526057720184E-2   5.254974961280823E-2  -8.764654397964478E-1   4.682916402816773E-1  
 1.270000000000000E7    -9.724681079387665E-2   9.865075945854187E-1   8.029673248529434E-2   5.225447565317154E-2   7.970304787158966E-2   5.209126695990562E-2  -8.701102733612061E-1   4.815657734870911E-1  
 1.300000000000000E7    -6.247150152921677E-2   9.897027015686035E-1   8.376162499189377E-2   5.194536224007607E-2   8.362129330635071E-2   5.201405286788940E-2  -8.630542755126953E-1   4.914369583129883E-1  
 1.330000000000000E7    -2.663313597440720E-2   9.914625287055969E-1   8.760332316160202E-2   5.163606256246567E-2   8.746927976608276E-2   5.107233673334122E-2  -8.561219573020935E-1   5.028638839721680E-1  
 1.360000000000000E7     1.023027300834656E-2   9.916029572486877E-1   9.134689718484879E-2   5.096890777349472E-2   9.176425635814667E-2   5.031666532158852E-2  -8.496415019035339E-1   5.124014019966126E-1  
 1.390000000000000E7     4.485351219773293E-2   9.896480441093445E-1   9.560240060091019E-2   4.978266358375549E-2   9.546411037445068E-2   4.998265579342842E-2  -8.424206376075745E-1   5.232644677162170E-1  
 1.420000000000000E7     8.168783038854599E-2   9.877084493637085E-1   9.941555559635162E-2   4.921454563736916E-2   9.935992956161499E-2   4.917784035205841E-2  -8.371319174766541E-1   5.332689285278320E-1  
 1.450000000000000E7     1.173154413700104E-1   9.823773503303528E-1   1.035508215427399E-1   4.775230213999748E-2   1.034500002861023E-1   4.772519320249558E-2  -8.273741006851196E-1   5.445526242256165E-1  
 1.480000000000000E7     1.541587114334106E-1   9.775394797325134E-1   1.080364361405373E-1   4.632698372006416E-2   1.076915040612221E-1   4.678465798497200E-2  -8.212594985961914E-1   5.540063977241516E-1  
 1.510000000000000E7     1.892596036195755E-1   9.703419208526611E-1   1.121023520827293E-1   4.490922391414642E-2   1.117936968803406E-1   4.504113271832466E-2  -8.110265135765076E-1   5.653787851333618E-1  
 1.540000000000000E7     2.240522205829620E-1   9.623737931251526E-1   1.163066849112511E-1   4.420276358723640E-2   1.163802519440651E-1   4.373370483517647E-2  -8.060212135314941E-1   5.745686292648315E-1  
 1.570000000000000E7     2.603137791156769E-1   9.542855620384216E-1   1.207614913582802E-1   4.180217161774635E-2   1.208125054836273E-1   4.180923104286194E-2  -7.967070341110230E-1   5.860093235969544E-1  
 1.600000000000000E7     2.961276471614838E-1   9.424909353256226E-1   1.249674707651138E-1   3.980408981442452E-2   1.254313439130783E-1   3.957486897706986E-2  -7.891244888305664E-1   5.947209596633911E-1  
 1.630000000000000E7     3.307484090328217E-1   9.301112294197083E-1   1.301708817481995E-1   3.752333670854569E-2   1.297865062952042E-1   3.764967620372772E-2  -7.801371812820435E-1   6.064769625663757E-1  
 1.660000000000000E7     3.654535412788391E-1   9.151725769042969E-1   1.347454637289047E-1   3.497901558876038E-2   1.343631297349930E-1   3.460543602705002E-2  -7.705290913581848E-1   6.168678402900696E-1  
 1.690000000000000E7     3.990889191627502E-1   9.008166790008545E-1   1.393482536077499E-1   3.296993300318718E-2   1.392654925584793E-1   3.256506472826004E-2  -7.625258564949036E-1   6.252282857894898E-1  
 1.720000000000000E7     4.348684549331665E-1   8.847650885581970E-1   1.436700075864792E-1   2.920374646782875E-2   1.438084393739700E-1   2.961491420865059E-2  -7.530739307403565E-1   6.351953744888306E-1  
 1.750000000000000E7     4.641870856285095E-1   8.693813085556030E-1   1.489603370428085E-1   2.737467736005783E-2   1.492287963628769E-1   2.701809257268906E-2  -7.448756098747253E-1   6.462163329124451E-1  
 1.780000000000000E7     5.000424981117249E-1   8.468809723854065E-1   1.530445814132690E-1   2.332534641027451E-2   1.533049792051315E-1   2.395208552479744E-2  -7.344910502433777E-1   6.533604264259338E-1  
 1.810000000000000E7     5.304449796676636E-1   8.276923298835754E-1   1.589638143777847E-1   2.044580504298210E-2   1.581757515668869E-1   1.991520822048187E-2  -7.250143289566040E-1   6.663540005683899E-1  
 1.840000000000000E7     5.639364719390869E-1   8.059701323509216E-1   1.641173660755158E-1   1.575088128447533E-2   1.634205430746079E-1   1.596206799149513E-2  -7.146736383438110E-1   6.755853891372681E-1  
 1.870000000000000E7     5.928472280502319E-1   7.833359837532044E-1   1.689820587635040E-1   1.245613116770983E-2   1.681052744388580E-1   1.190163567662239E-2  -7.039232254028320E-1   6.840727925300598E-1  
 1.900000000000000E7     6.227734684944153E-1   7.593404054641724E-1   1.737038642168045E-1   8.245674893260002E-3   1.734642237424851E-1   7.721727713942528E-3  -6.934528350830078E-1   6.939460039138794E-1  
 1.930000000000000E7     6.520649790763855E-1   7.324399948120117E-1   1.785529404878616E-1   2.845112234354019E-3   1.789129674434662E-1   3.482226282358170E-3  -6.829801797866821E-1   7.045115828514099E-1  
 1.960000000000000E7     6.809011697769165E-1   7.050146460533142E-1   1.836052834987640E-1  -1.928856596350670E-3   1.836197823286057E-1  -1.408731564879417E-3  -6.737592816352844E-1   7.123658657073975E-1  
 1.990000000000000E7     7.061278223991394E-1   6.761904954910278E-1   1.885750442743301E-1  -7.215244695544243E-3   1.888121813535690E-1  -7.038502022624016E-3  -6.600565314292908E-1   7.235455513000488E-1  
 2.020000000000000E7     7.323570251464844E-1   6.466248631477356E-1   1.940127313137054E-1  -1.242516003549099E-2   1.933012455701828E-1  -1.233050134032965E-2  -6.493474841117859E-1   7.295355796813965E-1  
 2.050000000000000E7     7.590928673744202E-1   6.153529286384583E-1   1.988820433616638E-1  -1.799012348055840E-2   1.975798904895783E-1  -1.854800432920456E-2  -6.377340555191040E-1   7.388346195220947E-1  
 2.080000000000000E7     7.820141911506653E-1   5.815317034721375E-1   2.040470689535141E-1  -2.449042908847332E-2   2.040683925151825E-1  -2.432468719780445E-2  -6.260026693344116E-1   7.492033839225769E-1  
 2.110000000000000E7     8.053348064422607E-1   5.481668114662170E-1   2.093127816915512E-1  -3.164771199226379E-2   2.092650830745697E-1  -3.152691945433617E-2  -6.132709383964539E-1   7.576633691787720E-1  
 2.140000000000000E7     8.267068266868591E-1   5.137953758239746E-1   2.147133201360703E-1  -3.901787847280502E-2   2.136295139789581E-1  -3.817730769515038E-2  -6.012586951255798E-1   7.655081748962402E-1  
 2.170000000000000E7     8.449746966362000E-1   4.787714481353760E-1   2.195082753896713E-1  -4.592396318912506E-2   2.192752808332443E-1  -4.519812017679215E-2  -5.886570215225220E-1   7.737772464752197E-1  
 2.200000000000000E7     8.649626374244690E-1   4.401328265666962E-1   2.241428643465042E-1  -5.405642092227936E-2   2.241601794958115E-1  -5.378854274749756E-2  -5.736622810363770E-1   7.818390727043152E-1  
 2.230000000000000E7     8.805556893348694E-1   4.016693830490112E-1   2.289757281541824E-1  -6.234090402722359E-2   2.284725606441498E-1  -6.193630024790764E-2  -5.600804090499878E-1   7.893893718719482E-1  
 2.260000000000000E7     8.963914513587952E-1   3.619267046451569E-1   2.332193255424500E-1  -7.130451500415802E-2   2.346725463867188E-1  -7.095852494239807E-2  -5.467125177383423E-1   7.967217564582825E-1  
 2.290000000000000E7     9.100305438041687E-1   3.213494420051575E-1   2.381007820367813E-1  -8.053581416606903E-2   2.387325018644333E-1  -7.996423542499542E-2  -5.312670469284058E-1   8.038522005081177E-1  
 2.320000000000000E7     9.206116199493408E-1   2.795970737934113E-1   2.430838942527771E-1  -9.088420867919922E-2   2.427755296230316E-1  -9.109868109226227E-2  -5.173670053482056E-1   8.131443262100220E-1  
 2.350000000000000E7     9.305582642555237E-1   2.357454448938370E-1   2.475345283746719E-1  -1.020017117261887E-1   2.470713108778000E-1  -1.012963727116585E-1  -5.028239488601685E-1   8.196923732757568E-1  
 2.380000000000000E7     9.377038478851318E-1   1.928333938121796E-1   2.513767182826996E-1  -1.121657267212868E-1   2.514637410640717E-1  -1.120122373104096E-1  -4.877314567565918E-1   8.256781697273254E-1  
 2.410000000000000E7     9.438122510910034E-1   1.470389068126679E-1   2.550585865974426E-1  -1.245512664318085E-1   2.546961903572083E-1  -1.242494136095047E-1  -4.713841676712036E-1   8.321539759635925E-1  
 2.440000000000000E7     9.464800953865051E-1   1.022700071334839E-1   2.591296434402466E-1  -1.372605711221695E-1   2.591714560985565E-1  -1.373809576034546E-1  -4.566330909729004E-1   8.376344442367554E-1  
 2.470000000000000E7     9.476857185363770E-1   5.596033483743668E-2   2.623559236526489E-1  -1.508359313011169E-1   2.619224190711975E-1  -1.490748226642609E-1  -4.385543167591095E-1   8.419640064239502E-1  
 2.500000000000000E7     9.469355940818787E-1   8.472729474306107E-3   2.647957801818848E-1  -1.641506701707840E-1   2.647607624530792E-1  -1.645995527505875E-1  -4.216168522834778E-1   8.483236432075501E-1  
 2.530000000000000E7     9.429461956024170E-1  -3.922327235341072E-2   2.679163813591003E-1  -1.783528029918671E-1   2.679817974567413E-1  -1.779623478651047E-1  -4.044025540351868E-1   8.520082831382752E-1  
 2.560000000000000E7     9.362237453460693E-1  -8.621060848236084E-2   2.698639631271362E-1  -1.933717876672745E-1   2.707129120826721E-1  -1.932741701602936E-1  -3.877843022346497E-1   8.563075661659241E-1  
 2.590000000000000E7     9.254444241523743E-1  -1.340119540691376E-1   2.711792886257172E-1  -2.105493396520615E-1   2.717302739620209E-1  -2.105707377195358E-1  -3.697781264781952E-1   8.618342876434326E-1  
 2.620000000000000E7     9.122623801231384E-1  -1.835004985332489E-1   2.721761763095856E-1  -2.282985895872116E-1   2.719897329807282E-1  -2.272811681032181E-1  -3.493087291717529E-1   8.647615313529968E-1  
 2.650000000000000E7     8.968482017517090E-1  -2.315391004085541E-1   2.728319764137268E-1  -2.449015676975250E-1   2.728283405303955E-1  -2.455901503562927E-1  -3.317953348159790E-1   8.667226433753967E-1  
 2.680000000000000E7     8.769663572311401E-1  -2.795319259166718E-1   2.727489173412323E-1  -2.638366520404816E-1   2.725781798362732E-1  -2.647871673107147E-1  -3.129548728466034E-1   8.681564331054688E-1  
 2.710000000000000E7     8.534687757492065E-1  -3.283599317073822E-1   2.699576914310455E-1  -2.848767340183258E-1   2.694071233272553E-1  -2.842825353145599E-1  -2.932025194168091E-1   8.705987334251404E-1  
 2.740000000000000E7     8.273112177848816E-1  -3.762890994548798E-1   2.689656913280487E-1  -3.046620786190033E-1   2.679742276668549E-1  -3.056632876396179E-1  -2.730578482151032E-1   8.684690594673157E-1  
 2.770000000000000E7     7.976689934730530E-1  -4.217638075351715E-1   2.645353078842163E-1  -3.269887566566467E-1   2.640976905822754E-1  -3.281694948673248E-1  -2.524565458297730E-1   8.690923452377319E-1  
 2.800000000000000E7     7.646132707595825E-1  -4.675765037536621E-1   2.594798505306244E-1  -3.492745161056519E-1   2.607758045196533E-1  -3.496859371662140E-1  -2.311798781156540E-1   8.661754131317139E-1  
 2.830000000000000E7     7.251084446907044E-1  -5.117415189743042E-1   2.525651752948761E-1  -3.722432851791382E-1   2.518667578697205E-1  -3.734040856361389E-1  -2.126643210649490E-1   8.643010258674622E-1  
 2.860000000000000E7     6.817390322685242E-1  -5.538427233695984E-1   2.442017644643784E-1  -3.975324332714081E-1   2.429117113351822E-1  -3.988940417766571E-1  -1.885056793689728E-1   8.606547713279724E-1  
 2.890000000000000E7     6.353544592857361E-1  -5.925357937812805E-1   2.331473976373673E-1  -4.243169724941254E-1   2.330946624279022E-1  -4.239192306995392E-1  -1.685221046209335E-1   8.557959794998169E-1  
 2.920000000000000E7     5.841864943504334E-1  -6.300539374351502E-1   2.220450639724731E-1  -4.491120576858521E-1   2.203630357980728E-1  -4.495939016342163E-1  -1.485269367694855E-1   8.488101363182068E-1  
 2.950000000000000E7     5.288941860198975E-1  -6.631110310554504E-1   2.065654695034027E-1  -4.786737561225891E-1   2.057830244302750E-1  -4.777561426162720E-1  -1.255315095186234E-1   8.417751789093018E-1  
 2.980000000000000E7     4.680831432342529E-1  -6.926712393760681E-1   1.888179481029511E-1  -5.048277974128723E-1   1.883650273084641E-1  -5.066415667533875E-1  -1.050884723663330E-1   8.322317004203796E-1  
 3.010000000000000E7     4.040434062480927E-1  -7.175250053405762E-1   1.671548038721085E-1  -5.339429974555969E-1   1.683546304702759E-1  -5.343629121780396E-1  -8.454096317291260E-2   8.213812112808228E-1  
 3.040000000000000E7     3.333261609077454E-1  -7.366217970848084E-1   1.438030749559403E-1  -5.626219511032105E-1   1.422673314809799E-1  -5.636378526687622E-1  -6.448535621166229E-2   8.065379261970520E-1  
 3.070000000000000E7     2.616831660270691E-1  -7.480703592300415E-1   1.150327175855637E-1  -5.899870395660400E-1   1.144747808575630E-1  -5.891162753105164E-1  -4.464162886142731E-2   7.936851382255554E-1  
 3.100000000000000E7     1.849389225244522E-1  -7.514579296112061E-1   8.266982436180115E-2  -6.177710294723511E-1   8.260811865329742E-2  -6.164543628692627E-1  -2.566328272223473E-2   7.779256701469421E-1  
 3.130000000000000E7     1.066875755786896E-1  -7.495941519737244E-1   4.566195979714394E-2  -6.435340046882629E-1   4.668150842189789E-2  -6.433882713317871E-1  -9.932349435985088E-3   7.581999897956848E-1  
 3.160000000000000E7     2.601495198905468E-2  -7.345755696296692E-1   5.948071368038654E-3  -6.682906150817871E-1   5.751723889261484E-3  -6.679221987724304E-1   4.958019591867924E-3   7.398535609245300E-1  
 3.190000000000000E7    -5.516391247510910E-2  -7.110237479209900E-1  -3.944135457277298E-2  -6.896215081214905E-1  -3.889422491192818E-2  -6.881679296493530E-1   1.943963021039963E-2   7.182626128196716E-1  
 3.220000000000000E7    -1.368306428194046E-1  -6.781707406044006E-1  -8.793291449546814E-2  -7.078076004981995E-1  -8.814340084791184E-2  -7.064162492752075E-1   2.863540500402451E-2   6.950712203979492E-1  
 3.250000000000000E7    -2.136122584342957E-1  -6.313760280609131E-1  -1.418554931879044E-1  -7.218726873397827E-1  -1.430291086435318E-1  -7.211036086082459E-1   3.683337941765785E-2   6.727020144462585E-1  
 3.280000000000000E7    -2.860159277915955E-1  -5.728978514671326E-1  -1.999230980873108E-1  -7.314737439155579E-1  -1.990762501955032E-1  -7.295246720314026E-1   4.230116680264473E-2   6.464896202087402E-1  
 3.310000000000000E7    -3.536451458930969E-1  -5.063620805740356E-1  -2.605637907981873E-1  -7.323446273803711E-1  -2.622635960578919E-1  -7.312068939208984E-1   4.269346594810486E-2   6.211992502212524E-1  
 3.340000000000000E7    -4.098450839519501E-1  -4.268602430820465E-1  -3.264613747596741E-1  -7.272233963012695E-1  -3.246487081050873E-1  -7.262516021728516E-1   4.094244167208672E-2   5.968199372291565E-1  
 3.370000000000000E7    -4.568996727466583E-1  -3.372868299484253E-1  -3.904847502708435E-1  -7.138519287109375E-1  -3.912063241004944E-1  -7.141885161399841E-1   3.345923870801926E-2   5.721737742424011E-1  
 3.400000000000000E7    -4.889761805534363E-1  -2.405769228935242E-1  -4.556315541267395E-1  -6.918525695800781E-1  -4.562148749828339E-1  -6.917585730552673E-1   2.273384481668472E-2   5.508770346641541E-1  
 3.430000000000000E7    -5.064198374748230E-1  -1.391610205173492E-1  -5.201607346534729E-1  -6.612524390220642E-1  -5.194418430328369E-1  -6.622443795204163E-1   1.106313429772854E-2   5.313962697982788E-1  
 3.460000000000000E7    -5.081533789634705E-1  -3.368882834911346E-2  -5.804669260978699E-1  -6.234037876129150E-1  -5.794894695281982E-1  -6.219567656517029E-1  -6.350187584757805E-3   5.171268582344055E-1  
 3.490000000000000E7    -4.917153418064117E-1   6.846047937870026E-2  -6.374737620353699E-1  -5.745345354080200E-1  -6.352816820144653E-1  -5.772752165794373E-1  -2.334048226475716E-2   5.024175047874451E-1  
 3.520000000000000E7    -4.595891535282135E-1   1.708690077066422E-1  -6.862284541130066E-1  -5.213623642921448E-1  -6.859366297721863E-1  -5.237096548080444E-1  -4.399535804986954E-2   4.947263300418854E-1  
 3.550000000000000E7    -4.095720946788788E-1   2.656695544719696E-1  -7.285023331642151E-1  -4.627653658390045E-1  -7.278214097023010E-1  -4.626691639423370E-1  -6.690083444118500E-2   4.934869706630707E-1  
 3.580000000000000E7    -3.489071726799011E-1   3.504205644130707E-1  -7.627194523811340E-1  -3.975620865821838E-1  -7.620880603790283E-1  -3.984664082527161E-1  -8.719900250434876E-2   4.929685592651367E-1  
 3.610000000000000E7    -2.751235067844391E-1   4.198058247566223E-1  -7.897198796272278E-1  -3.314105570316315E-1  -7.886245250701904E-1  -3.304723203182221E-1  -1.068364977836609E-1   4.995670318603516E-1  
 3.640000000000000E7    -1.921324878931046E-1   4.804395735263825E-1  -8.047999143600464E-1  -2.629510164260864E-1  -8.047803044319153E-1  -2.615058422088623E-1  -1.271172165870667E-1   5.104031562805176E-1  
 3.670000000000000E7    -1.032924503087997E-1   5.251028537750244E-1  -8.141496777534485E-1  -1.954267472028732E-1  -8.123846650123596E-1  -1.948545575141907E-1  -1.417618542909622E-1   5.230278968811035E-1  
 3.700000000000000E7    -1.248788088560104E-2   5.550851821899414E-1  -8.128874897956848E-1  -1.273402571678162E-1  -8.131462335586548E-1  -1.268520206212997E-1  -1.551361680030823E-1   5.401423573493958E-1  
 3.730000000000000E7     8.019939810037613E-2   5.730379819869995E-1  -8.040012717247009E-1  -6.304834038019180E-2  -8.044665455818176E-1  -6.432519853115082E-2  -1.647217422723770E-1   5.587994456291199E-1  
 3.760000000000000E7     1.687868833541870E-1   5.748679041862488E-1  -7.909667491912842E-1  -2.047620713710785E-3  -7.920290827751160E-1  -3.243066370487213E-3  -1.708829402923584E-1   5.803342461585999E-1  
 3.790000000000000E7     2.578200399875641E-1   5.647841691970825E-1  -7.731930017471314E-1   5.366210639476776E-2  -7.737616896629334E-1   5.307562649250031E-2  -1.731261312961578E-1   6.002240777015686E-1  
 3.820000000000000E7     3.394616246223450E-1   5.454607605934143E-1  -7.506663799285889E-1   1.048025786876679E-1  -7.489729523658752E-1   1.044659614562988E-1  -1.728797554969788E-1   6.240606904029846E-1  
 3.850000000000000E7     4.180818796157837E-1   5.171279907226563E-1  -7.241169810295105E-1   1.510071456432343E-1  -7.232990264892578E-1   1.529528349637985E-1  -1.705519855022430E-1   6.463119387626648E-1  
 3.880000000000000E7     4.862454235553742E-1   4.820170700550079E-1  -6.939721107482910E-1   1.963077187538147E-1  -6.940595507621765E-1   1.952496170997620E-1  -1.633163988590241E-1   6.686275005340576E-1  
 3.910000000000000E7     5.511332154273987E-1   4.391596317291260E-1  -6.622064113616943E-1   2.321526706218720E-1  -6.635155677795410E-1   2.332452237606049E-1  -1.516666412353516E-1   6.910051107406616E-1  
 3.940000000000000E7     6.064584255218506E-1   3.902834057807922E-1  -6.297152638435364E-1   2.656832039356232E-1  -6.294772624969482E-1   2.660207748413086E-1  -1.400357782840729E-1   7.111823558807373E-1  
 3.970000000000000E7     6.564611196517944E-1   3.389578461647034E-1  -5.961759090423584E-1   2.939910292625427E-1  -5.957656502723694E-1   2.941137552261353E-1  -1.235997527837753E-1   7.308359146118164E-1  
 4.000000000000000E7     6.989201903343201E-1   2.853993773460388E-1  -5.626037120819092E-1   3.200128376483917E-1  -5.623682737350464E-1   3.205840885639191E-1  -1.065441966056824E-1   7.501078844070435E-1  
 4.030000000000000E7     7.334750890731812E-1   2.298064976930618E-1  -5.297683477401733E-1   3.435321450233460E-1  -5.297324061393738E-1   3.425689637660980E-1  -8.839783072471619E-2   7.665566802024841E-1  
 4.060000000000000E7     7.643750905990601E-1   1.715949326753616E-1  -4.957243204116821E-1   3.608261346817017E-1  -4.950726032257080E-1   3.604473769664764E-1  -6.622580438852310E-2   7.833095192909241E-1  
 4.090000000000000E7     7.895318865776062E-1   1.135602146387100E-1  -4.622905254364014E-1   3.763083219528198E-1  -4.621978998184204E-1   3.771650195121765E-1  -4.515881091356278E-2   7.964608669281006E-1  
 4.120000000000000E7     8.074362277984619E-1   5.424547940492630E-2  -4.310647547245026E-1   3.882721662521362E-1  -4.294419586658478E-1   3.884688019752502E-1  -1.955929398536682E-2   8.100554347038269E-1  
 4.150000000000000E7     8.187792897224426E-1  -2.120174467563629E-3  -3.985920846462250E-1   4.010445773601532E-1  -3.982754945755005E-1   3.978832066059113E-1   6.707765161991119E-3   8.207237720489502E-1  
 4.180000000000000E7     8.282509446144104E-1  -5.976711958646774E-2  -3.674342036247253E-1   4.088228046894074E-1  -3.671967983245850E-1   4.083486795425415E-1   3.183001652359963E-2   8.303042054176331E-1  
 4.210000000000000E7     8.314534425735474E-1  -1.151379793882370E-1  -3.373670876026154E-1   4.155187308788300E-1  -3.380309939384460E-1   4.155520498752594E-1   6.109422445297241E-2   8.380350470542908E-1  
 4.240000000000000E7     8.303247690200806E-1  -1.702595055103302E-1  -3.088892400264740E-1   4.200280904769898E-1  -3.090696334838867E-1   4.200262427330017E-1   9.012854844331741E-2   8.446022272109985E-1  
 4.270000000000000E7     8.263672590255737E-1  -2.229880392551422E-1  -2.802457809448242E-1   4.238901436328888E-1  -2.803826332092285E-1   4.232764840126038E-1   1.200703978538513E-1   8.485778570175171E-1  
 4.300000000000000E7     8.194382190704346E-1  -2.756833732128143E-1  -2.531135976314545E-1   4.261745810508728E-1  -2.534427344799042E-1   4.247080981731415E-1   1.511567384004593E-1   8.518671393394470E-1  
 4.330000000000000E7     8.091964721679688E-1  -3.247852325439453E-1  -2.273538112640381E-1   4.241726994514465E-1  -2.275721579790115E-1   4.253995418548584E-1   1.824603229761124E-1   8.521668910980225E-1  
 4.360000000000000E7     7.938688993453980E-1  -3.746304214000702E-1  -2.032944709062576E-1   4.250448644161224E-1  -2.017757743597031E-1   4.235295653343201E-1   2.135959714651108E-1   8.520346879959106E-1  
 4.390000000000000E7     7.782405018806458E-1  -4.213008284568787E-1  -1.783712208271027E-1   4.235507845878601E-1  -1.789019256830216E-1   4.227007925510407E-1   2.467654794454575E-1   8.483161330223084E-1  
 4.420000000000000E7     7.586029767990112E-1  -4.653371572494507E-1  -1.542715579271317E-1   4.193195104598999E-1  -1.550326645374298E-1   4.191848039627075E-1   2.798938453197479E-1   8.436658382415772E-1  
 4.450000000000000E7     7.371796965599060E-1  -5.080267190933228E-1  -1.325077712535858E-1   4.159663319587708E-1  -1.320204436779022E-1   4.153375625610352E-1   3.129686117172241E-1   8.392086029052734E-1  
 4.480000000000000E7     7.145291566848755E-1  -5.486457943916321E-1  -1.108404025435448E-1   4.109990000724793E-1  -1.106561645865440E-1   4.109365046024323E-1   3.471906781196594E-1   8.306179642677307E-1  
 4.510000000000000E7     6.901985406875610E-1  -5.870488286018372E-1  -9.019262343645096E-2   4.062389731407166E-1  -9.006827324628830E-2   4.051747024059296E-1   3.822937607765198E-1   8.202509880065918E-1  
 4.540000000000000E7     6.637586355209351E-1  -6.235804557800293E-1  -6.854628026485443E-2   3.989332318305969E-1  -6.948073208332062E-2   3.989366888999939E-1   4.173353910446167E-1   8.086215257644653E-1  
 4.570000000000000E7     6.349888443946838E-1  -6.591371893882752E-1  -4.956984892487526E-2   3.918571472167969E-1  -5.099250003695488E-2   3.911841511726379E-1   4.521865248680115E-1   7.935293912887573E-1  
 4.600000000000000E7     6.058031916618347E-1  -6.903142929077148E-1  -3.273966163396835E-2   3.847137987613678E-1  -3.301197290420532E-2   3.848679959774017E-1   4.866855144500732E-1   7.782022953033447E-1  
 4.630000000000000E7     5.743327140808106E-1  -7.229605317115784E-1  -1.431818306446075E-2   3.767474591732025E-1  -1.377548649907112E-2   3.765943050384522E-1   5.227811336517334E-1   7.594115138053894E-1  
 4.660000000000000E7     5.428814291954041E-1  -7.524358630180359E-1   3.629501909017563E-3   3.670078814029694E-1   2.879321575164795E-3   3.671293854713440E-1   5.579371452331543E-1   7.363578677177429E-1  
 4.690000000000000E7     5.089816451072693E-1  -7.787932753562927E-1   1.930093020200729E-2   3.578384220600128E-1   1.906860060989857E-2   3.570591807365418E-1   5.943713188171387E-1   7.143789529800415E-1  
 4.720000000000000E7     4.746347963809967E-1  -8.036722540855408E-1   3.488130122423172E-2   3.472732901573181E-1   3.529004380106926E-2   3.471178710460663E-1   6.273404359817505E-1   6.869872212409973E-1  
 4.750000000000000E7     4.407959282398224E-1  -8.272375464439392E-1   5.014430359005928E-2   3.367013037204742E-1   4.952223598957062E-2   3.364589512348175E-1   6.633141040802002E-1   6.601459383964539E-1  
 4.780000000000000E7     4.058087468147278E-1  -8.482375741004944E-1   6.365945935249329E-2   3.249857127666473E-1   6.308456510305405E-2   3.254600167274475E-1   6.957477331161499E-1   6.275819540023804E-1  
 4.810000000000000E7     3.691229820251465E-1  -8.678070902824402E-1   7.648804783821106E-2   3.143265545368195E-1   7.640740275382996E-2   3.140910267829895E-1   7.297645807266235E-1   5.942558050155640E-1  
 4.840000000000000E7     3.327609598636627E-1  -8.858990669250488E-1   8.888800442218781E-2   3.024731576442719E-1   8.958266675472260E-2   3.020200431346893E-1   7.620823979377747E-1   5.569311976432800E-1  
 4.870000000000000E7     2.950125336647034E-1  -9.018440842628479E-1   1.014865934848785E-1   2.894236743450165E-1   1.007625311613083E-1   2.896396815776825E-1   7.930441498756409E-1   5.167930126190186E-1  
 4.900000000000000E7     2.576854825019836E-1  -9.169909954071045E-1   1.119205206632614E-1   2.762668728828430E-1   1.118143349885941E-1   2.764710187911987E-1   8.216050267219544E-1   4.743882119655609E-1  
 4.930000000000000E7     2.193945646286011E-1  -9.296121597290039E-1   1.214538961648941E-1   2.629441022872925E-1   1.212617009878159E-1   2.633793056011200E-1   8.499494791030884E-1   4.272211194038391E-1  
 4.960000000000000E7     1.803795695304871E-1  -9.386260509490967E-1   1.306776106357575E-1   2.486063092947006E-1   1.310829818248749E-1   2.485246658325195E-1   8.755459189414978E-1   3.781930208206177E-1  
 4.990000000000000E7     1.428914964199066E-1  -9.484951496124268E-1   1.385937333106995E-1   2.341757714748383E-1   1.382763981819153E-1   2.342906743288040E-1   8.988797068595886E-1   3.256643414497376E-1  
 5.020000000000000E7     1.053517311811447E-1  -9.563743472099304E-1   1.457186341285706E-1   2.201488912105560E-1   1.452637463808060E-1   2.208946049213409E-1   9.199225902557373E-1   2.703956365585327E-1  
 5.050000000000000E7     6.567576527595520E-2  -9.621508717536926E-1   1.518010795116425E-1   2.052500545978546E-1   1.521512717008591E-1   2.049228549003601E-1   9.377121329307556E-1   2.111334949731827E-1  
 5.080000000000000E7     2.776122093200684E-2  -9.663259983062744E-1   1.570262461900711E-1   1.903023123741150E-1   1.564287990331650E-1   1.907680034637451E-1   9.509373307228088E-1   1.495720148086548E-1  
 5.110000000000000E7    -1.159224659204483E-2  -9.686344861984253E-1   1.608560383319855E-1   1.749439239501953E-1   1.610364168882370E-1   1.750203669071198E-1   9.620843529701233E-1   8.501770347356796E-2  
 5.140000000000000E7    -5.064357072114945E-2  -9.691690802574158E-1   1.637449264526367E-1   1.598960459232330E-1   1.640975177288055E-1   1.593512147665024E-1   9.675553441047669E-1   1.703347265720367E-2  
 5.170000000000000E7    -8.846367895603180E-2  -9.685086011886597E-1   1.646999567747116E-1   1.440808027982712E-1   1.651967614889145E-1   1.441764831542969E-1   9.672479033470154E-1  -5.156812444329262E-2  
 5.200000000000000E7    -1.269055902957916E-1  -9.674961566925049E-1   1.659646630287170E-1   1.292667090892792E-1   1.662441790103912E-1   1.301090121269226E-1   9.639927148818970E-1  -1.229206547141075E-1  
 5.230000000000000E7    -1.652411669492722E-1  -9.626563787460327E-1   1.655548065900803E-1   1.140375807881355E-1   1.654970943927765E-1   1.138085126876831E-1   9.529772400856018E-1  -1.959258615970612E-1  
 5.260000000000000E7    -2.029847204685211E-1  -9.566953182220459E-1   1.635279655456543E-1   9.902752935886383E-2   1.636182069778442E-1   9.936597198247910E-2   9.378137588500977E-1  -2.689031064510346E-1  
 5.290000000000000E7    -2.411855161190033E-1  -9.504071474075317E-1   1.607301384210587E-1   8.558063209056854E-2   1.605673879384995E-1   8.504974842071533E-2   9.152550697326660E-1  -3.430636227130890E-1  
 5.320000000000000E7    -2.772668898105621E-1  -9.431688785552979E-1   1.567596495151520E-1   7.156201452016830E-2   1.565926820039749E-1   7.125245034694672E-2   8.860093951225281E-1  -4.165680408477783E-1  
 5.350000000000000E7    -3.136311769485474E-1  -9.322063326835632E-1   1.513076871633530E-1   5.793278664350510E-2   1.509073078632355E-1   5.775284022092819E-2   8.498063683509827E-1  -4.889815449714661E-1  
 5.380000000000000E7    -3.488327860832214E-1  -9.203752279281616E-1   1.446115225553513E-1   4.571957141160965E-2   1.442485302686691E-1   4.562631249427795E-2   8.066838383674622E-1  -5.594421029090881E-1  
 5.410000000000000E7    -3.865048289299011E-1  -9.092670679092407E-1   1.376335471868515E-1   3.425029665231705E-2   1.371272206306458E-1   3.409237414598465E-2   7.582443952560425E-1  -6.263152360916138E-1  
 5.440000000000000E7    -4.216118752956390E-1  -8.936948776245117E-1   1.289627850055695E-1   2.363248914480209E-2   1.290184557437897E-1   2.378530614078045E-2   7.021386623382568E-1  -6.915309429168701E-1  
 5.470000000000000E7    -4.546281397342682E-1  -8.789629340171814E-1   1.201388165354729E-1   1.492621935904026E-2   1.199201866984367E-1   1.449138391762972E-2   6.401230096817017E-1  -7.502515912055969E-1  
 5.500000000000000E7    -4.890400469303131E-1  -8.624088168144226E-1   1.102246791124344E-1   6.240591406822205E-3   1.098557710647583E-1   6.459216587245464E-3   5.712910890579224E-1  -8.042677044868469E-1  
 5.530000000000000E7    -5.216971635818481E-1  -8.438416123390198E-1   9.998750686645508E-2  -5.376413464546204E-4   9.993197023868561E-2  -6.432197988033295E-4   4.986377358436585E-1  -8.528966903686523E-1  
 5.560000000000000E7    -5.544315576553345E-1  -8.238840699195862E-1   8.945533633232117E-2  -6.053145974874497E-3   8.932738006114960E-2  -6.056161597371101E-3   4.206867814064026E-1  -8.957590460777283E-1  
 5.590000000000000E7    -5.853719115257263E-1  -8.044112324714661E-1   7.894027233123779E-2  -1.020374335348606E-2   7.877682149410248E-2  -1.025094650685787E-2   3.403408527374268E-1  -9.296527504920960E-1  
 5.620000000000000E7    -6.160448789596558E-1  -7.807214260101318E-1   6.788022071123123E-2  -1.336138416081667E-2   6.788018345832825E-2  -1.319727580994368E-2   2.563973069190979E-1  -9.569898247718811E-1  
 5.650000000000000E7    -6.443513631820679E-1  -7.586050033569336E-1   5.765563249588013E-2  -1.488444488495588E-2   5.749564990401268E-2  -1.483240444213152E-2   1.706587672233582E-1  -9.769533276557922E-1  
 5.680000000000000E7    -6.724452376365662E-1  -7.347251176834106E-1   4.727213084697723E-2  -1.542543992400169E-2   4.730518907308579E-2  -1.535466685891151E-2   8.422932028770447E-2  -9.896260499954224E-1  
 5.710000000000000E7    -7.003641724586487E-1  -7.082794904708862E-1   3.750396892428398E-2  -1.468370482325554E-2   3.739783540368080E-2  -1.470624841749668E-2  -1.394331455230713E-3  -9.921905398368835E-1  
 5.740000000000000E7    -7.268162965774536E-1  -6.824035644531250E-1   2.835299819707871E-2  -1.304759364575148E-2   2.824264205992222E-2  -1.290292385965586E-2  -8.559289574623108E-2  -9.905920028686523E-1  
 5.770000000000000E7    -7.504170536994934E-1  -6.559453606605530E-1   1.965567097067833E-2  -1.025106105953455E-2   1.966834254562855E-2  -1.022466551512480E-2  -1.700871884822846E-1  -9.783158302307129E-1  
 5.800000000000000E7    -7.746742367744446E-1  -6.270218491554260E-1   1.183225214481354E-2  -6.822642870247364E-3   1.176843233406544E-2  -6.831457838416100E-3  -2.500671744346619E-1  -9.606778621673584E-1  
 5.830000000000000E7    -7.971960902214050E-1  -5.982927083969116E-1   4.775963257998228E-3  -2.706408966332674E-3   4.770918749272823E-3  -2.740730065852404E-3  -3.284606933593750E-1  -9.370293021202087E-1  
 5.860000000000000E7    -8.195736408233643E-1  -5.701227784156799E-1  -1.423655310645700E-3   1.995568396523595E-3  -1.445943024009466E-3   1.952932216227055E-3  -4.013960957527161E-1  -9.096982479095459E-1  
 5.890000000000000E7    -8.384360074996948E-1  -5.390295982360840E-1  -6.815975997596979E-3   7.104565389454365E-3  -6.840752437710762E-3   7.098123896867037E-3  -4.715971946716309E-1  -8.747209310531616E-1  
 5.920000000000000E7    -8.578530550003052E-1  -5.079178810119629E-1  -1.136786863207817E-2   1.253657788038254E-2  -1.127933803945780E-2   1.257336419075728E-2  -5.369108915328980E-1  -8.363534212112427E-1  
 5.950000000000000E7    -8.751094341278076E-1  -4.767321646213532E-1  -1.501958630979061E-2   1.819078810513020E-2  -1.498545799404383E-2   1.821973174810410E-2  -5.981507301330566E-1  -7.938633561134338E-1  
 5.980000000000000E7    -8.920331597328186E-1  -4.446649551391602E-1  -1.793269999325275E-2   2.401157841086388E-2  -1.786045357584953E-2   2.391398698091507E-2  -6.536659002304077E-1  -7.495032548904419E-1  
 6.010000000000000E7    -9.052631258964539E-1  -4.133489727973938E-1  -2.007460035383701E-2   2.964680083096027E-2  -1.998730748891830E-2   2.961149811744690E-2  -7.036827206611633E-1  -7.012897729873657E-1  
 6.040000000000000E7    -9.208346605300903E-1  -3.790509402751923E-1  -2.131915278732777E-2   3.539982810616493E-2  -2.133320644497871E-2   3.541368991136551E-2  -7.502857446670532E-1  -6.509717702865601E-1  
 6.070000000000000E7    -9.334969520568848E-1  -3.481723964214325E-1  -2.207975089550018E-2   4.101341590285301E-2  -2.214058488607407E-2   4.098116606473923E-2  -7.904899716377258E-1  -6.002523899078369E-1  
 6.100000000000000E7    -9.445775747299194E-1  -3.143388926982880E-1  -2.228165790438652E-2   4.650967195630074E-2  -2.214178070425987E-2   4.644882678985596E-2  -8.278055787086487E-1  -5.488269925117493E-1  
 6.130000000000000E7    -9.557355046272278E-1  -2.799170613288879E-1  -2.157018147408962E-2   5.173290148377419E-2  -2.166919969022274E-2   5.166859179735184E-2  -8.603380322456360E-1  -4.956945180892944E-1  
 6.160000000000000E7    -9.642692804336548E-1  -2.465849071741104E-1  -2.056341618299484E-2   5.662314221262932E-2  -2.062633074820042E-2   5.655863508582115E-2  -8.886927366256714E-1  -4.426377117633820E-1  
 6.190000000000000E7    -9.715525507926941E-1  -2.126366943120956E-1  -1.905889622867107E-2   6.107548996806145E-2  -1.892625540494919E-2   6.115077435970306E-2  -9.131983518600464E-1  -3.880088925361633E-1  
 6.220000000000000E7    -9.785956740379334E-1  -1.785606443881989E-1  -1.718352362513542E-2   6.545791029930115E-2  -1.727076992392540E-2   6.537321209907532E-2  -9.326830506324768E-1  -3.373110890388489E-1  
 6.250000000000000E7    -9.840172529220581E-1  -1.437742412090302E-1  -1.508775167167187E-2   6.940868496894836E-2  -1.515847258269787E-2   6.929670274257660E-2  -9.498593211174011E-1  -2.865725159645081E-1  
 6.280000000000000E7    -9.875637888908386E-1  -1.095918565988541E-1  -1.253509335219860E-2   7.283546775579453E-2  -1.267136540263891E-2   7.277310639619827E-2  -9.621872305870056E-1  -2.355643957853317E-1  
 6.310000000000000E7    -9.906489253044128E-1  -7.338185608386993E-2  -9.729493409395218E-3   7.639823853969574E-2  -9.844789281487465E-3   7.625020295381546E-2  -9.748170971870422E-1  -1.847989410161972E-1  
 6.340000000000000E7    -9.921022653579712E-1  -3.964149951934815E-2  -6.746730767190456E-3   7.932972908020020E-2  -6.767391227185726E-3   7.922831922769547E-2  -9.826976656913757E-1  -1.364712715148926E-1  
 6.370000000000000E7    -9.930566549301148E-1  -5.134493112564087E-3  -3.589258529245853E-3   8.189108222723007E-2  -3.580455668270588E-3   8.180223405361176E-2  -9.871131777763367E-1  -8.852075040340424E-2  
 6.400000000000000E7    -9.915600419044495E-1   2.916666865348816E-2  -4.348568618297577E-4   8.430486172437668E-2  -2.953652292490006E-4   8.394394069910049E-2  -9.906232953071594E-1  -4.279726743698120E-2  
 6.430000000000000E7    -9.899864196777344E-1   6.458967924118042E-2   3.099820576608181E-3   8.607948571443558E-2   3.298229537904263E-3   8.598238974809647E-2  -9.920890331268311E-1   3.260791301727295E-3  
 6.460000000000000E7    -9.875649213790894E-1   9.863877296447754E-2   6.821288727223873E-3   8.762628585100174E-2   6.611975841224194E-3   8.752653002738953E-2  -9.890766143798828E-1   4.662567377090454E-2  
 6.490000000000000E7    -9.843548536300659E-1   1.319831013679504E-1   1.010354794561863E-2   8.894354104995728E-2   9.954735636711121E-3   8.913396298885346E-2  -9.861448407173157E-1   8.742801845073700E-2  
 6.520000000000000E7    -9.781620502471924E-1   1.656860411167145E-1   1.361093297600746E-2   8.984430879354477E-2   1.368012093007565E-2   8.987243473529816E-2  -9.822801351547241E-1   1.292804032564163E-1  
 6.550000000000000E7    -9.721676707267761E-1   1.986266970634460E-1   1.720332354307175E-2   9.071232378482819E-2   1.729881204664707E-2   9.080047160387039E-2  -9.762307405471802E-1   1.690145432949066E-1  
 6.580000000000000E7    -9.638705849647522E-1   2.328633666038513E-1   2.075822837650776E-2   9.134249389171600E-2   2.072132751345635E-2   9.124679118394852E-2  -9.692147374153137E-1   2.066821306943893E-1  
 6.610000000000000E7    -9.546030759811401E-1   2.658399641513825E-1   2.443427406251431E-2   9.154853969812393E-2   2.464226447045803E-2   9.113036841154099E-2  -9.609038829803467E-1   2.446970194578171E-1  
 6.640000000000000E7    -9.466135501861572E-1   2.984193563461304E-1   2.806433476507664E-2   9.153327345848084E-2   2.789716608822346E-2   9.159465879201889E-2  -9.508957862854004E-1   2.801660299301148E-1  
 6.670000000000000E7    -9.348271489143372E-1   3.308011889457703E-1   3.149627149105072E-2   9.128152579069138E-2   3.119504079222679E-2   9.128912538290024E-2  -9.403443336486816E-1   3.125188648700714E-1  
 6.700000000000000E7    -9.225939512252808E-1   3.628239631652832E-1   3.475640714168549E-2   9.064056724309921E-2   3.474069014191628E-2   9.046699851751328E-2  -9.277550578117371E-1   3.460513949394226E-1  
 6.730000000000000E7    -9.096338748931885E-1   3.943336904048920E-1   3.813269734382629E-2   8.989724516868591E-2   3.818158060312271E-2   8.981775492429733E-2  -9.161098003387451E-1   3.772588074207306E-1  
 6.760000000000000E7    -8.955110311508179E-1   4.250253140926361E-1   4.154589027166367E-2   8.939565718173981E-2   4.129757732152939E-2   8.905285596847534E-2  -9.023532867431641E-1   4.082929491996765E-1  
 6.790000000000000E7    -8.801578879356384E-1   4.556956887245178E-1   4.454109817743301E-2   8.807682245969772E-2   4.462128877639771E-2   8.809187263250351E-2  -8.888938426971436E-1   4.368868470191956E-1  
 6.820000000000000E7    -8.637733459472656E-1   4.849390387535095E-1   4.765586555004120E-2   8.696665614843369E-2   4.742514342069626E-2   8.678454160690308E-2  -8.745766282081604E-1   4.646398425102234E-1  
 6.850000000000000E7    -8.471943736076355E-1   5.153428912162781E-1   5.046940222382546E-2   8.557362854480743E-2   5.044628679752350E-2   8.543746173381805E-2  -8.592832088470459E-1   4.914327859878540E-1  
 6.880000000000000E7    -8.285818099975586E-1   5.433999896049500E-1   5.339100584387779E-2   8.393707871437073E-2   5.319894105195999E-2   8.373145014047623E-2  -8.433541059494019E-1   5.175293087959290E-1  
 6.910000000000000E7    -8.094186186790466E-1   5.720250010490418E-1   5.620006471872330E-2   8.263160288333893E-2   5.612074583768845E-2   8.231756091117859E-2  -8.285139799118042E-1   5.433743596076965E-1  
 6.940000000000000E7    -7.902073860168457E-1   5.992118120193481E-1   5.860275775194168E-2   8.081097900867462E-2   5.877891182899475E-2   8.064530789852142E-2  -8.127783536911011E-1   5.660591721534729E-1  
 6.970000000000000E7    -7.677237987518311E-1   6.264436244964600E-1   6.125478446483612E-2   7.882475107908249E-2   6.149448826909065E-2   7.864778488874435E-2  -7.963219285011292E-1   5.892879366874695E-1  
 7.000000000000000E7    -7.462920546531677E-1   6.528927087783814E-1   6.365235894918442E-2   7.680398225784302E-2   6.367888301610947E-2   7.664097845554352E-2  -7.797887921333313E-1   6.115647554397583E-1  
