#  HZ   S   RI   R     50.00 
! Rohde & Schwarz ZVT8 8Ports - Version 4.11 - 1300.0000k08 SN: 100242
! Date: 2026-07-31 15:12:51
! Measurements: S11 S21 S12 S22 
! 
 1.000000000000000E7    -4.093259274959564E-1   9.083545207977295E-1   4.897793009877205E-2   5.011656507849693E-2   4.875452071428299E-2   5.005909875035286E-2  -9.208638668060303E-1   3.805607557296753E-1  
 1.030000000000000E7    -3.775460422039032E-1   9.208636283874512E-1   5.185562744736671E-2   5.046540871262550E-2   5.163104832172394E-2   5.037909373641014E-2  -9.154129624366760E-1   3.928616642951965E-1  
 1.060000000000000E7    -3.419235348701477E-1   9.343105554580689E-1   5.479507893323898E-2   5.103263258934021E-2   5.497182160615921E-2   5.096779018640518E-2  -9.118613004684448E-1   4.042950570583344E-1  
 1.090000000000000E7    -3.112352788448334E-1   9.445531368255615E-1   5.780623853206635E-2   5.112730711698532E-2   5.780798196792603E-2   5.119608342647553E-2  -9.067081212997437E-1   4.160140752792358E-1  
 1.120000000000000E7    -2.764250040054321E-1   9.540719985961914E-1   6.113388016819954E-2   5.190915241837502E-2   6.063266843557358E-2   5.157289654016495E-2  -9.003928303718567E-1   4.266514778137207E-1  
 1.150000000000000E7    -2.420892566442490E-1   9.644395709037781E-1   6.396389752626419E-2   5.161377787590027E-2   6.389901787042618E-2   5.168535932898521E-2  -8.942738771438599E-1   4.359250068664551E-1  
 1.180000000000000E7    -2.080834656953812E-1   9.703739285469055E-1   6.695474684238434E-2   5.146396905183792E-2   6.700895726680756E-2   5.167648568749428E-2  -8.899810910224915E-1   4.460239708423615E-1  
 1.210000000000000E7    -1.742382496595383E-1   9.772582650184631E-1   7.055339962244034E-2   5.177986994385719E-2   7.028667628765106E-2   5.167580395936966E-2  -8.830372095108032E-1   4.582120776176453E-1  
 1.240000000000000E7    -1.397764086723328E-1   9.816536903381348E-1   7.364010065793991E-2   5.166867747902870E-2   7.366134226322174E-2   5.122100934386253E-2  -8.767183423042297E-1   4.671909809112549E-1  
 1.270000000000000E7    -1.050786301493645E-1   9.861212968826294E-1   7.745513319969177E-2   5.094574391841888E-2   7.722030580043793E-2   5.088672414422035E-2  -8.712160587310791E-1   4.807887077331543E-1  
 1.300000000000000E7    -7.077391445636749E-2   9.893808364868164E-1   8.060310035943985E-2   5.082447454333305E-2   8.058006316423416E-2   5.060966685414314E-2  -8.637455701828003E-1   4.904385507106781E-1  
 1.330000000000000E7    -3.547429293394089E-2   9.919992685317993E-1   8.445338159799576E-2   5.006640776991844E-2   8.431296795606613E-2   4.973166435956955E-2  -8.569579720497131E-1   5.023257136344910E-1  
 1.360000000000000E7     9.380653500556946E-4   9.920355677604675E-1   8.780863136053085E-2   4.954497143626213E-2   8.804022520780563E-2   4.907193779945374E-2  -8.501783609390259E-1   5.112541317939758E-1  
 1.390000000000000E7     3.418033197522163E-2   9.907789826393127E-1   9.174308180809021E-2   4.844839125871658E-2   9.122330695390701E-2   4.875500872731209E-2  -8.439424037933350E-1   5.218991637229919E-1  
 1.420000000000000E7     7.071260362863541E-2   9.889537692070007E-1   9.511574357748032E-2   4.753168672323227E-2   9.508981555700302E-2   4.776236042380333E-2  -8.385580778121948E-1   5.318883657455444E-1  
 1.450000000000000E7     1.053605750203133E-1   9.843053221702576E-1   9.905196726322174E-2   4.637067392468453E-2   9.882547706365585E-2   4.636395722627640E-2  -8.289061188697815E-1   5.436334609985352E-1  
 1.480000000000000E7     1.412376612424851E-1   9.800714254379273E-1   1.026116013526917E-1   4.493599757552147E-2   1.025646328926086E-1   4.547036811709404E-2  -8.225751519203186E-1   5.529308915138245E-1  
 1.510000000000000E7     1.758241802453995E-1   9.734782576560974E-1   1.063629388809204E-1   4.369344934821129E-2   1.064194366335869E-1   4.369547590613365E-2  -8.128150701522827E-1   5.639019608497620E-1  
 1.540000000000000E7     2.096785902976990E-1   9.669365882873535E-1   1.103111431002617E-1   4.278960078954697E-2   1.100994870066643E-1   4.244630038738251E-2  -8.079093694686890E-1   5.729576349258423E-1  
 1.570000000000000E7     2.448641955852509E-1   9.593607187271118E-1   1.142117679119110E-1   4.083589464426041E-2   1.141578555107117E-1   4.061805829405785E-2  -7.989735007286072E-1   5.843735337257385E-1  
 1.600000000000000E7     2.798492014408112E-1   9.483318328857422E-1   1.180096939206123E-1   3.888715058565140E-2   1.184480860829353E-1   3.872606903314591E-2  -7.918749451637268E-1   5.927808284759522E-1  
 1.630000000000000E7     3.132081329822540E-1   9.371979832649231E-1   1.223587617278099E-1   3.679624572396278E-2   1.222194656729698E-1   3.688440099358559E-2  -7.833203673362732E-1   6.043804883956909E-1  
 1.660000000000000E7     3.470820486545563E-1   9.237210750579834E-1   1.264232993125916E-1   3.449884802103043E-2   1.262847334146500E-1   3.414272889494896E-2  -7.736201882362366E-1   6.147421002388001E-1  
 1.690000000000000E7     3.801171779632568E-1   9.104595780372620E-1   1.306216418743134E-1   3.256647288799286E-2   1.304470896720886E-1   3.223865479230881E-2  -7.658012509346008E-1   6.238667368888855E-1  
 1.720000000000000E7     4.152354896068573E-1   8.959041237831116E-1   1.342743784189224E-1   2.905748598277569E-2   1.341630965471268E-1   2.977230772376061E-2  -7.567905783653259E-1   6.326363682746887E-1  
 1.750000000000000E7     4.425930976867676E-1   8.822581171989441E-1   1.387320607900620E-1   2.782298624515533E-2   1.388434767723084E-1   2.733821049332619E-2  -7.487713098526001E-1   6.441732048988342E-1  
 1.780000000000000E7     4.778803586959839E-1   8.614379167556763E-1   1.421820521354675E-1   2.418188378214836E-2   1.423151344060898E-1   2.450120449066162E-2  -7.387682795524597E-1   6.512331962585449E-1  
 1.810000000000000E7     5.075080394744873E-1   8.444378376007080E-1   1.472270041704178E-1   2.142330259084702E-2   1.462746411561966E-1   2.067734487354755E-2  -7.294098138809204E-1   6.643216609954834E-1  
 1.840000000000000E7     5.400247573852539E-1   8.249357938766480E-1   1.515488475561142E-1   1.724199950695038E-2   1.507503688335419E-1   1.743358932435513E-2  -7.191773056983948E-1   6.733948588371277E-1  
 1.870000000000000E7     5.682358741760254E-1   8.043486475944519E-1   1.554192304611206E-1   1.438709534704685E-2   1.547372192144394E-1   1.403201557695866E-2  -7.096908092498779E-1   6.821889281272888E-1  
 1.900000000000000E7     5.968326926231384E-1   7.824790477752686E-1   1.593164652585983E-1   1.085999794304371E-2   1.590884625911713E-1   1.055654883384705E-2  -6.990541219711304E-1   6.910387873649597E-1  
 1.930000000000000E7     6.258348226547241E-1   7.586506009101868E-1   1.631865501403809E-1   6.106222048401833E-3   1.634648889303207E-1   6.804471835494041E-3  -6.889479756355286E-1   7.017363905906677E-1  
 1.960000000000000E7     6.542438864707947E-1   7.335732579231262E-1   1.672899425029755E-1   2.212172374129295E-3   1.672059595584869E-1   2.653254196047783E-3  -6.803041100502014E-1   7.096446156501770E-1  
 1.990000000000000E7     6.788207888603210E-1   7.080538868904114E-1   1.712492257356644E-1  -2.323755994439125E-3   1.714088171720505E-1  -2.176946029067040E-3  -6.673900485038757E-1   7.211509346961975E-1  
 2.020000000000000E7     7.047958374023438E-1   6.819092035293579E-1   1.756141930818558E-1  -6.413688883185387E-3   1.750281006097794E-1  -6.438224576413631E-3  -6.577163338661194E-1   7.273641824722290E-1  
 2.050000000000000E7     7.310391664505005E-1   6.543508172035217E-1   1.793631017208099E-1  -1.109302137047052E-2   1.784169077873230E-1  -1.161433383822441E-2  -6.467042565345764E-1   7.369838953018189E-1  
 2.080000000000000E7     7.540973424911499E-1   6.243036389350891E-1   1.835343241691589E-1  -1.640092767775059E-2   1.835370510816574E-1  -1.611166633665562E-2  -6.360321640968323E-1   7.470361590385437E-1  
 2.110000000000000E7     7.775930166244507E-1   5.952932834625244E-1   1.876707226037979E-1  -2.212777733802795E-2   1.875084191560745E-1  -2.201265655457974E-2  -6.236740350723267E-1   7.556414604187012E-1  
 2.140000000000000E7     7.991046309471130E-1   5.651402473449707E-1   1.915984153747559E-1  -2.805373631417751E-2   1.906790435314179E-1  -2.729272097349167E-2  -6.118728518486023E-1   7.634879350662231E-1  
 2.170000000000000E7     8.177929520606995E-1   5.348752737045288E-1   1.952276974916458E-1  -3.329682722687721E-2   1.949347406625748E-1  -3.277066349983215E-2  -6.004458665847778E-1   7.722665071487427E-1  
 2.200000000000000E7     8.388053178787231E-1   5.009418725967407E-1   1.987166106700897E-1  -3.960878774523735E-2   1.987679451704025E-1  -3.940441086888313E-2  -5.865799188613892E-1   7.803053259849548E-1  
 2.230000000000000E7     8.554425239562988E-1   4.676631689071655E-1   2.022293061017990E-1  -4.599712416529656E-2   2.018526345491409E-1  -4.555430263280869E-2  -5.741683244705200E-1   7.881067991256714E-1  
 2.260000000000000E7     8.726551532745361E-1   4.337654411792755E-1   2.054035663604736E-1  -5.263711139559746E-2   2.066803276538849E-1  -5.215230211615562E-2  -5.620237588882446E-1   7.956507205963135E-1  
 2.290000000000000E7     8.882003426551819E-1   3.988853096961975E-1   2.089987248182297E-1  -5.948804318904877E-2   2.093786150217056E-1  -5.885981023311615E-2  -5.474294424057007E-1   8.030467629432678E-1  
 2.320000000000000E7     9.010461568832398E-1   3.634017407894135E-1   2.126276791095734E-1  -6.719683855772018E-2   2.123016715049744E-1  -6.731850653886795E-2  -5.350006222724915E-1   8.127957582473755E-1  
 2.350000000000000E7     9.138350486755371E-1   3.258242607116699E-1   2.159668952226639E-1  -7.519523799419403E-2   2.154732048511505E-1  -7.457188516855240E-2  -5.215963721275330E-1   8.195850253105164E-1  
 2.380000000000000E7     9.246041178703308E-1   2.896475195884705E-1   2.185590714216232E-1  -8.245778828859329E-2   2.187189161777496E-1  -8.223032206296921E-2  -5.079240798950195E-1   8.267282247543335E-1  
 2.410000000000000E7     9.347317218780518E-1   2.512614130973816E-1   2.213817536830902E-1  -9.117333590984345E-2   2.209177613258362E-1  -9.084912389516830E-2  -4.928639829158783E-1   8.335148096084595E-1  
 2.440000000000000E7     9.422100186347961E-1   2.137569189071655E-1   2.243599891662598E-1  -9.988133609294891E-2   2.244163006544113E-1  -1.000170409679413E-1  -4.795976281166077E-1   8.399792909622192E-1  
 2.470000000000000E7     9.482464194297791E-1   1.747687757015228E-1   2.266490757465363E-1  -1.092735305428505E-1   2.261993288993835E-1  -1.076721623539925E-1  -4.635802507400513E-1   8.451868295669556E-1  
 2.500000000000000E7     9.543223381042481E-1   1.355678141117096E-1   2.284653484821320E-1  -1.180960983037949E-1   2.285636067390442E-1  -1.184509098529816E-1  -4.483237266540527E-1   8.532160520553589E-1  
 2.530000000000000E7     9.578881859779358E-1   9.646980464458466E-2   2.309056520462036E-1  -1.274091899394989E-1   2.308737486600876E-1  -1.270719766616821E-1  -4.331114292144775E-1   8.584520816802979E-1  
 2.560000000000000E7     9.584655165672302E-1   5.753425881266594E-2   2.323592007160187E-1  -1.369192600250244E-1   2.330704331398010E-1  -1.368737816810608E-1  -4.181959629058838E-1   8.638289570808411E-1  
 2.590000000000000E7     9.575169086456299E-1   1.760413870215416E-2   2.338539659976959E-1  -1.481631249189377E-1   2.343045175075531E-1  -1.482119262218475E-1  -4.026167094707489E-1   8.714341521263123E-1  
 2.620000000000000E7     9.555149674415588E-1  -2.349655143916607E-2   2.350577861070633E-1  -1.594864130020142E-1   2.349628806114197E-1  -1.586310863494873E-1  -3.845999240875244E-1   8.764525651931763E-1  
 2.650000000000000E7     9.514388442039490E-1  -6.266120821237564E-2   2.361774891614914E-1  -1.692546904087067E-1   2.362123727798462E-1  -1.698229312896729E-1  -3.692086637020111E-1   8.804653286933899E-1  
 2.680000000000000E7     9.450277090072632E-1  -1.025601997971535E-1   2.370556741952896E-1  -1.806690841913223E-1   2.372258901596069E-1  -1.813254207372665E-1  -3.529284000396729E-1   8.851658701896668E-1  
 2.710000000000000E7     9.370710253715515E-1  -1.440435349941254E-1   2.363340407609940E-1  -1.936283260583878E-1   2.359370589256287E-1  -1.932725161314011E-1  -3.356750905513763E-1   8.902997374534607E-1  
 2.740000000000000E7     9.276909232139587E-1  -1.837526112794876E-1   2.370465844869614E-1  -2.048314660787582E-1   2.367127537727356E-1  -2.058201581239700E-1  -3.175757825374603E-1   8.919272422790527E-1  
 2.770000000000000E7     9.169353842735291E-1  -2.225465774536133E-1   2.358680069446564E-1  -2.180013358592987E-1   2.358617484569550E-1  -2.188430577516556E-1  -2.996092736721039E-1   8.964625597000122E-1  
 2.800000000000000E7     9.045000076293945E-1  -2.611990571022034E-1   2.347538322210312E-1  -2.302539944648743E-1   2.357456237077713E-1  -2.304631322622299E-1  -2.813485562801361E-1   8.985387682914734E-1  
 2.830000000000000E7     8.877283334732056E-1  -3.009617030620575E-1   2.326550036668778E-1  -2.432433217763901E-1   2.323555201292038E-1  -2.444612085819244E-1  -2.652500569820404E-1   9.011782407760620E-1  
 2.860000000000000E7     8.704621195793152E-1  -3.397066891193390E-1   2.306310087442398E-1  -2.573836147785187E-1   2.299675941467285E-1  -2.585257887840271E-1  -2.437314391136169E-1   9.034467339515686E-1  
 2.890000000000000E7     8.513444066047669E-1  -3.765454888343811E-1   2.274619936943054E-1  -2.726003825664520E-1   2.273666113615036E-1  -2.721585631370544E-1  -2.259100377559662E-1   9.048662781715393E-1  
 2.920000000000000E7     8.303264379501343E-1  -4.137594699859619E-1   2.247526496648789E-1  -2.855896949768066E-1   2.233937531709671E-1  -2.861062288284302E-1  -2.077764123678207E-1   9.048185348510742E-1  
 2.950000000000000E7     8.081415891647339E-1  -4.489471614360809E-1   2.208333313465118E-1  -3.019891381263733E-1   2.199298441410065E-1  -3.015137016773224E-1  -1.867347061634064E-1   9.067046046257019E-1  
 2.980000000000000E7     7.821789979934692E-1  -4.845263361930847E-1   2.153454273939133E-1  -3.161418437957764E-1   2.156610637903214E-1  -3.171727061271668E-1  -1.675717681646347E-1   9.060172438621521E-1  
 3.010000000000000E7     7.559403181076050E-1  -5.188212394714356E-1   2.095146477222443E-1  -3.325808644294739E-1   2.103551626205444E-1  -3.321408629417419E-1  -1.476133465766907E-1   9.054135680198669E-1  
 3.040000000000000E7     7.262809276580811E-1  -5.522996187210083E-1   2.039963603019714E-1  -3.484292328357697E-1   2.033884227275848E-1  -3.492667973041534E-1  -1.267970055341721E-1   9.022198915481567E-1  
 3.070000000000000E7     6.945290565490723E-1  -5.823919773101807E-1   1.954689770936966E-1  -3.640064895153046E-1   1.949977129697800E-1  -3.638946712017059E-1  -1.062282398343086E-1   9.010854959487915E-1  
 3.100000000000000E7     6.608011722564697E-1  -6.125581264495850E-1   1.869316846132278E-1  -3.814263641834259E-1   1.863610744476318E-1  -3.804306387901306E-1  -8.492106199264526E-2   8.986737132072449E-1  
 3.130000000000000E7     6.272655725479126E-1  -6.409126520156860E-1   1.772382408380508E-1  -3.977301418781281E-1   1.778699159622192E-1  -3.975284993648529E-1  -6.456534564495087E-2   8.933688998222351E-1  
 3.160000000000000E7     5.896026492118835E-1  -6.666631698608398E-1   1.675501912832260E-1  -4.152182638645172E-1   1.672763079404831E-1  -4.151526689529419E-1  -4.395883530378342E-2   8.904392123222351E-1  
 3.190000000000000E7     5.504798293113709E-1  -6.906502842903137E-1   1.553805917501450E-1  -4.320622980594635E-1   1.552259325981140E-1  -4.311615228652954E-1  -2.153946645557880E-2   8.850290775299072E-1  
 3.220000000000000E7     5.109856128692627E-1  -7.149106860160828E-1   1.437108516693115E-1  -4.490914344787598E-1   1.426218897104263E-1  -4.482534825801849E-1  -1.973610371351242E-3   8.781279325485230E-1  
 3.250000000000000E7     4.687675535678864E-1  -7.336183190345764E-1   1.296212226152420E-1  -4.665447771549225E-1   1.286945790052414E-1  -4.665318727493286E-1   1.936627924442291E-2   8.728847503662109E-1  
 3.280000000000000E7     4.248436689376831E-1  -7.502728104591370E-1   1.145308315753937E-1  -4.844244420528412E-1   1.140346229076386E-1  -4.819864630699158E-1   4.104720056056976E-2   8.637909293174744E-1  
 3.310000000000000E7     3.810233175754547E-1  -7.661171555519104E-1   9.772932529449463E-2  -4.999545514583588E-1   9.654139727354050E-2  -5.001509189605713E-1   6.305167078971863E-2   8.543128371238709E-1  
 3.340000000000000E7     3.351429998874664E-1  -7.787358760833740E-1   7.795726507902145E-2  -5.178167819976807E-1   7.885705679655075E-2  -5.161940455436707E-1   8.348511159420013E-2   8.439188599586487E-1  
 3.370000000000000E7     2.883318066596985E-1  -7.879540324211121E-1   5.935546755790710E-2  -5.335000753402710E-1   5.974427610635757E-2  -5.338127613067627E-1   1.049291789531708E-1   8.334566354751587E-1  
 3.400000000000000E7     2.398595958948135E-1  -7.942205071449280E-1   3.745062276721001E-2  -5.496167540550232E-1   3.772425651550293E-2  -5.501326322555542E-1   1.248607635498047E-1   8.202714920043945E-1  
 3.430000000000000E7     1.916495412588120E-1  -7.975308895111084E-1   1.354403421282768E-2  -5.649580359458923E-1   1.492397021502256E-2  -5.646023154258728E-1   1.457450687885284E-1   8.075351715087891E-1  
 3.460000000000000E7     1.419300734996796E-1  -7.970736026763916E-1  -1.057218201458454E-2  -5.800805091857910E-1  -1.107627712190151E-2  -5.800505280494690E-1   1.655506789684296E-1   7.931140661239624E-1  
 3.490000000000000E7     9.387343376874924E-2  -7.929407954216003E-1  -3.886651620268822E-2  -5.930396914482117E-1  -3.615012764930725E-2  -5.926883220672607E-1   1.840993165969849E-1   7.773661613464356E-1  
 3.520000000000000E7     4.364526271820068E-2  -7.859730720520020E-1  -6.590285897254944E-2  -6.068825125694275E-1  -6.461155414581299E-2  -6.069478392601013E-1   2.049223035573959E-1   7.609600424766541E-1  
 3.550000000000000E7    -6.407331675291061E-3  -7.731112837791443E-1  -9.484650194644928E-2  -6.197627782821655E-1  -9.535495936870575E-2  -6.193093657493591E-1   2.215645164251328E-1   7.430548667907715E-1  
 3.580000000000000E7    -5.511558055877686E-2  -7.582431435585022E-1  -1.271618306636810E-1  -6.292499899864197E-1  -1.264206171035767E-1  -6.292269825935364E-1   2.390054315328598E-1   7.230638861656189E-1  
 3.610000000000000E7    -1.015160456299782E-1  -7.385344505310059E-1  -1.621613651514053E-1  -6.394845247268677E-1  -1.607734262943268E-1  -6.381224989891052E-1   2.569617927074432E-1   7.033106684684753E-1  
 3.640000000000000E7    -1.488124281167984E-1  -7.153848409652710E-1  -1.961296349763870E-1  -6.463071703910828E-1  -1.958783119916916E-1  -6.472992300987244E-1   2.705092728137970E-1   6.809982657432556E-1  
 3.670000000000000E7    -1.926220804452896E-1  -6.887052059173584E-1  -2.331209927797318E-1  -6.532253623008728E-1  -2.325131744146347E-1  -6.505636572837830E-1   2.846270799636841E-1   6.599243283271790E-1  
 3.700000000000000E7    -2.357075959444046E-1  -6.580191850662231E-1  -2.722176015377045E-1  -6.546466350555420E-1  -2.716500759124756E-1  -6.541968584060669E-1   2.978520691394806E-1   6.344519257545471E-1  
 3.730000000000000E7    -2.763488292694092E-1  -6.245659589767456E-1  -3.106034398078919E-1  -6.540153622627258E-1  -3.112773895263672E-1  -6.542588472366333E-1   3.063824176788330E-1   6.105829477310181E-1  
 3.760000000000000E7    -3.113569021224976E-1  -5.873967409133911E-1  -3.527736067771912E-1  -6.511525511741638E-1  -3.535972833633423E-1  -6.521072387695313E-1   3.168378472328186E-1   5.851061344146729E-1  
 3.790000000000000E7    -3.437964320182800E-1  -5.455016493797302E-1  -3.954233527183533E-1  -6.473762989044190E-1  -3.941361308097839E-1  -6.454067826271057E-1   3.251752257347107E-1   5.594971776008606E-1  
 3.820000000000000E7    -3.730857074260712E-1  -5.009889602661133E-1  -4.394556879997253E-1  -6.382409930229187E-1  -4.389406740665436E-1  -6.381241679191589E-1   3.288860917091370E-1   5.327616333961487E-1  
 3.850000000000000E7    -3.988145589828491E-1  -4.534380733966827E-1  -4.817073643207550E-1  -6.280382871627808E-1  -4.827470779418945E-1  -6.259577870368958E-1   3.349568843841553E-1   5.068236589431763E-1  
 3.880000000000000E7    -4.187477827072144E-1  -4.068985581398010E-1  -5.269339680671692E-1  -6.095589399337769E-1  -5.251002907752991E-1  -6.110411882400513E-1   3.379997909069061E-1   4.783037900924683E-1  
 3.910000000000000E7    -4.356483817100525E-1  -3.544987440109253E-1  -5.701832771301270E-1  -5.911029577255249E-1  -5.701286792755127E-1  -5.909687876701355E-1   3.369891643524170E-1   4.532691836357117E-1  
 3.940000000000000E7    -4.441979527473450E-1  -3.022743761539459E-1  -6.139949560165405E-1  -5.683829188346863E-1  -6.126639246940613E-1  -5.694231986999512E-1   3.341403603553772E-1   4.250359237194061E-1  
 3.970000000000000E7    -4.505163431167603E-1  -2.496339231729507E-1  -6.563912034034729E-1  -5.421674847602844E-1  -6.565663814544678E-1  -5.413694381713867E-1   3.268219530582428E-1   4.003954827785492E-1  
 4.000000000000000E7    -4.501202702522278E-1  -1.974115222692490E-1  -6.973192095756531E-1  -5.112949609756470E-1  -6.975516080856323E-1  -5.101642012596130E-1   3.216327428817749E-1   3.748460114002228E-1  
 4.030000000000000E7    -4.432644844055176E-1  -1.476468294858933E-1  -7.387176752090454E-1  -4.762693643569946E-1  -7.355139255523682E-1  -4.774848520755768E-1   3.144169747829437E-1   3.516243398189545E-1  
 4.060000000000000E7    -4.327768385410309E-1  -9.541378170251846E-2  -7.752223610877991E-1  -4.395059943199158E-1  -7.755010724067688E-1  -4.388199746608734E-1   3.008220493793488E-1   3.280601799488068E-1  
 4.090000000000000E7    -4.176059067249298E-1  -4.522803053259850E-2  -8.092029690742493E-1  -3.985913991928101E-1  -8.085293173789978E-1  -3.985138833522797E-1   2.904842197895050E-1   3.065757155418396E-1  
 4.120000000000000E7    -3.941818177700043E-1   2.775192260742188E-3  -8.417358398437500E-1  -3.551216125488281E-1  -8.428568840026856E-1  -3.531567752361298E-1   2.730148434638977E-1   2.869832515716553E-1  
 4.150000000000000E7    -3.681047856807709E-1   4.284212365746498E-2  -8.717042207717896E-1  -3.043842911720276E-1  -8.695793747901917E-1  -3.058041036128998E-1   2.573908865451813E-1   2.703825831413269E-1  
 4.180000000000000E7    -3.391176760196686E-1   8.348754048347473E-2  -8.957311511039734E-1  -2.552343606948853E-1  -8.949666023254395E-1  -2.566564977169037E-1   2.430055886507034E-1   2.535045444965363E-1  
 4.210000000000000E7    -3.053780496120453E-1   1.174895539879799E-1  -9.166784882545471E-1  -2.023583799600601E-1  -9.183759093284607E-1  -2.035871297121048E-1   2.255470305681229E-1   2.405841648578644E-1  
 4.240000000000000E7    -2.667428851127625E-1   1.488194763660431E-1  -9.342954754829407E-1  -1.491445004940033E-1  -9.345734119415283E-1  -1.491346955299377E-1   2.070892006158829E-1   2.303914427757263E-1  
 4.270000000000000E7    -2.293083518743515E-1   1.749949455261231E-1  -9.470691680908203E-1  -9.289714694023132E-2  -9.470807313919067E-1  -9.283711016178131E-2   1.896428167819977E-1   2.214882224798203E-1  
 4.300000000000000E7    -1.870889812707901E-1   1.964769363403320E-1  -9.564068317413330E-1  -3.623597323894501E-2  -9.559773802757263E-1  -3.644526749849320E-2   1.707357168197632E-1   2.153582721948624E-1  
 4.330000000000000E7    -1.438196301460266E-1   2.141530662775040E-1  -9.595595598220825E-1   2.054991573095322E-2  -9.616643190383911E-1   2.053097262978554E-2   1.521099209785461E-1   2.112251073122025E-1  
 4.360000000000000E7    -9.725128859281540E-2   2.223700582981110E-1  -9.616895318031311E-1   7.720921933650971E-2  -9.611689448356628E-1   7.758344709873200E-2   1.334379017353058E-1   2.083797305822372E-1  
 4.390000000000000E7    -5.585123226046562E-2   2.283944338560104E-1  -9.569185972213745E-1   1.339827775955200E-1  -9.554364085197449E-1   1.348771005868912E-1   1.192887723445892E-1   2.123072296380997E-1  
 4.420000000000000E7    -1.253050193190575E-2   2.317921966314316E-1  -9.480473399162293E-1   1.911591440439224E-1  -9.467539787292481E-1   1.903113871812820E-1   1.033623740077019E-1   2.134889513254166E-1  
 4.450000000000000E7     2.980568259954453E-2   2.267427444458008E-1  -9.360738992691040E-1   2.445393502712250E-1  -9.357486963272095E-1   2.460187673568726E-1   8.702715486288071E-2   2.170802950859070E-1  
 4.480000000000000E7     7.089611142873764E-2   2.195420414209366E-1  -9.198565483093262E-1   2.982771694660187E-1  -9.196180701255798E-1   2.988532781600952E-1   7.477458566427231E-2   2.233994156122208E-1  
 4.510000000000000E7     1.100879684090614E-1   2.064846158027649E-1  -9.009734988212585E-1   3.509259521961212E-1  -8.996817469596863E-1   3.502321541309357E-1   6.323684006929398E-2   2.315123230218887E-1  
 4.540000000000000E7     1.436865627765656E-1   1.938851773738861E-1  -8.763595819473267E-1   4.007183313369751E-1  -8.790661096572876E-1   4.007568955421448E-1   5.206885933876038E-2   2.387382388114929E-1  
 4.570000000000000E7     1.789673715829849E-1   1.752424240112305E-1  -8.519526124000549E-1   4.496924281120300E-1  -8.512219786643982E-1   4.485618174076080E-1   4.383608698844910E-2   2.509942352771759E-1  
 4.600000000000000E7     2.107844799757004E-1   1.501103043556213E-1  -8.240926861763001E-1   4.937547445297241E-1  -8.236988186836243E-1   4.931867122650147E-1   3.980289399623871E-2   2.613969445228577E-1  
 4.630000000000000E7     2.381818592548370E-1   1.272554248571396E-1  -7.929495573043823E-1   5.371071696281433E-1  -7.913348078727722E-1   5.373072624206543E-1   3.544371575117111E-2   2.704437673091888E-1  
 4.660000000000000E7     2.628936171531677E-1   1.041008681058884E-1  -7.586072683334351E-1   5.787920355796814E-1  -7.582517862319946E-1   5.777422785758972E-1   3.374341130256653E-2   2.821828424930573E-1  
 4.690000000000000E7     2.845519185066223E-1   7.365660369396210E-2  -7.242299318313599E-1   6.164411902427673E-1  -7.222033739089966E-1   6.168462634086609E-1   3.074616193771362E-2   2.960056066513062E-1  
 4.720000000000000E7     3.037165105342865E-1   4.518873244524002E-2  -6.858503222465515E-1   6.524990797042847E-1  -6.856138110160828E-1   6.521417498588562E-1   3.325403481721878E-2   3.046048283576965E-1  
 4.750000000000000E7     3.180038332939148E-1   1.610696315765381E-2  -6.466552615165710E-1   6.855154037475586E-1  -6.473096609115601E-1   6.860235333442688E-1   3.522969409823418E-2   3.187156319618225E-1  
 4.780000000000000E7     3.325246274471283E-1  -1.297941990196705E-2  -6.065676212310791E-1   7.163490056991577E-1  -6.071363091468811E-1   7.144522070884705E-1   4.289793223142624E-2   3.290674090385437E-1  
 4.810000000000000E7     3.401566743850708E-1  -4.639162495732307E-2  -5.664309859275818E-1   7.433958053588867E-1  -5.653104782104492E-1   7.424191236495972E-1   5.038193613290787E-2   3.408439159393311E-1  
 4.840000000000000E7     3.459077775478363E-1  -7.642250508069992E-2  -5.245651006698608E-1   7.685417532920837E-1  -5.230934619903565E-1   7.678350806236267E-1   6.010655313730240E-2   3.490429222583771E-1  
 4.870000000000000E7     3.490136563777924E-1  -1.055156886577606E-1  -4.803303778171539E-1   7.922934293746948E-1  -4.813437461853027E-1   7.904987335205078E-1   7.130353897809982E-2   3.583917021751404E-1  
 4.900000000000000E7     3.503188192844391E-1  -1.348100602626801E-1  -4.369999468326569E-1   8.114895820617676E-1  -4.368459880352020E-1   8.120301365852356E-1   8.243823051452637E-2   3.661265075206757E-1  
 4.930000000000000E7     3.499832153320313E-1  -1.650933325290680E-1  -3.924347460269928E-1   8.288504481315613E-1  -3.926307559013367E-1   8.290805220603943E-1   9.908994287252426E-2   3.734813630580902E-1  
 4.960000000000000E7     3.464246392250061E-1  -1.933099329471588E-1  -3.471226096153259E-1   8.453243374824524E-1  -3.471486568450928E-1   8.444249629974365E-1   1.113893985748291E-1   3.778296709060669E-1  
 4.990000000000000E7     3.420267403125763E-1  -2.191749811172485E-1  -3.017364442348480E-1   8.576046228408814E-1  -3.017024099826813E-1   8.568614125251770E-1   1.295107007026672E-1   3.834710121154785E-1  
 5.020000000000000E7     3.336654007434845E-1  -2.460445314645767E-1  -2.558868527412415E-1   8.680179715156555E-1  -2.578089237213135E-1   8.678405880928040E-1   1.503302454948425E-1   3.855815231800079E-1  
 5.050000000000000E7     3.247947990894318E-1  -2.704915404319763E-1  -2.103987634181976E-1   8.770105838775635E-1  -2.100332677364349E-1   8.767463564872742E-1   1.678167134523392E-1   3.860410451889038E-1  
 5.080000000000000E7     3.135920166969299E-1  -2.945211231708527E-1  -1.638750284910202E-1   8.828215599060059E-1  -1.646677553653717E-1   8.818801045417786E-1   1.908227652311325E-1   3.846152424812317E-1  
 5.110000000000000E7     3.027969896793366E-1  -3.165811002254486E-1  -1.174551695585251E-1   8.864322304725647E-1  -1.180897802114487E-1   8.864243030548096E-1   2.108179032802582E-1   3.815219402313232E-1  
 5.140000000000000E7     2.895527482032776E-1  -3.380750119686127E-1  -7.159966230392456E-2   8.886110186576843E-1  -7.041573524475098E-2   8.887766599655151E-1   2.342926859855652E-1   3.757202327251434E-1  
 5.170000000000000E7     2.782660722732544E-1  -3.568702638149262E-1  -2.374258637428284E-2   8.854964375495911E-1  -2.401319146156311E-2   8.869830965995789E-1   2.577577829360962E-1   3.681549727916718E-1  
 5.200000000000000E7     2.618155777454376E-1  -3.758754134178162E-1   2.245192043483257E-2   8.834478259086609E-1   2.021284028887749E-2   8.841743469238281E-1   2.835568785667419E-1   3.554017245769501E-1  
 5.230000000000000E7     2.468779087066650E-1  -3.909032046794891E-1   6.833775341510773E-2   8.790438771247864E-1   6.950868666172028E-2   8.792621493339539E-1   3.055937290191650E-1   3.444567918777466E-1  
 5.260000000000000E7     2.330376505851746E-1  -4.061310887336731E-1   1.159187555313110E-1   8.707421422004700E-1   1.150318607687950E-1   8.711006641387940E-1   3.308646678924561E-1   3.281123340129852E-1  
 5.290000000000000E7     2.159018814563751E-1  -4.227436780929565E-1   1.605004668235779E-1   8.605368137359619E-1   1.616864949464798E-1   8.605747818946838E-1   3.552542328834534E-1   3.095309138298035E-1  
 5.320000000000000E7     2.007643580436707E-1  -4.347392916679382E-1   2.068288773298264E-1   8.485250473022461E-1   2.079823464155197E-1   8.488607406616211E-1   3.787288069725037E-1   2.866041064262390E-1  
 5.350000000000000E7     1.851880848407745E-1  -4.451695680618286E-1   2.532111704349518E-1   8.333806991577148E-1   2.537214756011963E-1   8.327996134757996E-1   4.022509455680847E-1   2.638361752033234E-1  
 5.380000000000000E7     1.708826720714569E-1  -4.567579329013825E-1   2.986629903316498E-1   8.149312734603882E-1   2.994127571582794E-1   8.125990629196167E-1   4.270081222057343E-1   2.349973022937775E-1  
 5.410000000000000E7     1.554793864488602E-1  -4.682283997535706E-1   3.437334895133972E-1   7.950918674468994E-1   3.440265059471130E-1   7.935084104537964E-1   4.462760984897614E-1   2.029434293508530E-1  
 5.440000000000000E7     1.412955522537231E-1  -4.781251847743988E-1   3.880443572998047E-1   7.696171402931213E-1   3.878172636032105E-1   7.699131369590759E-1   4.669562876224518E-1   1.673050373792648E-1  
 5.470000000000000E7     1.261356472969055E-1  -4.894267022609711E-1   4.285719096660614E-1   7.431381344795227E-1   4.300962388515472E-1   7.425938844680786E-1   4.843727350234985E-1   1.279993206262589E-1  
 5.500000000000000E7     1.143532544374466E-1  -4.977287948131561E-1   4.728730916976929E-1   7.124707698822022E-1   4.716336727142334E-1   7.115312814712524E-1   5.005739927291870E-1   8.654519915580750E-2  
 5.530000000000000E7     9.992931783199310E-2  -5.068008303642273E-1   5.123761296272278E-1   6.800197362899780E-1   5.126324295997620E-1   6.789699792861939E-1   5.111347436904907E-1   3.995822370052338E-2  
 5.560000000000000E7     8.602908253669739E-2  -5.178268551826477E-1   5.512593388557434E-1   6.431097984313965E-1   5.499384999275208E-1   6.425344944000244E-1   5.211377143859863E-1  -8.901854045689106E-3  
 5.590000000000000E7     7.208539545536041E-2  -5.275683999061585E-1   5.866065621376038E-1   6.035957336425781E-1   5.868179202079773E-1   6.032532453536987E-1   5.240773558616638E-1  -6.050358712673187E-2  
 5.620000000000000E7     5.954804271459580E-2  -5.369139909744263E-1   6.209893226623535E-1   5.598507523536682E-1   6.197310090065002E-1   5.591238737106323E-1   5.262704491615295E-1  -1.140310540795326E-1  
 5.650000000000000E7     4.443323984742165E-2  -5.477591753005981E-1   6.505129337310791E-1   5.160464048385620E-1   6.498701572418213E-1   5.138881206512451E-1   5.196961164474487E-1  -1.731601953506470E-1  
 5.680000000000000E7     3.100550919771195E-2  -5.604296922683716E-1   6.778731942176819E-1   4.665025770664215E-1   6.776190996170044E-1   4.664553105831146E-1   5.063092708587647E-1  -2.311386317014694E-1  
 5.710000000000000E7     1.470080018043518E-2  -5.727800726890564E-1   7.005160450935364E-1   4.147608578205109E-1   7.012872695922852E-1   4.148553609848023E-1   4.871746599674225E-1  -2.904728949069977E-1  
 5.740000000000000E7    -6.287246942520142E-4  -5.861126184463501E-1   7.202370166778565E-1   3.607620000839233E-1   7.188471555709839E-1   3.615254461765289E-1   4.643457829952240E-1  -3.511167764663696E-1  
 5.770000000000000E7    -1.645501703023911E-2  -5.994737744331360E-1   7.329764962196350E-1   3.055434226989746E-1   7.320500612258911E-1   3.046469688415527E-1   4.326102435588837E-1  -4.120385646820068E-1  
 5.800000000000000E7    -3.662933409214020E-2  -6.150341629981995E-1   7.423487901687622E-1   2.483911216259003E-1   7.420098185539246E-1   2.464164197444916E-1   3.924759328365326E-1  -4.668996334075928E-1  
 5.830000000000000E7    -5.633035302162170E-2  -6.281681656837463E-1   7.456010580062866E-1   1.908745765686035E-1   7.460812330245972E-1   1.899927109479904E-1   3.453596830368042E-1  -5.224946737289429E-1  
 5.860000000000000E7    -7.954652607440949E-2  -6.438819766044617E-1   7.438845634460449E-1   1.339795291423798E-1   7.443667054176331E-1   1.340368390083313E-1   2.924805283546448E-1  -5.738339424133301E-1  
 5.890000000000000E7    -1.047975495457649E-1  -6.586247682571411E-1   7.353596091270447E-1   7.616741955280304E-2   7.355043888092041E-1   7.762091606855393E-2   2.308444976806641E-1  -6.211911439895630E-1  
 5.920000000000000E7    -1.331536173820496E-1  -6.722498536109924E-1   7.227231264114380E-1   2.174662053585053E-2   7.226642370223999E-1   1.967328786849976E-2   1.666288673877716E-1  -6.591655015945435E-1  
 5.950000000000000E7    -1.627364456653595E-1  -6.839150190353394E-1   7.034836411476135E-1  -3.119264543056488E-2   7.034185528755188E-1  -3.284630179405212E-2   9.412208944559097E-2  -6.939060688018799E-1  
 5.980000000000000E7    -1.966937184333801E-1  -6.957367062568665E-1   6.810175776481628E-1  -8.121680468320847E-2   6.793790459632874E-1  -8.198496699333191E-2   1.918154209852219E-2  -7.193999290466309E-1  
 6.010000000000000E7    -2.296132147312164E-1  -7.051085829734802E-1   6.510627865791321E-1  -1.275448203086853E-1   6.495763063430786E-1  -1.277360618114471E-1  -5.969367921352387E-2  -7.365093827247620E-1  
 6.040000000000000E7    -2.679918408393860E-1  -7.126165032386780E-1   6.180385351181030E-1  -1.707438826560974E-1   6.193478107452393E-1  -1.705563962459564E-1  -1.395888328552246E-1  -7.436577081680298E-1  
 6.070000000000000E7    -3.060216009616852E-1  -7.179344892501831E-1   5.836836099624634E-1  -2.072624117136002E-1   5.832570195198059E-1  -2.065423727035523E-1  -2.200718969106674E-1  -7.437928915023804E-1  
 6.100000000000000E7    -3.470256924629211E-1  -7.171587944030762E-1   5.472002625465393E-1  -2.390919625759125E-1   5.454680919647217E-1  -2.397935986518860E-1  -2.989050447940826E-1  -7.354012131690979E-1  
 6.130000000000000E7    -3.888635635375977E-1  -7.164435982704163E-1   5.064607262611389E-1  -2.676385045051575E-1   5.067188739776611E-1  -2.669379115104675E-1  -3.765817284584045E-1  -7.183752655982971E-1  
 6.160000000000000E7    -4.304652214050293E-1  -7.102363109588623E-1   4.662546813488007E-1  -2.905385196208954E-1   4.661818444728851E-1  -2.899139225482941E-1  -4.508024752140045E-1  -6.943012475967407E-1  
 6.190000000000000E7    -4.732387661933899E-1  -7.013124227523804E-1   4.246962368488312E-1  -3.076299130916596E-1   4.241633415222168E-1  -3.084213733673096E-1  -5.216013193130493E-1  -6.626919507980347E-1  
 6.220000000000000E7    -5.150513648986816E-1  -6.886013150215149E-1   3.845734000205994E-1  -3.205315768718720E-1   3.848982155323029E-1  -3.202337920665741E-1  -5.863849520683289E-1  -6.256668567657471E-1  
 6.250000000000000E7    -5.580312609672546E-1  -6.727777123451233E-1   3.455683290958405E-1  -3.284793198108673E-1   3.451088964939117E-1  -3.285427391529083E-1  -6.465348601341248E-1  -5.840762853622437E-1  
 6.280000000000000E7    -5.987717509269714E-1  -6.536486744880676E-1   3.068345189094544E-1  -3.327456712722778E-1   3.073559999465942E-1  -3.318316340446472E-1  -7.002362608909607E-1  -5.374855399131775E-1  
 6.310000000000000E7    -6.397340893745422E-1  -6.302567720413208E-1   2.715723812580109E-1  -3.344690203666687E-1   2.712540030479431E-1  -3.338616192340851E-1  -7.514742016792297E-1  -4.880874156951904E-1  
 6.340000000000000E7    -6.768453717231751E-1  -6.049567461013794E-1   2.372677922248840E-1  -3.323532342910767E-1   2.371615171432495E-1  -3.319009542465210E-1  -7.945986390113831E-1  -4.363151788711548E-1  
 6.370000000000000E7    -7.130407094955444E-1  -5.768429040908814E-1   2.056635618209839E-1  -3.273328840732575E-1   2.053364366292954E-1  -3.278756141662598E-1  -8.315181732177734E-1  -3.818413615226746E-1  
 6.400000000000000E7    -7.468516826629639E-1  -5.460338592529297E-1   1.765090227127075E-1  -3.207531571388245E-1   1.750452518463135E-1  -3.205637931823731E-1  -8.633899092674255E-1  -3.276829719543457E-1  
 6.430000000000000E7    -7.800530195236206E-1  -5.133925080299377E-1   1.483895927667618E-1  -3.121022284030914E-1   1.479168236255646E-1  -3.123131394386292E-1  -8.920927643775940E-1  -2.716657519340515E-1  
 6.460000000000000E7    -8.094670176506043E-1  -4.799243211746216E-1   1.233761012554169E-1  -3.023564219474793E-1   1.234959959983826E-1  -3.016610145568848E-1  -9.130052328109741E-1  -2.160539627075195E-1  
 6.490000000000000E7    -8.365799188613892E-1  -4.444188475608826E-1   1.010054200887680E-1  -2.907296121120453E-1   1.018034964799881E-1  -2.903222143650055E-1  -9.300581216812134E-1  -1.625110805034638E-1  
 6.520000000000000E7    -8.613196611404419E-1  -4.066349565982819E-1   8.091275393962860E-2  -2.781812250614166E-1   8.064649999141693E-2  -2.783071100711823E-1  -9.444951415061951E-1  -1.079738736152649E-1  
 6.550000000000000E7    -8.835451602935791E-1  -3.685370385646820E-1   6.304937601089478E-2  -2.657488882541657E-1   6.285664439201355E-2  -2.658820450305939E-1  -9.543123245239258E-1  -5.531169474124908E-2  
 6.580000000000000E7    -9.040606617927551E-1  -3.281919956207275E-1   4.666315019130707E-2  -2.532415688037872E-1   4.652397707104683E-2  -2.528431713581085E-1  -9.605337381362915E-1  -4.412397742271423E-3  
 6.610000000000000E7    -9.212913513183594E-1  -2.868259549140930E-1   3.221142664551735E-2  -2.398484051227570E-1   3.108515590429306E-2  -2.395286858081818E-1  -9.643785953521729E-1   4.631343483924866E-2  
 6.640000000000000E7    -9.378935098648071E-1  -2.476378083229065E-1   1.940761506557465E-2  -2.267660945653915E-1   1.995418965816498E-2  -2.266738265752792E-1  -9.641565084457398E-1   9.486885368824005E-2  
 6.670000000000000E7    -9.505113959312439E-1  -2.055377066135407E-1   8.421838283538818E-3  -2.136925607919693E-1   8.760422468185425E-3  -2.132779508829117E-1  -9.612262248992920E-1   1.400978118181229E-1  
 6.700000000000000E7    -9.612672924995422E-1  -1.633039265871048E-1  -1.124091446399689E-3  -2.004149705171585E-1  -1.320000737905502E-3  -2.000346332788467E-1  -9.559310674667358E-1   1.854122281074524E-1  
 6.730000000000000E7    -9.702160954475403E-1  -1.214324682950974E-1  -9.493600577116013E-3  -1.875391304492950E-1  -9.851314127445221E-3  -1.876876503229141E-1  -9.498890042304993E-1   2.276937663555145E-1  
 6.760000000000000E7    -9.763621091842651E-1  -8.022947609424591E-2  -1.635857485234737E-2  -1.760699599981308E-1  -1.637377031147480E-2  -1.752504408359528E-1  -9.407327771186829E-1   2.695786058902741E-1  
 6.790000000000000E7    -9.811446666717529E-1  -3.772237896919251E-2  -2.216810360550880E-2  -1.635915935039520E-1  -2.252651937305927E-2  -1.637056767940521E-1  -9.313539862632752E-1   3.087785542011261E-1  
 6.820000000000000E7    -9.832443594932556E-1   4.218429327011108E-3  -2.749212086200714E-2  -1.523000597953796E-1  -2.713871374726296E-2  -1.518266648054123E-1  -9.191096425056458E-1   3.463362753391266E-1  
 6.850000000000000E7    -9.848620891571045E-1   4.584206640720367E-2  -3.117305412888527E-2  -1.412641257047653E-1  -3.112062811851502E-2  -1.410801261663437E-1  -9.062913060188294E-1   3.827183246612549E-1  
 6.880000000000000E7    -9.828779697418213E-1   8.690555393695831E-2  -3.446828201413155E-2  -1.307577490806580E-1  -3.448749706149101E-2  -1.303360015153885E-1  -8.920750021934509E-1   4.172670245170593E-1  
 6.910000000000000E7    -9.791236519813538E-1   1.276806741952896E-1  -3.684139251708984E-2  -1.209989786148071E-1  -3.677696734666824E-2  -1.206434667110443E-1  -8.783112764358521E-1   4.507114589214325E-1  
 6.940000000000000E7    -9.747064709663391E-1   1.678162217140198E-1  -3.838529810309410E-2  -1.114525273442268E-1  -3.862042725086212E-2  -1.112601831555367E-1  -8.628425598144531E-1   4.809154570102692E-1  
 6.970000000000000E7    -9.673682451248169E-1   2.084949016571045E-1  -3.982414305210114E-2  -1.023098602890968E-1  -4.006338864564896E-2  -1.022719889879227E-1  -8.467608094215393E-1   5.110239386558533E-1  
 7.000000000000000E7    -9.595839381217957E-1   2.478255182504654E-1  -4.063380882143974E-2  -9.384952485561371E-2  -4.075296968221664E-2  -9.364408254623413E-2  -8.300902247428894E-1   5.400693416595459E-1  
