#  HZ   S   RI   R     50.00 
! Rohde & Schwarz ZVT8 8Ports - Version 4.11 - 1300.0000k08 SN: 100242
! Date: 2026-07-31 15:16:23
! Measurements: S11 S21 S12 S22 
! 
 1.000000000000000E7    -4.029575884342194E-1   9.111177921295166E-1   5.109987035393715E-2   5.189619213342667E-2   5.090956389904022E-2   5.180703103542328E-2  -9.198577404022217E-1   3.817111551761627E-1  
 1.030000000000000E7    -3.702793717384338E-1   9.233621358871460E-1   5.410327389836311E-2   5.216577276587486E-2   5.392466112971306E-2   5.237768217921257E-2  -9.144362211227417E-1   3.938933908939362E-1  
 1.060000000000000E7    -3.344973623752594E-1   9.369506835937500E-1   5.760934576392174E-2   5.295108258724213E-2   5.756160616874695E-2   5.276056379079819E-2  -9.109459519386292E-1   4.050887525081635E-1  
 1.090000000000000E7    -3.020203411579132E-1   9.472712278366089E-1   6.084541603922844E-2   5.332403630018234E-2   6.068917736411095E-2   5.339246243238449E-2  -9.051923155784607E-1   4.165400862693787E-1  
 1.120000000000000E7    -2.663082480430603E-1   9.565861821174622E-1   6.457061320543289E-2   5.396109819412231E-2   6.402138620615006E-2   5.372920259833336E-2  -8.999873995780945E-1   4.283649325370789E-1  
 1.150000000000000E7    -2.309938222169876E-1   9.664917588233948E-1   6.771461665630341E-2   5.390319973230362E-2   6.768538057804108E-2   5.389476567506790E-2  -8.926417827606201E-1   4.373923838138580E-1  
 1.180000000000000E7    -1.956901401281357E-1   9.721776843070984E-1   7.121748477220535E-2   5.405704304575920E-2   7.109520584344864E-2   5.412039160728455E-2  -8.886900544166565E-1   4.475264847278595E-1  
 1.210000000000000E7    -1.614183485507965E-1   9.790104031562805E-1   7.523549348115921E-2   5.430191755294800E-2   7.494195550680161E-2   5.415128916501999E-2  -8.816472887992859E-1   4.595196843147278E-1  
 1.240000000000000E7    -1.250813901424408E-1   9.831086993217468E-1   7.877841591835022E-2   5.429095029830933E-2   7.891014218330383E-2   5.381736159324646E-2  -8.752709627151489E-1   4.690671861171722E-1  
 1.270000000000000E7    -8.907373249530792E-2   9.865559339523315E-1   8.321999013423920E-2   5.371372029185295E-2   8.283437788486481E-2   5.354616418480873E-2  -8.687068223953247E-1   4.823935925960541E-1  
 1.300000000000000E7    -5.322723090648651E-2   9.896644353866577E-1   8.706542104482651E-2   5.333381891250610E-2   8.695309609174728E-2   5.341564118862152E-2  -8.620595932006836E-1   4.925960600376129E-1  
 1.330000000000000E7    -1.662397012114525E-2   9.910515546798706E-1   9.142477810382843E-2   5.290658399462700E-2   9.133290499448776E-2   5.264959484338760E-2  -8.551132082939148E-1   5.043464899063110E-1  
 1.360000000000000E7     2.090517058968544E-2   9.907355308532715E-1   9.557924419641495E-2   5.242549255490303E-2   9.581147879362106E-2   5.178228765726090E-2  -8.479249477386475E-1   5.132505297660828E-1  
 1.390000000000000E7     5.643198639154434E-2   9.882801175117493E-1   1.001515462994576E-1   5.139185488224030E-2   9.969313442707062E-2   5.135035514831543E-2  -8.412958979606628E-1   5.241626501083374E-1  
 1.420000000000000E7     9.445098787546158E-2   9.857975244522095E-1   1.043331921100617E-1   5.058629065752029E-2   1.045493185520172E-1   5.054422840476036E-2  -8.354635238647461E-1   5.342484712600708E-1  
 1.450000000000000E7     1.308898627758026E-1   9.798888564109802E-1   1.092155873775482E-1   4.912717640399933E-2   1.091155186295509E-1   4.919571802020073E-2  -8.256120681762695E-1   5.462636351585388E-1  
 1.480000000000000E7     1.689841151237488E-1   9.739163517951965E-1   1.138211041688919E-1   4.768663644790649E-2   1.138251423835754E-1   4.815992340445519E-2  -8.190137743949890E-1   5.559983849525452E-1  
 1.510000000000000E7     2.052111774682999E-1   9.661509394645691E-1   1.187163218855858E-1   4.609245806932449E-2   1.185954436659813E-1   4.620167613029480E-2  -8.090176582336426E-1   5.670791864395142E-1  
 1.540000000000000E7     2.413100749254227E-1   9.573703408241272E-1   1.234663650393486E-1   4.535879567265511E-2   1.234633028507233E-1   4.467029497027397E-2  -8.037789463996887E-1   5.762669444084168E-1  
 1.570000000000000E7     2.786161005496979E-1   9.480232000350952E-1   1.286605298519135E-1   4.301273077726364E-2   1.287458091974258E-1   4.294114187359810E-2  -7.944160699844360E-1   5.880590677261353E-1  
 1.600000000000000E7     3.160599470138550E-1   9.346985816955566E-1   1.335506588220596E-1   4.063609614968300E-2   1.341302543878555E-1   4.034911468625069E-2  -7.864272594451904E-1   5.963193774223328E-1  
 1.630000000000000E7     3.515868782997131E-1   9.211541414260864E-1   1.395259946584702E-1   3.803135082125664E-2   1.391374617815018E-1   3.833475708961487E-2  -7.774991989135742E-1   6.082403063774109E-1  
 1.660000000000000E7     3.877269923686981E-1   9.046805500984192E-1   1.448801755905151E-1   3.526049107313156E-2   1.446312069892883E-1   3.477824851870537E-2  -7.669209837913513E-1   6.186400055885315E-1  
 1.690000000000000E7     4.227047562599182E-1   8.880678415298462E-1   1.505704820156097E-1   3.298727050423622E-2   1.502874791622162E-1   3.263476118445396E-2  -7.585465908050537E-1   6.277518272399902E-1  
 1.720000000000000E7     4.601483941078186E-1   8.696296811103821E-1   1.556748151779175E-1   2.879896573722363E-2   1.557279974222183E-1   2.938895300030708E-2  -7.489941120147705E-1   6.372396349906921E-1  
 1.750000000000000E7     4.904890060424805E-1   8.524417877197266E-1   1.621618270874023E-1   2.678499370813370E-2   1.621332466602325E-1   2.630794420838356E-2  -7.401081323623657E-1   6.488798856735230E-1  
 1.780000000000000E7     5.273317694664002E-1   8.271875381469727E-1   1.671050935983658E-1   2.226345613598824E-2   1.674916148185730E-1   2.264489978551865E-2  -7.292724251747131E-1   6.558940410614014E-1  
 1.810000000000000E7     5.595945715904236E-1   8.053050041198731E-1   1.743836104869843E-1   1.848356425762177E-2   1.734472364187241E-1   1.799852773547173E-2  -7.195423245429993E-1   6.691306829452515E-1  
 1.840000000000000E7     5.942694544792175E-1   7.802963256835938E-1   1.805922538042069E-1   1.294261030852795E-2   1.797951757907867E-1   1.322727277874947E-2  -7.080300450325012E-1   6.778323650360107E-1  
 1.870000000000000E7     6.242389678955078E-1   7.542324662208557E-1   1.866860389709473E-1   8.906826376914978E-3   1.860907524824143E-1   8.446509018540382E-3  -6.970486044883728E-1   6.872815489768982E-1  
 1.900000000000000E7     6.552624702453613E-1   7.262430191040039E-1   1.929747015237808E-1   3.732556477189064E-3   1.927468627691269E-1   3.144787624478340E-3  -6.852178573608398E-1   6.964623928070068E-1  
 1.930000000000000E7     6.859780550003052E-1   6.947588920593262E-1   1.992103457450867E-1  -2.912567928433418E-3   1.995361149311066E-1  -2.086007967591286E-3  -6.741122007369995E-1   7.068392634391785E-1  
 1.960000000000000E7     7.155181169509888E-1   6.621536612510681E-1   2.056338787078857E-1  -8.969582617282867E-3   2.058777362108231E-1  -8.297469466924667E-3  -6.641218066215515E-1   7.149165868759155E-1  
 1.990000000000000E7     7.415258288383484E-1   6.290661692619324E-1   2.123063653707504E-1  -1.557137444615364E-2   2.127404808998108E-1  -1.557963155210018E-2  -6.497168540954590E-1   7.260660529136658E-1  
 2.020000000000000E7     7.684851288795471E-1   5.935289859771729E-1   2.196364998817444E-1  -2.237414382398129E-2   2.189117372035980E-1  -2.232616022229195E-2  -6.380733847618103E-1   7.319728732109070E-1  
 2.050000000000000E7     7.953974604606628E-1   5.561462640762329E-1   2.262032181024551E-1  -2.997243218123913E-2   2.249616384506226E-1  -3.040597029030323E-2  -6.254480481147766E-1   7.414293289184570E-1  
 2.080000000000000E7     8.180720210075378E-1   5.157681107521057E-1   2.334018945693970E-1  -3.871920332312584E-2   2.335005849599838E-1  -3.852166607975960E-2  -6.126385331153870E-1   7.512606978416443E-1  
 2.110000000000000E7     8.412652611732483E-1   4.747702181339264E-1   2.406325936317444E-1  -4.867486283183098E-2   2.406711429357529E-1  -4.842253401875496E-2  -5.981953740119934E-1   7.597604393959045E-1  
 2.140000000000000E7     8.614066243171692E-1   4.321526885032654E-1   2.478103190660477E-1  -5.889876931905747E-2   2.468292266130447E-1  -5.791946128010750E-2  -5.839426517486572E-1   7.674154043197632E-1  
 2.170000000000000E7     8.788626194000244E-1   3.888959288597107E-1   2.549185454845429E-1  -6.903138756752014E-2   2.546308338642120E-1  -6.815280020236969E-2  -5.699965357780457E-1   7.751383185386658E-1  
 2.200000000000000E7     8.962174057960510E-1   3.397018313407898E-1   2.614558339118958E-1  -8.091621100902557E-2   2.616717517375946E-1  -8.045028150081635E-2  -5.534936189651489E-1   7.825762629508972E-1  
 2.230000000000000E7     9.088537693023682E-1   2.915597558021545E-1   2.685682177543640E-1  -9.342109411954880E-2   2.681819200515747E-1  -9.287263453006744E-2  -5.379210114479065E-1   7.892721891403198E-1  
 2.260000000000000E7     9.206089377403259E-1   2.404458224773407E-1   2.748263478279114E-1  -1.070705652236939E-1   2.766338586807251E-1  -1.068945676088333E-1  -5.224617719650269E-1   7.958940863609314E-1  
 2.290000000000000E7     9.291775226593018E-1   1.874726712703705E-1   2.816619277000427E-1  -1.216959804296494E-1   2.827176153659821E-1  -1.211393401026726E-1  -5.044978260993958E-1   8.016710877418518E-1  
 2.320000000000000E7     9.336394071578980E-1   1.334637999534607E-1   2.888619303703308E-1  -1.383960843086243E-1   2.881713807582855E-1  -1.384094655513763E-1  -4.881483614444733E-1   8.089066147804260E-1  
 2.350000000000000E7     9.347913861274719E-1   7.555919140577316E-2   2.947956025600433E-1  -1.565356403589249E-1   2.943832874298096E-1  -1.555492281913757E-1  -4.704470634460449E-1   8.139415383338928E-1  
 2.380000000000000E7     9.327453970909119E-1   1.750031858682632E-2   3.002092838287354E-1  -1.745682805776596E-1   3.005374968051910E-1  -1.743170619010925E-1  -4.523869752883911E-1   8.182672262191773E-1  
 2.410000000000000E7     9.263930320739746E-1  -4.339119791984558E-2   3.048852682113648E-1  -1.958741843700409E-1   3.046125769615173E-1  -1.952623873949051E-1  -4.331688284873962E-1   8.218678832054138E-1  
 2.440000000000000E7     9.141799211502075E-1  -1.045065671205521E-1   3.095104396343231E-1  -2.187816351652145E-1   3.094350397586823E-1  -2.190248370170593E-1  -4.147527217864990E-1   8.246383070945740E-1  
 2.470000000000000E7     8.972129821777344E-1  -1.676504015922546E-1   3.124043643474579E-1  -2.437144517898560E-1   3.125060200691223E-1  -2.415858954191208E-1  -3.930089175701141E-1   8.251100778579712E-1  
 2.500000000000000E7     8.749019503593445E-1  -2.330811917781830E-1   3.135819435119629E-1  -2.694329619407654E-1   3.137325346469879E-1  -2.699973881244659E-1  -3.724381327629089E-1   8.272286653518677E-1  
 2.530000000000000E7     8.449715971946716E-1  -2.979074120521545E-1   3.147042691707611E-1  -2.976168096065521E-1   3.147841989994049E-1  -2.975327968597412E-1  -3.511948585510254E-1   8.256040215492249E-1  
 2.560000000000000E7     8.082057237625122E-1  -3.625381886959076E-1   3.126966953277588E-1  -3.282062709331513E-1   3.137227594852448E-1  -3.289708197116852E-1  -3.299175500869751E-1   8.232676386833191E-1  
 2.590000000000000E7     7.618755698204041E-1  -4.254640638828278E-1   3.079160451889038E-1  -3.629185557365418E-1   3.085914850234985E-1  -3.629595339298248E-1  -3.081839978694916E-1   8.213464021682739E-1  
 2.620000000000000E7     7.065951228141785E-1  -4.882349669933319E-1   3.002685308456421E-1  -3.997557163238525E-1   3.005059361457825E-1  -3.984490633010864E-1  -2.843011617660523E-1   8.152837753295898E-1  
 2.650000000000000E7     6.420156955718994E-1  -5.480626225471497E-1   2.897062301635742E-1  -4.367358386516571E-1   2.895385622978210E-1  -4.378394782543182E-1  -2.629813849925995E-1   8.064432144165039E-1  
 2.680000000000000E7     5.657049417495728E-1  -6.022012233734131E-1   2.740385234355927E-1  -4.778415560722351E-1   2.732131183147430E-1  -4.787460267543793E-1  -2.414394617080689E-1   7.952104806900024E-1  
 2.710000000000000E7     4.783964157104492E-1  -6.484220027923584E-1   2.499834001064301E-1  -5.205975174903870E-1   2.499321103096008E-1  -5.198687314987183E-1  -2.199013680219650E-1   7.838292121887207E-1  
 2.740000000000000E7     3.786386251449585E-1  -6.873515248298645E-1   2.233773171901703E-1  -5.640946626663208E-1   2.210787981748581E-1  -5.648798942565918E-1  -2.003606259822846E-1   7.646540403366089E-1  
 2.770000000000000E7     2.704791426658630E-1  -7.106729149818420E-1   1.853952258825302E-1  -6.078659892082214E-1   1.841826587915421E-1  -6.084616780281067E-1  -1.826516091823578E-1   7.461223006248474E-1  
 2.800000000000000E7     1.509795039892197E-1  -7.208014726638794E-1   1.398906409740448E-1  -6.502786278724670E-1   1.406506001949310E-1  -6.514890193939209E-1  -1.665523648262024E-1   7.212681174278259E-1  
 2.830000000000000E7     2.391413226723671E-2  -7.078445553779602E-1   8.520509302616119E-2  -6.877354979515076E-1   8.407123386859894E-2  -6.878606081008911E-1  -1.573977470397949E-1   6.986322402954102E-1  
 2.860000000000000E7    -1.065673232078552E-1  -6.691890954971314E-1   2.008835412561894E-2  -7.205270528793335E-1   1.737684942781925E-2  -7.211107015609741E-1  -1.487905830144882E-1   6.701511144638062E-1  
 2.890000000000000E7    -2.321454882621765E-1  -6.048820614814758E-1  -5.574019253253937E-2  -7.448838353157044E-1  -5.571182817220688E-2  -7.441184520721436E-1  -1.489130556583405E-1   6.419206857681274E-1  
 2.920000000000000E7    -3.523263037204742E-1  -5.138055682182312E-1  -1.355025172233582E-1  -7.567544579505920E-1  -1.373059004545212E-1  -7.553777098655701E-1  -1.553887426853180E-1   6.131966710090637E-1  
 2.950000000000000E7    -4.509590864181519E-1  -3.935137689113617E-1  -2.249926626682282E-1  -7.543039321899414E-1  -2.248463332653046E-1  -7.531775236129761E-1  -1.677660793066025E-1   5.873823165893555E-1  
 2.980000000000000E7    -5.270294547080994E-1  -2.527700066566467E-1  -3.117810189723969E-1  -7.336441874504089E-1  -3.137087225914002E-1  -7.339122891426086E-1  -1.882316768169403E-1   5.652807354927063E-1  
 3.010000000000000E7    -5.694473385810852E-1  -9.611009061336517E-2  -3.982603847980499E-1  -6.971230506896973E-1  -3.984307646751404E-1  -6.978484988212585E-1  -2.128206491470337E-1   5.486826300621033E-1  
 3.040000000000000E7    -5.748043656349182E-1   6.832229346036911E-2  -4.727907478809357E-1  -6.453236341476440E-1  -4.745630621910095E-1  -6.437898278236389E-1  -2.412990927696228E-1   5.411387085914612E-1  
 3.070000000000000E7    -5.476870536804199E-1   2.255540937185288E-1  -5.395012497901917E-1  -5.809755921363831E-1  -5.377497673034668E-1  -5.801506638526917E-1  -2.676754295825958E-1   5.402946472167969E-1  
 3.100000000000000E7    -4.855213463306427E-1   3.706907331943512E-1  -5.897334218025208E-1  -5.081686973571777E-1  -5.895635485649109E-1  -5.075927972793579E-1  -2.949730753898621E-1   5.467315316200256E-1  
 3.130000000000000E7    -3.992912173271179E-1   4.948076903820038E-1  -6.245841383934021E-1  -4.282309412956238E-1  -6.233195662498474E-1  -4.289101362228394E-1  -3.210740685462952E-1   5.611299872398377E-1  
 3.160000000000000E7    -2.930306792259216E-1   5.955973267555237E-1  -6.448659896850586E-1  -3.522135019302368E-1  -6.438159346580505E-1  -3.523029685020447E-1  -3.410471379756928E-1   5.812881588935852E-1  
 3.190000000000000E7    -1.773568540811539E-1   6.701125502586365E-1  -6.515682339668274E-1  -2.762849628925324E-1  -6.506860852241516E-1  -2.759704291820526E-1  -3.565686047077179E-1   6.035776138305664E-1  
 3.220000000000000E7    -5.655529350042343E-2   7.210173606872559E-1  -6.465643048286438E-1  -2.066537439823151E-1  -6.465486288070679E-1  -2.061073631048203E-1  -3.675628304481506E-1   6.289445757865906E-1  
 3.250000000000000E7     6.325663626194000E-2   7.471687197685242E-1  -6.341636776924133E-1  -1.433905959129334E-1  -6.344239711761475E-1  -1.431423872709274E-1  -3.726060688495636E-1   6.579402089118958E-1  
 3.280000000000000E7     1.793816834688187E-1   7.525886297225952E-1  -6.152875423431397E-1  -8.687069267034531E-2  -6.145680546760559E-1  -8.474437147378922E-2  -3.740037679672241E-1   6.848555803298950E-1  
 3.310000000000000E7     2.861047983169556E-1   7.447661757469177E-1  -5.901848077774048E-1  -3.590387105941773E-2  -5.898293852806091E-1  -3.547026962041855E-2  -3.687710464000702E-1   7.127227783203125E-1  
 3.340000000000000E7     3.844432234764099E-1   7.223294377326965E-1  -5.645417571067810E-1   7.607538253068924E-3  -5.631902217864990E-1   7.545223459601402E-3  -3.610489070415497E-1   7.378991246223450E-1  
 3.370000000000000E7     4.739878475666046E-1   6.882994174957275E-1  -5.341561436653137E-1   4.382287710905075E-2  -5.338435769081116E-1   4.372106865048409E-2  -3.516874015331268E-1   7.638950347900391E-1  
 3.400000000000000E7     5.534434914588928E-1   6.478006839752197E-1  -5.053714513778687E-1   7.481534034013748E-2  -5.051267147064209E-1   7.424360513687134E-2  -3.375026583671570E-1   7.860037088394165E-1  
 3.430000000000000E7     6.242460012435913E-1   6.011013388633728E-1  -4.760560393333435E-1   1.016294211149216E-1  -4.757111072540283E-1   1.013906896114349E-1  -3.226962983608246E-1   8.071094155311585E-1  
 3.460000000000000E7     6.868488788604736E-1   5.496578812599182E-1  -4.474076926708221E-1   1.233945935964584E-1  -4.477778971195221E-1   1.224102303385735E-1  -3.050012290477753E-1   8.281109929084778E-1  
 3.490000000000000E7     7.402132153511047E-1   4.951880872249603E-1  -4.187956452369690E-1   1.429439932107925E-1  -4.188397228717804E-1   1.416034847497940E-1  -2.875897884368897E-1   8.438130617141724E-1  
 3.520000000000000E7     7.871443033218384E-1   4.391831159591675E-1  -3.918545842170715E-1   1.566134542226791E-1  -3.923494219779968E-1   1.562837064266205E-1  -2.668507397174835E-1   8.630346655845642E-1  
 3.550000000000000E7     8.257776498794556E-1   3.797569870948792E-1  -3.665270805358887E-1   1.678158938884735E-1  -3.664879500865936E-1   1.676462143659592E-1  -2.467761337757111E-1   8.782768249511719E-1  
 3.580000000000000E7     8.595178723335266E-1   3.227105140686035E-1  -3.409668207168579E-1   1.779274940490723E-1  -3.411264121532440E-1   1.778639256954193E-1  -2.241723239421845E-1   8.913003206253052E-1  
 3.610000000000000E7     8.864383101463318E-1   2.654464840888977E-1  -3.188715577125549E-1   1.861906349658966E-1  -3.174117505550385E-1   1.859702318906784E-1  -2.005820274353027E-1   9.055269956588745E-1  
 3.640000000000000E7     9.086544513702393E-1   2.068744152784348E-1  -2.958481609821320E-1   1.910934597253799E-1  -2.954187989234924E-1   1.906782984733582E-1  -1.785463988780975E-1   9.159861207008362E-1  
 3.670000000000000E7     9.255922436714172E-1   1.503574848175049E-1  -2.751435637474060E-1   1.954554021358490E-1  -2.741357684135437E-1   1.955001652240753E-1  -1.554315537214279E-1   9.264135360717773E-1  
 3.700000000000000E7     9.378223419189453E-1   9.435729682445526E-2  -2.543897032737732E-1   1.984736025333405E-1  -2.538351714611054E-1   1.985122561454773E-1  -1.293636113405228E-1   9.353724718093872E-1  
 3.730000000000000E7     9.466481804847717E-1   3.800061345100403E-2  -2.342235743999481E-1   1.996285915374756E-1  -2.349654585123062E-1   1.999094635248184E-1  -1.061256378889084E-1   9.414178133010864E-1  
 3.760000000000000E7     9.509148597717285E-1  -1.411131024360657E-2  -2.160683870315552E-1   2.009818255901337E-1  -2.167831361293793E-1   2.012926638126373E-1  -7.968254387378693E-2   9.493833184242249E-1  
 3.790000000000000E7     9.526493549346924E-1  -6.796265393495560E-2  -1.993771940469742E-1   2.012787163257599E-1  -1.988816857337952E-1   2.014778703451157E-1  -5.350371450185776E-2   9.537948966026306E-1  
 3.820000000000000E7     9.518528580665588E-1  -1.197750344872475E-1  -1.833004951477051E-1   2.008169293403626E-1  -1.833699047565460E-1   2.001954615116119E-1  -2.915422618389130E-2   9.579616785049439E-1  
 3.850000000000000E7     9.470259547233582E-1  -1.712037026882172E-1  -1.680494248867035E-1   1.989005953073502E-1  -1.672825962305069E-1   1.991407424211502E-1  -3.052093088626862E-3   9.633154869079590E-1  
 3.880000000000000E7     9.396978616714478E-1  -2.188200056552887E-1  -1.523820161819458E-1   1.974062025547028E-1  -1.524546444416046E-1   1.969284713268280E-1   2.581023424863815E-2   9.655967950820923E-1  
 3.910000000000000E7     9.308828115463257E-1  -2.667600512504578E-1  -1.390661299228668E-1   1.943894475698471E-1  -1.390047669410706E-1   1.949076354503632E-1   5.332404375076294E-2   9.675913453102112E-1  
 3.940000000000000E7     9.175646305084229E-1  -3.116321563720703E-1  -1.261849254369736E-1   1.913378238677979E-1  -1.258697062730789E-1   1.910896897315979E-1   8.012478798627853E-2   9.669862389564514E-1  
 3.970000000000000E7     9.050424098968506E-1  -3.562841415405273E-1  -1.140198037028313E-1   1.874853372573853E-1  -1.139816269278526E-1   1.875151544809341E-1   1.071609333157539E-1   9.653743505477905E-1  
 4.000000000000000E7     8.885927796363831E-1  -3.992757201194763E-1  -1.021268591284752E-1   1.837896853685379E-1  -1.018005013465881E-1   1.839306056499481E-1   1.367810815572739E-1   9.649562835693359E-1  
 4.030000000000000E7     8.716304302215576E-1  -4.404679536819458E-1  -9.094046801328659E-2   1.801993995904923E-1  -9.087359160184860E-2   1.798422485589981E-1   1.641367971897125E-1   9.629848003387451E-1  
 4.060000000000000E7     8.519728183746338E-1  -4.803876280784607E-1  -8.069109916687012E-2   1.750721782445908E-1  -8.071788400411606E-2   1.747244596481323E-1   1.931798011064529E-1   9.581562280654907E-1  
 4.090000000000000E7     8.311412334442139E-1  -5.198394060134888E-1  -7.079585641622543E-2   1.699658632278442E-1  -7.050181180238724E-2   1.700427085161209E-1   2.212834656238556E-1   9.540416598320007E-1  
 4.120000000000000E7     8.089795112609863E-1  -5.568331480026245E-1  -6.204156577587128E-2   1.646638959646225E-1  -6.187943369150162E-2   1.643964797258377E-1   2.512043714523315E-1   9.478428959846497E-1  
 4.150000000000000E7     7.852165699005127E-1  -5.907400250434876E-1  -5.274508893489838E-2   1.596391797065735E-1  -5.322828143835068E-2   1.587843745946884E-1   2.813876569271088E-1   9.399941563606262E-1  
 4.180000000000000E7     7.601045966148377E-1  -6.259269118309021E-1  -4.457379132509232E-2   1.537704914808273E-1  -4.468318074941635E-2   1.534141898155212E-1   3.104931116104126E-1   9.329981803894043E-1  
 4.210000000000000E7     7.343466281890869E-1  -6.578335762023926E-1  -3.683979436755180E-2   1.478033959865570E-1  -3.718167170882225E-2   1.478615552186966E-1   3.423770964145660E-1   9.230465292930603E-1  
 4.240000000000000E7     7.065322399139404E-1  -6.880129575729370E-1  -3.009001724421978E-2   1.417899280786514E-1  -3.005726449191570E-2   1.417298018932343E-1   3.731024563312531E-1   9.126783013343811E-1  
 4.270000000000000E7     6.774623394012451E-1  -7.176290154457092E-1  -2.306395955383778E-2   1.354975104331970E-1  -2.331805042922497E-2   1.353748142719269E-1   4.039690494537354E-1   9.003404378890991E-1  
 4.300000000000000E7     6.479054689407349E-1  -7.468509674072266E-1  -1.697058789432049E-2   1.291144788265228E-1  -1.729856431484222E-2   1.289381831884384E-1   4.355897605419159E-1   8.871382474899292E-1  
 4.330000000000000E7     6.197462081909180E-1  -7.726375460624695E-1  -1.179245673120022E-2   1.222894862294197E-1  -1.186396554112434E-2   1.222650632262230E-1   4.661875367164612E-1   8.711987137794495E-1  
 4.360000000000000E7     5.872576236724854E-1  -7.975353002548218E-1  -6.859665736556053E-3   1.158780381083489E-1  -6.817713379859924E-3   1.152867972850800E-1   4.972403347492218E-1   8.551596403121948E-1  
 4.390000000000000E7     5.554080605506897E-1  -8.224769830703735E-1  -2.044974826276302E-3   1.089745908975601E-1  -2.286511473357678E-3   1.089389994740486E-1   5.286344885826111E-1   8.366491794586182E-1  
 4.420000000000000E7     5.220286846160889E-1  -8.432455658912659E-1   1.898688729852438E-3   1.016302183270454E-1   1.828070264309645E-3   1.017886102199554E-1   5.598162412643433E-1   8.167817592620850E-1  
 4.450000000000000E7     4.889127016067505E-1  -8.637595772743225E-1   5.272036418318749E-3   9.471518546342850E-2   5.373387131839991E-3   9.449898451566696E-2   5.909681320190430E-1   7.964739799499512E-1  
 4.480000000000000E7     4.553729295730591E-1  -8.832918405532837E-1   8.330026641488075E-3   8.750312775373459E-2   8.282077498733997E-3   8.737993240356445E-2   6.219116449356079E-1   7.725809216499329E-1  
 4.510000000000000E7     4.221511185169220E-1  -9.008418917655945E-1   1.083541661500931E-2   8.040545880794525E-2   1.082432921975851E-2   8.022130280733109E-2   6.534595489501953E-1   7.470769882202148E-1  
 4.540000000000000E7     3.866864442825317E-1  -9.163978099822998E-1   1.290689874440432E-2   7.267027348279953E-2   1.277389004826546E-2   7.283174991607666E-2   6.843689084053040E-1   7.195982933044434E-1  
 4.570000000000000E7     3.513378798961639E-1  -9.312661886215210E-1   1.433730218559504E-2   6.546308100223541E-2   1.400388218462467E-2   6.553304940462112E-2   7.136997580528259E-1   6.900057196617127E-1  
 4.600000000000000E7     3.177759349346161E-1  -9.433523416519165E-1   1.498183049261570E-2   5.836176127195358E-2   1.497392449527979E-2   5.833392590284348E-2   7.433561086654663E-1   6.601163744926453E-1  
 4.630000000000000E7     2.794762253761292E-1  -9.562549591064453E-1   1.538848131895065E-2   5.091919749975205E-2   1.551014743745327E-2   5.087704211473465E-2   7.730109691619873E-1   6.256594657897949E-1  
 4.660000000000000E7     2.430308610200882E-1  -9.678087830543518E-1   1.525191590189934E-2   4.355059564113617E-2   1.513152383267880E-2   4.366878047585487E-2   8.001850843429565E-1   5.875336527824402E-1  
 4.690000000000000E7     2.071700692176819E-1  -9.750416278839111E-1   1.431653276085854E-2   3.638684004545212E-2   1.425091736018658E-2   3.638985380530357E-2   8.288108110427856E-1   5.498368144035339E-1  
 4.720000000000000E7     1.700939089059830E-1  -9.819877147674561E-1   1.291603874415159E-2   2.929385006427765E-2   1.293012592941523E-2   2.920176461338997E-2   8.531660437583923E-1   5.086241364479065E-1  
 4.750000000000000E7     1.345118880271912E-1  -9.886533617973328E-1   1.091061346232891E-2   2.235723659396172E-2   1.096607185900211E-2   2.236946672201157E-2   8.793699145317078E-1   4.658188819885254E-1  
 4.780000000000000E7     9.819018840789795E-2  -9.928965568542481E-1   8.310484699904919E-3   1.561232935637236E-2   8.268103003501892E-3   1.564247161149979E-2   9.003677964210510E-1   4.202897846698761E-1  
 4.810000000000000E7     6.091079860925674E-2  -9.955666065216065E-1   5.221181549131870E-3   9.136520326137543E-3   5.153782665729523E-3   9.107276797294617E-3   9.227968454360962E-1   3.717092573642731E-1  
 4.840000000000000E7     2.448588609695435E-2  -9.979059100151062E-1   1.354042091406882E-3   2.914478303864598E-3   1.417158404365182E-3   2.859442029148340E-3   9.418894052505493E-1   3.207074105739594E-1  
 4.870000000000000E7    -1.263856142759323E-2  -9.981987476348877E-1  -3.047999227419496E-3  -2.992900786921382E-3  -2.929446520283818E-3  -3.100759815424681E-3   9.580157995223999E-1   2.674452662467957E-1  
 4.900000000000000E7    -4.963863268494606E-2  -9.977084994316101E-1  -7.937671616673470E-3  -8.537924848496914E-3  -7.988619618117809E-3  -8.551236242055893E-3   9.715630412101746E-1   2.124063670635223E-1  
 4.930000000000000E7    -8.586217463016510E-2  -9.946654438972473E-1  -1.349747739732266E-2  -1.363406330347061E-2  -1.349246595054865E-2  -1.371593587100506E-2   9.823812842369080E-1   1.541208922863007E-1  
 4.960000000000000E7    -1.215005069971085E-1  -9.888490438461304E-1  -1.949969865381718E-2  -1.814483664929867E-2  -1.953651383519173E-2  -1.818796619772911E-2   9.893612265586853E-1   9.374003112316132E-2  
 4.990000000000000E7    -1.567782163619995E-1  -9.842799305915833E-1  -2.605446241796017E-2  -2.223264425992966E-2  -2.596682123839855E-2  -2.219636738300324E-2   9.929915666580200E-1   3.197593241930008E-2  
 5.020000000000000E7    -1.914657801389694E-1  -9.789649844169617E-1  -3.309156000614166E-2  -2.569469809532166E-2  -3.320633247494698E-2  -2.580304630100727E-2   9.930053353309631E-1  -3.191747143864632E-2  
 5.050000000000000E7    -2.269876748323441E-1  -9.704657196998596E-1  -4.062366485595703E-2  -2.846734784543514E-2  -4.069638252258301E-2  -2.841009199619293E-2   9.884562492370606E-1  -9.770856052637100E-2  
 5.080000000000000E7    -2.609557807445526E-1  -9.615342020988464E-1  -4.859518632292748E-2  -3.040763176977634E-2  -4.851578921079636E-2  -3.060784935951233E-2   9.787378907203674E-1  -1.644283831119537E-1  
 5.110000000000000E7    -2.955238819122315E-1  -9.506392478942871E-1  -5.670998990535736E-2  -3.168050944805145E-2  -5.674799159169197E-2  -3.164659067988396E-2   9.648099541664124E-1  -2.323730587959290E-1  
 5.140000000000000E7    -3.288359940052033E-1  -9.388806223869324E-1  -6.523576378822327E-2  -3.207636997103691E-2  -6.523560732603073E-2  -3.192262351512909E-2   9.452611207962036E-1  -3.004993200302124E-1  
 5.170000000000000E7    -3.611458241939545E-1  -9.261745810508728E-1  -7.355935871601105E-2  -3.150072693824768E-2  -7.384477555751801E-2  -3.155302256345749E-2   9.196130037307739E-1  -3.670610189437866E-1  
 5.200000000000000E7    -3.938312232494354E-1  -9.135579466819763E-1  -8.261976391077042E-2  -3.002174943685532E-2  -8.280586451292038E-2  -3.028460592031479E-2   8.902651071548462E-1  -4.350564777851105E-1  
 5.230000000000000E7    -4.251255095005035E-1  -8.971415162086487E-1  -9.124024212360382E-2  -2.749070152640343E-2  -9.125962108373642E-2  -2.755962498486042E-2   8.529089689254761E-1  -5.002522468566895E-1  
 5.260000000000000E7    -4.556893110275269E-1  -8.802058100700378E-1  -9.973607957363129E-2  -2.413091622292996E-2  -9.985893964767456E-2  -2.420794963836670E-2   8.124093413352966E-1  -5.641120076179504E-1  
 5.290000000000000E7    -4.868209660053253E-1  -8.634948730468750E-1  -1.085409298539162E-1  -2.003146894276142E-2  -1.082097291946411E-1  -1.991994306445122E-2   7.652682065963745E-1  -6.258637905120850E-1  
 5.320000000000000E7    -5.156167745590210E-1  -8.462692499160767E-1  -1.164691597223282E-1  -1.457806956022978E-2  -1.164659112691879E-1  -1.448790635913611E-2   7.125405669212341E-1  -6.840109825134277E-1  
 5.350000000000000E7    -5.430370569229126E-1  -8.268107175827026E-1  -1.238909065723419E-1  -8.193189278244972E-3  -1.236327663064003E-1  -8.132714778184891E-3   6.538920402526856E-1  -7.377960085868835E-1  
 5.380000000000000E7    -5.697897672653198E-1  -8.069489598274231E-1  -1.307595074176788E-1  -1.332554966211319E-3  -1.304253041744232E-1  -1.322591677308083E-3   5.911573767662048E-1  -7.879760861396790E-1  
 5.410000000000000E7    -5.987640023231506E-1  -7.866636514663696E-1  -1.373013108968735E-1   6.775237619876862E-3  -1.370289772748947E-1   6.643934175372124E-3   5.261310338973999E-1  -8.328850865364075E-1  
 5.440000000000000E7    -6.242393255233765E-1  -7.641721963882446E-1  -1.425388455390930E-1   1.524204760789871E-2  -1.425864398479462E-1   1.519554294645786E-2   4.548324942588806E-1  -8.730108141899109E-1  
 5.470000000000000E7    -6.481189131736755E-1  -7.428199052810669E-1  -1.478343158960342E-1   2.406817115843296E-2  -1.473135501146317E-1   2.430587448179722E-2   3.817911744117737E-1  -9.059725999832153E-1  
 5.500000000000000E7    -6.734552383422852E-1  -7.197422981262207E-1  -1.509711295366287E-1   3.414098918437958E-2  -1.507877260446549E-1   3.395010903477669E-2   3.046679496765137E-1  -9.327005743980408E-1  
 5.530000000000000E7    -6.965205669403076E-1  -6.959605216979981E-1  -1.538638174533844E-1   4.412354528903961E-2  -1.537118256092072E-1   4.433556646108627E-2   2.267615199089050E-1  -9.540867209434509E-1  
 5.560000000000000E7    -7.197235822677612E-1  -6.708295941352844E-1  -1.556831002235413E-1   5.473707988858223E-2  -1.555732786655426E-1   5.446989461779594E-2   1.474146991968155E-1  -9.690666794776917E-1  
 5.590000000000000E7    -7.409326434135437E-1  -6.467680335044861E-1  -1.565805226564407E-1   6.520016491413117E-2  -1.563823521137238E-1   6.522729992866516E-2   6.884641945362091E-2  -9.766666889190674E-1  
 5.620000000000000E7    -7.618025541305542E-1  -6.191687583923340E-1  -1.559219360351563E-1   7.599803060293198E-2  -1.558839380741119E-1   7.559807598590851E-2  -1.069778203964233E-2  -9.785805940628052E-1  
 5.650000000000000E7    -7.804540395736694E-1  -5.945240259170532E-1  -1.552804708480835E-1   8.640837669372559E-2  -1.548775583505631E-1   8.618514984846115E-2  -8.914090692996979E-2  -9.737299680709839E-1  
 5.680000000000000E7    -7.998208403587341E-1  -5.676597952842712E-1  -1.528534740209580E-1   9.685546904802322E-2  -1.528392285108566E-1   9.681758284568787E-2  -1.655621379613876E-1  -9.641476273536682E-1  
 5.710000000000000E7    -8.180364966392517E-1  -5.393274426460266E-1  -1.498776078224182E-1   1.070528775453568E-1  -1.495742648839951E-1   1.071034371852875E-1  -2.388005256652832E-1  -9.465604424476624E-1  
 5.740000000000000E7    -8.356951475143433E-1  -5.118833780288696E-1  -1.458414047956467E-1   1.167410165071487E-1  -1.459235846996307E-1   1.164505183696747E-1  -3.099429011344910E-1  -9.270974397659302E-1  
 5.770000000000000E7    -8.503892421722412E-1  -4.846361279487610E-1  -1.409797668457031E-1   1.254978477954865E-1  -1.410767585039139E-1   1.255257874727249E-1  -3.794420361518860E-1  -8.989590406417847E-1  
 5.800000000000000E7    -8.660230040550232E-1  -4.549346864223480E-1  -1.358070969581604E-1   1.343714892864227E-1  -1.348085403442383E-1   1.343061327934265E-1  -4.427285492420197E-1  -8.686005473136902E-1  
 5.830000000000000E7    -8.799501061439514E-1  -4.258019626140595E-1  -1.292956173419952E-1   1.426931321620941E-1  -1.292847543954849E-1   1.425865739583969E-1  -5.043805241584778E-1  -8.338562250137329E-1  
 5.860000000000000E7    -8.944730162620544E-1  -3.973075151443481E-1  -1.229769587516785E-1   1.503836661577225E-1  -1.231347694993019E-1   1.505073904991150E-1  -5.615891218185425E-1  -7.977213263511658E-1  
 5.890000000000000E7    -9.059019088745117E-1  -3.669986128807068E-1  -1.156470775604248E-1   1.570889651775360E-1  -1.161310002207756E-1   1.573366969823837E-1  -6.154559850692749E-1  -7.556992769241333E-1  
 5.920000000000000E7    -9.176586270332336E-1  -3.361706733703613E-1  -1.083379462361336E-1   1.636030524969101E-1  -1.076003015041351E-1   1.635714918375015E-1  -6.641204357147217E-1  -7.135623693466187E-1  
 5.950000000000000E7    -9.281524419784546E-1  -3.057721257209778E-1  -1.004406139254570E-1   1.694411486387253E-1  -1.001353561878204E-1   1.692376881837845E-1  -7.100473642349243E-1  -6.677872538566589E-1  
 5.980000000000000E7    -9.376714229583740E-1  -2.746481299400330E-1  -9.266752749681473E-2   1.747287511825562E-1  -9.231005609035492E-2   1.739618927240372E-1  -7.512249350547791E-1  -6.225694417953491E-1  
 6.010000000000000E7    -9.451391100883484E-1  -2.447462975978851E-1  -8.431717753410339E-2   1.784401088953018E-1  -8.423027396202087E-2   1.780586838722229E-1  -7.869564294815064E-1  -5.744174718856812E-1  
 6.040000000000000E7    -9.533782601356506E-1  -2.120842933654785E-1  -7.547477632761002E-2   1.818107217550278E-1  -7.549063861370087E-2   1.822862923145294E-1  -8.207870721817017E-1  -5.260336995124817E-1  
 6.070000000000000E7    -9.608625173568726E-1  -1.819937378168106E-1  -6.726177781820297E-2   1.853014379739761E-1  -6.769444048404694E-2   1.852135211229324E-1  -8.492892384529114E-1  -4.774571955204010E-1  
 6.100000000000000E7    -9.653816223144531E-1  -1.496967077255249E-1  -5.912957713007927E-2   1.882998645305634E-1  -5.878282710909843E-2   1.877216249704361E-1  -8.757858276367188E-1  -4.291109442710877E-1  
 6.130000000000000E7    -9.705863595008850E-1  -1.170187741518021E-1  -5.021806061267853E-2   1.898899525403976E-1  -5.046991258859634E-2   1.897817999124527E-1  -8.983919024467468E-1  -3.801100254058838E-1  
 6.160000000000000E7    -9.734185338020325E-1  -8.571520447731018E-2  -4.167896136641502E-2   1.911342591047287E-1  -4.186859354376793E-2   1.911942660808563E-1  -9.179404377937317E-1  -3.312659263610840E-1  
 6.190000000000000E7    -9.757522940635681E-1  -5.347093939781189E-2  -3.332896158099175E-2   1.917169839143753E-1  -3.312607854604721E-2   1.914763152599335E-1  -9.340151548385620E-1  -2.812572419643402E-1  
 6.220000000000000E7    -9.778324961662293E-1  -2.146736532449722E-2  -2.518649399280548E-2   1.923131197690964E-1  -2.546780742704868E-2   1.922668516635895E-1  -9.466471076011658E-1  -2.351864427328110E-1  
 6.250000000000000E7    -9.780497550964356E-1   1.118025928735733E-2  -1.754508353769779E-2   1.920399665832520E-1  -1.754491962492466E-2   1.920962929725647E-1  -9.577197432518005E-1  -1.895511448383331E-1  
 6.280000000000000E7    -9.766281247138977E-1   4.370138049125671E-2  -9.696472436189652E-3   1.912732571363449E-1  -1.045819930732250E-2   1.913195997476578E-1  -9.643681049346924E-1  -1.438834965229034E-1  
 6.310000000000000E7    -9.749240279197693E-1   7.695636153221130E-2  -2.211123704910278E-3   1.906388849020004E-1  -2.271801233291626E-3   1.906429380178452E-1  -9.720184206962585E-1  -9.811687469482422E-2  
 6.340000000000000E7    -9.719312787055969E-1   1.090438142418861E-1   5.282033234834671E-3   1.893477737903595E-1   5.105573683977127E-3   1.893247067928314E-1  -9.760091900825501E-1  -5.497805774211884E-2  
 6.370000000000000E7    -9.683585762977600E-1   1.413842737674713E-1   1.246178150177002E-2   1.878846734762192E-1   1.260139793157578E-2   1.879317313432694E-1  -9.766484498977661E-1  -1.151464879512787E-2  
 6.400000000000000E7    -9.623533487319946E-1   1.732874959707260E-1   1.916228421032429E-2   1.862109452486038E-1   1.949463412165642E-2   1.856139898300171E-1  -9.769874215126038E-1   2.918861806392670E-2  
 6.430000000000000E7    -9.563082456588745E-1   2.061422616243362E-1   2.597430534660816E-2   1.836237013339996E-1   2.643121220171452E-2   1.834466010332108E-1  -9.756535291671753E-1   7.046543061733246E-2  
 6.460000000000000E7    -9.497058987617493E-1   2.378838360309601E-1   3.299124911427498E-2   1.810234934091568E-1   3.263612836599350E-2   1.810103952884674E-1  -9.711169600486755E-1   1.095911934971809E-1  
 6.490000000000000E7    -9.426980614662170E-1   2.687504887580872E-1   3.897320106625557E-2   1.785348355770111E-1   3.849647939205170E-2   1.788155138492584E-1  -9.666262269020081E-1   1.461947560310364E-1  
 6.520000000000000E7    -9.324546456336975E-1   3.001759946346283E-1   4.449352622032166E-2   1.754509657621384E-1   4.474099725484848E-2   1.752747446298599E-1  -9.611534476280212E-1   1.838981509208679E-1  
 6.550000000000000E7    -9.226410388946533E-1   3.307285308837891E-1   5.029167234897614E-2   1.725850254297257E-1   5.036946386098862E-2   1.726287305355072E-1  -9.538112878799439E-1   2.194010466337204E-1  
 6.580000000000000E7    -9.107023477554321E-1   3.621617257595062E-1   5.599336698651314E-2   1.694873571395874E-1   5.577092617750168E-2   1.691170632839203E-1  -9.460137486457825E-1   2.535055577754974E-1  
 6.610000000000000E7    -8.975335359573364E-1   3.923457860946655E-1   6.107123941183090E-2   1.658877134323120E-1   6.141011044383049E-2   1.651385277509689E-1  -9.372034072875977E-1   2.882656455039978E-1  
 6.640000000000000E7    -8.859918713569641E-1   4.225773811340332E-1   6.630750745534897E-2   1.621660590171814E-1   6.618309020996094E-2   1.625157594680786E-1  -9.264911413192749E-1   3.204355835914612E-1  
 6.670000000000000E7    -8.707636594772339E-1   4.519427418708801E-1   7.109520584344864E-2   1.585801690816879E-1   7.067818939685822E-2   1.585334390401840E-1  -9.157741069793701E-1   3.499853014945984E-1  
 6.700000000000000E7    -8.550581932067871E-1   4.808615446090698E-1   7.535338401794434E-2   1.543274372816086E-1   7.526448369026184E-2   1.541298776865006E-1  -9.034896492958069E-1   3.804823458194733E-1  
 6.730000000000000E7    -8.386130928993225E-1   5.095081329345703E-1   7.965593785047531E-2   1.501712352037430E-1   7.977525889873505E-2   1.501046121120453E-1  -8.917846679687500E-1   4.087448716163635E-1  
 6.760000000000000E7    -8.217774629592896E-1   5.374011993408203E-1   8.412589132785797E-2   1.467667073011398E-1   8.365522325038910E-2   1.462960094213486E-1  -8.781446218490601E-1   4.372921586036682E-1  
 6.790000000000000E7    -8.031276464462280E-1   5.651547908782959E-1   8.745625615119934E-2   1.422272324562073E-1   8.778026700019836E-2   1.421995759010315E-1  -8.649629950523377E-1   4.636532664299011E-1  
 6.820000000000000E7    -7.837929725646973E-1   5.912306308746338E-1   9.139264374971390E-2   1.380688846111298E-1   9.087555855512619E-2   1.378335058689117E-1  -8.507025241851807E-1   4.891620278358460E-1  
 6.850000000000000E7    -7.640002965927124E-1   6.186251640319824E-1   9.436394274234772E-2   1.337400674819946E-1   9.455834329128265E-2   1.336656361818314E-1  -8.362130522727966E-1   5.138534903526306E-1  
 6.880000000000000E7    -7.428352236747742E-1   6.436282396316528E-1   9.768857061862946E-2   1.293831616640091E-1   9.728900343179703E-2   1.289165467023850E-1  -8.207771182060242E-1   5.379537940025330E-1  
 6.910000000000000E7    -7.206677198410034E-1   6.687791943550110E-1   1.007357537746429E-1   1.253296136856079E-1   1.006242856383324E-1   1.249439790844917E-1  -8.061903715133667E-1   5.617348551750183E-1  
 6.940000000000000E7    -6.985192298889160E-1   6.928407549858093E-1   1.031625494360924E-1   1.209787577390671E-1   1.034274473786354E-1   1.207736581563950E-1  -7.910887002944946E-1   5.828331708908081E-1  
 6.970000000000000E7    -6.736710071563721E-1   7.164612412452698E-1   1.058325469493866E-1   1.162886172533035E-1   1.061747446656227E-1   1.161455661058426E-1  -7.754212617874146E-1   6.046224832534790E-1  
 7.000000000000000E7    -6.496106982231140E-1   7.396976947784424E-1   1.081376820802689E-1   1.118805631995201E-1   1.082539409399033E-1   1.116608977317810E-1  -7.595340013504028E-1   6.257732510566711E-1  
