#  HZ   S   RI   R     50.00 
! Rohde & Schwarz ZVT8 8Ports - Version 4.11 - 1300.0000k08 SN: 100242
! Date: 2026-07-31 15:17:00
! Measurements: S11 S21 S12 S22 
! 
 1.000000000000000E7    -4.011079967021942E-1   9.115577936172485E-1   5.174538493156433E-2   5.210416018962860E-2   5.145286023616791E-2   5.229816213250160E-2  -9.196014404296875E-1   3.820332288742065E-1  
 1.030000000000000E7    -3.683182597160339E-1   9.242762327194214E-1   5.484371259808540E-2   5.275436490774155E-2   5.487216264009476E-2   5.276119336485863E-2  -9.143503308296204E-1   3.947683870792389E-1  
 1.060000000000000E7    -3.323023617267609E-1   9.376515746116638E-1   5.833460763096809E-2   5.345675721764565E-2   5.819699540734291E-2   5.340254306793213E-2  -9.107043743133545E-1   4.058237969875336E-1  
 1.090000000000000E7    -2.998667657375336E-1   9.479222893714905E-1   6.174870952963829E-2   5.405206978321075E-2   6.158893555402756E-2   5.392679199576378E-2  -9.052563309669495E-1   4.169163107872009E-1  
 1.120000000000000E7    -2.639854848384857E-1   9.575757384300232E-1   6.547430902719498E-2   5.472507327795029E-2   6.488198786973953E-2   5.434098467230797E-2  -8.996673226356506E-1   4.285275638103485E-1  
 1.150000000000000E7    -2.280590236186981E-1   9.674954414367676E-1   6.896364688873291E-2   5.456555634737015E-2   6.871461123228073E-2   5.455015227198601E-2  -8.927363753318787E-1   4.372504651546478E-1  
 1.180000000000000E7    -1.925184130668640E-1   9.723844528198242E-1   7.232048362493515E-2   5.467743426561356E-2   7.237338274717331E-2   5.470234900712967E-2  -8.884056806564331E-1   4.483313560485840E-1  
 1.210000000000000E7    -1.571417301893234E-1   9.791374802589417E-1   7.651910930871964E-2   5.487377941608429E-2   7.626168429851532E-2   5.485839769244194E-2  -8.810992240905762E-1   4.600716233253479E-1  
 1.240000000000000E7    -1.209382265806198E-1   9.832573533058167E-1   8.036060631275177E-2   5.492235720157623E-2   8.039490878582001E-2   5.452208966016769E-2  -8.749102354049683E-1   4.696218371391296E-1  
 1.270000000000000E7    -8.426484465599060E-2   9.871016740798950E-1   8.494748175144196E-2   5.450529605150223E-2   8.441164344549179E-2   5.419552698731422E-2  -8.681090474128723E-1   4.832926690578461E-1  
 1.300000000000000E7    -4.817615821957588E-2   9.893941879272461E-1   8.876053243875504E-2   5.429628863930702E-2   8.880616724491119E-2   5.411879718303680E-2  -8.615758419036865E-1   4.927270710468292E-1  
 1.330000000000000E7    -1.131087169051170E-2   9.912307858467102E-1   9.355377405881882E-2   5.367875099182129E-2   9.324876964092255E-2   5.333882942795754E-2  -8.541417717933655E-1   5.046309828758240E-1  
 1.360000000000000E7     2.740977331995964E-2   9.903050661087036E-1   9.765189886093140E-2   5.319906398653984E-2   9.806412458419800E-2   5.281125754117966E-2  -8.478582501411438E-1   5.138109326362610E-1  
 1.390000000000000E7     6.299959868192673E-2   9.877356290817261E-1   1.026233881711960E-1   5.207091569900513E-2   1.025322601199150E-1   5.212769657373428E-2  -8.404725790023804E-1   5.249939560890198E-1  
 1.420000000000000E7     1.016611903905869E-1   9.846735000610352E-1   1.071628332138062E-1   5.136910825967789E-2   1.072240769863129E-1   5.134006962180138E-2  -8.346240520477295E-1   5.351892113685608E-1  
 1.450000000000000E7     1.385674923658371E-1   9.785981774330139E-1   1.122904345393181E-1   5.012446269392967E-2   1.121189370751381E-1   4.979304596781731E-2  -8.243618607521057E-1   5.470735430717468E-1  
 1.480000000000000E7     1.775187999010086E-1   9.725596904754639E-1   1.172874197363854E-1   4.834891483187676E-2   1.174814850091934E-1   4.895760864019394E-2  -8.181752562522888E-1   5.569620728492737E-1  
 1.510000000000000E7     2.146406322717667E-1   9.639806151390076E-1   1.224149391055107E-1   4.683937132358551E-2   1.224133893847466E-1   4.703915119171143E-2  -8.076875209808350E-1   5.681319832801819E-1  
 1.540000000000000E7     2.516478002071381E-1   9.540852308273315E-1   1.276893615722656E-1   4.611095041036606E-2   1.276053339242935E-1   4.534492641687393E-2  -8.019605278968811E-1   5.773977041244507E-1  
 1.570000000000000E7     2.897532880306244E-1   9.441277980804443E-1   1.331997513771057E-1   4.331137239933014E-2   1.333074718713760E-1   4.335404187440872E-2  -7.926579117774963E-1   5.890837907791138E-1  
 1.600000000000000E7     3.277098238468170E-1   9.300293922424316E-1   1.387208104133606E-1   4.101872071623802E-2   1.388721615076065E-1   4.090773314237595E-2  -7.842952609062195E-1   5.975276231765747E-1  
 1.630000000000000E7     3.639883697032929E-1   9.154223203659058E-1   1.450635790824890E-1   3.824083507061005E-2   1.445621252059937E-1   3.848503157496452E-2  -7.751680612564087E-1   6.094400286674500E-1  
 1.660000000000000E7     4.006034731864929E-1   8.978683948516846E-1   1.509953886270523E-1   3.553676977753639E-2   1.507057696580887E-1   3.502012789249420E-2  -7.646911740303040E-1   6.200276017189026E-1  
 1.690000000000000E7     4.368335008621216E-1   8.800835013389587E-1   1.570917218923569E-1   3.292569890618324E-2   1.570600718259811E-1   3.237756714224815E-2  -7.561342716217041E-1   6.293798089027405E-1  
 1.720000000000000E7     4.753547012805939E-1   8.604114651679993E-1   1.630164980888367E-1   2.858636528253555E-2   1.631867140531540E-1   2.897272445261478E-2  -7.464244961738586E-1   6.386627554893494E-1  
 1.750000000000000E7     5.063896179199219E-1   8.413943052291870E-1   1.701508611440659E-1   2.607923001050949E-2   1.702692806720734E-1   2.558872289955616E-2  -7.368495464324951E-1   6.503737568855286E-1  
 1.780000000000000E7     5.440905690193176E-1   8.146147131919861E-1   1.757679879665375E-1   2.115765959024429E-2   1.761285662651062E-1   2.138566225767136E-2  -7.261782288551331E-1   6.573227643966675E-1  
 1.810000000000000E7     5.773755908012390E-1   7.909079790115356E-1   1.837470531463623E-1   1.703059673309326E-2   1.827428936958313E-1   1.630603894591332E-2  -7.153044342994690E-1   6.703640222549439E-1  
 1.840000000000000E7     6.127853393554688E-1   7.632597088813782E-1   1.912123411893845E-1   1.088161580264568E-2   1.902190148830414E-1   1.131596043705940E-2  -7.038632035255432E-1   6.795864701271057E-1  
 1.870000000000000E7     6.437894105911255E-1   7.345443964004517E-1   1.981952637434006E-1   6.234273314476013E-3   1.973295807838440E-1   5.666373297572136E-3  -6.922826170921326E-1   6.887209415435791E-1  
 1.900000000000000E7     6.755784153938294E-1   7.036818265914917E-1   2.052858620882034E-1   4.730541259050369E-4   2.049439400434494E-1  -7.838383316993713E-5  -6.805553436279297E-1   6.979743838310242E-1  
 1.930000000000000E7     7.071810364723206E-1   6.695204377174377E-1   2.125298082828522E-1  -7.398607209324837E-3   2.128572314977646E-1  -6.494116969406605E-3  -6.684121489524841E-1   7.084582448005676E-1  
 1.960000000000000E7     7.371066808700562E-1   6.333913207054138E-1   2.201516926288605E-1  -1.433511078357697E-2   2.201968580484390E-1  -1.378745958209038E-2  -6.574274301528931E-1   7.164623141288757E-1  
 1.990000000000000E7     7.634413242340088E-1   5.961307287216187E-1   2.280053347349167E-1  -2.215254493057728E-2   2.285015434026718E-1  -2.223074436187744E-2  -6.423011422157288E-1   7.277795076370239E-1  
 2.020000000000000E7     7.906626462936401E-1   5.559206008911133E-1   2.365429103374481E-1  -3.052172437310219E-2   2.358209639787674E-1  -3.028554841876030E-2  -6.299324035644531E-1   7.334124445915222E-1  
 2.050000000000000E7     8.175483942031860E-1   5.133996009826660E-1   2.446098029613495E-1  -3.960727155208588E-2   2.431198060512543E-1  -4.002581909298897E-2  -6.162292957305908E-1   7.424668073654175E-1  
 2.080000000000000E7     8.399319648742676E-1   4.674466252326965E-1   2.531303465366364E-1  -5.027898401021957E-2   2.533334791660309E-1  -5.016868561506271E-2  -6.026877164840698E-1   7.519341707229614E-1  
 2.110000000000000E7     8.619372248649597E-1   4.206031858921051E-1   2.619068622589111E-1  -6.240363419055939E-2   2.619245052337647E-1  -6.235735490918160E-2  -5.869851708412170E-1   7.600889801979065E-1  
 2.140000000000000E7     8.813271522521973E-1   3.710178434848785E-1   2.707566618919373E-1  -7.547812163829804E-2   2.696645855903626E-1  -7.429994642734528E-2  -5.719597339630127E-1   7.673791646957398E-1  
 2.170000000000000E7     8.966282010078430E-1   3.194908797740936E-1   2.792007327079773E-1  -8.864008635282517E-2   2.791522443294525E-1  -8.769059926271439E-2  -5.559802651405335E-1   7.746419906616211E-1  
 2.200000000000000E7     9.113191962242127E-1   2.624783813953400E-1   2.873043417930603E-1  -1.040870770812035E-1   2.875763773918152E-1  -1.037316620349884E-1  -5.381384491920471E-1   7.812851667404175E-1  
 2.230000000000000E7     9.205219745635986E-1   2.047523558139801E-1   2.958875298500061E-1  -1.208916157484055E-1   2.957069575786591E-1  -1.200612559914589E-1  -5.212909579277039E-1   7.870575189590454E-1  
 2.260000000000000E7     9.269645810127258E-1   1.434197276830673E-1   3.034941554069519E-1  -1.392908692359924E-1   3.054188191890717E-1  -1.393209099769592E-1  -5.037863254547119E-1   7.919825911521912E-1  
 2.290000000000000E7     9.288670420646668E-1   7.926936447620392E-2   3.116096854209900E-1  -1.596157699823380E-1   3.127935230731964E-1  -1.592669188976288E-1  -4.833506643772125E-1   7.965520024299622E-1  
 2.320000000000000E7     9.246492385864258E-1   1.303017884492874E-2   3.195982277393341E-1  -1.829835623502731E-1   3.189002275466919E-1  -1.830800771713257E-1  -4.648991525173187E-1   8.022019863128662E-1  
 2.350000000000000E7     9.145752191543579E-1  -5.785063281655312E-2   3.258151710033417E-1  -2.089523226022720E-1   3.255085945129395E-1  -2.078389674425125E-1  -4.448211491107941E-1   8.046524524688721E-1  
 2.380000000000000E7     8.985859155654907E-1  -1.296042501926422E-1   3.310335576534271E-1  -2.357769757509232E-1   3.315417170524597E-1  -2.355639338493347E-1  -4.240375757217407E-1   8.059936165809631E-1  
 2.410000000000000E7     8.739340305328369E-1  -2.049345374107361E-1   3.339736759662628E-1  -2.672111988067627E-1   3.339211940765381E-1  -2.665506303310394E-1  -4.016772806644440E-1   8.059639334678650E-1  
 2.440000000000000E7     8.395606279373169E-1  -2.801912724971771E-1   3.360584676265717E-1  -3.019282519817352E-1   3.358632326126099E-1  -3.020493686199188E-1  -3.807498216629028E-1   8.035624027252197E-1  
 2.470000000000000E7     7.951237559318543E-1  -3.567748367786408E-1   3.340697586536408E-1  -3.400352001190186E-1   3.347623050212860E-1  -3.377377688884735E-1  -3.565000593662262E-1   7.985095381736755E-1  
 2.500000000000000E7     7.387025952339172E-1  -4.341912865638733E-1   3.283453285694122E-1  -3.803654015064240E-1   3.281786143779755E-1  -3.808765411376953E-1  -3.332802653312683E-1   7.932805418968201E-1  
 2.530000000000000E7     6.674863696098328E-1  -5.079808235168457E-1   3.191263675689697E-1  -4.250476062297821E-1   3.192165195941925E-1  -4.248428046703339E-1  -3.101775050163269E-1   7.829784154891968E-1  
 2.560000000000000E7     5.814954042434692E-1  -5.767548084259033E-1   3.022300004959106E-1  -4.726949334144592E-1   3.029662966728210E-1  -4.739724993705750E-1  -2.881824970245361E-1   7.698971629142761E-1  
 2.590000000000000E7     4.784747958183289E-1  -6.336079239845276E-1   2.768148481845856E-1  -5.246883630752564E-1   2.777349054813385E-1  -5.249115228652954E-1  -2.668815255165100E-1   7.558084130287170E-1  
 2.620000000000000E7     3.571726679801941E-1  -6.786117553710938E-1   2.418163418769836E-1  -5.781014561653137E-1   2.427749037742615E-1  -5.767838954925537E-1  -2.460098415613174E-1   7.353068590164185E-1  
 2.650000000000000E7     2.198953032493591E-1  -7.055433988571167E-1   1.971019208431244E-1  -6.290775537490845E-1   1.965646296739578E-1  -6.301432847976685E-1  -2.313040494918823E-1   7.099189758300781E-1  
 2.680000000000000E7     6.897721439599991E-2  -7.037007212638855E-1   1.383318901062012E-1  -6.781542301177979E-1   1.370674967765808E-1  -6.785581111907959E-1  -2.215556949377060E-1   6.817749738693237E-1  
 2.710000000000000E7    -8.695159107446671E-2  -6.683242917060852E-1   6.384275853633881E-2  -7.181549668312073E-1   6.458654999732971E-2  -7.179482579231262E-1  -2.162100821733475E-1   6.537628173828125E-1  
 2.740000000000000E7    -2.462542951107025E-1  -5.962472558021545E-1  -1.973022520542145E-2  -7.472558021545410E-1  -2.265544980764389E-2  -7.466174364089966E-1  -2.210171222686768E-1   6.199429631233215E-1  
 2.770000000000000E7    -3.863494992256165E-1  -4.842504858970642E-1  -1.163886785507202E-1  -7.586116194725037E-1  -1.173353493213654E-1  -7.582803368568420E-1  -2.330428212881088E-1   5.915488004684448E-1  
 2.800000000000000E7    -5.036510229110718E-1  -3.368850350379944E-1  -2.165993750095367E-1  -7.493574619293213E-1  -2.167597413063049E-1  -7.500790953636169E-1  -2.536748945713043E-1   5.627445578575134E-1  
 2.830000000000000E7    -5.792499780654907E-1  -1.614780426025391E-1  -3.126543760299683E-1  -7.175199389457703E-1  -3.124670386314392E-1  -7.175537943840027E-1  -2.805403172969818E-1   5.473115444183350E-1  
 2.860000000000000E7    -6.075477004051209E-1   2.883045375347138E-2  -4.005222022533417E-1  -6.657354831695557E-1  -4.029351174831390E-1  -6.650145053863525E-1  -3.113325238227844E-1   5.378679037094116E-1  
 2.890000000000000E7    -5.883105993270874E-1   2.141168415546417E-1  -4.748983383178711E-1  -5.979061126708984E-1  -4.742163121700287E-1  -5.969716310501099E-1  -3.442355990409851E-1   5.386563539505005E-1  
 2.920000000000000E7    -5.290676951408386E-1   3.868405222892761E-1  -5.282530784606934E-1  -5.197867155075073E-1  -5.290153622627258E-1  -5.180693864822388E-1  -3.750983178615570E-1   5.481629371643066E-1  
 2.950000000000000E7    -4.335528314113617E-1   5.296529531478882E-1  -5.648195147514343E-1  -4.358844161033630E-1  -5.646202564239502E-1  -4.354150891304016E-1  -4.018061757087708E-1   5.675962567329407E-1  
 2.980000000000000E7    -3.198304772377014E-1   6.434411406517029E-1  -5.813063383102417E-1  -3.540855646133423E-1  -5.820551514625549E-1  -3.536010384559631E-1  -4.224337041378021E-1   5.921325683593750E-1  
 3.010000000000000E7    -1.926159262657166E-1   7.243567705154419E-1  -5.856162309646606E-1  -2.764949798583984E-1  -5.848253369331360E-1  -2.764797508716583E-1  -4.372241497039795E-1   6.192718148231506E-1  
 3.040000000000000E7    -6.274083256721497E-2   7.753564715385437E-1  -5.756239295005798E-1  -2.093876749277115E-1  -5.756093859672546E-1  -2.080682069063187E-1  -4.433402121067047E-1   6.488642692565918E-1  
 3.070000000000000E7     6.447435170412064E-2   8.024066090583801E-1  -5.608864426612854E-1  -1.460520625114441E-1  -5.600624084472656E-1  -1.472268700599670E-1  -4.450927972793579E-1   6.773632764816284E-1  
 3.100000000000000E7     1.831797510385513E-1   8.076215386390686E-1  -5.393890142440796E-1  -9.452006965875626E-2  -5.389400124549866E-1  -9.406136721372604E-2  -4.432127177715302E-1   7.058247327804565E-1  
 3.130000000000000E7     2.919848263263702E-1   7.955616712570190E-1  -5.129168629646301E-1  -4.902259260416031E-2  -5.123426914215088E-1  -5.009792745113373E-2  -4.358254671096802E-1   7.329756617546082E-1  
 3.160000000000000E7     3.926067352294922E-1   7.717801928520203E-1  -4.866828620433807E-1  -1.248422730714083E-2  -4.867636561393738E-1  -1.302322186529636E-2  -4.266942441463471E-1   7.590113282203674E-1  
 3.190000000000000E7     4.810685515403748E-1   7.383165955543518E-1  -4.586248397827148E-1   1.907081715762615E-2  -4.580849111080170E-1   1.929396204650402E-2  -4.139801263809204E-1   7.825842499732971E-1  
 3.220000000000000E7     5.607696771621704E-1   6.981959939002991E-1  -4.303411543369293E-1   4.414434731006622E-2  -4.303308427333832E-1   4.514247924089432E-2  -4.001899957656860E-1   8.034146428108215E-1  
 3.250000000000000E7     6.306659579277039E-1   6.522282361984253E-1  -4.040242433547974E-1   6.570573151111603E-2  -4.043611288070679E-1   6.621981412172318E-2  -3.843771219253540E-1   8.253313302993774E-1  
 3.280000000000000E7     6.915147304534912E-1   6.008464694023132E-1  -3.782338201999664E-1   8.330646157264710E-2  -3.767197430133820E-1   8.429184556007385E-2  -3.668843507766724E-1   8.431048393249512E-1  
 3.310000000000000E7     7.444450259208679E-1   5.495289564132690E-1  -3.519306182861328E-1   9.801086783409119E-2  -3.519615530967712E-1   9.827087074518204E-2  -3.471673130989075E-1   8.606773018836975E-1  
 3.340000000000000E7     7.907332181930542E-1   4.964367747306824E-1  -3.288124501705170E-1   1.104094758629799E-1  -3.279356360435486E-1   1.099015474319458E-1  -3.273701369762421E-1   8.751118183135986E-1  
 3.370000000000000E7     8.292561173439026E-1   4.410892128944397E-1  -3.053869009017944E-1   1.188782751560211E-1  -3.053528964519501E-1   1.185873597860336E-1  -3.083070516586304E-1   8.906089067459106E-1  
 3.400000000000000E7     8.627893924713135E-1   3.866304755210877E-1  -2.844353318214417E-1   1.263521313667297E-1  -2.843180596828461E-1   1.258831471204758E-1  -2.866482138633728E-1   9.020777940750122E-1  
 3.430000000000000E7     8.911588788032532E-1   3.321532011032105E-1  -2.641018629074097E-1   1.323858648538590E-1  -2.637598514556885E-1   1.319158524274826E-1  -2.656389176845551E-1   9.139571785926819E-1  
 3.460000000000000E7     9.144588112831116E-1   2.768163383007050E-1  -2.453287839889526E-1   1.363769769668579E-1  -2.455673664808273E-1   1.362904757261276E-1  -2.434086203575134E-1   9.258831739425659E-1  
 3.490000000000000E7     9.334546327590942E-1   2.225455343723297E-1  -2.267948389053345E-1   1.403709203004837E-1  -2.268828302621841E-1   1.395769864320755E-1  -2.222808003425598E-1   9.332130551338196E-1  
 3.520000000000000E7     9.489500522613525E-1   1.695352345705032E-1  -2.103526741266251E-1   1.415142416954041E-1  -2.104007899761200E-1   1.414628773927689E-1  -1.983305513858795E-1   9.440295696258545E-1  
 3.550000000000000E7     9.586851596832275E-1   1.151867061853409E-1  -1.948256790637970E-1   1.422393321990967E-1  -1.949077844619751E-1   1.422663927078247E-1  -1.768248975276947E-1   9.520241618156433E-1  
 3.580000000000000E7     9.674723744392395E-1   6.405261158943176E-2  -1.795226633548737E-1   1.426926702260971E-1  -1.795805990695953E-1   1.425639092922211E-1  -1.528945267200470E-1   9.575247168540955E-1  
 3.610000000000000E7     9.725014567375183E-1   1.349739730358124E-2  -1.661295145750046E-1   1.429267525672913E-1  -1.654269844293594E-1   1.425526738166809E-1  -1.278716921806335E-1   9.656264185905457E-1  
 3.640000000000000E7     9.742539525032044E-1  -3.667867183685303E-2  -1.526118516921997E-1   1.414257586002350E-1  -1.525497585535049E-1   1.409681290388107E-1  -1.050417870283127E-1   9.699357151985169E-1  
 3.670000000000000E7     9.735898971557617E-1  -8.441123366355896E-2  -1.404227316379547E-1   1.397255957126617E-1  -1.398321837186813E-1   1.395619660615921E-1  -8.184666186571121E-2   9.750737547874451E-1  
 3.700000000000000E7     9.702094197273254E-1  -1.318954080343247E-1  -1.283331215381622E-1   1.378592252731323E-1  -1.279722154140472E-1   1.376416534185410E-1  -5.541226267814636E-2   9.783036112785339E-1  
 3.730000000000000E7     9.642036557197571E-1  -1.793090403079987E-1  -1.165988743305206E-1   1.346676796674728E-1  -1.169870197772980E-1   1.349430233240128E-1  -3.278059512376785E-2   9.796636104583740E-1  
 3.760000000000000E7     9.562647342681885E-1  -2.224684506654739E-1  -1.060380116105080E-1   1.321785897016525E-1  -1.062357723712921E-1   1.323273926973343E-1  -5.997709929943085E-3   9.828343987464905E-1  
 3.790000000000000E7     9.465269446372986E-1  -2.673674523830414E-1  -9.637010097503662E-2   1.292245090007782E-1  -9.602700173854828E-2   1.292306184768677E-1   1.984499394893646E-2   9.830170273780823E-1  
 3.820000000000000E7     9.355365633964539E-1  -3.107933998107910E-1  -8.707808703184128E-2   1.259521692991257E-1  -8.716300874948502E-2   1.255582273006439E-1   4.370221495628357E-2   9.834185242652893E-1  
 3.850000000000000E7     9.212810993194580E-1  -3.531222343444824E-1  -7.842632383108139E-2   1.219832748174667E-1  -7.793161273002625E-2   1.220659315586090E-1   6.982461363077164E-2   9.852140545845032E-1  
 3.880000000000000E7     9.058041572570801E-1  -3.927512168884277E-1  -6.948620080947876E-2   1.182652264833450E-1  -6.954272091388702E-2   1.179183498024941E-1   9.821075201034546E-2   9.832680225372315E-1  
 3.910000000000000E7     8.899041414260864E-1  -4.324979782104492E-1  -6.200241670012474E-2   1.137570664286614E-1  -6.178518757224083E-2   1.138950362801552E-1   1.254463344812393E-1   9.818133711814880E-1  
 3.940000000000000E7     8.703228831291199E-1  -4.689515829086304E-1  -5.469039827585220E-2   1.092062368988991E-1  -5.445111542940140E-2   1.090852171182632E-1   1.514013707637787E-1   9.779099822044373E-1  
 3.970000000000000E7     8.519621491432190E-1  -5.060632228851318E-1  -4.808708280324936E-2   1.043520048260689E-1  -4.803939163684845E-2   1.043968126177788E-1   1.776537597179413E-1   9.730070829391480E-1  
 4.000000000000000E7     8.301675319671631E-1  -5.415382385253906E-1  -4.165674746036530E-2   9.946753829717636E-2  -4.143883287906647E-2   9.952780604362488E-2   2.069678753614426E-1   9.694730639457703E-1  
 4.030000000000000E7     8.085999488830566E-1  -5.754432678222656E-1  -3.555831313133240E-2   9.482248127460480E-2  -3.551241755485535E-2   9.457614272832871E-2   2.340461611747742E-1   9.644246697425842E-1  
 4.060000000000000E7     7.849504947662354E-1  -6.079148650169373E-1  -3.018204495310783E-2   8.925132453441620E-2  -3.032380528748035E-2   8.910795301198959E-2   2.618136405944824E-1   9.573841094970703E-1  
 4.090000000000000E7     7.601623535156250E-1  -6.401380896568298E-1  -2.520583197474480E-2   8.362797647714615E-2  -2.498093619942665E-2   8.368916064500809E-2   2.895497679710388E-1   9.495667219161987E-1  
 4.120000000000000E7     7.347242832183838E-1  -6.705794930458069E-1  -2.088338136672974E-2   7.815580070018768E-2  -2.071817219257355E-2   7.804203778505325E-2   3.184114992618561E-1   9.406655430793762E-1  
 4.150000000000000E7     7.085140347480774E-1  -6.981239914894104E-1  -1.643465831875801E-2   7.273179292678833E-2  -1.670344173908234E-2   7.228340208530426E-2   3.475542366504669E-1   9.298380017280579E-1  
 4.180000000000000E7     6.803113818168640E-1  -7.268674969673157E-1  -1.265129633247852E-2   6.668736785650253E-2  -1.275697909295559E-2   6.654945015907288E-2   3.763468563556671E-1   9.202783107757568E-1  
 4.210000000000000E7     6.522964239120483E-1  -7.524933815002441E-1  -9.270399808883667E-3   6.082670390605927E-2  -9.437086060643196E-3   6.077686697244644E-2   4.072622358798981E-1   9.070537090301514E-1  
 4.240000000000000E7     6.227160692214966E-1  -7.765943408012390E-1  -6.502035073935986E-3   5.478763580322266E-2  -6.532449740916491E-3   5.485050752758980E-2   4.372694492340088E-1   8.940166831016541E-1  
 4.270000000000000E7     5.921839475631714E-1  -8.003646731376648E-1  -4.008161835372448E-3   4.876929521560669E-2  -3.991764038801193E-3   4.863131791353226E-2   4.670493304729462E-1   8.785670995712280E-1  
 4.300000000000000E7     5.609760880470276E-1  -8.234592080116272E-1  -1.846069237217307E-3   4.252727329730988E-2  -1.993197714909911E-3   4.242434352636337E-2   4.975857436656952E-1   8.625506162643433E-1  
 4.330000000000000E7     5.317614674568176E-1  -8.440799713134766E-1  -4.951255396008492E-4   3.623861446976662E-2  -5.006676074117422E-4   3.625432774424553E-2   5.271447300910950E-1   8.440545201301575E-1  
 4.360000000000000E7     4.983338713645935E-1  -8.634099364280701E-1   6.041355663910508E-4   3.000826388597488E-2   5.280385958030820E-4   2.996128797531128E-2   5.567042231559753E-1   8.253603577613831E-1  
 4.390000000000000E7     4.652134180068970E-1  -8.829613924026489E-1   1.303682802245021E-3   2.385574765503407E-2   1.267238403670490E-3   2.369785308837891E-2   5.867416858673096E-1   8.041196465492249E-1  
 4.420000000000000E7     4.318231940269470E-1  -8.990514278411865E-1   1.510307774879038E-3   1.733690872788429E-2   1.478131860494614E-3   1.733116805553436E-2   6.167089343070984E-1   7.812030911445618E-1  
 4.450000000000000E7     3.979153633117676E-1  -9.143247604370117E-1   1.241480931639671E-3   1.109007000923157E-2   1.244643237441778E-3   1.105108857154846E-2   6.463958024978638E-1   7.580679059028626E-1  
 4.480000000000000E7     3.639997839927673E-1  -9.288179278373718E-1   4.106009728275240E-4   4.749370273202658E-3   4.404699720907956E-4   4.749121144413948E-3   6.756633520126343E-1   7.316378355026245E-1  
 4.510000000000000E7     3.306977450847626E-1  -9.418665170669556E-1  -7.475074962712824E-4  -1.588109764270484E-3  -7.799990708008409E-4  -1.517290133051574E-3   7.056195139884949E-1   7.031022310256958E-1  
 4.540000000000000E7     2.953594624996185E-1  -9.527547955513001E-1  -2.502509625628591E-3  -7.602317258715630E-3  -2.407652093097568E-3  -7.651789579540491E-3   7.341623306274414E-1   6.727208495140076E-1  
 4.570000000000000E7     2.601159811019898E-1  -9.631596803665161E-1  -4.740216303616762E-3  -1.377895101904869E-2  -4.738260060548782E-3  -1.383743621408939E-2   7.614591717720032E-1   6.399210691452026E-1  
 4.600000000000000E7     2.273687422275543E-1  -9.710900187492371E-1  -7.503682747483254E-3  -1.975461654365063E-2  -7.560819387435913E-3  -1.982180774211884E-2   7.887645959854126E-1   6.071701645851135E-1  
 4.630000000000000E7     1.892698705196381E-1  -9.794374704360962E-1  -1.078223437070847E-2  -2.554110251367092E-2  -1.088901609182358E-2  -2.552400156855583E-2   8.158738613128662E-1   5.698741078376770E-1  
 4.660000000000000E7     1.534664332866669E-1  -9.861829280853272E-1  -1.462080515921116E-2  -3.104516491293907E-2  -1.460575591772795E-2  -3.109701722860336E-2   8.405621051788330E-1   5.294929146766663E-1  
 4.690000000000000E7     1.185856983065605E-1  -9.897755384445190E-1  -1.894815638661385E-2  -3.642008453607559E-2  -1.891090348362923E-2  -3.649657592177391E-2   8.662871122360230E-1   4.888954758644104E-1  
 4.720000000000000E7     8.241473883390427E-2  -9.929916262626648E-1  -2.380707487463951E-2  -4.151348397135735E-2  -2.388245798647404E-2  -4.148213192820549E-2   8.873320221900940E-1   4.449600577354431E-1  
 4.750000000000000E7     4.738008230924606E-2  -9.955297112464905E-1  -2.933713234961033E-2  -4.620964825153351E-2  -2.925337664783001E-2  -4.631289094686508E-2   9.101827144622803E-1   3.999746441841126E-1  
 4.780000000000000E7     1.248469948768616E-2  -9.962747097015381E-1  -3.504487499594688E-2  -5.062419921159744E-2  -3.503743559122086E-2  -5.073035880923271E-2   9.273631572723389E-1   3.519169092178345E-1  
 4.810000000000000E7    -2.332869172096252E-2  -9.952394962310791E-1  -4.159027710556984E-2  -5.483785644173622E-2  -4.149822145700455E-2  -5.481716245412827E-2   9.457996487617493E-1   3.010604381561279E-1  
 4.840000000000000E7    -5.839588120579720E-2  -9.938789606094360E-1  -4.845803231000900E-2  -5.837443843483925E-2  -4.861938580870628E-2  -5.818594992160797E-2   9.606456160545349E-1   2.479625046253204E-1  
 4.870000000000000E7    -9.425990283489227E-2  -9.902440905570984E-1  -5.604545772075653E-2  -6.113306805491447E-2  -5.584937334060669E-2  -6.124730408191681E-2   9.726512432098389E-1   1.932064890861511E-1  
 4.900000000000000E7    -1.292690336704254E-1  -9.865353107452393E-1  -6.379884481430054E-2  -6.352395564317703E-2  -6.381969898939133E-2  -6.359940022230148E-2   9.810268878936768E-1   1.366261243820190E-1  
 4.930000000000000E7    -1.638323664665222E-1  -9.804512262344360E-1  -7.198091596364975E-2  -6.543226540088654E-2  -7.215096056461334E-2  -6.559730321168900E-2   9.870997071266174E-1   7.679276168346405E-2  
 4.960000000000000E7    -1.976365745067596E-1  -9.714573025703430E-1  -8.066827803850174E-2  -6.635733693838120E-2  -8.065634220838547E-2  -6.623874604701996E-2   9.884107708930969E-1   1.617974787950516E-2  
 4.990000000000000E7    -2.308296859264374E-1  -9.637015461921692E-1  -8.959223330020905E-2  -6.664499640464783E-2  -8.948575705289841E-2  -6.668180972337723E-2   9.865511655807495E-1  -4.626245051622391E-2  
 5.020000000000000E7    -2.635172307491303E-1  -9.556535482406616E-1  -9.890284389257431E-2  -6.625224649906158E-2  -9.901563078165054E-2  -6.672260165214539E-2   9.811651110649109E-1  -1.103493124246597E-1  
 5.050000000000000E7    -2.969298958778381E-1  -9.444055557250977E-1  -1.083133146166802E-1  -6.501538306474686E-2  -1.083654612302780E-1  -6.477469205856323E-2   9.705812931060791E-1  -1.754902899265289E-1  
 5.080000000000000E7    -3.284064233303070E-1  -9.332695603370667E-1  -1.180033236742020E-1  -6.267839670181274E-2  -1.179835423827171E-1  -6.313782185316086E-2   9.554023146629334E-1  -2.406873703002930E-1  
 5.110000000000000E7    -3.606840670108795E-1  -9.194169044494629E-1  -1.275137811899185E-1  -5.960513278841972E-2  -1.275421082973480E-1  -5.954490602016449E-2   9.351611137390137E-1  -3.069360852241516E-1  
 5.140000000000000E7    -3.915728330612183E-1  -9.053840637207031E-1  -1.371455341577530E-1  -5.561701580882072E-2  -1.371100395917893E-1  -5.522591993212700E-2   9.099593758583069E-1  -3.729955554008484E-1  
 5.170000000000000E7    -4.214315116405487E-1  -8.906050920486450E-1  -1.459020525217056E-1  -5.050789937376976E-2  -1.463815718889237E-1  -5.038741976022720E-2   8.790137171745300E-1  -4.367864131927490E-1  
 5.200000000000000E7    -4.514395892620087E-1  -8.759620189666748E-1  -1.557373851537705E-1  -4.437253996729851E-2  -1.561422049999237E-1  -4.463655501604080E-2   8.436693549156189E-1  -5.016809701919556E-1  
 5.230000000000000E7    -4.800459742546082E-1  -8.581661581993103E-1  -1.643857359886169E-1  -3.699860721826553E-2  -1.644167155027390E-1  -3.685716912150383E-2   8.015211224555969E-1  -5.623868703842163E-1  
 5.260000000000000E7    -5.078060626983643E-1  -8.390913009643555E-1  -1.722662299871445E-1  -2.882198989391327E-2  -1.728642582893372E-1  -2.910922653973103E-2   7.564215064048767E-1  -6.218758225440979E-1  
 5.290000000000000E7    -5.361411571502686E-1  -8.212767839431763E-1  -1.808965653181076E-1  -2.047352120280266E-2  -1.804289817810059E-1  -2.011770568788052E-2   7.047839760780335E-1  -6.783661842346191E-1  
 5.320000000000000E7    -5.623723268508911E-1  -8.030831217765808E-1  -1.877646148204804E-1  -1.029871869832277E-2  -1.875687837600708E-1  -1.015730109065771E-2   6.482853293418884E-1  -7.308723926544190E-1  
 5.350000000000000E7    -5.870736241340637E-1  -7.825466990470886E-1  -1.936142146587372E-1   6.081704050302506E-4  -1.930743008852005E-1   4.536341875791550E-4   5.869941711425781E-1  -7.783489227294922E-1  
 5.380000000000000E7    -6.111132502555847E-1  -7.619140744209290E-1  -1.987271606922150E-1   1.142464578151703E-2  -1.982246041297913E-1   1.143503189086914E-2   5.215228796005249E-1  -8.225237727165222E-1  
 5.410000000000000E7    -6.378598213195801E-1  -7.404383420944214E-1  -2.032656967639923E-1   2.382441610097885E-2  -2.027133405208588E-1   2.347812801599503E-2   4.548792839050293E-1  -8.605167269706726E-1  
 5.440000000000000E7    -6.604682207107544E-1  -7.173173427581787E-1  -2.059190124273300E-1   3.595284745097160E-2  -2.059837281703949E-1   3.591483831405640E-2   3.824510574340820E-1  -8.940048217773438E-1  
 5.470000000000000E7    -6.816823482513428E-1  -6.954678297042847E-1  -2.087190151214600E-1   4.816549271345139E-2  -2.081931829452515E-1   4.855179786682129E-2   3.092794716358185E-1  -9.208062887191773E-1  
 5.500000000000000E7    -7.045894861221314E-1  -6.716741323471069E-1  -2.087885141372681E-1   6.140398606657982E-2  -2.086004912853241E-1   6.100546941161156E-2   2.332976013422012E-1  -9.405739903450012E-1  
 5.530000000000000E7    -7.252261638641357E-1  -6.483161449432373E-1  -2.088008522987366E-1   7.423841953277588E-2  -2.086572945117950E-1   7.462801039218903E-2   1.563929170370102E-1  -9.560843706130981E-1  
 5.560000000000000E7    -7.460943460464478E-1  -6.228245496749878E-1  -2.076206058263779E-1   8.733728528022766E-2  -2.073020488023758E-1   8.709178864955902E-2   7.906872034072876E-2  -9.650536179542542E-1  
 5.590000000000000E7    -7.654235363006592E-1  -5.988252162933350E-1  -2.052265405654907E-1   1.002286598086357E-1  -2.050618380308151E-1   1.001830846071243E-1   2.878323197364807E-3  -9.675698280334473E-1  
 5.620000000000000E7    -7.834829688072205E-1  -5.716324448585510E-1  -2.010335326194763E-1   1.125777065753937E-1  -2.009942829608917E-1   1.121913045644760E-1  -7.386930286884308E-2  -9.641149640083313E-1  
 5.650000000000000E7    -8.006887435913086E-1  -5.471866130828857E-1  -1.971400380134583E-1   1.251103878021240E-1  -1.967163085937500E-1   1.244270801544190E-1  -1.486547142267227E-1  -9.548069238662720E-1  
 5.680000000000000E7    -8.174809217453003E-1  -5.207194089889526E-1  -1.914857476949692E-1   1.363709867000580E-1  -1.913700401782990E-1   1.365491896867752E-1  -2.217230945825577E-1  -9.410426020622253E-1  
 5.710000000000000E7    -8.339256644248962E-1  -4.924689829349518E-1  -1.850291490554810E-1   1.475069820880890E-1  -1.847795844078064E-1   1.478053182363510E-1  -2.906914949417114E-1  -9.204945564270020E-1  
 5.740000000000000E7    -8.498432636260986E-1  -4.649726748466492E-1  -1.776751279830933E-1   1.581721007823944E-1  -1.779831796884537E-1   1.577524542808533E-1  -3.577487468719482E-1  -8.978599905967712E-1  
 5.770000000000000E7    -8.628755807876587E-1  -4.386862814426422E-1  -1.698581129312515E-1   1.671939790248871E-1  -1.697888970375061E-1   1.670871376991272E-1  -4.227558076381683E-1  -8.671648502349854E-1  
 5.800000000000000E7    -8.769089579582214E-1  -4.091008305549622E-1  -1.616735309362412E-1   1.763611584901810E-1  -1.605161279439926E-1   1.762328892946243E-1  -4.821592569351196E-1  -8.353124856948853E-1  
 5.830000000000000E7    -8.894726037979126E-1  -3.806539475917816E-1  -1.520332396030426E-1   1.847266405820847E-1  -1.518605351448059E-1   1.847176998853684E-1  -5.399433374404907E-1  -7.989906072616577E-1  
 5.860000000000000E7    -9.025876522064209E-1  -3.521709442138672E-1  -1.429528743028641E-1   1.922589391469955E-1  -1.429995298385620E-1   1.922981590032578E-1  -5.925952196121216E-1  -7.618598341941834E-1  
 5.890000000000000E7    -9.123128056526184E-1  -3.222943246364594E-1  -1.329510509967804E-1   1.985137760639191E-1  -1.335532665252686E-1   1.988479495048523E-1  -6.427527070045471E-1  -7.199614644050598E-1  
 5.920000000000000E7    -9.224792718887329E-1  -2.921915054321289E-1  -1.231664195656776E-1   2.046863287687302E-1  -1.222523599863052E-1   2.044405043125153E-1  -6.877605915069580E-1  -6.776137351989746E-1  
 5.950000000000000E7    -9.312881231307983E-1  -2.622796893119812E-1  -1.128228828310967E-1   2.096862941980362E-1  -1.125365495681763E-1   2.095962166786194E-1  -7.299078702926636E-1  -6.320452094078064E-1  
 5.980000000000000E7    -9.400406479835510E-1  -2.316822558641434E-1  -1.025892570614815E-1   2.144773900508881E-1  -1.022160053253174E-1   2.137766033411026E-1  -7.680432200431824E-1  -5.871677398681641E-1  
 6.010000000000000E7    -9.463384747505188E-1  -2.021033167839050E-1  -9.234979003667831E-2   2.171297520399094E-1  -9.230506420135498E-2   2.168657034635544E-1  -8.007645606994629E-1  -5.400912165641785E-1  
 6.040000000000000E7    -9.532963633537293E-1  -1.699597090482712E-1  -8.138833940029144E-2   2.198008000850678E-1  -8.155583590269089E-2   2.202066779136658E-1  -8.318840861320496E-1  -4.923874735832214E-1  
 6.070000000000000E7    -9.594492912292481E-1  -1.402964890003204E-1  -7.145147025585175E-2   2.222847938537598E-1  -7.174470275640488E-2   2.220899462699890E-1  -8.576336503028870E-1  -4.450721144676209E-1  
 6.100000000000000E7    -9.630051255226135E-1  -1.087756752967835E-1  -6.160463392734528E-2   2.244962602853775E-1  -6.123473122715950E-2   2.239171862602234E-1  -8.821424245834351E-1  -3.978609144687653E-1  
 6.130000000000000E7    -9.670021533966065E-1  -7.665935903787613E-2  -5.113693699240685E-2   2.249571681022644E-1  -5.132767558097839E-2   2.249043285846710E-1  -9.024053812026978E-1  -3.500444591045380E-1  
 6.160000000000000E7    -9.688737988471985E-1  -4.543516784906387E-2  -4.100804403424263E-2   2.251648753881455E-1  -4.101370275020599E-2   2.252249568700790E-1  -9.200986027717590E-1  -3.022239208221436E-1  
 6.190000000000000E7    -9.702445864677429E-1  -1.410370320081711E-2  -3.152011334896088E-2   2.246961593627930E-1  -3.105141036212444E-2   2.244382947683334E-1  -9.348463416099548E-1  -2.541568577289581E-1  
 6.220000000000000E7    -9.708383679389954E-1   1.771116256713867E-2  -2.204819768667221E-2   2.240138947963715E-1  -2.236053161323071E-2   2.240540683269501E-1  -9.455920457839966E-1  -2.094550132751465E-1  
 6.250000000000000E7    -9.702351689338684E-1   4.988455772399902E-2  -1.318963244557381E-2   2.227775901556015E-1  -1.321967691183090E-2   2.228308171033859E-1  -9.553175568580627E-1  -1.649380475282669E-1  
 6.280000000000000E7    -9.678670763969421E-1   8.184141665697098E-2  -4.297126084566116E-3   2.208878397941589E-1  -5.180303007364273E-3   2.208379954099655E-1  -9.614726305007935E-1  -1.207310259342194E-1  
 6.310000000000000E7    -9.648478031158447E-1   1.145993173122406E-1   4.157748073339462E-3   2.192680239677429E-1   4.021942615509033E-3   2.192665487527847E-1  -9.681419134140015E-1  -7.604150474071503E-2  
 6.340000000000000E7    -9.612242579460144E-1   1.461309194564819E-1   1.259826868772507E-2   2.168430984020233E-1   1.239036582410336E-2   2.167898267507553E-1  -9.713566303253174E-1  -3.411693871021271E-2  
 6.370000000000000E7    -9.565725922584534E-1   1.777244508266449E-1   2.039206400513649E-2   2.142580002546310E-1   2.064482122659683E-2   2.142162173986435E-1  -9.709600210189819E-1   7.501408457756043E-3  
 6.400000000000000E7    -9.494920969009399E-1   2.088871449232101E-1   2.781598642468453E-2   2.115804851055145E-1   2.828351967036724E-2   2.107883244752884E-1  -9.709643125534058E-1   4.721309244632721E-2  
 6.430000000000000E7    -9.428109526634216E-1   2.418540567159653E-1   3.544945642352104E-2   2.079459726810455E-1   3.586209937930107E-2   2.077631056308746E-1  -9.695765972137451E-1   8.749531209468842E-2  
 6.460000000000000E7    -9.354714155197144E-1   2.727639675140381E-1   4.301984608173370E-2   2.043459713459015E-1   4.268790781497955E-2   2.044104784727097E-1  -9.640250802040100E-1   1.250562667846680E-1  
 6.490000000000000E7    -9.271756410598755E-1   3.035649359226227E-1   4.957760870456696E-2   2.007191181182861E-1   4.896808788180351E-2   2.011349499225617E-1  -9.595997333526611E-1   1.607017815113068E-1  
 6.520000000000000E7    -9.161241650581360E-1   3.337942957878113E-1   5.542643368244171E-2   1.966095417737961E-1   5.558433011174202E-2   1.965686082839966E-1  -9.536937475204468E-1   1.972784996032715E-1  
 6.550000000000000E7    -9.054193496704102E-1   3.639200925827026E-1   6.171815842390060E-2   1.929063051939011E-1   6.190112605690956E-2   1.929879933595657E-1  -9.462662935256958E-1   2.321440875530243E-1  
 6.580000000000000E7    -8.928400874137878E-1   3.943860530853272E-1   6.767658144235611E-2   1.888677924871445E-1   6.758959591388702E-2   1.885654926300049E-1  -9.385368824005127E-1   2.652003765106201E-1  
 6.610000000000000E7    -8.782096505165100E-1   4.241589605808258E-1   7.330220192670822E-2   1.842884421348572E-1   7.347300648689270E-2   1.834730654954910E-1  -9.292565584182739E-1   2.988870739936829E-1  
 6.640000000000000E7    -8.657546639442444E-1   4.536184668540955E-1   7.876186817884445E-2   1.797748506069183E-1   7.855464518070221E-2   1.801701933145523E-1  -9.187937378883362E-1   3.302137255668640E-1  
 6.670000000000000E7    -8.498311638832092E-1   4.819411039352417E-1   8.365174382925034E-2   1.750895977020264E-1   8.333158493041992E-2   1.752811223268509E-1  -9.079033136367798E-1   3.591296076774597E-1  
 6.700000000000000E7    -8.335092663764954E-1   5.109236240386963E-1   8.818419277667999E-2   1.701567322015762E-1   8.798724412918091E-2   1.698682159185410E-1  -8.956573605537415E-1   3.888617157936096E-1  
 6.730000000000000E7    -8.165221214294434E-1   5.385125279426575E-1   9.262114018201828E-2   1.652578562498093E-1   9.275524318218231E-2   1.650817692279816E-1  -8.843622207641602E-1   4.162446558475494E-1  
 6.760000000000000E7    -7.985446453094482E-1   5.655680894851685E-1   9.728354215621948E-2   1.610693633556366E-1   9.684541821479797E-2   1.603652834892273E-1  -8.706210851669312E-1   4.444668889045715E-1  
 6.790000000000000E7    -7.789446115493774E-1   5.927814841270447E-1   1.006786376237869E-1   1.555893272161484E-1   1.010546088218689E-1   1.555697917938232E-1  -8.577827811241150E-1   4.703916907310486E-1  
 6.820000000000000E7    -7.589159011840820E-1   6.178821921348572E-1   1.047325581312180E-1   1.505857855081558E-1   1.042308956384659E-1   1.504120379686356E-1  -8.436318039894104E-1   4.952298402786255E-1  
 6.850000000000000E7    -7.384015321731567E-1   6.444200277328491E-1   1.076881438493729E-1   1.456165611743927E-1   1.077883392572403E-1   1.455515325069428E-1  -8.290872573852539E-1   5.193701982498169E-1  
 6.880000000000000E7    -7.163758277893066E-1   6.686049103736877E-1   1.111707538366318E-1   1.405071020126343E-1   1.107720509171486E-1   1.400457322597504E-1  -8.140604496002197E-1   5.430874824523926E-1  
 6.910000000000000E7    -6.934177875518799E-1   6.930097937583923E-1   1.142514199018478E-1   1.358627974987030E-1   1.140788272023201E-1   1.354075521230698E-1  -7.996377348899841E-1   5.664334297180176E-1  
 6.940000000000000E7    -6.705772876739502E-1   7.160527110099793E-1   1.165358126163483E-1   1.308201104402542E-1   1.169211715459824E-1   1.305983662605286E-1  -7.848393917083740E-1   5.872473716735840E-1  
 6.970000000000000E7    -6.451853513717651E-1   7.388192415237427E-1   1.192178949713707E-1   1.254678070545197E-1   1.195759177207947E-1   1.252000182867050E-1  -7.691466808319092E-1   6.081486940383911E-1  
 7.000000000000000E7    -6.203094720840454E-1   7.610425353050232E-1   1.214651018381119E-1   1.203644722700119E-1   1.214555799961090E-1   1.201431676745415E-1  -7.535602450370789E-1   6.287854313850403E-1  
