#  HZ   S   RI   R     50.00 
! Rohde & Schwarz ZVT8 8Ports - Version 4.11 - 1300.0000k08 SN: 100242
! Date: 2026-07-31 15:12:19
! Measurements: S11 S21 S12 S22 
! 
 1.000000000000000E7    -4.102015495300293E-1   9.083639383316040E-1   4.865052178502083E-2   4.990455880761147E-2   4.848036915063858E-2   4.983756691217423E-2  -9.207992553710938E-1   3.807739019393921E-1  
 1.030000000000000E7    -3.787681162357330E-1   9.207674860954285E-1   5.156837031245232E-2   5.006379261612892E-2   5.135979130864143E-2   5.021452531218529E-2  -9.153676033020020E-1   3.931212127208710E-1  
 1.060000000000000E7    -3.432232439517975E-1   9.340679645538330E-1   5.438201874494553E-2   5.083177983760834E-2   5.446022748947144E-2   5.053268000483513E-2  -9.117447137832642E-1   4.040871858596802E-1  
 1.090000000000000E7    -3.122691512107849E-1   9.445449709892273E-1   5.757230147719383E-2   5.095275118947029E-2   5.733790248632431E-2   5.092080309987068E-2  -9.063624739646912E-1   4.153400361537933E-1  
 1.120000000000000E7    -2.777983546257019E-1   9.539169669151306E-1   6.062442809343338E-2   5.146913975477219E-2   6.021642312407494E-2   5.122464150190353E-2  -9.009397625923157E-1   4.265183806419373E-1  
 1.150000000000000E7    -2.435031384229660E-1   9.646092653274536E-1   6.351938843727112E-2   5.116790160536766E-2   6.339946389198303E-2   5.130632594227791E-2  -8.943356871604919E-1   4.354448318481445E-1  
 1.180000000000000E7    -2.095255255699158E-1   9.697171449661255E-1   6.646410375833511E-2   5.142932385206223E-2   6.643145531415939E-2   5.114158987998962E-2  -8.901830315589905E-1   4.461838603019714E-1  
 1.210000000000000E7    -1.761415898799896E-1   9.771297574043274E-1   6.989236921072006E-2   5.155252665281296E-2   6.970574706792831E-2   5.132938548922539E-2  -8.833502531051636E-1   4.578215777873993E-1  
 1.240000000000000E7    -1.414513438940048E-1   9.818559288978577E-1   7.282809913158417E-2   5.117727071046829E-2   7.314836978912354E-2   5.097819864749908E-2  -8.771781921386719E-1   4.673452973365784E-1  
 1.270000000000000E7    -1.066358536481857E-1   9.861525297164917E-1   7.690401375293732E-2   5.078184977173805E-2   7.634453475475311E-2   5.061003938317299E-2  -8.710789084434509E-1   4.806724786758423E-1  
 1.300000000000000E7    -7.317549735307694E-2   9.896320700645447E-1   7.970382273197174E-2   5.027795583009720E-2   7.958742231130600E-2   5.020424723625183E-2  -8.640493750572205E-1   4.901454746723175E-1  
 1.330000000000000E7    -3.800494968891144E-2   9.913731813430786E-1   8.360516279935837E-2   4.979468137025833E-2   8.324090391397476E-2   4.931985214352608E-2  -8.573548197746277E-1   5.020400285720825E-1  
 1.360000000000000E7    -1.651026308536530E-3   9.924511909484863E-1   8.696013689041138E-2   4.919631034135819E-2   8.722523599863052E-2   4.869208484888077E-2  -8.510500192642212E-1   5.106245279312134E-1  
 1.390000000000000E7     3.203438967466354E-2   9.904890656471252E-1   9.068372845649719E-2   4.806305840611458E-2   9.017880260944367E-2   4.823267459869385E-2  -8.440983295440674E-1   5.217500925064087E-1  
 1.420000000000000E7     6.772067397832871E-2   9.891955852508545E-1   9.399024397134781E-2   4.744407162070274E-2   9.396123141050339E-2   4.740657284855843E-2  -8.389034271240234E-1   5.315623283386231E-1  
 1.450000000000000E7     1.023696064949036E-1   9.847992062568665E-1   9.781169146299362E-2   4.616006463766098E-2   9.776327759027481E-2   4.598196968436241E-2  -8.295204043388367E-1   5.435678362846375E-1  
 1.480000000000000E7     1.381088942289352E-1   9.805443882942200E-1   1.014220938086510E-1   4.463662952184677E-2   1.014350652694702E-1   4.521479085087776E-2  -8.230137228965759E-1   5.526298284530640E-1  
 1.510000000000000E7     1.721215695142746E-1   9.745240807533264E-1   1.050448566675186E-1   4.342607036232948E-2   1.048008874058723E-1   4.328382387757301E-2  -8.133433461189270E-1   5.638030171394348E-1  
 1.540000000000000E7     2.057443708181381E-1   9.674425125122070E-1   1.086206957697868E-1   4.271691292524338E-2   1.086377352476120E-1   4.217557236552239E-2  -8.088207840919495E-1   5.725056529045105E-1  
 1.570000000000000E7     2.412731349468231E-1   9.608381986618042E-1   1.126297861337662E-1   4.049068689346314E-2   1.125470027327538E-1   4.043776541948319E-2  -7.997401952743530E-1   5.843535065650940E-1  
 1.600000000000000E7     2.758387923240662E-1   9.497264027595520E-1   1.162781938910484E-1   3.875264152884483E-2   1.164904609322548E-1   3.859797120094299E-2  -7.925403118133545E-1   5.924412608146668E-1  
 1.630000000000000E7     3.089359998703003E-1   9.389628171920776E-1   1.205093041062355E-1   3.646054118871689E-2   1.201344355940819E-1   3.647842630743980E-2  -7.839136123657227E-1   6.039851903915405E-1  
 1.660000000000000E7     3.427769243717194E-1   9.260540604591370E-1   1.243651360273361E-1   3.430769592523575E-2   1.241026595234871E-1   3.402280434966087E-2  -7.741491198539734E-1   6.143645048141480E-1  
 1.690000000000000E7     3.754214048385620E-1   9.129825830459595E-1   1.284513771533966E-1   3.249361738562584E-2   1.279172748327255E-1   3.207514062523842E-2  -7.664889693260193E-1   6.229672431945801E-1  
 1.720000000000000E7     4.097780883312225E-1   8.984725475311279E-1   1.316432356834412E-1   2.930411696434021E-2   1.318808495998383E-1   2.958436310291290E-2  -7.575569152832031E-1   6.323133707046509E-1  
 1.750000000000000E7     4.376303553581238E-1   8.852690458297730E-1   1.362564265727997E-1   2.776813507080078E-2   1.364740133285523E-1   2.745668217539787E-2  -7.501624226570129E-1   6.438338160514832E-1  
 1.780000000000000E7     4.723299443721771E-1   8.648537993431091E-1   1.394966393709183E-1   2.426761016249657E-2   1.397582739591599E-1   2.461795695126057E-2  -7.399908900260925E-1   6.508226990699768E-1  
 1.810000000000000E7     5.022020339965820E-1   8.480851650238037E-1   1.443301886320114E-1   2.165298163890839E-2   1.433679610490799E-1   2.100940421223640E-2  -7.306084632873535E-1   6.632648706436157E-1  
 1.840000000000000E7     5.343621373176575E-1   8.291661739349365E-1   1.484800130128861E-1   1.763215847313404E-2   1.476688534021378E-1   1.775952987372875E-2  -7.204287648200989E-1   6.726553440093994E-1  
 1.870000000000000E7     5.617400407791138E-1   8.091170787811279E-1   1.520159244537354E-1   1.488402858376503E-2   1.515391021966934E-1   1.442947797477245E-2  -7.108412981033325E-1   6.813731789588928E-1  
 1.900000000000000E7     5.908055901527405E-1   7.880296707153320E-1   1.558913886547089E-1   1.154878269881010E-2   1.556621193885803E-1   1.097947824746370E-2  -7.006930708885193E-1   6.907542943954468E-1  
 1.930000000000000E7     6.198864579200745E-1   7.648181915283203E-1   1.595245599746704E-1   6.729090586304665E-3   1.598695665597916E-1   7.573192939162254E-3  -6.909154057502747E-1   7.016181945800781E-1  
 1.960000000000000E7     6.473822593688965E-1   7.402210831642151E-1   1.632396578788757E-1   3.055015578866005E-3   1.633657962083817E-1   3.503469750285149E-3  -6.820591092109680E-1   7.092226743698120E-1  
 1.990000000000000E7     6.721459627151489E-1   7.156155109405518E-1   1.671387404203415E-1  -1.285670325160027E-3   1.673153042793274E-1  -9.827036410570145E-4  -6.691702008247376E-1   7.206671237945557E-1  
 2.020000000000000E7     6.978809833526611E-1   6.899514794349670E-1   1.711673289537430E-1  -5.208537913858891E-3   1.707324385643005E-1  -5.285311490297318E-3  -6.592839360237122E-1   7.268546819686890E-1  
 2.050000000000000E7     7.242348194122315E-1   6.628729104995728E-1   1.748400032520294E-1  -9.675287641584873E-3   1.738151013851166E-1  -1.008441951125860E-2  -6.486343145370483E-1   7.357039451599121E-1  
 2.080000000000000E7     7.474709153175354E-1   6.338492035865784E-1   1.786244660615921E-1  -1.461748220026493E-2   1.785653233528137E-1  -1.448883954435587E-2  -6.379138827323914E-1   7.460769414901733E-1  
 2.110000000000000E7     7.710280418395996E-1   6.057035923004150E-1   1.826540380716324E-1  -2.018100582063198E-2   1.825225055217743E-1  -1.992867328226566E-2  -6.260508894920349E-1   7.550243735313416E-1  
 2.140000000000000E7     7.921857833862305E-1   5.763332843780518E-1   1.862953603267670E-1  -2.566384524106979E-2   1.853793114423752E-1  -2.498664706945419E-2  -6.143584847450256E-1   7.629235982894898E-1  
 2.170000000000000E7     8.109226226806641E-1   5.470782518386841E-1   1.896095871925354E-1  -3.074719011783600E-2   1.894437819719315E-1  -3.018986433744431E-2  -6.032961606979370E-1   7.714130878448486E-1  
 2.200000000000000E7     8.320550322532654E-1   5.137873291969299E-1   1.928826123476028E-1  -3.675461187958717E-2   1.928638964891434E-1  -3.639840334653854E-2  -5.894243717193604E-1   7.796361446380615E-1  
 2.230000000000000E7     8.491573333740234E-1   4.820524752140045E-1   1.962327957153320E-1  -4.264939576387405E-2   1.958808302879334E-1  -4.231671243906021E-2  -5.774738788604736E-1   7.872236371040344E-1  
 2.260000000000000E7     8.666673898696899E-1   4.490289688110352E-1   1.992201209068298E-1  -4.898616299033165E-2   2.002727836370468E-1  -4.848505556583405E-2  -5.653150677680969E-1   7.952784299850464E-1  
 2.290000000000000E7     8.823041915893555E-1   4.155402481555939E-1   2.024399638175964E-1  -5.527564138174057E-2   2.027464061975479E-1  -5.469357967376709E-2  -5.506889224052429E-1   8.026834130287170E-1  
 2.320000000000000E7     8.956235051155090E-1   3.810204267501831E-1   2.058250755071640E-1  -6.242297589778900E-2   2.054582685232163E-1  -6.255552917718887E-2  -5.383389592170715E-1   8.124868869781494E-1  
 2.350000000000000E7     9.089737534523010E-1   3.446265757083893E-1   2.088601887226105E-1  -7.009737193584442E-2   2.083361744880676E-1  -6.930597871541977E-2  -5.256724953651428E-1   8.194071650505066E-1  
 2.380000000000000E7     9.201945066452026E-1   3.099443316459656E-1   2.112682312726975E-1  -7.657887041568756E-2   2.113069146871567E-1  -7.644911110401154E-2  -5.121356844902039E-1   8.264944553375244E-1  
 2.410000000000000E7     9.312044978141785E-1   2.724446058273315E-1   2.137751132249832E-1  -8.477945625782013E-2   2.134354561567307E-1  -8.447701483964920E-2  -4.975993037223816E-1   8.336536884307861E-1  
 2.440000000000000E7     9.393507838249207E-1   2.362689822912216E-1   2.166219800710678E-1  -9.284690022468567E-2   2.167105674743652E-1  -9.305409342050552E-2  -4.845205545425415E-1   8.405501842498779E-1  
 2.470000000000000E7     9.463947415351868E-1   1.989662945270538E-1   2.187599539756775E-1  -1.015927344560623E-1   2.182368785142899E-1  -1.000640690326691E-1  -4.687907695770264E-1   8.453720808029175E-1  
 2.500000000000000E7     9.532869458198547E-1   1.609992086887360E-1   2.203807383775711E-1  -1.095632165670395E-1   2.204251587390900E-1  -1.099415123462677E-1  -4.537396430969238E-1   8.537051081657410E-1  
 2.530000000000000E7     9.576917290687561E-1   1.231181249022484E-1   2.226293087005615E-1  -1.180678457021713E-1   2.225798070430756E-1  -1.177503317594528E-1  -4.389552474021912E-1   8.588154315948486E-1  
 2.560000000000000E7     9.598075151443481E-1   8.595577627420425E-2   2.239216566085815E-1  -1.266838312149048E-1   2.246228754520416E-1  -1.266949921846390E-1  -4.245060980319977E-1   8.646898865699768E-1  
 2.590000000000000E7     9.603246450424194E-1   4.723007977008820E-2   2.252689450979233E-1  -1.371633857488632E-1   2.257335484027863E-1  -1.369568407535553E-1  -4.095207750797272E-1   8.722900748252869E-1  
 2.620000000000000E7     9.599272012710571E-1   7.602293044328690E-3   2.265898436307907E-1  -1.472340077161789E-1   2.263295054435730E-1  -1.465737074613571E-1  -3.912470638751984E-1   8.777964115142822E-1  
 2.650000000000000E7     9.577463269233704E-1  -2.988489903509617E-2   2.275302261114121E-1  -1.560899615287781E-1   2.275068312883377E-1  -1.565655469894409E-1  -3.763379156589508E-1   8.821013569831848E-1  
 2.680000000000000E7     9.528672099113464E-1  -6.834146380424500E-2   2.284084260463715E-1  -1.662855744361877E-1   2.284003496170044E-1  -1.670232266187668E-1  -3.608453571796417E-1   8.870410323143005E-1  
 2.710000000000000E7     9.470248222351074E-1  -1.085553094744682E-1   2.277841866016388E-1  -1.781389713287354E-1   2.274162918329239E-1  -1.777883470058441E-1  -3.440445363521576E-1   8.925407528877258E-1  
 2.740000000000000E7     9.404426217079163E-1  -1.468967348337174E-1   2.286814898252487E-1  -1.880855411291122E-1   2.281904518604279E-1  -1.889906823635101E-1  -3.261755704879761E-1   8.949580788612366E-1  
 2.770000000000000E7     9.315184950828552E-1  -1.842370629310608E-1   2.276992201805115E-1  -1.998416334390640E-1   2.276686280965805E-1  -2.006240785121918E-1  -3.089210689067841E-1   8.998970389366150E-1  
 2.800000000000000E7     9.216538071632385E-1  -2.215147614479065E-1   2.267536222934723E-1  -2.107508629560471E-1   2.275713831186295E-1  -2.107294946908951E-1  -2.910367548465729E-1   9.019848704338074E-1  
 2.830000000000000E7     9.080038666725159E-1  -2.605836689472199E-1   2.249368131160736E-1  -2.222890853881836E-1   2.248445004224777E-1  -2.232369780540466E-1  -2.754386365413666E-1   9.054046869277954E-1  
 2.860000000000000E7     8.940924406051636E-1  -2.977381348609924E-1   2.235336452722549E-1  -2.347733676433563E-1   2.229688465595245E-1  -2.358961403369904E-1  -2.543737888336182E-1   9.088870882987976E-1  
 2.890000000000000E7     8.777871131896973E-1  -3.336482048034668E-1   2.207587510347366E-1  -2.481625974178314E-1   2.206357717514038E-1  -2.477757334709168E-1  -2.369496077299118E-1   9.106762409210205E-1  
 2.920000000000000E7     8.608037829399109E-1  -3.702018558979034E-1   2.186850905418396E-1  -2.595904767513275E-1   2.175342738628388E-1  -2.600127160549164E-1  -2.192168831825256E-1   9.115970134735107E-1  
 2.950000000000000E7     8.421787023544312E-1  -4.043944478034973E-1   2.156121134757996E-1  -2.739800214767456E-1   2.148146927356720E-1  -2.735878229141235E-1  -1.989787667989731E-1   9.142469167709351E-1  
 2.980000000000000E7     8.210721611976624E-1  -4.393482506275177E-1   2.113722115755081E-1  -2.863560318946838E-1   2.115200608968735E-1  -2.873747646808624E-1  -1.803057789802551E-1   9.148555994033814E-1  
 3.010000000000000E7     7.984176278114319E-1  -4.729552268981934E-1   2.063866406679153E-1  -3.005492389202118E-1   2.072520405054092E-1  -3.002692759037018E-1  -1.610378175973892E-1   9.151271581649780E-1  
 3.040000000000000E7     7.737987041473389E-1  -5.068311691284180E-1   2.023012936115265E-1  -3.143706321716309E-1   2.017541080713272E-1  -3.154900074005127E-1  -1.403011530637741E-1   9.132722020149231E-1  
 3.070000000000000E7     7.468895912170410E-1  -5.370767116546631E-1   1.952666640281677E-1  -3.280646800994873E-1   1.950039416551590E-1  -3.282801210880280E-1  -1.202904060482979E-1   9.134871363639832E-1  
 3.100000000000000E7     7.189673781394959E-1  -5.676799416542053E-1   1.888218373060226E-1  -3.433332443237305E-1   1.883215308189392E-1  -3.426354229450226E-1  -9.960088133811951E-2   9.123874306678772E-1  
 3.130000000000000E7     6.908441185951233E-1  -5.975642800331116E-1   1.809737384319305E-1  -3.578612506389618E-1   1.815663278102875E-1  -3.572846055030823E-1  -7.930315285921097E-2   9.082816243171692E-1  
 3.160000000000000E7     6.584643125534058E-1  -6.246740818023682E-1   1.733423769474030E-1  -3.727569878101349E-1   1.732726395130158E-1  -3.728508353233337E-1  -5.905622243881226E-2   9.072008132934570E-1  
 3.190000000000000E7     6.257603764533997E-1  -6.504487395286560E-1   1.640059649944305E-1  -3.875176310539246E-1   1.637429445981979E-1  -3.865967094898224E-1  -3.713985159993172E-2   9.033991694450378E-1  
 3.220000000000000E7     5.921107530593872E-1  -6.766448020935059E-1   1.549175530672073E-1  -4.020730555057526E-1   1.539991647005081E-1  -4.017488360404968E-1  -1.786036416888237E-2   8.987810015678406E-1  
 3.250000000000000E7     5.565818548202515E-1  -6.988503932952881E-1   1.440109908580780E-1  -4.175885319709778E-1   1.432216316461563E-1  -4.177532196044922E-1   3.804355859756470E-3   8.955762982368469E-1  
 3.280000000000000E7     5.190162658691406E-1  -7.188913226127625E-1   1.325413137674332E-1  -4.330978691577911E-1   1.319300830364227E-1  -4.311245381832123E-1   2.508034557104111E-2   8.890627622604370E-1  
 3.310000000000000E7     4.819288849830627E-1  -7.387225031852722E-1   1.195476651191711E-1  -4.468044638633728E-1   1.186951026320458E-1  -4.471110403537750E-1   4.714543744921684E-2   8.815370202064514E-1  
 3.340000000000000E7     4.430019259452820E-1  -7.562108039855957E-1   1.044095903635025E-1  -4.629907608032227E-1   1.046371385455132E-1  -4.612870812416077E-1   6.866660714149475E-2   8.736711144447327E-1  
 3.370000000000000E7     4.029427170753479E-1  -7.712532877922058E-1   9.020476043224335E-2  -4.767718017101288E-1   9.075448662042618E-2  -4.771738350391388E-1   9.015594422817230E-2   8.664720058441162E-1  
 3.400000000000000E7     3.613580763339996E-1  -7.840451002120972E-1   7.362198084592819E-2  -4.914756119251251E-1   7.377521693706513E-2  -4.920493960380554E-1   1.111217364668846E-1   8.559201359748840E-1  
 3.430000000000000E7     3.198583722114563E-1  -7.951993942260742E-1   5.562201142311096E-2  -5.060874819755554E-1   5.643346533179283E-2  -5.054771304130554E-1   1.328656375408173E-1   8.465856909751892E-1  
 3.460000000000000E7     2.763140797615051E-1  -8.028774857521057E-1   3.725188970565796E-2  -5.201347470283508E-1   3.696256503462791E-2  -5.204637646675110E-1   1.541502922773361E-1   8.355312347412109E-1  
 3.490000000000000E7     2.340536415576935E-1  -8.080872297286987E-1   1.546405442059040E-2  -5.329649448394775E-1   1.779735274612904E-2  -5.323719382286072E-1   1.739842295646668E-1   8.228656649589539E-1  
 3.520000000000000E7     1.898550987243652E-1  -8.114873170852661E-1  -4.554796963930130E-3  -5.465434789657593E-1  -3.335291519761086E-3  -5.463119149208069E-1   1.967755109071732E-1   8.099088072776794E-1  
 3.550000000000000E7     1.444195657968521E-1  -8.101806640625000E-1  -2.613239362835884E-2  -5.598201155662537E-1  -2.659057639539242E-2  -5.598164796829224E-1   2.162780761718750E-1   7.961751222610474E-1  
 3.580000000000000E7     1.003608703613281E-1  -8.077449202537537E-1  -5.058488249778748E-2  -5.706945657730103E-1  -4.977704212069511E-2  -5.705818533897400E-1   2.363635748624802E-1   7.798414230346680E-1  
 3.610000000000000E7     5.710256472229958E-2  -8.013189435005188E-1  -7.711984217166901E-2  -5.829379558563232E-1  -7.621540129184723E-2  -5.815926194190979E-1   2.578724026679993E-1   7.640693187713623E-1  
 3.640000000000000E7     1.239342894405127E-2  -7.932107448577881E-1  -1.028067469596863E-1  -5.925635099411011E-1  -1.022295132279396E-1  -5.932813286781311E-1   2.754292488098145E-1   7.454822659492493E-1  
 3.670000000000000E7    -3.011235967278481E-2  -7.821993827819824E-1  -1.307644844055176E-1  -6.031423211097717E-1  -1.306506544351578E-1  -6.004751920700073E-1   2.942172884941101E-1   7.281640172004700E-1  
 3.700000000000000E7    -7.347358018159866E-2  -7.680578231811523E-1  -1.611120402812958E-1  -6.094243526458740E-1  -1.603542417287827E-1  -6.089776754379273E-1   3.129127025604248E-1   7.066590189933777E-1  
 3.730000000000000E7    -1.153278872370720E-1  -7.515057921409607E-1  -1.903862506151199E-1  -6.142833232879639E-1  -1.910347640514374E-1  -6.149811148643494E-1   3.272581994533539E-1   6.855500340461731E-1  
 3.760000000000000E7    -1.535012573003769E-1  -7.315849661827087E-1  -2.236734181642532E-1  -6.187644004821777E-1  -2.243829369544983E-1  -6.198532581329346E-1   3.447520732879639E-1   6.633543372154236E-1  
 3.790000000000000E7    -1.916557103395462E-1  -7.082630395889282E-1  -2.572191953659058E-1  -6.233419179916382E-1  -2.566727399826050E-1  -6.210801005363464E-1   3.597283959388733E-1   6.403296589851379E-1  
 3.820000000000000E7    -2.286927253007889E-1  -6.822016835212708E-1  -2.926307916641235E-1  -6.239873766899109E-1  -2.921717166900635E-1  -6.239947676658630E-1   3.718961477279663E-1   6.157994270324707E-1  
 3.850000000000000E7    -2.638763785362244E-1  -6.530572772026062E-1  -3.267779946327210E-1  -6.238426566123962E-1  -3.277521133422852E-1  -6.220549941062927E-1   3.863634765148163E-1   5.919808149337769E-1  
 3.880000000000000E7    -2.948472499847412E-1  -6.237930059432983E-1  -3.651548922061920E-1  -6.181193590164185E-1  -3.630357682704926E-1  -6.189290285110474E-1   3.990558981895447E-1   5.643377900123596E-1  
 3.910000000000000E7    -3.261254727840424E-1  -5.898444056510925E-1  -4.017102122306824E-1  -6.131108999252319E-1  -4.019615352153778E-1  -6.127146482467651E-1   4.079822599887848E-1   5.387381315231323E-1  
 3.940000000000000E7    -3.514038324356079E-1  -5.537277460098267E-1  -4.401148855686188E-1  -6.053603887557983E-1  -4.383687376976013E-1  -6.056937575340271E-1   4.158955812454224E-1   5.097691416740418E-1  
 3.970000000000000E7    -3.764845430850983E-1  -5.173409581184387E-1  -4.785220324993134E-1  -5.954441428184509E-1  -4.787609875202179E-1  -5.942826867103577E-1   4.197241067886353E-1   4.816846847534180E-1  
 4.000000000000000E7    -3.963931202888489E-1  -4.782944917678833E-1  -5.166949629783630E-1  -5.809966325759888E-1  -5.173795819282532E-1  -5.800824165344238E-1   4.259801208972931E-1   4.529525041580200E-1  
 4.030000000000000E7    -4.120357036590576E-1  -4.399653375148773E-1  -5.577687621116638E-1  -5.643335580825806E-1  -5.548541545867920E-1  -5.642188191413879E-1   4.299442768096924E-1   4.258057177066803E-1  
 4.060000000000000E7    -4.263302683830261E-1  -3.978311121463776E-1  -5.949108600616455E-1  -5.459113717079163E-1  -5.955653786659241E-1  -5.457483530044556E-1   4.288754165172577E-1   3.946856856346130E-1  
 4.090000000000000E7    -4.373288750648499E-1  -3.558122515678406E-1  -6.318844556808472E-1  -5.239229202270508E-1  -6.314221024513245E-1  -5.231904387474060E-1   4.295208156108856E-1   3.666293323040009E-1  
 4.120000000000000E7    -4.427333474159241E-1  -3.118430972099304E-1  -6.699685454368591E-1  -4.998591840267181E-1  -6.713853478431702E-1  -4.989789128303528E-1   4.243119060993195E-1   3.362162411212921E-1  
 4.150000000000000E7    -4.435216486454010E-1  -2.724764049053192E-1  -7.081400156021118E-1  -4.687590897083283E-1  -7.060095071792603E-1  -4.700290262699127E-1   4.184480905532837E-1   3.080792427062988E-1  
 4.180000000000000E7    -4.433146715164185E-1  -2.310270965099335E-1  -7.412766814231873E-1  -4.378471970558167E-1  -7.403104901313782E-1  -4.392231404781342E-1   4.141212403774262E-1   2.803289890289307E-1  
 4.210000000000000E7    -4.374243021011353E-1  -1.922730803489685E-1  -7.744713425636292E-1  -4.029150605201721E-1  -7.755860090255737E-1  -4.048186838626862E-1   4.047943055629730E-1   2.528097033500671E-1  
 4.240000000000000E7    -4.274203777313232E-1  -1.525993794202805E-1  -8.064986467361450E-1  -3.670037090778351E-1  -8.064853549003601E-1  -3.664299249649048E-1   3.939041197299957E-1   2.269598543643951E-1  
 4.270000000000000E7    -4.166067540645599E-1  -1.158428862690926E-1  -8.351820707321167E-1  -3.261362910270691E-1  -8.346875309944153E-1  -3.263577520847321E-1   3.821214735507965E-1   2.018638104200363E-1  
 4.300000000000000E7    -4.003147482872009E-1  -8.046729117631912E-2  -8.621474504470825E-1  -2.833666801452637E-1  -8.620093464851379E-1  -2.841989994049072E-1   3.676752746105194E-1   1.779676675796509E-1  
 4.330000000000000E7    -3.829665482044220E-1  -4.694698378443718E-2  -8.854156136512756E-1  -2.395435124635696E-1  -8.873355388641357E-1  -2.398658096790314E-1   3.515534698963165E-1   1.551568359136581E-1  
 4.360000000000000E7    -3.578460812568665E-1  -1.768081635236740E-2  -9.086642265319824E-1  -1.932944953441620E-1  -9.077043533325195E-1  -1.936424374580383E-1   3.346226215362549E-1   1.330684274435043E-1  
 4.390000000000000E7    -3.360759615898132E-1   8.522034622728825E-3  -9.255157113075256E-1  -1.439782530069351E-1  -9.248263835906982E-1  -1.424831748008728E-1   3.165256977081299E-1   1.182324588298798E-1  
 4.420000000000000E7    -3.118433356285095E-1   3.389401361346245E-2  -9.398608803749085E-1  -9.393140673637390E-2  -9.391499757766724E-1  -9.335096180438995E-2   2.982851266860962E-1   1.001302003860474E-1  
 4.450000000000000E7    -2.834822833538055E-1   5.378694087266922E-2  -9.512050747871399E-1  -4.297322034835815E-2  -9.514534473419190E-1  -4.217666760087013E-2   2.777404785156250E-1   8.346254378557205E-2  
 4.480000000000000E7    -2.550406455993652E-1   7.150955498218536E-2  -9.586144685745239E-1   8.822025731205940E-3  -9.589254856109619E-1   9.318470954895020E-3   2.577023208141327E-1   7.140810042619705E-2  
 4.510000000000000E7    -2.253755331039429E-1   8.457931876182556E-2  -9.635303616523743E-1   6.259761750698090E-2  -9.623324871063232E-1   6.242384016513825E-2   2.364739477634430E-1   6.063018739223480E-2  
 4.540000000000000E7    -1.999635398387909E-1   9.573847800493240E-2  -9.620015621185303E-1   1.151537075638771E-1  -9.644641280174255E-1   1.143231689929962E-1   2.151348888874054E-1   4.938340932130814E-2  
 4.570000000000000E7    -1.700061857700348E-1   1.038069427013397E-1  -9.605832099914551E-1   1.685191094875336E-1  -9.607949852943420E-1   1.686490774154663E-1   1.926587074995041E-1   4.443359002470970E-2  
 4.600000000000000E7    -1.383049190044403E-1   1.049890816211700E-1  -9.551864266395569E-1   2.208803296089172E-1  -9.540948867797852E-1   2.212458997964859E-1   1.741409450769424E-1   4.030072689056397E-2  
 4.630000000000000E7    -1.112296134233475E-1   1.067349612712860E-1  -9.449937343597412E-1   2.730906307697296E-1  -9.429680705070496E-1   2.739297151565552E-1   1.548490375280380E-1   3.482859209179878E-2  
 4.660000000000000E7    -8.640465885400772E-2   1.071214675903320E-1  -9.306051135063171E-1   3.251383602619171E-1  -9.299206733703613E-1   3.245902359485626E-1   1.352318078279495E-1   3.359470888972282E-2  
 4.690000000000000E7    -5.922577530145645E-2   9.963231533765793E-2  -9.149829149246216E-1   3.747577071189880E-1  -9.139001369476318E-1   3.761202394962311E-1   1.129294559359551E-1   3.372703120112419E-2  
 4.720000000000000E7    -3.489565104246140E-2   9.372247755527496E-2  -8.948136568069458E-1   4.245515763759613E-1  -8.939066529273987E-1   4.238229990005493E-1   9.727080166339874E-2   3.311753273010254E-2  
 4.750000000000000E7    -1.413392648100853E-2   8.425659686326981E-2  -8.713721036911011E-1   4.722756147384644E-1  -8.726824522018433E-1   4.717623591423035E-1   7.771927863359451E-2   3.711040318012238E-2  
 4.780000000000000E7     7.153271697461605E-3   7.580944150686264E-2  -8.473373055458069E-1   5.182067751884460E-1  -8.468599319458008E-1   5.168552398681641E-1   6.419453024864197E-2   4.215079545974731E-2  
 4.810000000000000E7     2.615734562277794E-2   5.954167991876602E-2  -8.193169832229614E-1   5.618473887443543E-1  -8.179032206535339E-1   5.615423321723938E-1   4.922749474644661E-2   4.851296171545982E-2  
 4.840000000000000E7     4.120947048068047E-2   4.552306234836578E-2  -7.894709706306458E-1   6.033746600151062E-1  -7.874359488487244E-1   6.036325693130493E-1   3.765413165092468E-2   5.370390415191650E-2  
 4.870000000000000E7     5.387000739574432E-2   3.128781914710999E-2  -7.569620609283447E-1   6.447707414627075E-1  -7.565039992332459E-1   6.425496935844421E-1   2.555853687226772E-2   6.097679957747459E-2  
 4.900000000000000E7     6.525430083274841E-2   1.616431027650833E-2  -7.224765419960022E-1   6.808323264122009E-1  -7.224186658859253E-1   6.817244291305542E-1   1.410873234272003E-2   6.791615486145020E-2  
 4.930000000000000E7     7.667580246925354E-2  -7.949740393087268E-4  -6.863297820091248E-1   7.166027426719666E-1  -6.861044168472290E-1   7.176338434219360E-1   6.898709107190371E-3   7.820916175842285E-2  
 4.960000000000000E7     8.411164581775665E-2  -1.726252213120461E-2  -6.486152410507202E-1   7.509108185768127E-1  -6.477215290069580E-1   7.497589588165283E-1  -3.000366501510143E-3   8.380313962697983E-2  
 4.990000000000000E7     8.969055116176605E-2  -3.204059973359108E-2  -6.098122000694275E-1   7.811347246170044E-1  -6.090905666351318E-1   7.811741828918457E-1  -9.143441915512085E-3   9.465202689170837E-2  
 5.020000000000000E7     9.269587695598602E-2  -4.994593188166618E-2  -5.681663751602173E-1   8.104575276374817E-1  -5.694338679313660E-1   8.100265860557556E-1  -1.126335002481937E-2   1.051815748214722E-1  
 5.050000000000000E7     9.426946938037872E-2  -6.505050510168076E-2  -5.271426439285278E-1   8.373616933822632E-1  -5.264567136764526E-1   8.369282484054565E-1  -1.632174663245678E-2   1.120250374078751E-1  
 5.080000000000000E7     9.323691576719284E-2  -8.131118118762970E-2  -4.832942485809326E-1   8.613306879997253E-1  -4.838889539241791E-1   8.608644604682922E-1  -1.628782600164414E-2   1.231466010212898E-1  
 5.110000000000000E7     9.279620647430420E-2  -9.508445858955383E-2  -4.393389523029327E-1   8.827736973762512E-1  -4.397623240947723E-1   8.830047845840454E-1  -1.802176982164383E-2   1.299295872449875E-1  
 5.140000000000000E7     8.915892988443375E-2  -1.094067022204399E-1  -3.955168724060059E-1   9.032099843025208E-1  -3.943838179111481E-1   9.035049080848694E-1  -1.662648841738701E-2   1.374951452016830E-1  
 5.170000000000000E7     8.739967644214630E-2  -1.197888329625130E-1  -3.485327959060669E-1   9.195490479469299E-1  -3.490025997161865E-1   9.206885099411011E-1  -1.468810252845287E-2   1.459909528493881E-1  
 5.200000000000000E7     8.016732335090637E-2  -1.336930245161057E-1  -3.018199801445007E-1   9.356346130371094E-1  -3.034279942512512E-1   9.354830980300903E-1  -7.398670539259911E-3   1.520481705665588E-1  
 5.230000000000000E7     7.262859493494034E-2  -1.421176195144653E-1  -2.561550736427307E-1   9.482060670852661E-1  -2.554843425750732E-1   9.488871693611145E-1  -6.308038718998432E-3   1.575048714876175E-1  
 5.260000000000000E7     6.710816919803619E-2  -1.498186886310577E-1  -2.080728709697723E-1   9.588039517402649E-1  -2.083442807197571E-1   9.590350389480591E-1   6.648551207035780E-4   1.623858064413071E-1  
 5.290000000000000E7     5.993117019534111E-2  -1.605512648820877E-1  -1.607000529766083E-1   9.672967791557312E-1  -1.601502746343613E-1   9.671586751937866E-1   7.208300288766623E-3   1.662792414426804E-1  
 5.320000000000000E7     5.135880038142204E-2  -1.656877994537354E-1  -1.126047223806381E-1   9.738429784774780E-1  -1.120976209640503E-1   9.743408560752869E-1   1.495357044041157E-2   1.673533618450165E-1  
 5.350000000000000E7     4.245296120643616E-2  -1.690158098936081E-1  -6.400051712989807E-2   9.777987003326416E-1  -6.439798325300217E-2   9.777012467384338E-1   2.207212522625923E-2   1.705595403909683E-1  
 5.380000000000000E7     3.627086430788040E-2  -1.722753345966339E-1  -1.486757583916187E-2   9.803340435028076E-1  -1.348470058292151E-2   9.783910512924194E-1   3.331581503152847E-2   1.722564995288849E-1  
 5.410000000000000E7     2.853451482951641E-2  -1.749353557825089E-1   3.446141630411148E-2   9.800552129745483E-1   3.459468111395836E-2   9.790373444557190E-1   4.174311459064484E-2   1.683478355407715E-1  
 5.440000000000000E7     2.270985953509808E-2  -1.755691915750504E-1   8.465606719255447E-2   9.760495424270630E-1   8.471453934907913E-2   9.760460257530212E-1   5.337688326835632E-2   1.657523661851883E-1  
 5.470000000000000E7     1.730722375214100E-2  -1.784933954477310E-1   1.328373849391937E-1   9.702193737030029E-1   1.340402066707611E-1   9.700766801834106E-1   6.484123319387436E-2   1.602539122104645E-1  
 5.500000000000000E7     1.291889324784279E-2  -1.741835027933121E-1   1.845458447933197E-1   9.627206921577454E-1   1.838792860507965E-1   9.615716338157654E-1   7.594522088766098E-2   1.557040959596634E-1  
 5.530000000000000E7     7.899242453277111E-3  -1.726292222738266E-1   2.332746982574463E-1   9.526497721672058E-1   2.344185411930084E-1   9.511738419532776E-1   8.682181686162949E-2   1.451137363910675E-1  
 5.560000000000000E7     6.066866219043732E-3  -1.714929491281509E-1   2.844795286655426E-1   9.391629695892334E-1   2.829637825489044E-1   9.375723004341126E-1   9.894979000091553E-2   1.362604051828384E-1  
 5.590000000000000E7     3.618206828832626E-3  -1.693523079156876E-1   3.331629633903503E-1   9.226736426353455E-1   3.334310650825501E-1   9.226204752922058E-1   1.085354387760162E-1   1.232180148363113E-1  
 5.620000000000000E7     3.715505823493004E-3  -1.642608046531677E-1   3.832193315029144E-1   9.038439989089966E-1   3.825950622558594E-1   9.023967385292053E-1   1.204899623990059E-1   1.124625280499458E-1  
 5.650000000000000E7     3.018775489181280E-3  -1.633804291486740E-1   4.310114979743958E-1   8.822539448738098E-1   4.316709637641907E-1   8.810226321220398E-1   1.311518698930740E-1   9.369908273220062E-2  
 5.680000000000000E7     7.297589443624020E-3  -1.607980728149414E-1   4.799944162368774E-1   8.573231697082520E-1   4.795961081981659E-1   8.562411069869995E-1   1.374049335718155E-1   7.380937784910202E-2  
 5.710000000000000E7     1.104947272688150E-2  -1.597935706377029E-1   5.273388028144836E-1   8.287542462348938E-1   5.272896289825440E-1   8.283683657646179E-1   1.438533812761307E-1   5.240878090262413E-2  
 5.740000000000000E7     1.715490408241749E-2  -1.577235907316208E-1   5.750102996826172E-1   7.974001765251160E-1   5.735828876495361E-1   7.970412373542786E-1   1.519468128681183E-1   3.041240759193897E-2  
 5.770000000000000E7     2.523234859108925E-2  -1.569792479276657E-1   6.186659336090088E-1   7.626023888587952E-1   6.190177798271179E-1   7.608631253242493E-1   1.584946960210800E-1   5.473104305565357E-3  
 5.800000000000000E7     3.484791517257690E-2  -1.604792177677155E-1   6.636821627616882E-1   7.242454290390015E-1   6.627283692359924E-1   7.219354510307312E-1   1.562537252902985E-1  -1.975839212536812E-2  
 5.830000000000000E7     4.334649443626404E-2  -1.621672511100769E-1   7.043915987014771E-1   6.814485192298889E-1   7.050912976264954E-1   6.815688610076904E-1   1.561335772275925E-1  -4.963024705648422E-2  
 5.860000000000000E7     5.405931547284126E-2  -1.683504730463028E-1   7.435376644134522E-1   6.366845965385437E-1   7.442295551300049E-1   6.370261311531067E-1   1.529010683298111E-1  -8.117104321718216E-2  
 5.890000000000000E7     6.707648187875748E-2  -1.767842024564743E-1   7.803968787193298E-1   5.871012806892395E-1   7.799707055091858E-1   5.872511863708496E-1   1.472665369510651E-1  -1.154522597789764E-1  
 5.920000000000000E7     7.775718718767166E-2  -1.884651184082031E-1   8.138709068298340E-1   5.349568724632263E-1   8.146486878395081E-1   5.337556600570679E-1   1.352754682302475E-1  -1.439453959465027E-1  
 5.950000000000000E7     8.928987383842468E-2  -2.015341669321060E-1   8.429002761840820E-1   4.782784581184387E-1   8.440562486648560E-1   4.777382314205170E-1   1.221727356314659E-1  -1.803412437438965E-1  
 5.980000000000000E7     9.945589303970337E-2  -2.198501974344254E-1   8.691422939300537E-1   4.197303950786591E-1   8.686856627464294E-1   4.189827144145966E-1   1.035406440496445E-1  -2.144201397895813E-1  
 6.010000000000000E7     1.126075908541679E-1  -2.391956001520157E-1   8.894916176795960E-1   3.582233488559723E-1   8.880227804183960E-1   3.561006784439087E-1   8.125181496143341E-2  -2.506160438060761E-1  
 6.040000000000000E7     1.214146167039871E-1  -2.634996771812439E-1   9.043579101562500E-1   2.923474907875061E-1   9.054382443428040E-1   2.938711047172546E-1   5.154138803482056E-2  -2.808925807476044E-1  
 6.070000000000000E7     1.277364045381546E-1  -2.906714677810669E-1   9.144487380981445E-1   2.279353141784668E-1   9.136477708816528E-1   2.280213683843613E-1   1.921224221587181E-2  -3.150733113288879E-1  
 6.100000000000000E7     1.271309554576874E-1  -3.203983902931213E-1   9.176803231239319E-1   1.614620685577393E-1   9.180292487144470E-1   1.603669226169586E-1  -1.805576309561729E-2  -3.430886864662170E-1  
 6.130000000000000E7     1.294085681438446E-1  -3.538466095924377E-1   9.159190058708191E-1   9.305788576602936E-2   9.152007102966309E-1   9.382055699825287E-2  -6.085454672574997E-2  -3.692299127578735E-1  
 6.160000000000000E7     1.247583478689194E-1  -3.868669271469116E-1   9.072014093399048E-1   2.677957713603973E-2   9.062074422836304E-1   2.710751444101334E-2  -1.064993441104889E-1  -3.910607695579529E-1  
 6.190000000000000E7     1.154995262622833E-1  -4.239801466464996E-1   8.906590342521668E-1  -3.917230665683746E-2   8.911997079849243E-1  -3.967468440532684E-2  -1.543238162994385E-1  -4.081894755363464E-1  
 6.220000000000000E7     1.005894914269447E-1  -4.598032236099243E-1   8.684170246124268E-1  -1.018428653478622E-1   8.685052394866943E-1  -1.021418273448944E-1  -2.083894014358521E-1  -4.217591285705566E-1  
 6.250000000000000E7     7.969141006469727E-2  -4.984141588211060E-1   8.411961197853088E-1  -1.614509373903275E-1   8.406829833984375E-1  -1.623656451702118E-1  -2.627130746841431E-1  -4.296799898147583E-1  
 6.280000000000000E7     5.411702021956444E-2  -5.357438325881958E-1   8.060717582702637E-1  -2.183746844530106E-1   8.067819476127625E-1  -2.169863283634186E-1  -3.182351291179657E-1  -4.315103888511658E-1  
 6.310000000000000E7     2.137328498065472E-2  -5.698397159576416E-1   7.698115110397339E-1  -2.697294056415558E-1   7.682636976242065E-1  -2.698313593864441E-1  -3.773754239082336E-1  -4.264197945594788E-1  
 6.340000000000000E7    -1.445022597908974E-2  -6.007174849510193E-1   7.264383435249329E-1  -3.164095878601074E-1   7.261518239974976E-1  -3.158543109893799E-1  -4.329639077186585E-1  -4.151258468627930E-1  
 6.370000000000000E7    -5.613872408866882E-2  -6.281966567039490E-1   6.804903745651245E-1  -3.560884296894074E-1   6.808142662048340E-1  -3.572192490100861E-1  -4.878479838371277E-1  -3.971717059612274E-1  
 6.400000000000000E7    -1.022043302655220E-1  -6.514508724212647E-1   6.335016489028931E-1  -3.911393284797669E-1   6.313604116439819E-1  -3.923945426940918E-1  -5.405743122100830E-1  -3.753271698951721E-1  
 6.430000000000000E7    -1.506121307611466E-1  -6.717640757560730E-1   5.823113322257996E-1  -4.205195903778076E-1   5.818158984184265E-1  -4.212591350078583E-1  -5.927773714065552E-1  -3.467659652233124E-1  
 6.460000000000000E7    -2.007985413074493E-1  -6.852133274078369E-1   5.314924716949463E-1  -4.440829157829285E-1   5.308554768562317E-1  -4.428080916404724E-1  -6.397925019264221E-1  -3.134621679782867E-1  
 6.490000000000000E7    -2.537561655044556E-1  -6.933021545410156E-1   4.809316396713257E-1  -4.602219164371491E-1   4.809347987174988E-1  -4.590144157409668E-1  -6.831176280975342E-1  -2.770687043666840E-1  
 6.520000000000000E7    -3.091465830802918E-1  -6.972848773002625E-1   4.312414824962616E-1  -4.714382588863373E-1   4.309953153133392E-1  -4.721921384334564E-1  -7.224785685539246E-1  -2.374132722616196E-1  
 6.550000000000000E7    -3.634903430938721E-1  -6.930850148200989E-1   3.830544650554657E-1  -4.779338836669922E-1   3.828554749488831E-1  -4.784276783466339E-1  -7.580074071884155E-1  -1.942354887723923E-1  
 6.580000000000000E7    -4.184638261795044E-1  -6.849879026412964E-1   3.372038900852203E-1  -4.810670018196106E-1   3.361146748065949E-1  -4.808707535266876E-1  -7.880681157112122E-1  -1.499392986297607E-1  
 6.610000000000000E7    -4.723718762397766E-1  -6.706060171127319E-1   2.926118373870850E-1  -4.791829288005829E-1   2.903930842876434E-1  -4.801226556301117E-1  -8.144055604934692E-1  -1.034961193799973E-1  
 6.640000000000000E7    -5.232799649238586E-1  -6.545084118843079E-1   2.507272064685822E-1  -4.740601181983948E-1   2.511491179466248E-1  -4.728977978229523E-1  -8.364270329475403E-1  -5.455093085765839E-2  
 6.670000000000000E7    -5.739849209785461E-1  -6.308279633522034E-1   2.118871659040451E-1  -4.660206437110901E-1   2.117496132850647E-1  -4.646313488483429E-1  -8.526056408882141E-1  -8.459359407424927E-3  
 6.700000000000000E7    -6.219982504844666E-1  -6.039393544197083E-1   1.750579774379730E-1  -4.543549716472626E-1   1.746050268411636E-1  -4.541414976119995E-1  -8.654498457908630E-1   3.931003063917160E-2  
 6.730000000000000E7    -6.668503880500794E-1  -5.740463137626648E-1   1.417255401611328E-1  -4.412196576595306E-1   1.410480439662933E-1  -4.420040249824524E-1  -8.753418326377869E-1   8.542066067457199E-2  
 6.760000000000000E7    -7.078863382339478E-1  -5.400204658508301E-1   1.121911928057671E-1  -4.279614090919495E-1   1.114665493369103E-1  -4.266668856143951E-1  -8.806855082511902E-1   1.328832954168320E-1  
 6.790000000000000E7    -7.477418184280396E-1  -5.038957595825195E-1   8.445668220520020E-2  -4.110850095748901E-1   8.376292139291763E-2  -4.115348756313324E-1  -8.838031888008118E-1   1.775976866483688E-1  
 6.820000000000000E7    -7.836953401565552E-1  -4.645319581031799E-1   5.891129374504089E-2  -3.952622711658478E-1   5.910723656415939E-2  -3.938988149166107E-1  -8.833479881286621E-1   2.215097248554230E-1  
 6.850000000000000E7    -8.173122406005859E-1  -4.240150749683380E-1   3.732914477586746E-2  -3.772728145122528E-1   3.732591867446899E-2  -3.769082427024841E-1  -8.798082470893860E-1   2.644462585449219E-1  
 6.880000000000000E7    -8.460487723350525E-1  -3.811692297458649E-1   1.713994145393372E-2  -3.598704040050507E-1   1.676485687494278E-2  -3.591637611389160E-1  -8.742915987968445E-1   3.056350350379944E-1  
 6.910000000000000E7    -8.709630370140076E-1  -3.364946842193604E-1   5.353242158889771E-5  -3.423958420753479E-1  -1.858994364738464E-4  -3.416829407215118E-1  -8.679983615875244E-1   3.459109663963318E-1  
 6.940000000000000E7    -8.942617774009705E-1  -2.922572195529938E-1  -1.458603516221046E-2  -3.242177963256836E-1  -1.547992974519730E-2  -3.239547908306122E-1  -8.585757613182068E-1   3.831474781036377E-1  
 6.970000000000000E7    -9.139217734336853E-1  -2.450298815965653E-1  -2.867279946804047E-2  -3.066137135028839E-1  -2.921102941036224E-2  -3.067944645881653E-1  -8.478043079376221E-1   4.192251563072205E-1  
 7.000000000000000E7    -9.309223294258118E-1  -1.985267996788025E-1  -4.041269421577454E-2  -2.892116904258728E-1  -4.096277803182602E-2  -2.891862988471985E-1  -8.359959721565247E-1   4.546456336975098E-1  
