#  HZ   S   RI   R     50.00 
! Rohde & Schwarz ZVT8 8Ports - Version 4.11 - 1300.0000k08 SN: 100242
! Date: 2026-07-31 15:13:36
! Measurements: S11 S21 S12 S22 
! 
 1.000000000000000E7    -4.077273607254028E-1   9.091536402702332E-1   4.942647740244865E-2   5.048215761780739E-2   4.930100589990616E-2   5.028219521045685E-2  -9.206642508506775E-1   3.809897303581238E-1  
 1.030000000000000E7    -3.760725557804108E-1   9.215631484985352E-1   5.234920233488083E-2   5.079457163810730E-2   5.213910713791847E-2   5.095348879694939E-2  -9.148703217506409E-1   3.935978412628174E-1  
 1.060000000000000E7    -3.406001925468445E-1   9.349237680435181E-1   5.551624298095703E-2   5.142680183053017E-2   5.547156557440758E-2   5.123053491115570E-2  -9.118126630783081E-1   4.044804275035858E-1  
 1.090000000000000E7    -3.091266453266144E-1   9.451169371604919E-1   5.858463048934937E-2   5.172695592045784E-2   5.845645442605019E-2   5.170819163322449E-2  -9.061372876167297E-1   4.160300195217133E-1  
 1.120000000000000E7    -2.743228673934937E-1   9.548004269599915E-1   6.182797998189926E-2   5.239854007959366E-2   6.154890730977058E-2   5.204211547970772E-2  -9.006049633026123E-1   4.274763464927673E-1  
 1.150000000000000E7    -2.397409230470657E-1   9.651184082031250E-1   6.469993293285370E-2   5.216474458575249E-2   6.465855985879898E-2   5.210455879569054E-2  -8.941125273704529E-1   4.359956085681915E-1  
 1.180000000000000E7    -2.053245902061462E-1   9.707412123680115E-1   6.799130886793137E-2   5.214610323309898E-2   6.799287348985672E-2   5.225656554102898E-2  -8.899769186973572E-1   4.461247324943543E-1  
 1.210000000000000E7    -1.714885830879211E-1   9.778998494148254E-1   7.164464145898819E-2   5.225403979420662E-2   7.156078517436981E-2   5.230440571904182E-2  -8.827553987503052E-1   4.586282968521118E-1  
 1.240000000000000E7    -1.362268626689911E-1   9.823494553565979E-1   7.474156469106674E-2   5.221953988075256E-2   7.483483105897903E-2   5.187290906906128E-2  -8.767232298851013E-1   4.676046371459961E-1  
 1.270000000000000E7    -1.016365140676498E-1   9.861304163932800E-1   7.865761220455170E-2   5.171715840697289E-2   7.838353514671326E-2   5.154313147068024E-2  -8.704221844673157E-1   4.810954928398132E-1  
 1.300000000000000E7    -6.667655706405640E-2   9.894237518310547E-1   8.194329589605331E-2   5.125159770250320E-2   8.185677975416184E-2   5.133849382400513E-2  -8.634971380233765E-1   4.911985099315643E-1  
 1.330000000000000E7    -3.140524029731751E-2   9.913878440856934E-1   8.587677031755447E-2   5.080069601535797E-2   8.586865663528442E-2   5.032407864928246E-2  -8.565732836723328E-1   5.027568340301514E-1  
 1.360000000000000E7     5.380630493164063E-3   9.915670752525330E-1   8.951970934867859E-2   5.016532540321350E-2   8.965732157230377E-2   4.959677532315254E-2  -8.499853610992432E-1   5.116846561431885E-1  
 1.390000000000000E7     3.943331539630890E-2   9.900023937225342E-1   9.351629763841629E-2   4.918952658772469E-2   9.333422780036926E-2   4.921394586563110E-2  -8.433838486671448E-1   5.227528810501099E-1  
 1.420000000000000E7     7.606618106365204E-2   9.882003664970398E-1   9.698218107223511E-2   4.830618947744370E-2   9.710153937339783E-2   4.837705194950104E-2  -8.379189968109131E-1   5.324543714523315E-1  
 1.450000000000000E7     1.108913123607636E-1   9.831524491310120E-1   1.010746881365776E-1   4.699097946286202E-2   1.010280326008797E-1   4.698769375681877E-2  -8.280871510505676E-1   5.441815853118897E-1  
 1.480000000000000E7     1.476353257894516E-1   9.785347580909729E-1   1.051302850246429E-1   4.572941735386848E-2   1.052188128232956E-1   4.597388207912445E-2  -8.221858739852905E-1   5.538519620895386E-1  
 1.510000000000000E7     1.824966818094254E-1   9.720878601074219E-1   1.091407537460327E-1   4.427446424961090E-2   1.089006960391998E-1   4.447447881102562E-2  -8.121498227119446E-1   5.644413232803345E-1  
 1.540000000000000E7     2.168890386819840E-1   9.647024869918823E-1   1.130874678492546E-1   4.361836612224579E-2   1.130306646227837E-1   4.298206046223640E-2  -8.072210550308228E-1   5.739032030105591E-1  
 1.570000000000000E7     2.520885765552521E-1   9.568775892257690E-1   1.173029467463493E-1   4.140470921993256E-2   1.174209490418434E-1   4.118759185075760E-2  -7.980005145072937E-1   5.852069258689880E-1  
 1.600000000000000E7     2.874999046325684E-1   9.452544450759888E-1   1.212304756045342E-1   3.932818397879601E-2   1.215817332267761E-1   3.916411101818085E-2  -7.900772094726563E-1   5.934200286865234E-1  
 1.630000000000000E7     3.212866783142090E-1   9.339271783828735E-1   1.259901225566864E-1   3.706507384777069E-2   1.256362795829773E-1   3.724317252635956E-2  -7.820795774459839E-1   6.051758527755737E-1  
 1.660000000000000E7     3.556321561336517E-1   9.196467995643616E-1   1.304343789815903E-1   3.469932079315186E-2   1.299354732036591E-1   3.413173183798790E-2  -7.720608711242676E-1   6.154626607894898E-1  
 1.690000000000000E7     3.891942799091339E-1   9.059202671051025E-1   1.346661746501923E-1   3.260038793087006E-2   1.344680786132813E-1   3.239776194095612E-2  -7.641718983650208E-1   6.245518326759338E-1  
 1.720000000000000E7     4.246757328510284E-1   8.907014727592468E-1   1.386396884918213E-1   2.940595149993897E-2   1.386639177799225E-1   2.966859191656113E-2  -7.549874186515808E-1   6.340500116348267E-1  
 1.750000000000000E7     4.526076912879944E-1   8.763508796691895E-1   1.436247825622559E-1   2.777516469359398E-2   1.437178105115891E-1   2.715761773288250E-2  -7.471252083778381E-1   6.454138755798340E-1  
 1.780000000000000E7     4.881242513656616E-1   8.548042774200440E-1   1.473399996757507E-1   2.384245581924915E-2   1.475709676742554E-1   2.416507527232170E-2  -7.371931076049805E-1   6.525665521621704E-1  
 1.810000000000000E7     5.182890892028809E-1   8.367220163345337E-1   1.526906490325928E-1   2.100219391286373E-2   1.518607586622238E-1   2.046786248683929E-2  -7.277207374572754E-1   6.650042533874512E-1  
 1.840000000000000E7     5.514311194419861E-1   8.159272074699402E-1   1.574241667985916E-1   1.647096499800682E-2   1.565776765346527E-1   1.680503040552139E-2  -7.174404263496399E-1   6.743931174278259E-1  
 1.870000000000000E7     5.793091654777527E-1   7.947724461555481E-1   1.616425067186356E-1   1.357260718941689E-2   1.609025150537491E-1   1.313500106334686E-2  -7.070131301879883E-1   6.831628084182739E-1  
 1.900000000000000E7     6.087664961814880E-1   7.719511389732361E-1   1.659348458051682E-1   9.858049452304840E-3   1.657277941703796E-1   9.276200085878372E-3  -6.964831948280335E-1   6.924949884414673E-1  
 1.930000000000000E7     6.383382081985474E-1   7.467263936996460E-1   1.702858805656433E-1   4.621230065822601E-3   1.705399751663208E-1   5.328277125954628E-3  -6.863202452659607E-1   7.031520009040833E-1  
 1.960000000000000E7     6.663533449172974E-1   7.207626700401306E-1   1.747418045997620E-1   4.188381135463715E-4   1.748887002468109E-1   9.063258767127991E-4  -6.774991154670715E-1   7.112430930137634E-1  
 1.990000000000000E7     6.915059685707092E-1   6.937648057937622E-1   1.792047172784805E-1  -4.426225088536739E-3   1.793214827775955E-1  -4.283862188458443E-3  -6.641225218772888E-1   7.224243283271790E-1  
 2.020000000000000E7     7.174034118652344E-1   6.660645008087158E-1   1.840093731880188E-1  -8.997914381325245E-3   1.835546046495438E-1  -9.077656082808971E-3  -6.539936661720276E-1   7.287570238113403E-1  
 2.050000000000000E7     7.439310550689697E-1   6.367902159690857E-1   1.883511096239090E-1  -1.406205911189318E-2   1.872860789299011E-1  -1.455460488796234E-2  -6.428332328796387E-1   7.378841638565064E-1  
 2.080000000000000E7     7.671064734458923E-1   6.053684353828430E-1   1.929454803466797E-1  -1.983846537768841E-2   1.928052604198456E-1  -1.976288296282291E-2  -6.313641667366028E-1   7.479319572448731E-1  
 2.110000000000000E7     7.905277609825134E-1   5.745124220848084E-1   1.974774748086929E-1  -2.619086951017380E-2   1.975694894790649E-1  -2.617819420993328E-2  -6.189770698547363E-1   7.567311525344849E-1  
 2.140000000000000E7     8.116561174392700E-1   5.422897934913635E-1   2.020447105169296E-1  -3.268818929791451E-2   2.009482234716415E-1  -3.209106624126434E-2  -6.066247224807739E-1   7.642871737480164E-1  
 2.170000000000000E7     8.304008245468140E-1   5.100682973861694E-1   2.061570733785629E-1  -3.877945989370346E-2   2.058644592761993E-1  -3.798632696270943E-2  -5.951983928680420E-1   7.728509306907654E-1  
 2.200000000000000E7     8.510216474533081E-1   4.739237427711487E-1   2.101143300533295E-1  -4.585243761539459E-2   2.101485133171082E-1  -4.555132985115051E-2  -5.809829831123352E-1   7.808626890182495E-1  
 2.230000000000000E7     8.672828078269959E-1   4.387701153755188E-1   2.143822163343430E-1  -5.296100676059723E-2   2.139107882976532E-1  -5.250895768404007E-2  -5.683417320251465E-1   7.888588309288025E-1  
 2.260000000000000E7     8.839803934097290E-1   4.023785591125488E-1   2.180443555116653E-1  -6.060918048024178E-2   2.193084806203842E-1  -6.016519665718079E-2  -5.554586052894592E-1   7.965326309204102E-1  
 2.290000000000000E7     8.985964655876160E-1   3.649609684944153E-1   2.220807373523712E-1  -6.831493228673935E-2   2.225083410739899E-1  -6.775246560573578E-2  -5.403248667716980E-1   8.038075566291809E-1  
 2.320000000000000E7     9.106926321983337E-1   3.270234465599060E-1   2.263410091400147E-1  -7.713360339403153E-2   2.259709835052490E-1  -7.722195237874985E-2  -5.272293090820313E-1   8.127807974815369E-1  
 2.350000000000000E7     9.221022129058838E-1   2.866836190223694E-1   2.301234751939774E-1  -8.638171106576920E-2   2.294816523790360E-1  -8.563165366649628E-2  -5.132260322570801E-1   8.197551965713501E-1  
 2.380000000000000E7     9.316480755805969E-1   2.478827238082886E-1   2.331751137971878E-1  -9.485447406768799E-2   2.333602309226990E-1  -9.465722739696503E-2  -4.990665316581726E-1   8.266523480415344E-1  
 2.410000000000000E7     9.407436847686768E-1   2.067937701940537E-1   2.364494204521179E-1  -1.050150915980339E-1   2.359271943569183E-1  -1.047327518463135E-1  -4.834350943565369E-1   8.332957625389099E-1  
 2.440000000000000E7     9.459539055824280E-1   1.658945679664612E-1   2.398994565010071E-1  -1.153636276721954E-1   2.399429380893707E-1  -1.154148876667023E-1  -4.697395563125610E-1   8.394953608512878E-1  
 2.470000000000000E7     9.503804445266724E-1   1.242647171020508E-1   2.427200525999069E-1  -1.263689398765564E-1   2.421968430280685E-1  -1.247558593750000E-1  -4.530773460865021E-1   8.444750905036926E-1  
 2.500000000000000E7     9.537236094474793E-1   8.153311163187027E-2   2.447331994771957E-1  -1.368995755910873E-1   2.448399364948273E-1  -1.373985409736633E-1  -4.366979598999023E-1   8.518665432929993E-1  
 2.530000000000000E7     9.542654156684876E-1   3.904014825820923E-2   2.475219517946243E-1  -1.480145305395126E-1   2.475802451372147E-1  -1.478483229875565E-1  -4.211025536060333E-1   8.562810420989990E-1  
 2.560000000000000E7     9.521045088768005E-1  -3.246270120143890E-3   2.491697818040848E-1  -1.597825884819031E-1   2.500258088111877E-1  -1.596695184707642E-1  -4.053184688091278E-1   8.612717986106873E-1  
 2.590000000000000E7     9.475974440574646E-1  -4.636115580797195E-2   2.507401704788208E-1  -1.732597202062607E-1   2.512252330780029E-1  -1.732097268104553E-1  -3.885282278060913E-1   8.679950237274170E-1  
 2.620000000000000E7     9.416583776473999E-1  -9.079559147357941E-2   2.521518468856812E-1  -1.869802623987198E-1   2.520304024219513E-1  -1.860282272100449E-1  -3.700206577777863E-1   8.725568652153015E-1  
 2.650000000000000E7     9.337561130523682E-1  -1.333149075508118E-1   2.533181905746460E-1  -1.992562562227249E-1   2.531740963459015E-1  -1.999954283237457E-1  -3.530701994895935E-1   8.757107257843018E-1  
 2.680000000000000E7     9.224222302436829E-1  -1.765858530998230E-1   2.540378868579865E-1  -2.135476469993591E-1   2.539198994636536E-1  -2.142521291971207E-1  -3.362002670764923E-1   8.790637254714966E-1  
 2.710000000000000E7     9.089777469635010E-1  -2.213283926248550E-1   2.527160644531250E-1  -2.296894639730454E-1   2.522023320198059E-1  -2.290659993886948E-1  -3.176446259021759E-1   8.833731412887573E-1  
 2.740000000000000E7     8.938258290290833E-1  -2.645352482795715E-1   2.532091140747070E-1  -2.438996583223343E-1   2.525805532932282E-1  -2.448913455009460E-1  -2.990136146545410E-1   8.839005231857300E-1  
 2.770000000000000E7     8.765201568603516E-1  -3.058906495571137E-1   2.512060701847076E-1  -2.603964507579804E-1   2.508688569068909E-1  -2.615688741207123E-1  -2.796370387077332E-1   8.873345851898193E-1  
 2.800000000000000E7     8.567838668823242E-1  -3.481738269329071E-1   2.488594502210617E-1  -2.765062749385834E-1   2.500036060810089E-1  -2.766771316528320E-1  -2.602222859859467E-1   8.873674869537354E-1  
 2.830000000000000E7     8.325748443603516E-1  -3.901376128196716E-1   2.457024306058884E-1  -2.929897904396057E-1   2.451449781656265E-1  -2.940723598003388E-1  -2.432121038436890E-1   8.884711265563965E-1  
 2.860000000000000E7     8.064901232719421E-1  -4.308899939060211E-1   2.420166879892349E-1  -3.112169802188873E-1   2.411405593156815E-1  -3.125948309898377E-1  -2.206802815198898E-1   8.893558382987976E-1  
 2.890000000000000E7     7.780145406723023E-1  -4.697357118129730E-1   2.365505695343018E-1  -3.306623101234436E-1   2.365613132715225E-1  -3.302595615386963E-1  -2.015146911144257E-1   8.883886933326721E-1  
 2.920000000000000E7     7.468342185020447E-1  -5.087711215019226E-1   2.317372411489487E-1  -3.481670618057251E-1   2.301633059978485E-1  -3.486076593399048E-1  -1.822309345006943E-1   8.861501812934876E-1  
 2.950000000000000E7     7.136650085449219E-1  -5.449853539466858E-1   2.245661914348602E-1  -3.695575296878815E-1   2.239015996456146E-1  -3.688171207904816E-1  -1.603231281042099E-1   8.853707313537598E-1  
 2.980000000000000E7     6.767982244491577E-1  -5.802929401397705E-1   2.164143323898315E-1  -3.883357644081116E-1   2.161512225866318E-1  -3.896334767341614E-1  -1.399118304252625E-1   8.817444443702698E-1  
 3.010000000000000E7     6.374807953834534E-1  -6.137666106224060E-1   2.061360329389572E-1  -4.096708893775940E-1   2.070356756448746E-1  -4.094723761081696E-1  -1.193119063973427E-1   8.779005408287048E-1  
 3.040000000000000E7     5.941568017005920E-1  -6.458243727684021E-1   1.959407776594162E-1  -4.310389161109924E-1   1.949460506439209E-1  -4.320489764213562E-1  -9.754680097103119E-2   8.713375926017761E-1  
 3.070000000000000E7     5.489990115165710E-1  -6.731156706809998E-1   1.819473505020142E-1  -4.518670439720154E-1   1.816490888595581E-1  -4.513441324234009E-1  -7.659277319908142E-2   8.663754463195801E-1  
 3.100000000000000E7     5.003357529640198E-1  -6.982418894767761E-1   1.672957539558411E-1  -4.743755757808685E-1   1.670701503753662E-1  -4.732207059860230E-1  -5.464249104261398E-2   8.599528670310974E-1  
 3.130000000000000E7     4.510570764541626E-1  -7.216097712516785E-1   1.504472196102142E-1  -4.959734380245209E-1   1.511875689029694E-1  -4.956420958042145E-1  -3.407391533255577E-2   8.496836423873901E-1  
 3.160000000000000E7     3.965800404548645E-1  -7.394203543663025E-1   1.323943436145783E-1  -5.182392001152039E-1   1.322381049394608E-1  -5.183122754096985E-1  -1.350336521863937E-2   8.416915535926819E-1  
 3.190000000000000E7     3.409716784954071E-1  -7.543891668319702E-1   1.112348884344101E-1  -5.401224493980408E-1   1.115844473242760E-1  -5.388544201850891E-1   7.960680872201920E-3   8.306506872177124E-1  
 3.220000000000000E7     2.832560241222382E-1  -7.671995759010315E-1   8.942545205354691E-2  -5.616952180862427E-1   8.883266896009445E-2  -5.605919957160950E-1   2.657940983772278E-2   8.181057572364807E-1  
 3.250000000000000E7     2.241084873676300E-1  -7.722830176353455E-1   6.396508961915970E-2  -5.833600759506226E-1   6.307172030210495E-2  -5.829985737800598E-1   4.679017141461372E-2   8.061254620552063E-1  
 3.280000000000000E7     1.629506796598434E-1  -7.718524932861328E-1   3.613583743572235E-2  -6.044098138809204E-1   3.628169745206833E-2  -6.021819710731506E-1   6.643275916576386E-2   7.905278205871582E-1  
 3.310000000000000E7     1.013430431485176E-1  -7.692587375640869E-1   5.785817280411720E-3  -6.223089694976807E-1   4.194141365587711E-3  -6.223977208137512E-1   8.487118035554886E-2   7.734311223030090E-1  
 3.340000000000000E7     3.933487832546234E-2  -7.591420412063599E-1  -2.962230145931244E-2  -6.412536501884460E-1  -2.854513749480248E-2  -6.396862864494324E-1   1.020761802792549E-1   7.553484439849854E-1  
 3.370000000000000E7    -2.391383796930313E-2  -7.436687946319580E-1  -6.512140482664108E-2  -6.572275757789612E-1  -6.456053256988525E-2  -6.578947305679321E-1   1.181289330124855E-1   7.363637089729309E-1  
 3.400000000000000E7    -8.534572273492813E-2  -7.208676338195801E-1  -1.043511033058167E-1  -6.713338494300842E-1  -1.047053784132004E-1  -6.721500754356384E-1   1.319400966167450E-1   7.153142690658569E-1  
 3.430000000000000E7    -1.456484794616699E-1  -6.926252841949463E-1  -1.474340707063675E-1  -6.830953359603882E-1  -1.458509713411331E-1  -6.831666827201843E-1   1.459288299083710E-1   6.943653821945190E-1  
 3.460000000000000E7    -2.044101357460022E-1  -6.565989255905151E-1  -1.914623379707336E-1  -6.925627589225769E-1  -1.922932714223862E-1  -6.921543478965759E-1   1.563908010721207E-1   6.721889972686768E-1  
 3.490000000000000E7    -2.580484747886658E-1  -6.149904131889343E-1  -2.407071888446808E-1  -6.966773867607117E-1  -2.374530732631683E-1  -6.975615024566650E-1   1.659149676561356E-1   6.486345529556274E-1  
 3.520000000000000E7    -3.101305365562439E-1  -5.655573010444641E-1  -2.889386415481567E-1  -6.992910504341126E-1  -2.875037789344788E-1  -7.003538608551025E-1   1.740082055330277E-1   6.238909959793091E-1  
 3.550000000000000E7    -3.563765585422516E-1  -5.076863169670105E-1  -3.400093019008637E-1  -6.978629827499390E-1  -3.401919007301331E-1  -6.973547339439392E-1   1.763872653245926E-1   5.996868610382080E-1  
 3.580000000000000E7    -3.965758383274078E-1  -4.469676613807678E-1  -3.929755985736847E-1  -6.897196769714356E-1  -3.920555114746094E-1  -6.900562047958374E-1   1.788774579763413E-1   5.739583373069763E-1  
 3.610000000000000E7    -4.268397092819214E-1  -3.804032206535339E-1  -4.482918679714203E-1  -6.776804327964783E-1  -4.466502964496613E-1  -6.772335171699524E-1   1.791279464960098E-1   5.496418476104736E-1  
 3.640000000000000E7    -4.528516530990601E-1  -3.087208867073059E-1  -5.011522173881531E-1  -6.598933935165405E-1  -5.020325779914856E-1  -6.603808999061585E-1   1.727436631917954E-1   5.248076915740967E-1  
 3.670000000000000E7    -4.681570231914520E-1  -2.342093586921692E-1  -5.558313131332398E-1  -6.374280452728272E-1  -5.536957979202271E-1  -6.353215575218201E-1   1.678499281406403E-1   5.033763647079468E-1  
 3.700000000000000E7    -4.750680327415466E-1  -1.582584530115128E-1  -6.079246997833252E-1  -6.060218214988709E-1  -6.079967617988586E-1  -6.061639785766602E-1   1.582758724689484E-1   4.803063571453095E-1  
 3.730000000000000E7    -4.731291234493256E-1  -8.086897432804108E-2  -6.568056941032410E-1  -5.698949694633484E-1  -6.568258404731751E-1  -5.701350569725037E-1   1.452664285898209E-1   4.619034230709076E-1  
 3.760000000000000E7    -4.586459994316101E-1  -6.997810676693916E-3  -7.047538161277771E-1  -5.279935598373413E-1  -7.055500149726868E-1  -5.287815928459168E-1   1.319686472415924E-1   4.446827173233032E-1  
 3.790000000000000E7    -4.334114193916321E-1   6.701084971427918E-2  -7.498759031295776E-1  -4.833739995956421E-1  -7.475513219833374E-1  -4.834128022193909E-1   1.184475049376488E-1   4.294077754020691E-1  
 3.820000000000000E7    -3.996675014495850E-1   1.355841457843781E-1  -7.882770895957947E-1  -4.318128526210785E-1  -7.880190610885620E-1  -4.310647547245026E-1   9.866492450237274E-2   4.187558293342590E-1  
 3.850000000000000E7    -3.579259514808655E-1   2.015485316514969E-1  -8.222250938415527E-1  -3.785341680049896E-1  -8.225620388984680E-1  -3.763140141963959E-1   8.200169354677200E-2   4.090822041034699E-1  
 3.880000000000000E7    -3.104301691055298E-1   2.570221126079559E-1  -8.510639071464539E-1  -3.172884583473206E-1  -8.509305715560913E-1  -3.193688392639160E-1   6.374087929725647E-2   4.021595120429993E-1  
 3.910000000000000E7    -2.527867853641510E-1   3.087121546268463E-1  -8.721992969512940E-1  -2.576274573802948E-1  -8.731980323791504E-1  -2.580181658267975E-1   4.639764130115509E-2   4.022643566131592E-1  
 3.940000000000000E7    -1.894977837800980E-1   3.488740026950836E-1  -8.887526392936707E-1  -1.950941681861877E-1  -8.896146416664124E-1  -1.959055364131928E-1   2.699361741542816E-2   4.023999571800232E-1  
 3.970000000000000E7    -1.233461350202560E-1   3.824434876441956E-1  -8.982909321784973E-1  -1.320161819458008E-1  -8.976713418960571E-1  -1.317798644304276E-1   1.008714362978935E-2   4.093116819858551E-1  
 4.000000000000000E7    -5.591081827878952E-2   4.058577120304108E-1  -9.016999602317810E-1  -6.939680874347687E-2  -9.017941951751709E-1  -6.875940412282944E-2  -4.855908453464508E-3   4.161592125892639E-1  
 4.030000000000000E7     1.213566213846207E-2   4.179940819740295E-1  -9.011708498001099E-1  -6.306514143943787E-3  -9.004589319229126E-1  -8.164182305335999E-3  -1.728921383619309E-2   4.245188534259796E-1  
 4.060000000000000E7     8.349967002868652E-2   4.249929189682007E-1  -8.926634192466736E-1   5.317705869674683E-2  -8.916670680046082E-1   5.392078310251236E-2  -3.070774301886559E-2   4.388752877712250E-1  
 4.090000000000000E7     1.525828540325165E-1   4.236676394939423E-1  -8.791784048080444E-1   1.112565547227860E-1  -8.799440264701843E-1   1.116288602352142E-1  -3.947304561734200E-2   4.506600201129913E-1  
 4.120000000000000E7     2.208994179964066E-1   4.110651612281799E-1  -8.618935346603394E-1   1.657100766897202E-1  -8.607131242752075E-1   1.682788431644440E-1  -4.653538390994072E-2   4.694657921791077E-1  
 4.150000000000000E7     2.808370590209961E-1   3.916990458965302E-1  -8.404653668403626E-1   2.214925140142441E-1  -8.380616307258606E-1   2.187941670417786E-1  -4.934563860297203E-2   4.863696992397308E-1  
 4.180000000000000E7     3.407737314701080E-1   3.681989610195160E-1  -8.146317601203919E-1   2.703457474708557E-1  -8.145562410354614E-1   2.696295082569122E-1  -5.131237953901291E-2   5.018442273139954E-1  
 4.210000000000000E7     3.940353989601135E-1   3.374010026454926E-1  -7.859857082366943E-1   3.166358172893524E-1  -7.871884107589722E-1   3.167221844196320E-1  -4.831331968307495E-2   5.205412507057190E-1  
 4.240000000000000E7     4.444250166416168E-1   3.010478019714356E-1  -7.556100487709045E-1   3.585974574089050E-1  -7.554321289062500E-1   3.585908412933350E-1  -4.348468780517578E-2   5.392458438873291E-1  
 4.270000000000000E7     4.877510070800781E-1   2.632969915866852E-1  -7.225571274757385E-1   3.983202576637268E-1  -7.225168943405151E-1   3.980620503425598E-1  -3.603628277778626E-2   5.568755865097046E-1  
 4.300000000000000E7     5.284103751182556E-1   2.203788161277771E-1  -6.882847547531128E-1   4.348189830780029E-1  -6.876638531684876E-1   4.336030483245850E-1  -2.650365792214871E-2   5.752284526824951E-1  
 4.330000000000000E7     5.633578300476074E-1   1.749463528394699E-1  -6.508565545082092E-1   4.644923210144043E-1  -6.520784497261047E-1   4.660928249359131E-1  -1.402781065553427E-2   5.915954709053040E-1  
 4.360000000000000E7     5.919650197029114E-1   1.246745884418488E-1  -6.165068745613098E-1   4.943246245384216E-1  -6.141357421875000E-1   4.944313168525696E-1  -1.261187717318535E-3   6.078265905380249E-1  
 4.390000000000000E7     6.155511736869812E-1   7.757982611656189E-2  -5.790323019027710E-1   5.203629136085510E-1  -5.780476331710815E-1   5.188862681388855E-1   1.824171096086502E-2   6.219163537025452E-1  
 4.420000000000000E7     6.352638602256775E-1   2.801688015460968E-2  -5.390588045120239E-1   5.428473353385925E-1  -5.394667387008667E-1   5.414953827857971E-1   3.666857257485390E-2   6.352702975273132E-1  
 4.450000000000000E7     6.488801240921021E-1  -2.209648117423058E-2  -5.026750564575195E-1   5.620585083961487E-1  -5.011163353919983E-1   5.622470974922180E-1   5.560032650828362E-2   6.490501761436462E-1  
 4.480000000000000E7     6.591489315032959E-1  -7.177808135747910E-2  -4.642928242683411E-1   5.786342024803162E-1  -4.640174806118012E-1   5.788627266883850E-1   7.844361662864685E-2   6.594156622886658E-1  
 4.510000000000000E7     6.645636558532715E-1  -1.214113831520081E-1  -4.269495010375977E-1   5.934984683990479E-1  -4.263602197170258E-1   5.927088856697083E-1   1.032453626394272E-1   6.688957810401917E-1  
 4.540000000000000E7     6.669417619705200E-1  -1.682880520820618E-1  -3.870181143283844E-1   6.056247353553772E-1  -3.883390426635742E-1   6.059337258338928E-1   1.281324923038483E-1   6.767990589141846E-1  
 4.570000000000000E7     6.656243205070496E-1  -2.175272554159164E-1  -3.499337434768677E-1   6.158848404884338E-1  -3.508077263832092E-1   6.137164831161499E-1   1.560943275690079E-1   6.827709078788757E-1  
 4.600000000000000E7     6.586359739303589E-1  -2.639038562774658E-1  -3.156224787235260E-1   6.225450634956360E-1  -3.158457577228546E-1   6.221985816955566E-1   1.844816803932190E-1   6.860560774803162E-1  
 4.630000000000000E7     6.504973769187927E-1  -3.097980320453644E-1  -2.786177694797516E-1   6.289719939231873E-1  -2.779836654663086E-1   6.286639571189880E-1   2.133838534355164E-1   6.872625350952148E-1  
 4.660000000000000E7     6.405378580093384E-1  -3.528164029121399E-1  -2.411497235298157E-1   6.326503157615662E-1  -2.422835379838944E-1   6.319014430046082E-1   2.450726777315140E-1   6.862076520919800E-1  
 4.690000000000000E7     6.247472167015076E-1  -3.957239985466003E-1  -2.068489491939545E-1   6.346132159233093E-1  -2.060336470603943E-1   6.330710649490356E-1   2.770697772502899E-1   6.860706806182861E-1  
 4.720000000000000E7     6.082565784454346E-1  -4.364710450172424E-1  -1.714740395545960E-1   6.344244480133057E-1  -1.712283790111542E-1   6.343485116958618E-1   3.082455098628998E-1   6.793704032897949E-1  
 4.750000000000000E7     5.899796485900879E-1  -4.740884304046631E-1  -1.370761543512344E-1   6.330242156982422E-1  -1.373456269502640E-1   6.325715184211731E-1   3.421998620033264E-1   6.747453808784485E-1  
 4.780000000000000E7     5.697426795959473E-1  -5.111284255981445E-1  -1.035624146461487E-1   6.291400790214539E-1  -1.052044108510017E-1   6.288912892341614E-1   3.759924173355103E-1   6.632399559020996E-1  
 4.810000000000000E7     5.456221699714661E-1  -5.460720062255859E-1  -7.237355411052704E-2   6.257175803184509E-1  -7.214201986789703E-2   6.249673366546631E-1   4.113518297672272E-1   6.522314548492432E-1  
 4.840000000000000E7     5.211728215217590E-1  -5.789206624031067E-1  -4.035188257694244E-2   6.200454235076904E-1  -3.941799700260162E-2   6.201023459434509E-1   4.462538361549377E-1   6.370028257369995E-1  
 4.870000000000000E7     4.957001805305481E-1  -6.097717285156250E-1  -7.520116865634918E-3   6.131806373596191E-1  -8.969612419605255E-3   6.127177476882935E-1   4.814032614231110E-1   6.192271709442139E-1  
 4.900000000000000E7     4.689383804798126E-1  -6.392999291419983E-1   2.246396243572235E-2   6.038517355918884E-1   2.259496599435806E-2   6.041713953018189E-1   5.154126286506653E-1   5.991611480712891E-1  
 4.930000000000000E7     4.401344954967499E-1  -6.676188111305237E-1   5.202235281467438E-2   5.935094952583313E-1   5.162689834833145E-2   5.938541293144226E-1   5.517716407775879E-1   5.744279623031616E-1  
 4.960000000000000E7     4.097694456577301E-1  -6.925008893013001E-1   8.213786035776138E-2   5.816594362258911E-1   8.232025802135468E-2   5.818403363227844E-1   5.849550366401672E-1   5.487522482872009E-1  
 4.990000000000000E7     3.803573250770569E-1  -7.164718508720398E-1   1.103643327951431E-1   5.682597756385803E-1   1.096792221069336E-1   5.679201483726502E-1   6.200014352798462E-1   5.185382366180420E-1  
 5.020000000000000E7     3.496083915233612E-1  -7.382403612136841E-1   1.373805701732636E-1   5.545625090599060E-1   1.360573470592499E-1   5.554191470146179E-1   6.540286540985107E-1   4.846158623695374E-1  
 5.050000000000000E7     3.169279694557190E-1  -7.588133215904236E-1   1.643722504377365E-1   5.391060113906860E-1   1.648043990135193E-1   5.388372540473938E-1   6.862995028495789E-1   4.485094249248505E-1  
 5.080000000000000E7     2.848201990127564E-1  -7.769520878791809E-1   1.900148540735245E-1   5.221935510635376E-1   1.887502670288086E-1   5.224310755729675E-1   7.168740034103394E-1   4.067818820476532E-1  
 5.110000000000000E7     2.512578070163727E-1  -7.941564321517944E-1   2.148272693157196E-1   5.034260749816895E-1   2.148770391941071E-1   5.038589835166931E-1   7.465202808380127E-1   3.634971678256989E-1  
 5.140000000000000E7     2.170434594154358E-1  -8.095275163650513E-1   2.382968366146088E-1   4.843763709068298E-1   2.395207583904266E-1   4.837342202663422E-1   7.744009494781494E-1   3.145100176334381E-1  
 5.170000000000000E7     1.841103732585907E-1  -8.233725428581238E-1   2.600235641002655E-1   4.612285792827606E-1   2.608223557472229E-1   4.622910320758820E-1   7.977105379104614E-1   2.626341283321381E-1  
 5.200000000000000E7     1.495220661163330E-1  -8.360881209373474E-1   2.820571362972260E-1   4.406139254570007E-1   2.810802757740021E-1   4.422000348567963E-1   8.190596699714661E-1   2.067790329456329E-1  
 5.230000000000000E7     1.150775253772736E-1  -8.457615375518799E-1   3.023728132247925E-1   4.169034063816071E-1   3.027834892272949E-1   4.164058864116669E-1   8.372704982757568E-1   1.485225558280945E-1  
 5.260000000000000E7     8.000393211841583E-2  -8.543746471405029E-1   3.205182254314423E-1   3.906835615634918E-1   3.204485177993774E-1   3.920505344867706E-1   8.516055345535278E-1   8.599949628114700E-2  
 5.290000000000000E7     4.393829405307770E-2  -8.629358410835266E-1   3.363848030567169E-1   3.666148781776428E-1   3.367982804775238E-1   3.655899167060852E-1   8.605148196220398E-1   2.006393857300282E-2  
 5.320000000000000E7     9.998877532780170E-3  -8.693171143531799E-1   3.517461717128754E-1   3.390439748764038E-1   3.522167503833771E-1   3.385276794433594E-1   8.643075823783875E-1  -4.872601106762886E-2  
 5.350000000000000E7    -2.508589997887611E-2  -8.731815814971924E-1   3.649879395961762E-1   3.099302053451538E-1   3.646778166294098E-1   3.092602491378784E-1   8.632696270942688E-1  -1.197276040911675E-1  
 5.380000000000000E7    -6.011075899004936E-2  -8.766905069351196E-1   3.748247623443604E-1   2.806430459022522E-1   3.739483058452606E-1   2.795996665954590E-1   8.551654219627380E-1  -1.938315629959106E-1  
 5.410000000000000E7    -9.707878530025482E-2  -8.806830048561096E-1   3.841835856437683E-1   2.511400878429413E-1   3.830847442150116E-1   2.502699792385101E-1   8.403690457344055E-1  -2.670136690139771E-1  
 5.440000000000000E7    -1.332150101661682E-1  -8.809360265731812E-1   3.892236948013306E-1   2.197361588478088E-1   3.890289068222046E-1   2.201118767261505E-1   8.188285827636719E-1  -3.430821895599365E-1  
 5.470000000000000E7    -1.684057116508484E-1  -8.804732561111450E-1   3.918194174766541E-1   1.909192353487015E-1   3.919562995433807E-1   1.895377188920975E-1   7.889434695243835E-1  -4.175269305706024E-1  
 5.500000000000000E7    -2.046701312065125E-1  -8.790275454521179E-1   3.925495147705078E-1   1.582434028387070E-1   3.915934860706329E-1   1.584160625934601E-1   7.517104148864746E-1  -4.914674460887909E-1  
 5.530000000000000E7    -2.410102486610413E-1  -8.756756782531738E-1   3.907005190849304E-1   1.284362822771072E-1   3.905062973499298E-1   1.278109550476074E-1   7.066560983657837E-1  -5.630366802215576E-1  
 5.560000000000000E7    -2.786573469638825E-1  -8.705342411994934E-1   3.858273923397064E-1   9.850628674030304E-2   3.852647244930267E-1   9.855468571186066E-2   6.545295119285584E-1  -6.323305964469910E-1  
 5.590000000000000E7    -3.141693472862244E-1  -8.646340966224670E-1   3.782327473163605E-1   7.002335786819458E-2   3.783139884471893E-1   6.972674280405045E-2   5.947827696800232E-1  -6.952741146087647E-1  
 5.620000000000000E7    -3.515096902847290E-1  -8.557714819908142E-1   3.682084977626801E-1   4.145857319235802E-2   3.672524690628052E-1   4.202340543270111E-2   5.284204483032227E-1  -7.549059391021729E-1  
 5.650000000000000E7    -3.864041864871979E-1  -8.466266393661499E-1   3.568623065948486E-1   1.649230718612671E-2   3.554121851921082E-1   1.628693938255310E-2   4.544394612312317E-1  -8.077358007431030E-1  
 5.680000000000000E7    -4.231305122375488E-1  -8.354253172874451E-1   3.420346379280090E-1  -7.880501449108124E-3   3.419001400470734E-1  -8.063718676567078E-3   3.766238391399384E-1  -8.532588481903076E-1  
 5.710000000000000E7    -4.597098529338837E-1  -8.217258453369141E-1   3.257116377353668E-1  -2.980729937553406E-2   3.255878984928131E-1  -3.020749986171722E-2   2.935072779655457E-1  -8.896087408065796E-1  
 5.740000000000000E7    -4.957837164402008E-1  -8.073681592941284E-1   3.079637587070465E-1  -4.995320737361908E-2   3.075281977653503E-1  -4.923856258392334E-2   2.084610015153885E-1  -9.203914999961853E-1  
 5.770000000000000E7    -5.289961695671082E-1  -7.907341718673706E-1   2.882671952247620E-1  -6.682832539081574E-2   2.878076732158661E-1  -6.665818393230438E-2   1.184228286147118E-1  -9.404381513595581E-1  
 5.800000000000000E7    -5.645130276679993E-1  -7.719112038612366E-1   2.686562240123749E-1  -8.166851103305817E-2   2.677783071994782E-1  -8.244515955448151E-2   2.947854995727539E-2  -9.513537883758545E-1  
 5.830000000000000E7    -5.975873470306397E-1  -7.517795562744141E-1   2.480152100324631E-1  -9.424690902233124E-2   2.477202564477921E-1  -9.456777572631836E-2  -6.064298748970032E-2  -9.540154933929443E-1  
 5.860000000000000E7    -6.310072541236877E-1  -7.314208149909973E-1   2.276864647865295E-1  -1.041129678487778E-1   2.276718318462372E-1  -1.040132120251656E-1  -1.472543329000473E-1  -9.499154686927795E-1  
 5.890000000000000E7    -6.620565056800842E-1  -7.069507837295532E-1   2.066064774990082E-1  -1.112679019570351E-1   2.070973962545395E-1  -1.112192273139954E-1  -2.347500324249268E-1  -9.359329938888550E-1  
 5.920000000000000E7    -6.932331323623657E-1  -6.819980144500732E-1   1.867887377738953E-1  -1.167656779289246E-1   1.860686987638474E-1  -1.170721054077148E-1  -3.169223070144653E-1  -9.152643680572510E-1  
 5.950000000000000E7    -7.218130826950073E-1  -6.554191112518311E-1   1.672125011682510E-1  -1.196968406438828E-1   1.667601168155670E-1  -1.199407577514648E-1  -3.971513509750366E-1  -8.874388337135315E-1  
 5.980000000000000E7    -7.505242824554443E-1  -6.275957226753235E-1   1.486726105213165E-1  -1.211545169353485E-1   1.480547040700913E-1  -1.207711696624756E-1  -4.713838696479797E-1  -8.544870018959045E-1  
 6.010000000000000E7    -7.752613425254822E-1  -5.986433625221252E-1   1.304421126842499E-1  -1.199847161769867E-1   1.303707808256149E-1  -1.198830902576447E-1  -5.403057336807251E-1  -8.147320151329041E-1  
 6.040000000000000E7    -8.020433783531189E-1  -5.676227211952210E-1   1.134393438696861E-1  -1.180863901972771E-1   1.137158125638962E-1  -1.182959228754044E-1  -6.050808429718018E-1  -7.707099914550781E-1  
 6.070000000000000E7    -8.254964947700501E-1  -5.388042926788330E-1   9.846925735473633E-2  -1.146858632564545E-1   9.850372374057770E-2  -1.144353970885277E-1  -6.630750894546509E-1  -7.231938838958740E-1  
 6.100000000000000E7    -8.470060825347900E-1  -5.061034560203552E-1   8.472355455160141E-2  -1.105958074331284E-1   8.423600345849991E-2  -1.103876978158951E-1  -7.171283364295960E-1  -6.740860939025879E-1  
 6.130000000000000E7    -8.688790798187256E-1  -4.729900658130646E-1   7.138493657112122E-2  -1.053381338715553E-1   7.134979963302612E-2  -1.049644351005554E-1  -7.651426196098328E-1  -6.211597919464111E-1  
 6.160000000000000E7    -8.870371580123901E-1  -4.393947124481201E-1   5.969545245170593E-2  -9.930811822414398E-2   5.974219366908073E-2  -9.916739910840988E-2  -8.083406686782837E-1  -5.672436952590942E-1  
 6.190000000000000E7    -9.045876860618591E-1  -4.047189652919769E-1   4.919925704598427E-2  -9.262517839670181E-2   4.902563616633415E-2  -9.250035136938095E-2  -8.462987542152405E-1  -5.104286074638367E-1  
 6.220000000000000E7    -9.206879734992981E-1  -3.701376914978027E-1   4.001252353191376E-2  -8.572127670049667E-2   4.008153080940247E-2  -8.563798666000366E-2  -8.777225613594055E-1  -4.559939801692963E-1  
 6.250000000000000E7    -9.352310299873352E-1  -3.341971933841705E-1   3.213083744049072E-2  -7.860366255044937E-2   3.201136365532875E-2  -7.850182056427002E-2  -9.052030444145203E-1  -4.010633230209351E-1  
 6.280000000000000E7    -9.472038149833679E-1  -2.981413602828980E-1   2.517598122358322E-2  -7.123097032308579E-2   2.535755559802055E-2  -7.106705009937286E-2  -9.274758100509644E-1  -3.459944725036621E-1  
 6.310000000000000E7    -9.592713117599487E-1  -2.606930136680603E-1   1.923936977982521E-2  -6.412836909294128E-2   1.915410347282887E-2  -6.403850764036179E-2  -9.492816329002380E-1  -2.903286814689636E-1  
 6.340000000000000E7    -9.685387611389160E-1  -2.245540320873261E-1   1.425815001130104E-2  -5.696030706167221E-2   1.417439989745617E-2  -5.683700740337372E-2  -9.644315242767334E-1  -2.368404418230057E-1  
 6.370000000000000E7    -9.767929315567017E-1  -1.881556808948517E-1   1.012556999921799E-2  -4.989913851022720E-2   1.006819680333138E-2  -4.986700043082237E-2  -9.755159616470337E-1  -1.834881603717804E-1  
 6.400000000000000E7    -9.827802777290344E-1  -1.509720981121063E-1   6.835384294390678E-3  -4.304105415940285E-2   6.717859767377377E-3  -4.289826750755310E-2  -9.844594001770020E-1  -1.323876827955246E-1  
 6.430000000000000E7    -9.887902736663818E-1  -1.128728240728378E-1   4.176704213023186E-3  -3.639482334256172E-2   4.075020086020231E-3  -3.635211288928986E-2  -9.911834001541138E-1  -8.140215277671814E-2  
 6.460000000000000E7    -9.930613040924072E-1  -7.661859691143036E-2   2.187424339354038E-3  -3.004854731261730E-2   2.084843814373016E-3  -2.996145561337471E-2  -9.931049346923828E-1  -3.219756484031677E-2  
 6.490000000000000E7    -9.959096908569336E-1  -4.036203026771545E-2   7.830001413822174E-4  -2.399012632668018E-2   8.608303032815456E-4  -2.393407374620438E-2  -9.935986995697022E-1   1.350013911724091E-2  
 6.520000000000000E7    -9.962443709373474E-1  -3.364056348800659E-3  -3.808271139860153E-5  -1.817777566611767E-2  -4.782434552907944E-5  -1.816529966890812E-2  -9.926813244819641E-1   6.012451648712158E-2  
 6.550000000000000E7    -9.955847263336182E-1   3.263580799102783E-2  -4.401633050292730E-4  -1.276072673499584E-2  -4.504129756242037E-4  -1.278038974851370E-2  -9.892485141754150E-1   1.041874140501022E-1  
 6.580000000000000E7    -9.938290119171143E-1   7.008573412895203E-2  -4.259565612301230E-4  -7.665826473385096E-3  -4.284565802663565E-4  -7.666223216801882E-3  -9.843819141387940E-1   1.465546488761902E-1  
 6.610000000000000E7    -9.895911812782288E-1   1.071669161319733E-1  -1.939752837643027E-5  -2.895260928198695E-3  -2.455117646604776E-5  -2.905377186834812E-3  -9.778990149497986E-1   1.888657510280609E-1  
 6.640000000000000E7    -9.868754744529724E-1   1.421992182731628E-1   6.590757984668016E-4   1.520582707598805E-3   6.898089777678251E-4   1.522454549558461E-3  -9.691945910453796E-1   2.283743619918823E-1  
 6.670000000000000E7    -9.801263809204102E-1   1.784542351961136E-1   1.642054878175259E-3   5.617403425276279E-3   1.625846023671329E-3   5.595270544290543E-3  -9.591162800788879E-1   2.648423612117767E-1  
 6.700000000000000E7    -9.726477861404419E-1   2.141679525375366E-1   2.838006243109703E-3   9.376132860779762E-3   2.849605400115252E-3   9.318534284830093E-3  -9.476265907287598E-1   3.019673228263855E-1  
 6.730000000000000E7    -9.642468690872192E-1   2.491131126880646E-1   4.264052025973797E-3   1.278803497552872E-2   4.287913907319307E-3   1.278815325349569E-2  -9.369095563888550E-1   3.363156616687775E-1  
 6.760000000000000E7    -9.550293087959290E-1   2.832662463188171E-1   5.882809869945049E-3   1.598678901791573E-2   5.816454067826271E-3   1.589579880237579E-2  -9.233100414276123E-1   3.705086112022400E-1  
 6.790000000000000E7    -9.438565969467163E-1   3.179134726524353E-1   7.546881213784218E-3   1.874917745590210E-2   7.592421956360340E-3   1.872368343174458E-2  -9.102172255516052E-1   4.023038148880005E-1  
 6.820000000000000E7    -9.314425587654114E-1   3.511191010475159E-1   9.451945312321186E-3   2.130063995718956E-2   9.383506141602993E-3   2.124578319489956E-2  -8.957591652870178E-1   4.328978061676025E-1  
 6.850000000000000E7    -9.191125631332398E-1   3.850197196006775E-1   1.134728826582432E-2   2.352944202721119E-2   1.134323328733444E-2   2.352620661258698E-2  -8.805183768272400E-1   4.621977210044861E-1  
 6.880000000000000E7    -9.044052958488464E-1   4.170446097850800E-1   1.334563549607992E-2   2.551202662289143E-2   1.330594904720783E-2   2.541220560669899E-2  -8.646729588508606E-1   4.907788932323456E-1  
 6.910000000000000E7    -8.884340524673462E-1   4.490823149681091E-1   1.543259620666504E-2   2.730336599051952E-2   1.540989987552166E-2   2.719513326883316E-2  -8.495140671730042E-1   5.186728239059448E-1  
 6.940000000000000E7    -8.726558089256287E-1   4.805652499198914E-1   1.744240336120129E-2   2.877450175583363E-2   1.749081909656525E-2   2.874398045241833E-2  -8.334569334983826E-1   5.435863733291626E-1  
 6.970000000000000E7    -8.535932898521423E-1   5.116936564445496E-1   1.960314065217972E-2   2.991763874888420E-2   1.965075731277466E-2   2.994882687926292E-2  -8.165072798728943E-1   5.685378313064575E-1  
 7.000000000000000E7    -8.353496193885803E-1   5.421533584594727E-1   2.167319506406784E-2   3.104299679398537E-2   2.171447128057480E-2   3.092586994171143E-2  -7.993544340133667E-1   5.927649736404419E-1  
