#  HZ   S   RI   R     50.00 
! Rohde & Schwarz ZVT8 8Ports - Version 4.11 - 1300.0000k08 SN: 100242
! Date: 2026-07-31 15:17:30
! Measurements: S11 S21 S12 S22 
! 
 1.000000000000000E7    -3.990618586540222E-1   9.124884605407715E-1   5.229012668132782E-2   5.257661640644074E-2   5.217266827821732E-2   5.276416987180710E-2  -9.194337129592896E-1   3.819598257541657E-1  
 1.030000000000000E7    -3.663253486156464E-1   9.250608682632446E-1   5.556560307741165E-2   5.311100184917450E-2   5.541791021823883E-2   5.326883122324944E-2  -9.139367341995239E-1   3.946225047111511E-1  
 1.060000000000000E7    -3.295232355594635E-1   9.380849599838257E-1   5.903458967804909E-2   5.406065285205841E-2   5.895043537020683E-2   5.397149175405502E-2  -9.109194874763489E-1   4.054817855358124E-1  
 1.090000000000000E7    -2.969140112400055E-1   9.482476711273193E-1   6.272955238819122E-2   5.439602956175804E-2   6.255646049976349E-2   5.448341369628906E-2  -9.049530625343323E-1   4.174431264400482E-1  
 1.120000000000000E7    -2.606119811534882E-1   9.580417275428772E-1   6.651316583156586E-2   5.522125214338303E-2   6.583745777606964E-2   5.499231815338135E-2  -8.991302847862244E-1   4.287474453449249E-1  
 1.150000000000000E7    -2.246341705322266E-1   9.680958986282349E-1   6.993472576141357E-2   5.504382401704788E-2   6.992501020431519E-2   5.513330549001694E-2  -8.924818634986877E-1   4.378111362457275E-1  
 1.180000000000000E7    -1.884932518005371E-1   9.732799530029297E-1   7.368606328964233E-2   5.555443093180656E-2   7.353360205888748E-2   5.526201799511910E-2  -8.880723118782044E-1   4.481770694255829E-1  
 1.210000000000000E7    -1.528236120939255E-1   9.797344207763672E-1   7.787153124809265E-2   5.569604784250259E-2   7.773448526859283E-2   5.557664483785629E-2  -8.807808160781860E-1   4.603719711303711E-1  
 1.240000000000000E7    -1.165863424539566E-1   9.837924838066101E-1   8.184824883937836E-2   5.564170330762863E-2   8.208402246236801E-2   5.526491254568100E-2  -8.744539022445679E-1   4.699741005897522E-1  
 1.270000000000000E7    -7.973487675189972E-2   9.869484305381775E-1   8.653923124074936E-2   5.538922548294067E-2   8.621285855770111E-2   5.509202554821968E-2  -8.678354620933533E-1   4.836477637290955E-1  
 1.300000000000000E7    -4.292363300919533E-2   9.895435571670532E-1   9.086742997169495E-2   5.502630770206451E-2   9.066574275493622E-2   5.512641370296478E-2  -8.608620762825012E-1   4.939426183700562E-1  
 1.330000000000000E7    -5.317941308021545E-3   9.909477233886719E-1   9.570452570915222E-2   5.453176423907280E-2   9.569374471902847E-2   5.425847694277763E-2  -8.537114262580872E-1   5.052879452705383E-1  
 1.360000000000000E7     3.366899490356445E-2   9.899522662162781E-1   1.002038568258286E-1   5.408706143498421E-2   1.006464883685112E-1   5.341788753867149E-2  -8.468531966209412E-1   5.143105387687683E-1  
 1.390000000000000E7     7.018085569143295E-2   9.870791435241699E-1   1.054565906524658E-1   5.287085846066475E-2   1.049877926707268E-1   5.299781262874603E-2  -8.391135334968567E-1   5.256512761116028E-1  
 1.420000000000000E7     1.095027923583984E-1   9.835669994354248E-1   1.103021278977394E-1   5.231495946645737E-2   1.102595254778862E-1   5.220745503902435E-2  -8.338271975517273E-1   5.361140966415405E-1  
 1.450000000000000E7     1.472397893667221E-1   9.769712686538696E-1   1.157963871955872E-1   5.070793256163597E-2   1.156802922487259E-1   5.069671943783760E-2  -8.234152793884277E-1   5.477417707443237E-1  
 1.480000000000000E7     1.867913752794266E-1   9.701414704322815E-1   1.212451905012131E-1   4.928841814398766E-2   1.210942566394806E-1   4.972572252154350E-2  -8.164842724800110E-1   5.576949119567871E-1  
 1.510000000000000E7     2.246982902288437E-1   9.609073996543884E-1   1.266805231571198E-1   4.765587672591209E-2   1.263757348060608E-1   4.755858704447746E-2  -8.061256408691406E-1   5.689355134963989E-1  
 1.540000000000000E7     2.623201608657837E-1   9.505303502082825E-1   1.322654038667679E-1   4.660956561565399E-2   1.323029398918152E-1   4.589702188968658E-2  -8.002645969390869E-1   5.782760381698608E-1  
 1.570000000000000E7     3.014273047447205E-1   9.396450519561768E-1   1.383253335952759E-1   4.401819780468941E-2   1.385732293128967E-1   4.377582296729088E-2  -7.909746766090393E-1   5.903297662734985E-1  
 1.600000000000000E7     3.403367102146149E-1   9.244099259376526E-1   1.442469954490662E-1   4.164264723658562E-2   1.446604132652283E-1   4.124561697244644E-2  -7.827388644218445E-1   5.985713005065918E-1  
 1.630000000000000E7     3.774869740009308E-1   9.085088968276978E-1   1.513832211494446E-1   3.844727575778961E-2   1.508852392435074E-1   3.877283632755280E-2  -7.728589773178101E-1   6.106505393981934E-1  
 1.660000000000000E7     4.154304265975952E-1   8.895319104194641E-1   1.579811275005341E-1   3.538377210497856E-2   1.576038300991058E-1   3.501293063163757E-2  -7.623337507247925E-1   6.209390759468079E-1  
 1.690000000000000E7     4.525994658470154E-1   8.705007433891296E-1   1.647659093141556E-1   3.256143257021904E-2   1.647080183029175E-1   3.199845552444458E-2  -7.536019682884216E-1   6.307079792022705E-1  
 1.720000000000000E7     4.919382333755493E-1   8.491438627243042E-1   1.711129099130631E-1   2.795315533876419E-2   1.715649217367172E-1   2.832307480275631E-2  -7.432203292846680E-1   6.404365301132202E-1  
 1.750000000000000E7     5.244263410568237E-1   8.280948400497437E-1   1.794235110282898E-1   2.512562647461891E-2   1.795007288455963E-1   2.453894540667534E-2  -7.336153388023377E-1   6.514827013015747E-1  
 1.780000000000000E7     5.632163882255554E-1   7.988818883895874E-1   1.860119253396988E-1   1.970266923308373E-2   1.864301860332489E-1   1.994286477565765E-2  -7.219316959381104E-1   6.589874625205994E-1  
 1.810000000000000E7     5.974848270416260E-1   7.723762989044190E-1   1.951261013746262E-1   1.470127794891596E-2   1.939894556999207E-1   1.426338590681553E-2  -7.109632492065430E-1   6.720736026763916E-1  
 1.840000000000000E7     6.343390941619873E-1   7.419521808624268E-1   2.032870650291443E-1   7.712535560131073E-3   2.024859637022018E-1   8.303113281726837E-3  -6.988598108291626E-1   6.813037395477295E-1  
 1.870000000000000E7     6.661553978919983E-1   7.099977135658264E-1   2.114735692739487E-1   2.450237050652504E-3   2.108451426029205E-1   1.862548291683197E-3  -6.866416931152344E-1   6.905222535133362E-1  
 1.900000000000000E7     6.992711424827576E-1   6.753578782081604E-1   2.199791073799133E-1  -4.410397261381149E-3   2.197020351886749E-1  -5.022203549742699E-3  -6.739344596862793E-1   6.992667317390442E-1  
 1.930000000000000E7     7.307558655738831E-1   6.364358663558960E-1   2.285009026527405E-1  -1.344361063092947E-2   2.290687114000320E-1  -1.264681760221720E-2  -6.612460613250732E-1   7.102627754211426E-1  
 1.960000000000000E7     7.619220018386841E-1   5.958014130592346E-1   2.377564609050751E-1  -2.194347046315670E-2   2.379703670740128E-1  -2.127180993556976E-2  -6.496260166168213E-1   7.181122899055481E-1  
 1.990000000000000E7     7.885659337043762E-1   5.530236363410950E-1   2.473153918981552E-1  -3.152511268854141E-2   2.477415353059769E-1  -3.173340857028961E-2  -6.332103013992310E-1   7.286975979804993E-1  
 2.020000000000000E7     8.157158493995667E-1   5.067188739776611E-1   2.575345635414124E-1  -4.194491356611252E-2   2.567262351512909E-1  -4.183894023299217E-2  -6.197277307510376E-1   7.345855236053467E-1  
 2.050000000000000E7     8.423113226890564E-1   4.564621150493622E-1   2.673377990722656E-1  -5.366804450750351E-2   2.657366991043091E-1  -5.393753573298454E-2  -6.048253774642944E-1   7.431758642196655E-1  
 2.080000000000000E7     8.639046549797058E-1   4.026455879211426E-1   2.778459489345551E-1  -6.731809675693512E-2   2.780849337577820E-1  -6.725531071424484E-2  -5.896620750427246E-1   7.525857090950012E-1  
 2.110000000000000E7     8.841896057128906E-1   3.458460569381714E-1   2.884754240512848E-1  -8.324748277664185E-2   2.885425090789795E-1  -8.308552950620651E-2  -5.723106861114502E-1   7.595580220222473E-1  
 2.140000000000000E7     9.002863168716431E-1   2.858209311962128E-1   2.991515100002289E-1  -1.007263809442520E-1   2.982284724712372E-1  -9.920701384544373E-2  -5.552737712860107E-1   7.661817073822022E-1  
 2.170000000000000E7     9.117617011070252E-1   2.225401699542999E-1   3.097063899040222E-1  -1.189574673771858E-1   3.097287714481354E-1  -1.179219409823418E-1  -5.373370051383972E-1   7.719491124153137E-1  
 2.200000000000000E7     9.197443723678589E-1   1.525971889495850E-1   3.196085691452026E-1  -1.404250115156174E-1   3.199975788593292E-1  -1.400998234748840E-1  -5.173407196998596E-1   7.769256234169006E-1  
 2.230000000000000E7     9.204626083374023E-1   7.968978583812714E-2   3.294154405593872E-1  -1.647343188524246E-1   3.294514119625092E-1  -1.638302505016327E-1  -4.973725080490112E-1   7.809414863586426E-1  
 2.260000000000000E7     9.155111312866211E-1   2.128824591636658E-3   3.379760682582855E-1  -1.916617155075073E-1   3.400959074497223E-1  -1.921359896659851E-1  -4.773711562156677E-1   7.830758094787598E-1  
 2.290000000000000E7     9.019448161125183E-1  -7.985939085483551E-2   3.461585938930512E-1  -2.224736362695694E-1   3.476624786853790E-1  -2.222977578639984E-1  -4.537225365638733E-1   7.840538620948792E-1  
 2.320000000000000E7     8.776671290397644E-1  -1.643909513950348E-1   3.531024456024170E-1  -2.583579123020172E-1   3.523470163345337E-1  -2.581504285335541E-1  -4.320939481258392E-1   7.854279875755310E-1  
 2.350000000000000E7     8.405028581619263E-1  -2.541480660438538E-1   3.559255003929138E-1  -2.988024950027466E-1   3.559480905532837E-1  -2.975795865058899E-1  -4.083783030509949E-1   7.824028134346008E-1  
 2.380000000000000E7     7.899410128593445E-1  -3.444776833057404E-1   3.554989099502564E-1  -3.419082462787628E-1   3.563234508037567E-1  -3.419694900512695E-1  -3.846499621868134E-1   7.761823534965515E-1  
 2.410000000000000E7     7.208400964736939E-1  -4.351258277893066E-1   3.486323952674866E-1  -3.919189572334290E-1   3.486958742141724E-1  -3.912310302257538E-1  -3.597823679447174E-1   7.668936252593994E-1  
 2.440000000000000E7     6.309199333190918E-1  -5.204022526741028E-1   3.352061510086060E-1  -4.474376440048218E-1   3.347679674625397E-1  -4.474557340145111E-1  -3.374537229537964E-1   7.529776096343994E-1  
 2.470000000000000E7     5.195310115814209E-1  -5.977531075477600E-1   3.113503456115723E-1  -5.071989893913269E-1   3.126153349876404E-1  -5.049622058868408E-1  -3.134365379810333E-1   7.339652180671692E-1  
 2.500000000000000E7     3.822225332260132E-1  -6.603049039840698E-1   2.745715975761414E-1  -5.674266815185547E-1   2.743220031261444E-1  -5.680090188980103E-1  -2.944583594799042E-1   7.127805948257446E-1  
 2.530000000000000E7     2.200071215629578E-1  -6.955767273902893E-1   2.237242013216019E-1  -6.283797621726990E-1   2.237739861011505E-1  -6.283035874366760E-1  -2.797586619853973E-1   6.834331154823303E-1  
 2.560000000000000E7     4.014228656888008E-2  -6.954292654991150E-1   1.539678722620010E-1  -6.835910081863403E-1   1.538158655166626E-1  -6.850105524063110E-1  -2.731513381004334E-1   6.506651639938355E-1  
 2.590000000000000E7    -1.462083756923676E-1  -6.455315947532654E-1   6.602580845355988E-2  -7.282236218452454E-1   6.729707121849060E-2  -7.289810776710510E-1  -2.738850712776184E-1   6.186884045600891E-1  
 2.620000000000000E7    -3.270955085754395E-1  -5.437051057815552E-1  -3.634644299745560E-2  -7.537119388580322E-1  -3.506072610616684E-2  -7.530243396759033E-1  -2.842376530170441E-1   5.847038030624390E-1  
 2.650000000000000E7    -4.821153283119202E-1  -3.902827501296997E-1  -1.461421549320221E-1  -7.516525387763977E-1  -1.471811532974243E-1  -7.529150247573853E-1  -3.083947598934174E-1   5.553041696548462E-1  
 2.680000000000000E7    -5.871511697769165E-1  -1.953986734151840E-1  -2.551784515380859E-1  -7.237322926521301E-1  -2.560791671276093E-1  -7.228779792785645E-1  -3.408897221088409E-1   5.360372662544251E-1  
 2.710000000000000E7    -6.317256689071655E-1   1.670725643634796E-2  -3.530365824699402E-1  -6.683075428009033E-1  -3.532018065452576E-1  -6.689323782920837E-1  -3.745048940181732E-1   5.287835597991943E-1  
 2.740000000000000E7    -6.180235743522644E-1   2.310595810413361E-1  -4.295319020748138E-1  -5.941003561019898E-1  -4.306335449218750E-1  -5.920935273170471E-1  -4.124301373958588E-1   5.331679582595825E-1  
 2.770000000000000E7    -5.507104396820068E-1   4.192475080490112E-1  -4.853312671184540E-1  -5.083022117614746E-1  -4.852111041545868E-1  -5.086588859558106E-1  -4.442382156848908E-1   5.488381981849670E-1  
 2.800000000000000E7    -4.477372169494629E-1   5.765181779861450E-1  -5.176651477813721E-1  -4.196933209896088E-1  -5.170214176177979E-1  -4.200147986412048E-1  -4.716276228427887E-1   5.703885555267334E-1  
 2.830000000000000E7    -3.220299780368805E-1   6.933944225311279E-1  -5.297206640243530E-1  -3.371522128582001E-1  -5.303151607513428E-1  -3.385232686996460E-1  -4.891586899757385E-1   5.980684757232666E-1  
 2.860000000000000E7    -1.866568326950073E-1   7.745764255523682E-1  -5.274661183357239E-1  -2.625246942043304E-1  -5.286731123924255E-1  -2.614141702651978E-1  -4.996722638607025E-1   6.293743252754211E-1  
 2.890000000000000E7    -5.241975933313370E-2   8.223642110824585E-1  -5.158792138099670E-1  -1.963186562061310E-1  -5.148411989212036E-1  -1.962570697069168E-1  -5.041251182556152E-1   6.593367457389832E-1  
 2.920000000000000E7     7.699850201606751E-2   8.459690213203430E-1  -4.946823418140411E-1  -1.408328264951706E-1  -4.951324164867401E-1  -1.397024989128113E-1  -5.038075447082520E-1   6.882494091987610E-1  
 2.950000000000000E7     1.942817866802216E-1   8.461999893188477E-1  -4.714640676975250E-1  -9.369309246540070E-2  -4.713155329227448E-1  -9.315983951091766E-2  -4.982870221138001E-1   7.184256315231323E-1  
 2.980000000000000E7     3.016998767852783E-1   8.338851928710938E-1  -4.446904063224793E-1  -5.484081432223320E-2  -4.451494514942169E-1  -5.498046427965164E-2  -4.896912574768066E-1   7.446091175079346E-1  
 3.010000000000000E7     3.984228372573853E-1   8.079692721366882E-1  -4.183375239372253E-1  -2.178778126835823E-2  -4.179069697856903E-1  -2.234052866697311E-2  -4.783471226692200E-1   7.688776850700378E-1  
 3.040000000000000E7     4.844068884849548E-1   7.743711471557617E-1  -3.919568657875061E-1   2.881241962313652E-3  -3.918877243995667E-1   3.251330927014351E-3  -4.633434414863586E-1   7.907033562660217E-1  
 3.070000000000000E7     5.620612502098084E-1   7.332001328468323E-1  -3.662392497062683E-1   2.626252360641956E-2  -3.663396239280701E-1   2.573420107364655E-2  -4.481830000877380E-1   8.114871382713318E-1  
 3.100000000000000E7     6.290779113769531E-1   6.895075440406799E-1  -3.423840701580048E-1   4.362570494413376E-2  -3.416354656219482E-1   4.384128749370575E-2  -4.315267801284790E-1   8.304820656776428E-1  
 3.130000000000000E7     6.868435144424439E-1   6.419965624809265E-1  -3.181463181972504E-1   5.810854956507683E-2  -3.181609809398651E-1   5.725966766476631E-2  -4.139214158058167E-1   8.469504117965698E-1  
 3.160000000000000E7     7.394453883171082E-1   5.924696326255798E-1  -2.967661619186401E-1   6.916048377752304E-2  -2.971025407314301E-1   6.895224750041962E-2  -3.967389464378357E-1   8.637881278991699E-1  
 3.190000000000000E7     7.838370203971863E-1   5.423249602317810E-1  -2.758688628673554E-1   7.849096506834030E-2  -2.752349972724915E-1   7.849796861410141E-2  -3.770849704742432E-1   8.777958750724793E-1  
 3.220000000000000E7     8.233256936073303E-1   4.914677143096924E-1  -2.561223208904266E-1   8.503147214651108E-2  -2.557899355888367E-1   8.553220331668854E-2  -3.589055538177490E-1   8.896336555480957E-1  
 3.250000000000000E7     8.572357892990112E-1   4.402348697185516E-1  -2.382446378469467E-1   9.083317965269089E-2  -2.382285594940186E-1   9.126217663288117E-2  -3.393159508705139E-1   9.038183093070984E-1  
 3.280000000000000E7     8.852691650390625E-1   3.868629932403565E-1  -2.211978584527969E-1   9.516643732786179E-2  -2.199724465608597E-1   9.542711079120636E-2  -3.190032839775085E-1   9.141201972961426E-1  
 3.310000000000000E7     9.093208312988281E-1   3.360156416893005E-1  -2.040323168039322E-1   9.835083782672882E-2  -2.041228264570236E-1   9.851921349763870E-2  -2.979409396648407E-1   9.246751070022583E-1  
 3.340000000000000E7     9.307918548583984E-1   2.858994007110596E-1  -1.893237978219986E-1   1.011083424091339E-1  -1.887408047914505E-1   1.006872579455376E-1  -2.765953838825226E-1   9.330077171325684E-1  
 3.370000000000000E7     9.460052251815796E-1   2.349270880222321E-1  -1.746421158313751E-1   1.017539948225021E-1  -1.746188998222351E-1   1.014758795499802E-1  -2.568191289901733E-1   9.427680969238281E-1  
 3.400000000000000E7     9.600064158439636E-1   1.852494925260544E-1  -1.611959487199783E-1   1.025359630584717E-1  -1.613589525222778E-1   1.022502407431603E-1  -2.347596883773804E-1   9.493683576583862E-1  
 3.430000000000000E7     9.707520604133606E-1   1.362812370061874E-1  -1.485719680786133E-1   1.028057858347893E-1  -1.484599113464356E-1   1.024425774812698E-1  -2.135104537010193E-1   9.568636417388916E-1  
 3.460000000000000E7     9.780406355857849E-1   8.728760480880737E-2  -1.367839574813843E-1   1.020940095186234E-1  -1.370516866445541E-1   1.020201370120049E-1  -1.911766082048416E-1   9.644213318824768E-1  
 3.490000000000000E7     9.828855395317078E-1   3.933823108673096E-2  -1.251806318759918E-1   1.013882011175156E-1  -1.252984702587128E-1   1.009164005517960E-1  -1.701259613037109E-1   9.677670001983643E-1  
 3.520000000000000E7     9.855629205703735E-1  -6.556108593940735E-3  -1.149739697575569E-1   9.945507347583771E-2  -1.149501428008080E-1   9.933168441057205E-2  -1.462919563055039E-1   9.749208092689514E-1  
 3.550000000000000E7     9.837872385978699E-1  -5.397903919219971E-2  -1.053572744131088E-1   9.723598510026932E-2  -1.053301915526390E-1   9.730927646160126E-2  -1.252924501895905E-1   9.799040555953980E-1  
 3.580000000000000E7     9.824283719062805E-1  -9.873150289058685E-2  -9.579253196716309E-2   9.506334364414215E-2  -9.571830928325653E-2   9.509141743183136E-2  -1.016365215182304E-1   9.823291897773743E-1  
 3.610000000000000E7     9.789600372314453E-1  -1.427613347768784E-1  -8.729939162731171E-2   9.303213655948639E-2  -8.693085610866547E-2   9.269009530544281E-2  -7.664845883846283E-2   9.874380826950073E-1  
 3.640000000000000E7     9.722642898559570E-1  -1.865641176700592E-1  -7.899315655231476E-2   8.975026011466980E-2  -7.895411550998688E-2   8.947090059518814E-2  -5.477687716484070E-2   9.888126254081726E-1  
 3.670000000000000E7     9.647828936576843E-1  -2.278793454170227E-1  -7.147972285747528E-2   8.664380759000778E-2  -7.106147706508637E-2   8.640384674072266E-2  -3.172224760055542E-2   9.916747808456421E-1  
 3.700000000000000E7     9.544048905372620E-1  -2.694792747497559E-1  -6.393904983997345E-2   8.323530852794647E-2  -6.372871994972229E-2   8.307529240846634E-2  -5.486361682415009E-3   9.924869537353516E-1  
 3.730000000000000E7     9.424600005149841E-1  -3.101480007171631E-1  -5.680701881647110E-2   7.918025553226471E-2  -5.700819194316864E-2   7.929223030805588E-2   1.644125580787659E-2   9.914948344230652E-1  
 3.760000000000000E7     9.297695755958557E-1  -3.476502597332001E-1  -5.037263408303261E-2   7.545050978660584E-2  -5.039915814995766E-2   7.555209100246429E-2   4.292891174554825E-2   9.924161434173584E-1  
 3.790000000000000E7     9.152082800865173E-1  -3.862316310405731E-1  -4.451517015695572E-2   7.153940200805664E-2  -4.430824890732765E-2   7.163460552692413E-2   6.798416376113892E-2   9.907174706459045E-1  
 3.820000000000000E7     8.999203443527222E-1  -4.246434569358826E-1  -3.885523602366447E-2   6.761329621076584E-2  -3.897464647889137E-2   6.730405986309052E-2   9.153611212968826E-2   9.890677332878113E-1  
 3.850000000000000E7     8.811770081520081E-1  -4.614128172397614E-1  -3.371099755167961E-2   6.307095289230347E-2  -3.356179967522621E-2   6.297872960567474E-2   1.173661053180695E-1   9.885473847389221E-1  
 3.880000000000000E7     8.628563880920410E-1  -4.955049157142639E-1  -2.847671695053577E-2   5.851938202977181E-2  -2.862171456217766E-2   5.841431394219399E-2   1.449538767337799E-1   9.851188659667969E-1  
 3.910000000000000E7     8.430168628692627E-1  -5.306013822555542E-1  -2.419747970998287E-2   5.379048362374306E-2  -2.407199516892433E-2   5.375166237354279E-2   1.717621088027954E-1   9.813923239707947E-1  
 3.940000000000000E7     8.212803006172180E-1  -5.616199374198914E-1  -2.019522152841091E-2   4.900104179978371E-2  -2.019625343382359E-2   4.886344820261002E-2   1.973560154438019E-1   9.755229949951172E-1  
 3.970000000000000E7     8.003349900245667E-1  -5.943163037300110E-1  -1.659700274467468E-2   4.400122165679932E-2  -1.663368567824364E-2   4.386271163821220E-2   2.230337709188461E-1   9.693087935447693E-1  
 4.000000000000000E7     7.762051224708557E-1  -6.247029900550842E-1  -1.330218371003866E-2   3.886436671018601E-2  -1.314509287476540E-2   3.883029147982597E-2   2.516292333602905E-1   9.642519950866699E-1  
 4.030000000000000E7     7.524263262748718E-1  -6.540176868438721E-1  -1.018952950835228E-2   3.378977999091148E-2  -1.015606522560120E-2   3.360677883028984E-2   2.779583334922791E-1   9.569799304008484E-1  
 4.060000000000000E7     7.273169755935669E-1  -6.821442246437073E-1  -7.740333210676909E-3   2.834490314126015E-2  -7.658663671463728E-3   2.831779047846794E-2   3.057419359683991E-1   9.479162096977234E-1  
 4.090000000000000E7     7.003209590911865E-1  -7.095900177955627E-1  -5.385363474488258E-3   2.288016490638256E-2  -5.512189585715532E-3   2.288808301091194E-2   3.324662446975708E-1   9.392231106758118E-1  
 4.120000000000000E7     6.740334033966065E-1  -7.361297011375427E-1  -3.683272050693631E-3   1.745252124965191E-2  -3.655369626358151E-3   1.734970323741436E-2   3.609826266765595E-1   9.284714460372925E-1  
 4.150000000000000E7     6.463094353675842E-1  -7.596520781517029E-1  -2.160351956263185E-3   1.185588166117668E-2  -2.134399022907019E-3   1.184626854956150E-2   3.900667130947113E-1   9.161604642868042E-1  
 4.180000000000000E7     6.170210242271423E-1  -7.843390107154846E-1  -1.047146739438176E-3   6.305375602096319E-3  -1.093904604203999E-3   6.157175637781620E-3   4.180522859096527E-1   9.048405885696411E-1  
 4.210000000000000E7     5.881285071372986E-1  -8.063133955001831E-1  -4.445616796147078E-4   5.558527191169560E-4  -4.502529045566917E-4   4.761624441016465E-4   4.481611251831055E-1   8.897635340690613E-1  
 4.240000000000000E7     5.580194592475891E-1  -8.262875080108643E-1  -9.755531209520996E-5  -5.339095834642649E-3  -8.598472049925476E-5  -5.220920778810978E-3   4.777037203311920E-1   8.748988509178162E-1  
 4.270000000000000E7     5.268003344535828E-1  -8.464930057525635E-1  -2.569624339230359E-4  -1.099083293229342E-2  -2.133371017407626E-4  -1.098916120827198E-2   5.066993236541748E-1   8.576208949089050E-1  
 4.300000000000000E7     4.948630332946777E-1  -8.655752539634705E-1  -8.492567576467991E-4  -1.670066267251968E-2  -6.964022759348154E-4  -1.672531850636005E-2   5.359520912170410E-1   8.398100137710571E-1  
 4.330000000000000E7     4.653178453445435E-1  -8.832839131355286E-1  -1.649590209126473E-3  -2.255042456090450E-2  -1.740678213536739E-3  -2.246670238673687E-2   5.649888515472412E-1   8.195774555206299E-1  
 4.360000000000000E7     4.315925836563110E-1  -8.988630175590515E-1  -3.042457159608603E-3  -2.834646031260490E-2  -3.027297556400299E-3  -2.823478914797306E-2   5.939750671386719E-1   7.995379567146301E-1  
 4.390000000000000E7     3.981072306632996E-1  -9.150891900062561E-1  -5.004694685339928E-3  -3.409745544195175E-2  -4.947138950228691E-3  -3.405334427952766E-2   6.230407357215881E-1   7.760012149810791E-1  
 4.420000000000000E7     3.650811910629273E-1  -9.273848533630371E-1  -7.208748720586300E-3  -3.966414183378220E-2  -7.121863774955273E-3  -3.971104323863983E-2   6.513766050338745E-1   7.516203522682190E-1  
 4.450000000000000E7     3.312976956367493E-1  -9.397460222244263E-1  -9.877651929855347E-3  -4.538135230541229E-2  -9.942151606082916E-3  -4.531167075037956E-2   6.803287267684937E-1   7.264096140861511E-1  
 4.480000000000000E7     2.973381876945496E-1  -9.507004618644714E-1  -1.304011978209019E-2  -5.081583559513092E-2  -1.306111831218004E-2  -5.076293274760246E-2   7.080184817314148E-1   6.983701586723328E-1  
 4.510000000000000E7     2.643122375011444E-1  -9.608941078186035E-1  -1.677452586591244E-2  -5.636462196707726E-2  -1.669758558273315E-2  -5.622147768735886E-2   7.367268800735474E-1   6.678563356399536E-1  
 4.540000000000000E7     2.295081019401550E-1  -9.685832858085632E-1  -2.096609771251679E-2  -6.123995780944824E-2  -2.090424112975597E-2  -6.126917153596878E-2   7.638773918151856E-1   6.351590156555176E-1  
 4.570000000000000E7     1.945519000291824E-1  -9.761067032814026E-1  -2.554329857230187E-2  -6.628450751304627E-2  -2.534953877329826E-2  -6.641771644353867E-2   7.893996238708496E-1   6.012144088745117E-1  
 4.600000000000000E7     1.624825298786163E-1  -9.813709259033203E-1  -3.050063364207745E-2  -7.138956338167191E-2  -3.056672960519791E-2  -7.139014452695847E-2   8.154448866844177E-1   5.665254592895508E-1  
 4.630000000000000E7     1.248946487903595E-1  -9.866778254508972E-1  -3.633401542901993E-2  -7.568512856960297E-2  -3.636506199836731E-2  -7.572558522224426E-2   8.407379984855652E-1   5.274325609207153E-1  
 4.660000000000000E7     8.947503566741943E-2  -9.909667968750000E-1  -4.244234412908554E-2  -7.974372804164887E-2  -4.237223416566849E-2  -7.987517863512039E-2   8.626261353492737E-1   4.852702319622040E-1  
 4.690000000000000E7     5.570511519908905E-2  -9.915583133697510E-1  -4.904939979314804E-2  -8.390951156616211E-2  -4.889821261167526E-2  -8.373774588108063E-2   8.861210942268372E-1   4.428910315036774E-1  
 4.720000000000000E7     2.051213383674622E-2  -9.916361570358276E-1  -5.601413175463677E-2  -8.720687031745911E-2  -5.614257603883743E-2  -8.695712685585022E-2   9.047026634216309E-1   3.978314995765686E-1  
 4.750000000000000E7    -1.344783604145050E-2  -9.919772148132324E-1  -6.381003558635712E-2  -9.000605344772339E-2  -6.343735754489899E-2  -9.016960114240646E-2   9.248080849647522E-1   3.507099747657776E-1  
 4.780000000000000E7    -4.747076332569122E-2  -9.899737834930420E-1  -7.144818454980850E-2  -9.263356029987335E-2  -7.147973775863648E-2  -9.285158663988113E-2   9.398826360702515E-1   3.023417294025421E-1  
 4.810000000000000E7    -8.207378536462784E-2  -9.867367744445801E-1  -8.009583503007889E-2  -9.501554071903229E-2  -8.008335530757904E-2  -9.479513019323349E-2   9.548577070236206E-1   2.496532201766968E-1  
 4.840000000000000E7    -1.162028759717941E-1  -9.830878376960754E-1  -8.918987214565277E-2  -9.623494744300842E-2  -8.926542103290558E-2  -9.595063328742981E-2   9.667658209800720E-1   1.954901218414307E-1  
 4.870000000000000E7    -1.502130627632141E-1  -9.772411584854126E-1  -9.857171028852463E-2  -9.667658805847168E-2  -9.843012690544128E-2  -9.684009850025177E-2   9.753093719482422E-1   1.398060470819473E-1  
 4.900000000000000E7    -1.840547919273377E-1  -9.712350368499756E-1  -1.080044433474541E-1  -9.679111838340759E-2  -1.081403791904450E-1  -9.674776345491409E-2   9.806430339813232E-1   8.266178518533707E-2  
 4.930000000000000E7    -2.172741591930389E-1  -9.627107977867127E-1  -1.179235279560089E-1  -9.607982635498047E-2  -1.181064248085022E-1  -9.624759107828140E-2   9.825230836868286E-1   2.230278402566910E-2  
 4.960000000000000E7    -2.487924993038178E-1  -9.520349502563477E-1  -1.280246973037720E-1  -9.437147527933121E-2  -1.280096620321274E-1  -9.400939196348190E-2   9.807068705558777E-1  -3.866563364863396E-2  
 4.990000000000000E7    -2.805766165256500E-1  -9.423521161079407E-1  -1.379056572914124E-1  -9.184812009334564E-2  -1.380197703838348E-1  -9.187356382608414E-2   9.750156998634338E-1  -1.006318628787994E-1  
 5.020000000000000E7    -3.117411136627197E-1  -9.326109290122986E-1  -1.487064063549042E-1  -8.864791691303253E-2  -1.488715112209320E-1  -8.910465240478516E-2   9.653611183166504E-1  -1.639342159032822E-1  
 5.050000000000000E7    -3.434415459632874E-1  -9.197996854782105E-1  -1.591458916664124E-1  -8.426173031330109E-2  -1.590656191110611E-1  -8.398970216512680E-2   9.510546922683716E-1  -2.281232327222824E-1  
 5.080000000000000E7    -3.732165992259979E-1  -9.069048166275024E-1  -1.696361452341080E-1  -7.881541550159454E-2  -1.697062700986862E-1  -7.957883179187775E-2   9.318413734436035E-1  -2.923394739627838E-1  
 5.110000000000000E7    -4.033633470535278E-1  -8.915832638740540E-1  -1.795734614133835E-1  -7.262364029884338E-2  -1.797418892383575E-1  -7.250802963972092E-2   9.078028202056885E-1  -3.568331003189087E-1  
 5.140000000000000E7    -4.322448670864105E-1  -8.758480548858643E-1  -1.896406114101410E-1  -6.541665643453598E-2  -1.896335184574127E-1  -6.493332237005234E-2   8.786092996597290E-1  -4.204966425895691E-1  
 5.170000000000000E7    -4.601020216941834E-1  -8.605390787124634E-1  -1.982530802488327E-1  -5.714884027838707E-2  -1.988514810800552E-1  -5.712837725877762E-2   8.441770672798157E-1  -4.815889596939087E-1  
 5.200000000000000E7    -4.888085424900055E-1  -8.447508811950684E-1  -2.083579599857330E-1  -4.757929593324661E-2  -2.088831663131714E-1  -4.813481494784355E-2   8.053928613662720E-1  -5.437433123588562E-1  
 5.230000000000000E7    -5.150573849678040E-1  -8.258041143417358E-1  -2.165073752403259E-1  -3.698909282684326E-2  -2.164646834135056E-1  -3.689271211624146E-2   7.600427269935608E-1  -6.013245582580566E-1  
 5.260000000000000E7    -5.405011177062988E-1  -8.063154816627502E-1  -2.235607504844666E-1  -2.584012039005756E-2  -2.241323590278626E-1  -2.596935629844666E-2   7.117741703987122E-1  -6.569730639457703E-1  
 5.290000000000000E7    -5.672869682312012E-1  -7.869955897331238E-1  -2.313591390848160E-1  -1.431577838957310E-2  -2.308663725852966E-1  -1.391763053834438E-2   6.580017805099487E-1  -7.096315622329712E-1  
 5.320000000000000E7    -5.910380482673645E-1  -7.684633135795593E-1  -2.370475977659226E-1  -1.161327585577965E-3  -2.368732243776321E-1  -9.819194674491882E-4   5.995528697967529E-1  -7.579197287559509E-1  
 5.350000000000000E7    -6.138585805892944E-1  -7.476751804351807E-1  -2.413572221994400E-1   1.268839463591576E-2  -2.409472912549973E-1   1.246312633156776E-2   5.364310145378113E-1  -8.008720278739929E-1  
 5.380000000000000E7    -6.363131403923035E-1  -7.266076207160950E-1  -2.450042665004730E-1   2.613680064678192E-2  -2.444138526916504E-1   2.603995054960251E-2   4.702432751655579E-1  -8.406392335891724E-1  
 5.410000000000000E7    -6.608625650405884E-1  -7.048883438110352E-1  -2.477443814277649E-1   4.109147563576698E-2  -2.472138106822968E-1   4.079908877611160E-2   4.026134908199310E-1  -8.743919730186462E-1  
 5.440000000000000E7    -6.819775700569153E-1  -6.814132928848267E-1  -2.484266757965088E-1   5.558503046631813E-2  -2.486917972564697E-1   5.535859987139702E-2   3.304787278175354E-1  -9.030261039733887E-1  
 5.470000000000000E7    -7.014973163604736E-1  -6.594659686088562E-1  -2.493491619825363E-1   6.988438963890076E-2  -2.486522793769836E-1   7.014821469783783E-2   2.578077912330627E-1  -9.253695011138916E-1  
 5.500000000000000E7    -7.226360440254211E-1  -6.363362073898315E-1  -2.472430020570755E-1   8.492428064346314E-2  -2.469842284917831E-1   8.436600863933563E-2   1.826512217521668E-1  -9.408230781555176E-1  
 5.530000000000000E7    -7.414456605911255E-1  -6.123859286308289E-1  -2.447587549686432E-1   9.959469735622406E-2  -2.447384148836136E-1   9.995868802070618E-2   1.074386090040207E-1  -9.522799849510193E-1  
 5.560000000000000E7    -7.610723972320557E-1  -5.872962474822998E-1  -2.414322495460510E-1   1.141297966241837E-1  -2.409934252500534E-1   1.139106452465057E-1   3.089664876461029E-2  -9.574608206748962E-1  
 5.590000000000000E7    -7.785406112670898E-1  -5.637882947921753E-1  -2.366360872983933E-1   1.280422806739807E-1  -2.364262193441391E-1   1.281563639640808E-1  -4.278995096683502E-2  -9.562720656394959E-1  
 5.620000000000000E7    -7.954015135765076E-1  -5.369073152542114E-1  -2.299315929412842E-1   1.414699256420136E-1  -2.298838496208191E-1   1.410152614116669E-1  -1.170369833707809E-1  -9.496666193008423E-1  
 5.650000000000000E7    -8.109742999076843E-1  -5.125852823257446E-1  -2.237806469202042E-1   1.548512727022171E-1  -2.233951538801193E-1   1.542114019393921E-1  -1.892886608839035E-1  -9.373252391815186E-1  
 5.680000000000000E7    -8.268920183181763E-1  -4.860813021659851E-1  -2.157043665647507E-1   1.668151021003723E-1  -2.156343758106232E-1   1.669754087924957E-1  -2.595599889755249E-1  -9.212542176246643E-1  
 5.710000000000000E7    -8.421377539634705E-1  -4.582540392875671E-1  -2.070286273956299E-1   1.783779263496399E-1  -2.067041099071503E-1   1.785570085048676E-1  -3.253897130489349E-1  -8.985465764999390E-1  
 5.740000000000000E7    -8.569828867912293E-1  -4.314101934432983E-1  -1.975256502628326E-1   1.893450170755386E-1  -1.978554427623749E-1   1.888258904218674E-1  -3.897233307361603E-1  -8.746056556701660E-1  
 5.770000000000000E7    -8.689539432525635E-1  -4.051116108894348E-1  -1.874478757381439E-1   1.983337700366974E-1  -1.874273121356964E-1   1.981144100427628E-1  -4.512930512428284E-1  -8.422543406486511E-1  
 5.800000000000000E7    -8.816127777099609E-1  -3.763625025749207E-1  -1.772465705871582E-1   2.075228989124298E-1  -1.759561151266098E-1   2.072430551052094E-1  -5.079029202461243E-1  -8.096722960472107E-1  
 5.830000000000000E7    -8.929634094238281E-1  -3.481535315513611E-1  -1.657039821147919E-1   2.155331820249558E-1  -1.654755324125290E-1   2.155738472938538E-1  -5.625340938568115E-1  -7.725754380226135E-1  
 5.860000000000000E7    -9.052076935768127E-1  -3.201479911804199E-1  -1.545530110597611E-1   2.229602932929993E-1  -1.546490788459778E-1   2.231670767068863E-1  -6.128908991813660E-1  -7.352017164230347E-1  
 5.890000000000000E7    -9.144279956817627E-1  -2.909689545631409E-1  -1.431069672107697E-1   2.287451326847076E-1  -1.435443758964539E-1   2.290485799312592E-1  -6.598689556121826E-1  -6.931993961334229E-1  
 5.920000000000000E7    -9.236820340156555E-1  -2.604383230209351E-1  -1.313697695732117E-1   2.344137579202652E-1  -1.304466724395752E-1   2.343426495790482E-1  -7.027320265769959E-1  -6.510442495346069E-1  
 5.950000000000000E7    -9.318354129791260E-1  -2.315771728754044E-1  -1.196031123399735E-1   2.390387356281281E-1  -1.190834119915962E-1   2.388593107461929E-1  -7.424929141998291E-1  -6.056629419326782E-1  
 5.980000000000000E7    -9.395700097084045E-1  -2.008792310953140E-1  -1.077656149864197E-1   2.433013021945953E-1  -1.075974926352501E-1   2.423668056726456E-1  -7.784553170204163E-1  -5.614382624626160E-1  
 6.010000000000000E7    -9.448719024658203E-1  -1.719603389501572E-1  -9.617709368467331E-2   2.451227754354477E-1  -9.604163467884064E-2   2.448340654373169E-1  -8.089422583580017E-1  -5.148742198944092E-1  
 6.040000000000000E7    -9.507726430892944E-1  -1.400187164545059E-1  -8.387855440378189E-2   2.469612210988998E-1  -8.408921211957932E-2   2.475650310516357E-1  -8.381225466728210E-1  -4.681386649608612E-1  
 6.070000000000000E7    -9.565284252166748E-1  -1.106226444244385E-1  -7.283569872379303E-2   2.489526569843292E-1  -7.317156344652176E-2   2.489069849252701E-1  -8.623967766761780E-1  -4.216673374176025E-1  
 6.100000000000000E7    -9.595375061035156E-1  -7.936832308769226E-2  -6.178277358412743E-2   2.504189312458038E-1  -6.141621246933937E-2   2.497950643301010E-1  -8.853679895401001E-1  -3.752079308032990E-1  
 6.130000000000000E7    -9.627014398574829E-1  -4.766251146793366E-2  -5.009213835000992E-2   2.500664293766022E-1  -5.044313892722130E-2   2.501665949821472E-1  -9.042119979858398E-1  -3.281832635402679E-1  
 6.160000000000000E7    -9.640672802925110E-1  -1.681333035230637E-2  -3.909678012132645E-2   2.496310919523239E-1  -3.921532630920410E-2   2.495224326848984E-1  -9.204266667366028E-1  -2.816907465457916E-1  
 6.190000000000000E7    -9.645808935165405E-1   1.425898075103760E-2  -2.870275080204010E-2   2.482178658246994E-1  -2.825381979346275E-2   2.478048056364059E-1  -9.340086579322815E-1  -2.340856194496155E-1  
 6.220000000000000E7    -9.645987749099731E-1   4.567164182662964E-2  -1.833547838032246E-2   2.467492818832398E-1  -1.869244687259197E-2   2.469328641891480E-1  -9.441745877265930E-1  -1.910236477851868E-1  
 6.250000000000000E7    -9.631001949310303E-1   7.731530070304871E-2  -8.851423859596252E-3   2.448443621397018E-1  -8.826591074466705E-3   2.448296993970871E-1  -9.530796408653259E-1  -1.474845558404923E-1  
 6.280000000000000E7    -9.602080583572388E-1   1.088190376758575E-1   6.970874965190888E-4   2.420456856489182E-1  -2.248734235763550E-4   2.420859038829804E-1  -9.583142995834351E-1  -1.041163355112076E-1  
 6.310000000000000E7    -9.562673568725586E-1   1.414571106433868E-1   9.818274527788162E-3   2.396861314773560E-1   9.677503257989883E-3   2.397196292877197E-1  -9.643712639808655E-1  -6.048616766929627E-2  
 6.340000000000000E7    -9.519450068473816E-1   1.725849807262421E-1   1.886363141238689E-2   2.365127950906754E-1   1.863094978034496E-2   2.365022599697113E-1  -9.668077230453491E-1  -1.931829750537872E-2  
 6.370000000000000E7    -9.467688202857971E-1   2.036983817815781E-1   2.706604264676571E-2   2.332006692886353E-1   2.747652679681778E-2   2.332115918397903E-1  -9.664417505264282E-1   2.134431898593903E-2  
 6.400000000000000E7    -9.390916228294373E-1   2.347415983676910E-1   3.514682129025459E-2   2.298441827297211E-1   3.554402291774750E-2   2.290218323469162E-1  -9.661738276481628E-1   5.978985130786896E-2  
 6.430000000000000E7    -9.315474033355713E-1   2.672098278999329E-1   4.313171654939652E-2   2.252652049064636E-1   4.365991801023483E-2   2.250995635986328E-1  -9.640805125236511E-1   9.929476678371429E-2  
 6.460000000000000E7    -9.235039949417114E-1   2.978303432464600E-1   5.123841762542725E-2   2.209688723087311E-1   5.075223371386528E-2   2.209726423025131E-1  -9.586283564567566E-1   1.364408284425736E-1  
 6.490000000000000E7    -9.146394133567810E-1   3.279933929443359E-1   5.795666575431824E-2   2.167183905839920E-1   5.748356506228447E-2   2.170407921075821E-1  -9.538089632987976E-1   1.711692810058594E-1  
 6.520000000000000E7    -9.028314352035523E-1   3.580996394157410E-1   6.424801796674728E-2   2.118347734212875E-1   6.436011940240860E-2   2.119613289833069E-1  -9.481223225593567E-1   2.067668884992600E-1  
 6.550000000000000E7    -8.918827176094055E-1   3.876752257347107E-1   7.070519030094147E-2   2.076094150543213E-1   7.094816863536835E-2   2.074965834617615E-1  -9.403084516525269E-1   2.412840127944946E-1  
 6.580000000000000E7    -8.776299357414246E-1   4.178383946418762E-1   7.713742554187775E-2   2.026532739400864E-1   7.684840261936188E-2   2.024137377738953E-1  -9.323872923851013E-1   2.736768126487732E-1  
 6.610000000000000E7    -8.632987737655640E-1   4.466493427753449E-1   8.269855380058289E-2   1.975380033254623E-1   8.313289284706116E-2   1.966096758842468E-1  -9.236065745353699E-1   3.068785071372986E-1  
 6.640000000000000E7    -8.502990603446960E-1   4.757356643676758E-1   8.839629590511322E-2   1.922508031129837E-1   8.838751167058945E-2   1.928480714559555E-1  -9.129801988601685E-1   3.373724818229675E-1  
 6.670000000000000E7    -8.334850072860718E-1   5.037656426429749E-1   9.358961880207062E-2   1.871117800474167E-1   9.319148957729340E-2   1.871999353170395E-1  -9.022199511528015E-1   3.656341731548309E-1  
 6.700000000000000E7    -8.165348768234253E-1   5.321884751319885E-1   9.821878373622894E-2   1.816013455390930E-1   9.797320514917374E-2   1.812977641820908E-1  -8.900358080863953E-1   3.946993350982666E-1  
 6.730000000000000E7    -7.986338734626770E-1   5.592296123504639E-1   1.027809977531433E-1   1.758448183536530E-1   1.028510034084320E-1   1.756802201271057E-1  -8.783604502677918E-1   4.219630956649780E-1  
 6.760000000000000E7    -7.803026437759399E-1   5.859078764915466E-1   1.075350344181061E-1   1.711392253637314E-1   1.070071011781693E-1   1.705325841903687E-1  -8.651371002197266E-1   4.494695067405701E-1  
 6.790000000000000E7    -7.601824402809143E-1   6.123705506324768E-1   1.109152883291245E-1   1.650991588830948E-1   1.112227290868759E-1   1.651639938354492E-1  -8.523033261299133E-1   4.746673107147217E-1  
 6.820000000000000E7    -7.393589019775391E-1   6.368299126625061E-1   1.150160133838654E-1   1.595596969127655E-1   1.144483387470245E-1   1.595174521207809E-1  -8.383463621139526E-1   4.992408156394959E-1  
 6.850000000000000E7    -7.184184193611145E-1   6.629713773727417E-1   1.180801168084145E-1   1.541213393211365E-1   1.181694716215134E-1   1.540616899728775E-1  -8.237943649291992E-1   5.231163501739502E-1  
 6.880000000000000E7    -6.957381367683411E-1   6.863512992858887E-1   1.215155869722366E-1   1.485184878110886E-1   1.210951730608940E-1   1.479979455471039E-1  -8.088626861572266E-1   5.465438365936279E-1  
 6.910000000000000E7    -6.723871827125549E-1   7.098917961120606E-1   1.246216073632240E-1   1.432428061962128E-1   1.243863552808762E-1   1.429028213024139E-1  -7.946086525917053E-1   5.694026350975037E-1  
 6.940000000000000E7    -6.488550901412964E-1   7.327772378921509E-1   1.268714070320129E-1   1.376774013042450E-1   1.272844970226288E-1   1.374955773353577E-1  -7.795944213867188E-1   5.901260972023010E-1  
 6.970000000000000E7    -6.231012940406799E-1   7.547045350074768E-1   1.295391917228699E-1   1.319953054189682E-1   1.298842728137970E-1   1.316071599721909E-1  -7.642626762390137E-1   6.106924414634705E-1  
 7.000000000000000E7    -5.975084304809570E-1   7.764421701431274E-1   1.317985057830811E-1   1.264061927795410E-1   1.318856924772263E-1   1.261504590511322E-1  -7.487967014312744E-1   6.313932538032532E-1  
