#  HZ   S   RI   R     50.00 
! Rohde & Schwarz ZVT8 8Ports - Version 4.11 - 1300.0000k08 SN: 100242
! Date: 2026-07-31 15:18:02
! Measurements: S11 S21 S12 S22 
! 
 1.000000000000000E7    -3.974378705024719E-1   9.130000472068787E-1   5.300083011388779E-2   5.321398377418518E-2   5.267139524221420E-2   5.325083062052727E-2  -9.196498394012451E-1   3.826611936092377E-1  
 1.030000000000000E7    -3.639077544212341E-1   9.256929159164429E-1   5.618534609675407E-2   5.369045212864876E-2   5.624032765626907E-2   5.375254526734352E-2  -9.134251475334168E-1   3.952642083168030E-1  
 1.060000000000000E7    -3.267642557621002E-1   9.389838576316834E-1   5.973768234252930E-2   5.470467731356621E-2   5.983614176511765E-2   5.450635775923729E-2  -9.102309942245483E-1   4.062710702419281E-1  
 1.090000000000000E7    -2.941711246967316E-1   9.492278099060059E-1   6.345107406377792E-2   5.496898293495178E-2   6.337739527225494E-2   5.521940439939499E-2  -9.044300317764282E-1   4.177491962909699E-1  
 1.120000000000000E7    -2.574837803840637E-1   9.586991667747498E-1   6.757894903421402E-2   5.585731938481331E-2   6.706456094980240E-2   5.548226088285446E-2  -8.990646004676819E-1   4.293853044509888E-1  
 1.150000000000000E7    -2.209504991769791E-1   9.685465097427368E-1   7.112012058496475E-2   5.576238036155701E-2   7.096660137176514E-2   5.583315342664719E-2  -8.921610116958618E-1   4.383494853973389E-1  
 1.180000000000000E7    -1.849111616611481E-1   9.740218520164490E-1   7.496087253093720E-2   5.607732385396957E-2   7.492755353450775E-2   5.611286684870720E-2  -8.876101374626160E-1   4.485873281955719E-1  
 1.210000000000000E7    -1.488350331783295E-1   9.803944826126099E-1   7.956040650606155E-2   5.654675513505936E-2   7.928996533155441E-2   5.623284727334976E-2  -8.801209926605225E-1   4.611907601356506E-1  
 1.240000000000000E7    -1.116876378655434E-1   9.840458035469055E-1   8.371551334857941E-2   5.649111419916153E-2   8.387193083763123E-2   5.625754594802856E-2  -8.740586042404175E-1   4.707514643669128E-1  
 1.270000000000000E7    -7.444208115339279E-2   9.874235987663269E-1   8.877204358577728E-2   5.605940520763397E-2   8.816962689161301E-2   5.585307627916336E-2  -8.673828840255737E-1   4.842583835124970E-1  
 1.300000000000000E7    -3.727850690484047E-2   9.897465109825134E-1   9.308229386806488E-2   5.596978962421417E-2   9.296441823244095E-2   5.594578757882118E-2  -8.597915172576904E-1   4.943302273750305E-1  
 1.330000000000000E7     1.068886369466782E-3   9.906565546989441E-1   9.811981022357941E-2   5.541828274726868E-2   9.801229089498520E-2   5.502801761031151E-2  -8.526965379714966E-1   5.058926939964294E-1  
 1.360000000000000E7     4.082480818033218E-2   9.893908500671387E-1   1.030149087309837E-1   5.510435998439789E-2   1.032536849379540E-1   5.442338436841965E-2  -8.460218906402588E-1   5.153905153274536E-1  
 1.390000000000000E7     7.821433246135712E-2   9.862912893295288E-1   1.085787340998650E-1   5.385556444525719E-2   1.082150489091873E-1   5.391524359583855E-2  -8.384522199630737E-1   5.268180370330811E-1  
 1.420000000000000E7     1.180210262537003E-1   9.820321798324585E-1   1.135549023747444E-1   5.283404886722565E-2   1.137684211134911E-1   5.315009504556656E-2  -8.324251174926758E-1   5.369040369987488E-1  
 1.450000000000000E7     1.569277048110962E-1   9.749119281768799E-1   1.194995641708374E-1   5.151166021823883E-2   1.194288358092308E-1   5.167565122246742E-2  -8.221326470375061E-1   5.490550994873047E-1  
 1.480000000000000E7     1.973890364170075E-1   9.673758745193481E-1   1.254585385322571E-1   4.994779452681541E-2   1.255588680505753E-1   5.048839747905731E-2  -8.155746459960938E-1   5.592907071113586E-1  
 1.510000000000000E7     2.360169738531113E-1   9.575163722038269E-1   1.314494609832764E-1   4.844301939010620E-2   1.312783509492874E-1   4.848501086235046E-2  -8.045433163642883E-1   5.703272223472595E-1  
 1.540000000000000E7     2.746395766735077E-1   9.459919333457947E-1   1.374595165252686E-1   4.726250469684601E-2   1.376462131738663E-1   4.678792506456375E-2  -7.991394996643066E-1   5.796701908111572E-1  
 1.570000000000000E7     3.150597214698792E-1   9.343500137329102E-1   1.442852765321732E-1   4.445744678378105E-2   1.443352848291397E-1   4.444685205817223E-2  -7.884613275527954E-1   5.917741060256958E-1  
 1.600000000000000E7     3.548767864704132E-1   9.177334308624268E-1   1.509392410516739E-1   4.181239753961563E-2   1.512307971715927E-1   4.144491627812386E-2  -7.802064418792725E-1   5.998221039772034E-1  
 1.630000000000000E7     3.934537470340729E-1   9.003641605377197E-1   1.586813479661942E-1   3.863529488444328E-2   1.581452041864395E-1   3.881160914897919E-2  -7.707571387290955E-1   6.119877696037293E-1  
 1.660000000000000E7     4.324113428592682E-1   8.801200985908508E-1   1.660154610872269E-1   3.517121821641922E-2   1.657308936119080E-1   3.461720421910286E-2  -7.594574689865112E-1   6.229019165039063E-1  
 1.690000000000000E7     4.707787036895752E-1   8.591098189353943E-1   1.738779842853546E-1   3.214094787836075E-2   1.734658628702164E-1   3.164897486567497E-2  -7.499521374702454E-1   6.319375038146973E-1  
 1.720000000000000E7     5.115525126457214E-1   8.349244594573975E-1   1.810924112796783E-1   2.685268968343735E-2   1.814237982034683E-1   2.733908407390118E-2  -7.391989231109619E-1   6.416546702384949E-1  
 1.750000000000000E7     5.454252958297730E-1   8.120579719543457E-1   1.903824508190155E-1   2.368831448256970E-2   1.906501650810242E-1   2.294765040278435E-2  -7.293261289596558E-1   6.531150341033936E-1  
 1.780000000000000E7     5.856487751007080E-1   7.795608043670654E-1   1.981259882450104E-1   1.726372726261616E-2   1.986873298883438E-1   1.768160983920097E-2  -7.171078920364380E-1   6.610600352287293E-1  
 1.810000000000000E7     6.214362978935242E-1   7.496460676193237E-1   2.087216973304749E-1   1.175432838499546E-2   2.074102908372879E-1   1.099116355180740E-2  -7.052114009857178E-1   6.739247441291809E-1  
 1.840000000000000E7     6.593098640441895E-1   7.148448228836060E-1   2.183297574520111E-1   3.713326528668404E-3   2.173316329717636E-1   4.078246653079987E-3  -6.923801898956299E-1   6.831195354461670E-1  
 1.870000000000000E7     6.927012801170349E-1   6.785793304443359E-1   2.280435264110565E-1  -2.984063699841499E-3   2.272528111934662E-1  -3.529217094182968E-3  -6.796721816062927E-1   6.921154260635376E-1  
 1.900000000000000E7     7.269753217697144E-1   6.383774280548096E-1   2.383616268634796E-1  -1.122057996690273E-2   2.380153983831406E-1  -1.199066080152988E-2  -6.659232378005981E-1   7.009321451187134E-1  
 1.930000000000000E7     7.597672343254089E-1   5.936342477798462E-1   2.486336380243301E-1  -2.240470051765442E-2   2.492244988679886E-1  -2.166933380067349E-2  -6.519355177879334E-1   7.117308378219605E-1  
 1.960000000000000E7     7.911242842674255E-1   5.454047918319702E-1   2.598624527454376E-1  -3.315035998821259E-2   2.601974606513977E-1  -3.253673762083054E-2  -6.389745473861694E-1   7.191051244735718E-1  
 1.990000000000000E7     8.179581165313721E-1   4.943426847457886E-1   2.715492546558380E-1  -4.570478200912476E-2   2.719971239566803E-1  -4.582455754280090E-2  -6.206569671630859E-1   7.296967506408691E-1  
 2.020000000000000E7     8.444595932960510E-1   4.384256005287170E-1   2.843411564826965E-1  -5.944486334919930E-2   2.834829986095429E-1  -5.910849571228027E-2  -6.063654422760010E-1   7.349968552589417E-1  
 2.050000000000000E7     8.695306777954102E-1   3.765295147895813E-1   2.964550852775574E-1  -7.540898770093918E-2   2.948382794857025E-1  -7.530687749385834E-2  -5.893980264663696E-1   7.426924705505371E-1  
 2.080000000000000E7     8.876381516456604E-1   3.099185824394226E-1   3.095357120037079E-1  -9.419956058263779E-2   3.097046613693237E-1  -9.404356032609940E-2  -5.716058611869812E-1   7.507946491241455E-1  
 2.110000000000000E7     9.029156565666199E-1   2.384249269962311E-1   3.225524723529816E-1  -1.165283769369125E-1   3.225439786911011E-1  -1.163572892546654E-1  -5.521283149719238E-1   7.565788626670837E-1  
 2.140000000000000E7     9.117179512977600E-1   1.611571311950684E-1   3.352304100990295E-1  -1.419099271297455E-1   3.343392312526703E-1  -1.401272863149643E-1  -5.319216251373291E-1   7.612085938453674E-1  
 2.170000000000000E7     9.131648540496826E-1   7.865494489669800E-2   3.478004932403565E-1  -1.696593165397644E-1   3.478344380855560E-1  -1.683903187513351E-1  -5.106512308120728E-1   7.640881538391113E-1  
 2.200000000000000E7     9.047391414642334E-1  -1.356008276343346E-2   3.580015897750855E-1  -2.027946561574936E-1   3.587251901626587E-1  -2.023248523473740E-1  -4.870919287204742E-1   7.654510736465454E-1  
 2.230000000000000E7     8.839514255523682E-1  -1.095948517322540E-1   3.675606548786163E-1  -2.410625517368317E-1   3.678301274776459E-1  -2.400425970554352E-1  -4.635151922702789E-1   7.646815180778503E-1  
 2.260000000000000E7     8.487714529037476E-1  -2.118535339832306E-1   3.729008734226227E-1  -2.847175300121307E-1   3.749507963657379E-1  -2.857599556446075E-1  -4.396032691001892E-1   7.600801587104797E-1  
 2.290000000000000E7     7.939670681953430E-1  -3.185915648937225E-1   3.744531869888306E-1  -3.357057571411133E-1   3.763590753078461E-1  -3.365038335323334E-1  -4.123643040657044E-1   7.523174285888672E-1  
 2.320000000000000E7     7.149376869201660E-1  -4.240672588348389E-1   3.692001998424530E-1  -3.947851359844208E-1   3.687037527561188E-1  -3.945217430591583E-1  -3.880093395709992E-1   7.427573800086975E-1  
 2.350000000000000E7     6.065320372581482E-1  -5.258582830429077E-1   3.519640564918518E-1  -4.606545269489288E-1   3.525544703006744E-1  -4.593257009983063E-1  -3.635626137256622E-1   7.251536250114441E-1  
 2.380000000000000E7     4.667854607105255E-1  -6.143867373466492E-1   3.213257789611816E-1  -5.292022228240967E-1   3.221349120140076E-1  -5.298606157302856E-1  -3.416942358016968E-1   7.008748650550842E-1  
 2.410000000000000E7     2.925160229206085E-1  -6.747354865074158E-1   2.703189551830292E-1  -6.005952954292297E-1   2.712533771991730E-1  -6.004779338836670E-1  -3.249437510967255E-1   6.714627742767334E-1  
 2.440000000000000E7     8.901187777519226E-2  -6.908884048461914E-1   1.980848461389542E-1  -6.681753993034363E-1   1.977901309728622E-1  -6.677595973014832E-1  -3.192028999328613E-1   6.360135674476624E-1  
 2.470000000000000E7    -1.299574971199036E-1  -6.502420902252197E-1   1.022650226950645E-1  -7.217572331428528E-1   1.034129187464714E-1  -7.202005386352539E-1  -3.202910125255585E-1   5.961004495620728E-1  
 2.500000000000000E7    -3.431374728679657E-1  -5.394676923751831E-1  -1.233907137066126E-2  -7.473765015602112E-1  -1.192437205463648E-2  -7.483614087104797E-1  -3.375926315784454E-1   5.627970695495606E-1  
 2.530000000000000E7    -5.182363390922546E-1  -3.610741794109345E-1  -1.336256861686707E-1  -7.432584166526794E-1  -1.338409483432770E-1  -7.426146268844605E-1  -3.670638799667358E-1   5.329937934875488E-1  
 2.560000000000000E7    -6.283250451087952E-1  -1.367446333169937E-1  -2.506519854068756E-1  -7.023528218269348E-1  -2.513125240802765E-1  -7.022427320480347E-1  -4.067544043064117E-1   5.173214673995972E-1  
 2.590000000000000E7    -6.594094634056091E-1   1.032954603433609E-1  -3.493702411651611E-1  -6.350255012512207E-1  -3.486272692680359E-1  -6.362419724464417E-1  -4.458553791046143E-1   5.173073410987854E-1  
 2.620000000000000E7    -6.221222877502441E-1   3.301392495632172E-1  -4.209881424903870E-1  -5.493507981300354E-1  -4.201770126819611E-1  -5.493694543838501E-1  -4.823269248008728E-1   5.298067927360535E-1  
 2.650000000000000E7    -5.307726860046387E-1   5.212787389755249E-1  -4.622014760971069E-1  -4.563203454017639E-1  -4.636691808700562E-1  -4.565788209438324E-1  -5.138427019119263E-1   5.527704358100891E-1  
 2.680000000000000E7    -4.064213633537293E-1   6.671360135078430E-1  -4.813039302825928E-1  -3.688870072364807E-1  -4.811708629131317E-1  -3.685327768325806E-1  -5.359209179878235E-1   5.819796919822693E-1  
 2.710000000000000E7    -2.694452702999115E-1   7.689753174781799E-1  -4.836667776107788E-1  -2.894061207771301E-1  -4.843300282955170E-1  -2.891238033771515E-1  -5.478257536888123E-1   6.134577393531799E-1  
 2.740000000000000E7    -1.292897015810013E-1   8.340805768966675E-1  -4.708302617073059E-1  -2.217786610126495E-1  -4.704007208347321E-1  -2.209551334381104E-1  -5.524812340736389E-1   6.454129219055176E-1  
 2.770000000000000E7     3.503590822219849E-3   8.676934242248535E-1  -4.525425136089325E-1  -1.636566221714020E-1  -4.531757235527039E-1  -1.643038094043732E-1  -5.523044466972351E-1   6.773245334625244E-1  
 2.800000000000000E7     1.274203211069107E-1   8.788400888442993E-1  -4.284527897834778E-1  -1.155279949307442E-1  -4.278378188610077E-1  -1.162959262728691E-1  -5.471374988555908E-1   7.050976753234863E-1  
 2.830000000000000E7     2.399899959564209E-1   8.714152574539185E-1  -4.031912982463837E-1  -7.684503495693207E-2  -4.044728279113770E-1  -7.731093466281891E-2  -5.392367243766785E-1   7.307782173156738E-1  
 2.860000000000000E7     3.403507471084595E-1   8.531830906867981E-1  -3.780170083045960E-1  -4.582265391945839E-2  -3.787879049777985E-1  -4.492075368762016E-2  -5.269213318824768E-1   7.567405104637146E-1  
 2.890000000000000E7     4.287504553794861E-1   8.248451352119446E-1  -3.537609279155731E-1  -1.965275406837463E-2  -3.531894683837891E-1  -1.986261084675789E-2  -5.142918825149536E-1   7.781046032905579E-1  
 2.920000000000000E7     5.090933442115784E-1   7.895882129669190E-1  -3.285729289054871E-1   3.120787441730499E-4  -3.287072479724884E-1   1.253873109817505E-3  -4.998883306980133E-1   7.973201274871826E-1  
 2.950000000000000E7     5.767334103584290E-1   7.505647540092468E-1  -3.061637580394745E-1   1.720253564417362E-2  -3.057779073715210E-1   1.763018406927586E-2  -4.838309586048126E-1   8.176687955856323E-1  
 2.980000000000000E7     6.385495066642761E-1   7.080578207969666E-1  -2.837530970573425E-1   3.052112646400929E-2  -2.843301296234131E-1   3.042013943195343E-2  -4.677743017673492E-1   8.342498540878296E-1  
 3.010000000000000E7     6.929070353507996E-1   6.629897952079773E-1  -2.635535597801209E-1   4.192385822534561E-2  -2.633340954780579E-1   4.133130609989166E-2  -4.510394334793091E-1   8.496333956718445E-1  
 3.040000000000000E7     7.408460378646851E-1   6.168455481529236E-1  -2.447711527347565E-1   4.956442862749100E-2  -2.449934333562851E-1   4.995029792189598E-2  -4.316272437572479E-1   8.634752631187439E-1  
 3.070000000000000E7     7.837370038032532E-1   5.671135187149048E-1  -2.264625281095505E-1   5.776361748576164E-2  -2.265688925981522E-1   5.747136846184731E-2  -4.134705662727356E-1   8.771596550941467E-1  
 3.100000000000000E7     8.207916617393494E-1   5.200281739234924E-1  -2.102682739496231E-1   6.303327530622482E-2  -2.098752558231354E-1   6.313138455152512E-2  -3.951175212860107E-1   8.896846175193787E-1  
 3.130000000000000E7     8.520280718803406E-1   4.719427525997162E-1  -1.942196488380432E-1   6.713425368070602E-2  -1.943375468254089E-1   6.677321344614029E-2  -3.760924935340881E-1   8.998804688453674E-1  
 3.160000000000000E7     8.807030916213989E-1   4.232122600078583E-1  -1.800183951854706E-1   7.008161395788193E-2  -1.800984740257263E-1   7.010212540626526E-2  -3.577284812927246E-1   9.113432168960571E-1  
 3.190000000000000E7     9.044814705848694E-1   3.754297792911530E-1  -1.662783324718475E-1   7.242161780595779E-2  -1.659601032733917E-1   7.222041487693787E-2  -3.381695449352264E-1   9.210405945777893E-1  
 3.220000000000000E7     9.262747764587402E-1   3.282345533370972E-1  -1.535380333662033E-1   7.334000617265701E-2  -1.532324552536011E-1   7.360538840293884E-2  -3.197120130062103E-1   9.288153648376465E-1  
 3.250000000000000E7     9.438310265541077E-1   2.806788980960846E-1  -1.416895985603333E-1   7.419022172689438E-2  -1.416417211294174E-1   7.448700070381165E-2  -3.003064393997192E-1   9.394436478614807E-1  
 3.280000000000000E7     9.570219516754150E-1   2.321387678384781E-1  -1.304841637611389E-1   7.438348233699799E-2  -1.297692507505417E-1   7.431582361459732E-2  -2.800552845001221E-1   9.456855654716492E-1  
 3.310000000000000E7     9.686297774314880E-1   1.864360272884369E-1  -1.194987967610359E-1   7.383716851472855E-2  -1.193712279200554E-1   7.400660216808319E-2  -2.586388289928436E-1   9.531844854354858E-1  
 3.340000000000000E7     9.784119725227356E-1   1.410281658172607E-1  -1.095990687608719E-1   7.343724370002747E-2  -1.092913076281548E-1   7.308534532785416E-2  -2.380555570125580E-1   9.588809013366699E-1  
 3.370000000000000E7     9.839913249015808E-1   9.553992748260498E-2  -9.999936819076538E-2   7.181026786565781E-2  -9.995146095752716E-2   7.162549346685410E-2  -2.185400724411011E-1   9.661969542503357E-1  
 3.400000000000000E7     9.885935187339783E-1   5.052281171083450E-2  -9.123378247022629E-2   7.024096697568893E-2  -9.129340946674347E-2   7.023019343614578E-2  -1.968566775321960E-1   9.701872467994690E-1  
 3.430000000000000E7     9.912707209587097E-1   6.728634238243103E-3  -8.274335414171219E-2   6.848210096359253E-2  -8.263301849365234E-2   6.832376867532730E-2  -1.760016083717346E-1   9.750094413757324E-1  
 3.460000000000000E7     9.911048412322998E-1  -3.726465255022049E-2  -7.493839412927628E-2   6.624713540077210E-2  -7.500769197940826E-2   6.614146381616592E-2  -1.537318229675293E-1   9.808797240257263E-1  
 3.490000000000000E7     9.895362854003906E-1  -8.018793165683746E-2  -6.732690334320068E-2   6.404743343591690E-2  -6.738884747028351E-2   6.372500956058502E-2  -1.333296597003937E-1   9.822453260421753E-1  
 3.520000000000000E7     9.866634011268616E-1  -1.218130439519882E-1  -6.066772341728210E-2   6.114983931183815E-2  -6.064663082361221E-2   6.088703498244286E-2  -1.097515970468521E-1   9.874660372734070E-1  
 3.550000000000000E7     9.790278077125549E-1  -1.639862209558487E-1  -5.422598123550415E-2   5.806288495659828E-2  -5.420875549316406E-2   5.803101509809494E-2  -8.935959637165070E-2   9.909607768058777E-1  
 3.580000000000000E7     9.731772541999817E-1  -2.045955955982208E-1  -4.806563630700111E-2   5.491518229246140E-2  -4.800819605588913E-2   5.484832823276520E-2  -6.590145081281662E-2   9.915499687194824E-1  
 3.610000000000000E7     9.645882844924927E-1  -2.440458238124847E-1  -4.232158884406090E-2   5.181917175650597E-2  -4.218098893761635E-2   5.159027129411697E-2  -4.159019142389298E-2   9.953069090843201E-1  
 3.640000000000000E7     9.545251131057739E-1  -2.834548950195313E-1  -3.690926730632782E-2   4.803485795855522E-2  -3.706777095794678E-2   4.791639372706413E-2  -1.993322372436523E-2   9.955148100852966E-1  
 3.670000000000000E7     9.433471560478210E-1  -3.203439712524414E-1  -3.210197016596794E-2   4.425744339823723E-2  -3.195338696241379E-2   4.411735758185387E-2   2.974107861518860E-3   9.968581199645996E-1  
 3.700000000000000E7     9.302038550376892E-1  -3.581931591033936E-1  -2.739547379314899E-2   4.042205587029457E-2  -2.724974043667316E-2   4.030838981270790E-2   2.852715551853180E-2   9.962969422340393E-1  
 3.730000000000000E7     9.153472781181335E-1  -3.948178291320801E-1  -2.289252355694771E-2   3.617425635457039E-2  -2.295161411166191E-2   3.628450259566307E-2   4.996537417173386E-2   9.942836165428162E-1  
 3.760000000000000E7     8.996626138687134E-1  -4.283211827278137E-1  -1.889649778604507E-2   3.198887407779694E-2  -1.888732612133026E-2   3.212543204426765E-2   7.634332031011581E-2   9.938165545463562E-1  
 3.790000000000000E7     8.824377655982971E-1  -4.635073840618134E-1  -1.524884719401598E-2   2.781203947961330E-2  -1.518316380679607E-2   2.775517851114273E-2   1.012327671051025E-1   9.906763434410095E-1  
 3.820000000000000E7     8.647814989089966E-1  -4.981312453746796E-1  -1.192850992083550E-2   2.329631522297859E-2  -1.194341387599707E-2   2.323952689766884E-2   1.248292028903961E-1   9.881710410118103E-1  
 3.850000000000000E7     8.440839052200317E-1  -5.311907529830933E-1  -9.012226015329361E-3   1.870081387460232E-2  -8.871776051819325E-3   1.859754882752895E-2   1.500280499458313E-1   9.866143465042114E-1  
 3.880000000000000E7     8.237091898918152E-1  -5.620074272155762E-1  -6.135062780231237E-3   1.401432137936354E-2  -6.141494493931532E-3   1.397510617971420E-2   1.774239689111710E-1   9.817768931388855E-1  
 3.910000000000000E7     8.026454448699951E-1  -5.934860706329346E-1  -3.899598028510809E-3   9.192137047648430E-3  -3.777531674131751E-3   9.107874706387520E-3   2.038367390632629E-1   9.772824645042419E-1  
 3.940000000000000E7     7.792063355445862E-1  -6.212263107299805E-1  -1.750415656715632E-3   4.282949957996607E-3  -1.885358709841967E-3   4.230036400258541E-3   2.286033630371094E-1   9.703030586242676E-1  
 3.970000000000000E7     7.567214369773865E-1  -6.506424546241760E-1  -8.618929132353514E-5  -8.405425469391048E-4  -4.950618676957674E-5  -7.796249119564891E-4   2.540611326694489E-1   9.628990292549133E-1  
 4.000000000000000E7     7.313179969787598E-1  -6.781194210052490E-1   1.364305615425110E-3  -5.908455699682236E-3   1.349588041193783E-3  -5.886101163923740E-3   2.824214696884155E-1   9.563852548599243E-1  
 4.030000000000000E7     7.065416574478149E-1  -7.045673727989197E-1   2.226940589025617E-3  -1.114778034389019E-2   2.392186084762216E-3  -1.114473212510347E-2   3.088187277317047E-1   9.485225081443787E-1  
 4.060000000000000E7     6.804081797599793E-1  -7.296171188354492E-1   3.116403473541141E-3  -1.626846194267273E-2   3.105149371549487E-3  -1.631751842796803E-2   3.359368443489075E-1   9.382067322731018E-1  
 4.090000000000000E7     6.527447104454041E-1  -7.543944716453552E-1   3.399187466129661E-3  -2.170722372829914E-2   3.359000664204359E-3  -2.162809111177921E-2   3.623474836349487E-1   9.277843236923218E-1  
 4.120000000000000E7     6.253830194473267E-1  -7.773831486701965E-1   3.493932075798512E-3  -2.705182880163193E-2   3.430853132158518E-3  -2.707276865839958E-2   3.902836143970490E-1   9.160923361778259E-1  
 4.150000000000000E7     5.973172783851624E-1  -7.983485460281372E-1   3.001556731760502E-3  -3.244606405496597E-2   3.256356809288263E-3  -3.235796838998795E-2   4.185363054275513E-1   9.027076959609985E-1  
 4.180000000000000E7     5.674885511398315E-1  -8.202196955680847E-1   2.297564409673214E-3  -3.790590539574623E-2   2.396078081801534E-3  -3.783831000328064E-2   4.466176033020020E-1   8.901969790458679E-1  
 4.210000000000000E7     5.382090806961060E-1  -8.395776748657227E-1   1.268482650630176E-3  -4.334115236997604E-2   1.189227914437652E-3  -4.341419041156769E-2   4.762611985206604E-1   8.739150166511536E-1  
 4.240000000000000E7     5.078226923942566E-1  -8.570261001586914E-1  -2.463606651872397E-4  -4.890856146812439E-2  -2.714757574722171E-4  -4.878550767898560E-2   5.047876834869385E-1   8.579712510108948E-1  
 4.270000000000000E7     4.758053719997406E-1  -8.746736049652100E-1  -2.267171628773212E-3  -5.435897782444954E-2  -2.255219034850597E-3  -5.421890690922737E-2   5.333298444747925E-1   8.398124575614929E-1  
 4.300000000000000E7     4.434082508087158E-1  -8.913260102272034E-1  -4.652070347219706E-3  -5.975636839866638E-2  -4.471344873309135E-3  -5.961554497480393E-2   5.622453093528748E-1   8.204318284988403E-1  
 4.330000000000000E7     4.144458770751953E-1  -9.063630700111389E-1  -7.082651369273663E-3  -6.502250581979752E-2  -7.157303858548403E-3  -6.509907543659210E-2   5.906074643135071E-1   7.987501025199890E-1  
 4.360000000000000E7     3.805370330810547E-1  -9.195685982704163E-1  -1.031078584492207E-2  -7.051324099302292E-2  -1.019469182938337E-2  -7.024906575679779E-2   6.186226010322571E-1   7.770507931709290E-1  
 4.390000000000000E7     3.467910885810852E-1  -9.332833290100098E-1  -1.399495638906956E-2  -7.576827704906464E-2  -1.389826182276011E-2  -7.580228149890900E-2   6.470958590507507E-1   7.527775764465332E-1  
 4.420000000000000E7     3.141314685344696E-1  -9.432095289230347E-1  -1.788290031254292E-2  -8.070587366819382E-2  -1.792653650045395E-2  -8.083352446556091E-2   6.745768189430237E-1   7.274907827377319E-1  
 4.450000000000000E7     2.801220118999481E-1  -9.531499147415161E-1  -2.230948396027088E-2  -8.582106232643127E-2  -2.237965539097786E-2  -8.574291318655014E-2   7.027649283409119E-1   7.010123729705811E-1  
 4.480000000000000E7     2.467089891433716E-1  -9.622896909713745E-1  -2.719422429800034E-2  -9.062991291284561E-2  -2.725210040807724E-2  -9.054969996213913E-2   7.295353412628174E-1   6.712478399276733E-1  
 4.510000000000000E7     2.138785719871521E-1  -9.699647426605225E-1  -3.260083496570587E-2  -9.549593180418015E-2  -3.255573660135269E-2  -9.527279436588287E-2   7.568852901458740E-1   6.391107439994812E-1  
 4.540000000000000E7     1.795423626899719E-1  -9.754709601402283E-1  -3.854845464229584E-2  -9.924823045730591E-2  -3.833913803100586E-2  -9.949157387018204E-2   7.824692130088806E-1   6.056259870529175E-1  
 4.570000000000000E7     1.453788131475449E-1  -9.809252619743347E-1  -4.471395909786224E-2  -1.034257635474205E-1  -4.444640502333641E-2  -1.038208007812500E-1   8.071184158325195E-1   5.702780485153198E-1  
 4.600000000000000E7     1.137024015188217E-1  -9.839649796485901E-1  -5.134682357311249E-2  -1.078671142458916E-1  -5.156579613685608E-2  -1.079338565468788E-1   8.320400118827820E-1   5.344268083572388E-1  
 4.630000000000000E7     7.667398452758789E-2  -9.870159626007080E-1  -5.891209840774536E-2  -1.111720949411392E-1  -5.908513814210892E-2  -1.109723970293999E-1   8.553311824798584E-1   4.939048290252686E-1  
 4.660000000000000E7     4.193968325853348E-2  -9.893125891685486E-1  -6.676408648490906E-2  -1.138291805982590E-1  -6.668002158403397E-2  -1.139786615967751E-1   8.757140040397644E-1   4.508314728736877E-1  
 4.690000000000000E7     8.906245231628418E-3  -9.882515072822571E-1  -7.489888370037079E-2  -1.166403368115425E-1  -7.453951239585877E-2  -1.165868565440178E-1   8.973021507263184E-1   4.072906076908112E-1  
 4.720000000000000E7    -2.546709030866623E-2  -9.865175485610962E-1  -8.334353566169739E-2  -1.188167333602905E-1  -8.361659198999405E-2  -1.184666827321053E-1   9.139831662178040E-1   3.611052632331848E-1  
 4.750000000000000E7    -5.853457748889923E-2  -9.851660728454590E-1  -9.259099513292313E-2  -1.201836541295052E-1  -9.235050529241562E-2  -1.203152984380722E-1   9.325069785118103E-1   3.133223354816437E-1  
 4.780000000000000E7    -9.176250547170639E-2  -9.814532399177551E-1  -1.017099320888519E-1  -1.212633699178696E-1  -1.017865091562271E-1  -1.214291006326675E-1   9.452244043350220E-1   2.633903026580811E-1  
 4.810000000000000E7    -1.253282725811005E-1  -9.761703014373779E-1  -1.119701489806175E-1  -1.219567507505417E-1  -1.118065640330315E-1  -1.219107955694199E-1   9.581896066665649E-1   2.106671035289764E-1  
 4.840000000000000E7    -1.581499576568604E-1  -9.706749320030212E-1  -1.222398802638054E-1  -1.217957139015198E-1  -1.224707886576653E-1  -1.212485358119011E-1   9.675320386886597E-1   1.555423140525818E-1  
 4.870000000000000E7    -1.912261247634888E-1  -9.635580182075501E-1  -1.331339776515961E-1  -1.201673746109009E-1  -1.327947676181793E-1  -1.204937249422073E-1   9.736436605453491E-1   9.950035810470581E-2  
 4.900000000000000E7    -2.236309051513672E-1  -9.557202458381653E-1  -1.434941142797470E-1  -1.183476448059082E-1  -1.437354683876038E-1  -1.183772832155228E-1   9.761714339256287E-1   4.214786738157272E-2  
 4.930000000000000E7    -2.560043632984161E-1  -9.457229375839233E-1  -1.544779837131500E-1  -1.157272756099701E-1  -1.548102498054504E-1  -1.159558296203613E-1   9.754574298858643E-1  -1.818322390317917E-2  
 4.960000000000000E7    -2.861942350864410E-1  -9.336907863616943E-1  -1.654776781797409E-1  -1.118340492248535E-1  -1.655926257371903E-1  -1.114970967173576E-1   9.709315299987793E-1  -7.873161882162094E-2  
 4.990000000000000E7    -3.166294097900391E-1  -9.227703213691711E-1  -1.762620806694031E-1  -1.071485877037048E-1  -1.763003915548325E-1  -1.073335707187653E-1   9.623069167137146E-1  -1.401371657848358E-1  
 5.020000000000000E7    -3.463614881038666E-1  -9.117606878280640E-1  -1.877606064081192E-1  -1.017658561468124E-1  -1.879693418741226E-1  -1.023885905742645E-1   9.499483108520508E-1  -2.030374854803085E-1  
 5.050000000000000E7    -3.765678405761719E-1  -8.978439569473267E-1  -1.987659037113190E-1  -9.510204941034317E-2  -1.985997259616852E-1  -9.473020583391190E-2   9.323208332061768E-1  -2.661373615264893E-1  
 5.080000000000000E7    -4.046484231948853E-1  -8.838584423065186E-1  -2.094978988170624E-1  -8.722872287034988E-2  -2.096785455942154E-1  -8.799631148576737E-2   9.102699160575867E-1  -3.293876945972443E-1  
 5.110000000000000E7    -4.336036741733551E-1  -8.676363229751587E-1  -2.195853292942047E-1  -7.862377166748047E-2  -2.198594659566879E-1  -7.848756760358810E-2   8.835075497627258E-1  -3.923917114734650E-1  
 5.140000000000000E7    -4.606919288635254E-1  -8.515629768371582E-1  -2.297970354557037E-1  -6.907894462347031E-2  -2.296328693628311E-1  -6.849490106105804E-2   8.517850637435913E-1  -4.540016651153565E-1  
 5.170000000000000E7    -4.874207377433777E-1  -8.350876569747925E-1  -2.381702810525894E-1  -5.856667086482048E-2  -2.387369871139526E-1  -5.837489292025566E-2   8.147701621055603E-1  -5.130429863929749E-1  
 5.200000000000000E7    -5.138696432113648E-1  -8.186677694320679E-1  -2.478879094123840E-1  -4.645836725831032E-2  -2.486326843500137E-1  -4.691487178206444E-2   7.735928893089294E-1  -5.728556513786316E-1  
 5.230000000000000E7    -5.390698313713074E-1  -7.990280389785767E-1  -2.554599046707153E-1  -3.342489153146744E-2  -2.554354369640350E-1  -3.337139636278153E-2   7.261073589324951E-1  -6.277321577072144E-1  
 5.260000000000000E7    -5.629590153694153E-1  -7.790888547897339E-1  -2.617841660976410E-1  -2.008188702166081E-2  -2.625228166580200E-1  -2.021069079637528E-2   6.759863495826721E-1  -6.804438829421997E-1  
 5.290000000000000E7    -5.878005027770996E-1  -7.595558166503906E-1  -2.689388096332550E-1  -6.191365420818329E-3  -2.683565616607666E-1  -5.923936143517494E-3   6.204399466514587E-1  -7.301790714263916E-1  
 5.320000000000000E7    -6.106438636779785E-1  -7.408459186553955E-1  -2.736073136329651E-1   9.106967598199844E-3  -2.732245624065399E-1   9.282175451517105E-3   5.610256791114807E-1  -7.748941183090210E-1  
 5.350000000000000E7    -6.316752433776856E-1  -7.194748520851135E-1  -2.763604819774628E-1   2.490593492984772E-2  -2.758644223213196E-1   2.460957691073418E-2   4.971011579036713E-1  -8.143895268440247E-1  
 5.380000000000000E7    -6.527969241142273E-1  -6.987518072128296E-1  -2.786841392517090E-1   4.017749056220055E-2  -2.781224846839905E-1   3.997676074504852E-2   4.303950965404511E-1  -8.507892489433289E-1  
 5.410000000000000E7    -6.758085489273071E-1  -6.766172647476196E-1  -2.800902426242828E-1   5.688212439417839E-2  -2.793996334075928E-1   5.648552626371384E-2   3.627370297908783E-1  -8.810722827911377E-1  
 5.440000000000000E7    -6.957373619079590E-1  -6.534709930419922E-1  -2.791841328144074E-1   7.288213074207306E-2  -2.794531583786011E-1   7.274352014064789E-2   2.904975116252899E-1  -9.066450595855713E-1  
 5.470000000000000E7    -7.140304446220398E-1  -6.317601203918457E-1  -2.786586582660675E-1   8.861612528562546E-2  -2.777951359748840E-1   8.903449773788452E-2   2.185281813144684E-1  -9.256547093391419E-1  
 5.500000000000000E7    -7.338430881500244E-1  -6.084191203117371E-1  -2.744974493980408E-1   1.048452407121658E-1  -2.742924988269806E-1   1.043784990906715E-1   1.442207843065262E-1  -9.382928609848023E-1  
 5.530000000000000E7    -7.520232200622559E-1  -5.849901437759399E-1  -2.704133391380310E-1   1.204843223094940E-1  -2.702814638614655E-1   1.209670901298523E-1   7.038478553295136E-2  -9.463852643966675E-1  
 5.560000000000000E7    -7.698453664779663E-1  -5.595799088478088E-1  -2.652521431446075E-1   1.361953914165497E-1  -2.647733092308044E-1   1.358130574226379E-1  -4.217132925987244E-3  -9.486186504364014E-1  
 5.590000000000000E7    -7.866582274436951E-1  -5.363428592681885E-1  -2.586071193218231E-1   1.507911533117294E-1  -2.583122253417969E-1   1.509411931037903E-1  -7.630057632923126E-2  -9.453712105751038E-1  
 5.620000000000000E7    -8.025718927383423E-1  -5.096439123153687E-1  -2.501008510589600E-1   1.649488508701325E-1  -2.499665766954422E-1   1.641765236854553E-1  -1.487136334180832E-1  -9.360185265541077E-1  
 5.650000000000000E7    -8.171921968460083E-1  -4.857965111732483E-1  -2.421464920043945E-1   1.787121593952179E-1  -2.418654114007950E-1   1.778898835182190E-1  -2.186908721923828E-1  -9.220964312553406E-1  
 5.680000000000000E7    -8.324363827705383E-1  -4.597952961921692E-1  -2.326613217592239E-1   1.910591125488281E-1  -2.323396503925324E-1   1.912359893321991E-1  -2.868885993957520E-1  -9.042363762855530E-1  
 5.710000000000000E7    -8.466114997863770E-1  -4.320319294929504E-1  -2.220980674028397E-1   2.027342319488525E-1  -2.216391563415527E-1   2.029383033514023E-1  -3.504711985588074E-1  -8.801854848861694E-1  
 5.740000000000000E7    -8.602929115295410E-1  -4.056758880615234E-1  -2.107051014900208E-1   2.137043476104736E-1  -2.111086696386337E-1   2.132063806056976E-1  -4.125198125839233E-1  -8.549195528030396E-1  
 5.770000000000000E7    -8.717598319053650E-1  -3.801912665367127E-1  -1.992889642715454E-1   2.225513160228729E-1  -1.993457973003388E-1   2.224746644496918E-1  -4.717134237289429E-1  -8.223436474800110E-1  
 5.800000000000000E7    -8.841336965560913E-1  -3.511692583560944E-1  -1.876114159822464E-1   2.315798848867416E-1  -1.861841678619385E-1   2.314811199903488E-1  -5.262856483459473E-1  -7.887299656867981E-1  
 5.830000000000000E7    -8.945860862731934E-1  -3.236327767372131E-1  -1.746010929346085E-1   2.395888864994049E-1  -1.743314862251282E-1   2.393693029880524E-1  -5.783179998397827E-1  -7.515935301780701E-1  
 5.860000000000000E7    -9.060738086700440E-1  -2.955645024776459E-1  -1.620209217071533E-1   2.467302531003952E-1  -1.622762233018875E-1   2.468404620885849E-1  -6.267418265342712E-1  -7.141203284263611E-1  
 5.890000000000000E7    -9.146416187286377E-1  -2.666438221931458E-1  -1.491799652576447E-1   2.521202862262726E-1  -1.497273147106171E-1   2.525064051151276E-1  -6.719735860824585E-1  -6.717225909233093E-1  
 5.920000000000000E7    -9.232610464096069E-1  -2.368170320987701E-1  -1.364608258008957E-1   2.574954330921173E-1  -1.353134959936142E-1   2.571746408939362E-1  -7.128229141235352E-1  -6.298497915267944E-1  
 5.950000000000000E7    -9.309805035591126E-1  -2.076100409030914E-1  -1.232461780309677E-1   2.616906166076660E-1  -1.229860484600067E-1   2.612916231155396E-1  -7.505465745925903E-1  -5.850758552551270E-1  
 5.980000000000000E7    -9.380329847335815E-1  -1.775292158126831E-1  -1.104861050844193E-1   2.653661072254181E-1  -1.102203726768494E-1   2.643981277942658E-1  -7.850217223167419E-1  -5.410885214805603E-1  
 6.010000000000000E7    -9.426474571228027E-1  -1.490484923124313E-1  -9.798308461904526E-2   2.666501402854919E-1  -9.796168655157089E-2   2.664405405521393E-1  -8.144413232803345E-1  -4.952552616596222E-1  
 6.040000000000000E7    -9.484123587608337E-1  -1.167554706335068E-1  -8.446680754423142E-2   2.679994404315949E-1  -8.482329547405243E-2   2.685442864894867E-1  -8.420422673225403E-1  -4.491252899169922E-1  
 6.070000000000000E7    -9.535375833511353E-1  -8.793950080871582E-2  -7.269348204135895E-2   2.693476080894470E-1  -7.314996421337128E-2   2.692507207393646E-1  -8.649380803108215E-1  -4.031437039375305E-1  
 6.100000000000000E7    -9.556729197502136E-1  -5.714322999119759E-2  -6.095027178525925E-2   2.703966498374939E-1  -6.054838374257088E-2   2.696128785610199E-1  -8.867289423942566E-1  -3.576748967170715E-1  
 6.130000000000000E7    -9.584504365921021E-1  -2.541594952344894E-2  -4.846671968698502E-2   2.694491744041443E-1  -4.890372604131699E-2   2.693452835083008E-1  -9.048755764961243E-1  -3.113947212696075E-1  
 6.160000000000000E7    -9.591440558433533E-1   4.594311118125916E-3  -3.685842454433441E-2   2.682966589927673E-1  -3.688465058803558E-2   2.682780027389526E-1  -9.203317165374756E-1  -2.656835615634918E-1  
 6.190000000000000E7    -9.592078328132629E-1   3.549413383007050E-2  -2.589393965899944E-2   2.661547958850861E-1  -2.538904733955860E-2   2.659105956554413E-1  -9.330023527145386E-1  -2.193663120269775E-1  
 6.220000000000000E7    -9.587351679801941E-1   6.684317439794540E-2  -1.486666500568390E-2   2.642861902713776E-1  -1.519929245114327E-2   2.644330859184265E-1  -9.422702789306641E-1  -1.764535307884216E-1  
 6.250000000000000E7    -9.568009972572327E-1   9.848800301551819E-2  -4.794672131538391E-3   2.616688609123230E-1  -4.859574139118195E-3   2.616766691207886E-1  -9.508263468742371E-1  -1.337927728891373E-1  
 6.280000000000000E7    -9.533012509346008E-1   1.301530301570892E-1   5.281966179609299E-3   2.582661807537079E-1   4.403512924909592E-3   2.583254575729370E-1  -9.554138779640198E-1  -9.134696424007416E-2  
 6.310000000000000E7    -9.490388035774231E-1   1.619219183921814E-1   1.483674719929695E-2   2.553613781929016E-1   1.471810787916184E-2   2.554057836532593E-1  -9.609026908874512E-1  -4.859402775764465E-2  
 6.340000000000000E7    -9.440171718597412E-1   1.929167211055756E-1   2.411069720983505E-2   2.516245245933533E-1   2.393878251314163E-2   2.514500916004181E-1  -9.632753133773804E-1  -8.404284715652466E-3  
 6.370000000000000E7    -9.381231069564819E-1   2.239837795495987E-1   3.305134177207947E-2   2.476032078266144E-1   3.326052799820900E-2   2.476358711719513E-1  -9.626632332801819E-1   3.187228739261627E-2  
 6.400000000000000E7    -9.302411675453186E-1   2.544024288654327E-1   4.133655130863190E-2   2.438116669654846E-1   4.167270660400391E-2   2.427235990762711E-1  -9.617006182670593E-1   6.992617249488831E-2  
 6.430000000000000E7    -9.220411777496338E-1   2.863913774490356E-1   4.957529902458191E-2   2.386069446802139E-1   5.005829408764839E-2   2.383862435817719E-1  -9.596145749092102E-1   1.084937602281570E-1  
 6.460000000000000E7    -9.135156869888306E-1   3.170411884784699E-1   5.794656649231911E-2   2.337962388992310E-1   5.755398422479630E-2   2.337028980255127E-1  -9.539921283721924E-1   1.450651884078980E-1  
 6.490000000000000E7    -9.042907357215881E-1   3.468737304210663E-1   6.506785750389099E-2   2.289470732212067E-1   6.456874310970306E-2   2.292176932096481E-1  -9.489385485649109E-1   1.793046742677689E-1  
 6.520000000000000E7    -8.920453190803528E-1   3.765678107738495E-1   7.144319266080856E-2   2.234835475683212E-1   7.161436229944229E-2   2.236301153898239E-1  -9.431719779968262E-1   2.143973112106323E-1  
 6.550000000000000E7    -8.802418708801270E-1   4.059749245643616E-1   7.828226685523987E-2   2.186272293329239E-1   7.833082973957062E-2   2.187051773071289E-1  -9.356045722961426E-1   2.479069828987122E-1  
 6.580000000000000E7    -8.660535812377930E-1   4.356033802032471E-1   8.468806743621826E-2   2.132381349802017E-1   8.455248177051544E-2   2.131634056568146E-1  -9.277473688125610E-1   2.800999879837036E-1  
 6.610000000000000E7    -8.508806824684143E-1   4.640825390815735E-1   9.046569466590881E-2   2.076447010040283E-1   9.084631502628326E-2   2.066329121589661E-1  -9.184938669204712E-1   3.125525116920471E-1  
 6.640000000000000E7    -8.374941349029541E-1   4.929414093494415E-1   9.644511342048645E-2   2.019697725772858E-1   9.625257551670075E-2   2.024796456098557E-1  -9.081968665122986E-1   3.425932526588440E-1  
 6.670000000000000E7    -8.200594186782837E-1   5.207230448722839E-1   1.016866564750671E-1   1.963043957948685E-1   1.011980026960373E-1   1.963771581649780E-1  -8.971477746963501E-1   3.704030215740204E-1  
 6.700000000000000E7    -8.023633956909180E-1   5.480849742889404E-1   1.062924340367317E-1   1.900751739740372E-1   1.062255650758743E-1   1.898733824491501E-1  -8.850722312927246E-1   3.994742631912231E-1  
 6.730000000000000E7    -7.842463254928589E-1   5.754429101943970E-1   1.109534800052643E-1   1.838856041431427E-1   1.111428886651993E-1   1.839329153299332E-1  -8.738610744476318E-1   4.262962639331818E-1  
 6.760000000000000E7    -7.653377056121826E-1   6.017163395881653E-1   1.159648373723030E-1   1.789461225271225E-1   1.153471618890762E-1   1.782699972391129E-1  -8.604455590248108E-1   4.532723128795624E-1  
 6.790000000000000E7    -7.448052763938904E-1   6.274583339691162E-1   1.193752884864807E-1   1.724592298269272E-1   1.196483969688416E-1   1.723620742559433E-1  -8.476110100746155E-1   4.783575236797333E-1  
 6.820000000000000E7    -7.236017584800720E-1   6.516633033752441E-1   1.234130710363388E-1   1.664410680532455E-1   1.228321343660355E-1   1.663656532764435E-1  -8.336594104766846E-1   5.026522874832153E-1  
 6.850000000000000E7    -7.021386623382568E-1   6.772802472114563E-1   1.264838129281998E-1   1.605608165264130E-1   1.266684830188751E-1   1.604281961917877E-1  -8.194466829299927E-1   5.262514352798462E-1  
 6.880000000000000E7    -6.789285540580750E-1   7.002007961273193E-1   1.299972534179688E-1   1.544194370508194E-1   1.295520812273026E-1   1.540086269378662E-1  -8.046407103538513E-1   5.493423938751221E-1  
 6.910000000000000E7    -6.552682518959045E-1   7.231916785240173E-1   1.330015957355499E-1   1.489821076393127E-1   1.328627467155457E-1   1.484982520341873E-1  -7.906256318092346E-1   5.721210837364197E-1  
 6.940000000000000E7    -6.311715245246887E-1   7.456119656562805E-1   1.353110671043396E-1   1.429450064897537E-1   1.357070803642273E-1   1.428513824939728E-1  -7.757182121276856E-1   5.923626422882080E-1  
 6.970000000000000E7    -6.048695445060730E-1   7.668480277061462E-1   1.378317028284073E-1   1.368232965469360E-1   1.383578330278397E-1   1.365420669317246E-1  -7.604964971542358E-1   6.125924587249756E-1  
 7.000000000000000E7    -5.791173577308655E-1   7.882450819015503E-1   1.401075720787048E-1   1.309373080730438E-1   1.401252001523972E-1   1.306607723236084E-1  -7.449276447296143E-1   6.330353617668152E-1  
