#  HZ   S   RI   R     50.00 
! Rohde & Schwarz ZVT8 8Ports - Version 4.11 - 1300.0000k08 SN: 100242
! Date: 2026-07-13 13:50:27
! Measurements: S11 S21 S12 S22 
! 
 1.000000000000000E7    -8.466680049896240E-1   4.406662285327911E-1   1.182705312967300E-1   2.274121791124344E-1   1.185854002833366E-1   2.271979600191116E-1  -8.444749712944031E-1   4.378448128700256E-1  
 1.002000000000000E7    -8.461111783981323E-1   4.414638876914978E-1   1.186126694083214E-1   2.280441820621491E-1   1.189045011997223E-1   2.280208319425583E-1  -8.441620469093323E-1   4.380959272384644E-1  
 1.004000000000000E7    -8.451874256134033E-1   4.420876502990723E-1   1.193447709083557E-1   2.286029160022736E-1   1.194857284426689E-1   2.281906902790070E-1  -8.434967994689941E-1   4.393004775047302E-1  
 1.006000000000000E7    -8.448850512504578E-1   4.433194398880005E-1   1.196846738457680E-1   2.286890894174576E-1   1.201634332537651E-1   2.287692874670029E-1  -8.428096175193787E-1   4.402888119220734E-1  
 1.008000000000000E7    -8.443602919578552E-1   4.442374110221863E-1   1.202629879117012E-1   2.291396558284760E-1   1.205399408936501E-1   2.291248738765717E-1  -8.421608805656433E-1   4.409210383892059E-1  
 1.010000000000000E7    -8.437571525573731E-1   4.448764622211456E-1   1.206077113747597E-1   2.296534478664398E-1   1.207995489239693E-1   2.295389920473099E-1  -8.418121337890625E-1   4.412966370582581E-1  
 1.012000000000000E7    -8.435443639755249E-1   4.450562000274658E-1   1.211734935641289E-1   2.300587594509125E-1   1.216574683785439E-1   2.297098934650421E-1  -8.408021330833435E-1   4.427261352539063E-1  
 1.014000000000000E7    -8.425884246826172E-1   4.464872181415558E-1   1.219907402992249E-1   2.303022295236588E-1   1.222458854317665E-1   2.301962673664093E-1  -8.401021957397461E-1   4.432429969310761E-1  
 1.016000000000000E7    -8.417734503746033E-1   4.468229711055756E-1   1.222760379314423E-1   2.309484034776688E-1   1.226335838437080E-1   2.306012213230133E-1  -8.398935198783875E-1   4.442564249038696E-1  
 1.018000000000000E7    -8.414871692657471E-1   4.480270147323608E-1   1.228162571787834E-1   2.313875555992127E-1   1.232467368245125E-1   2.312007397413254E-1  -8.397842049598694E-1   4.446527063846588E-1  
 1.020000000000000E7    -8.406432271003723E-1   4.487640261650085E-1   1.233170628547669E-1   2.314271479845047E-1   1.234878674149513E-1   2.312555760145187E-1  -8.384895324707031E-1   4.455729722976685E-1  
 1.022000000000000E7    -8.398233056068420E-1   4.497915506362915E-1   1.237057447433472E-1   2.320573031902313E-1   1.240188926458359E-1   2.317066937685013E-1  -8.380780816078186E-1   4.461990892887116E-1  
 1.024000000000000E7    -8.393111824989319E-1   4.506083726882935E-1   1.245311945676804E-1   2.323593646287918E-1   1.249337866902351E-1   2.319772690534592E-1  -8.373721837997437E-1   4.477173984050751E-1  
 1.026000000000000E7    -8.387987613677979E-1   4.510965049266815E-1   1.248136311769486E-1   2.329989075660706E-1   1.250487864017487E-1   2.325794398784638E-1  -8.370254039764404E-1   4.477248191833496E-1  
 1.028000000000000E7    -8.379964232444763E-1   4.519396424293518E-1   1.253663003444672E-1   2.333269417285919E-1   1.258130520582199E-1   2.329446673393250E-1  -8.362728953361511E-1   4.485034644603729E-1  
 1.030000000000000E7    -8.378005027770996E-1   4.528323113918304E-1   1.261982470750809E-1   2.336078137159348E-1   1.264239847660065E-1   2.334428727626801E-1  -8.354174494743347E-1   4.499331712722778E-1  
 1.032000000000000E7    -8.370850682258606E-1   4.533426761627197E-1   1.265800744295120E-1   2.340552508831024E-1   1.268937289714813E-1   2.338369488716126E-1  -8.350982069969177E-1   4.506231546401978E-1  
 1.034000000000000E7    -8.366762995719910E-1   4.545738399028778E-1   1.271490156650543E-1   2.345129549503326E-1   1.274044960737228E-1   2.342852056026459E-1  -8.343884348869324E-1   4.513255953788757E-1  
 1.036000000000000E7    -8.359521031379700E-1   4.548207223415375E-1   1.276190280914307E-1   2.347637712955475E-1   1.277239769697189E-1   2.345941066741943E-1  -8.336147069931030E-1   4.518227279186249E-1  
 1.038000000000000E7    -8.350687623023987E-1   4.558124244213104E-1   1.280637979507446E-1   2.351423949003220E-1   1.285948157310486E-1   2.350574433803558E-1  -8.330488801002502E-1   4.530658721923828E-1  
 1.040000000000000E7    -8.343290686607361E-1   4.566076993942261E-1   1.286324709653854E-1   2.355769872665405E-1   1.290490180253983E-1   2.353408634662628E-1  -8.325406908988953E-1   4.535656869411469E-1  
 1.042000000000000E7    -8.338165879249573E-1   4.570792913436890E-1   1.291691213846207E-1   2.358794957399368E-1   1.295549869537354E-1   2.357877641916275E-1  -8.314662575721741E-1   4.544596076011658E-1  
 1.044000000000000E7    -8.332126736640930E-1   4.582335054874420E-1   1.298618018627167E-1   2.362253814935684E-1   1.302486807107925E-1   2.360471487045288E-1  -8.308001160621643E-1   4.552623629570007E-1  
 1.046000000000000E7    -8.329520821571350E-1   4.587077796459198E-1   1.303995698690414E-1   2.366997599601746E-1   1.303178668022156E-1   2.365466058254242E-1  -8.304350972175598E-1   4.556747376918793E-1  
 1.048000000000000E7    -8.321313261985779E-1   4.598207175731659E-1   1.308230161666870E-1   2.373023182153702E-1   1.311132162809372E-1   2.368436455726624E-1  -8.301129937171936E-1   4.565320312976837E-1  
 1.050000000000000E7    -8.314520716667175E-1   4.609417617321014E-1   1.314399242401123E-1   2.377802878618240E-1   1.318681687116623E-1   2.373585700988770E-1  -8.291040062904358E-1   4.576317965984345E-1  
 1.052000000000000E7    -8.313211202621460E-1   4.616219401359558E-1   1.321446746587753E-1   2.380711436271668E-1   1.322897076606751E-1   2.377848178148270E-1  -8.283732533454895E-1   4.583509564399719E-1  
 1.054000000000000E7    -8.302966952323914E-1   4.622867703437805E-1   1.326163709163666E-1   2.385870218276978E-1   1.326735615730286E-1   2.384019494056702E-1  -8.281441926956177E-1   4.589299261569977E-1  
 1.056000000000000E7    -8.300685286521912E-1   4.631170332431793E-1   1.328816711902618E-1   2.389210760593414E-1   1.330529004335403E-1   2.384516596794128E-1  -8.272192478179932E-1   4.595350921154022E-1  
 1.058000000000000E7    -8.289783000946045E-1   4.637684822082520E-1   1.337281465530396E-1   2.392402291297913E-1   1.339159905910492E-1   2.390891611576080E-1  -8.270131945610046E-1   4.606455266475678E-1  
 1.060000000000000E7    -8.283792138099670E-1   4.646615087985992E-1   1.340206712484360E-1   2.394751310348511E-1   1.345683783292770E-1   2.392981648445129E-1  -8.261382579803467E-1   4.614054262638092E-1  
 1.062000000000000E7    -8.274526596069336E-1   4.654324948787689E-1   1.348917037248612E-1   2.401704490184784E-1   1.353068053722382E-1   2.397557348012924E-1  -8.255543708801270E-1   4.626356363296509E-1  
 1.064000000000000E7    -8.270551562309265E-1   4.661592245101929E-1   1.356230676174164E-1   2.402151525020599E-1   1.356044113636017E-1   2.400799989700317E-1  -8.245294094085693E-1   4.629959762096405E-1  
 1.066000000000000E7    -8.266366720199585E-1   4.670149981975555E-1   1.359587162733078E-1   2.406938076019287E-1   1.363106220960617E-1   2.406028658151627E-1  -8.242542743682861E-1   4.641844034194946E-1  
 1.068000000000000E7    -8.260000944137573E-1   4.678571820259094E-1   1.362855434417725E-1   2.412728369235992E-1   1.366190612316132E-1   2.409086823463440E-1  -8.237610459327698E-1   4.647494256496429E-1  
 1.070000000000000E7    -8.250704407691956E-1   4.686322510242462E-1   1.366587579250336E-1   2.413609921932221E-1   1.371348947286606E-1   2.411933392286301E-1  -8.227750062942505E-1   4.648872911930084E-1  
 1.072000000000000E7    -8.247740864753723E-1   4.695508182048798E-1   1.375003755092621E-1   2.421568483114243E-1   1.378134489059448E-1   2.417060434818268E-1  -8.221656680107117E-1   4.660154581069946E-1  
 1.074000000000000E7    -8.238231539726257E-1   4.702625870704651E-1   1.383785009384155E-1   2.423163205385208E-1   1.384730041027069E-1   2.420357912778854E-1  -8.214399218559265E-1   4.673277139663696E-1  
 1.076000000000000E7    -8.230475187301636E-1   4.711089134216309E-1   1.389691829681397E-1   2.425078898668289E-1   1.389217972755432E-1   2.425602823495865E-1  -8.209075331687927E-1   4.675535559654236E-1  
 1.078000000000000E7    -8.227351903915405E-1   4.715434610843658E-1   1.393221467733383E-1   2.430990040302277E-1   1.394642740488052E-1   2.429083436727524E-1  -8.199123144149780E-1   4.685257077217102E-1  
 1.080000000000000E7    -8.219169378280640E-1   4.722793102264404E-1   1.396510601043701E-1   2.432877123355866E-1   1.398105919361115E-1   2.430960386991501E-1  -8.193511962890625E-1   4.690600335597992E-1  
 1.082000000000000E7    -8.215470910072327E-1   4.735949337482452E-1   1.403063088655472E-1   2.437517046928406E-1   1.405912041664124E-1   2.435502707958221E-1  -8.185679316520691E-1   4.697628021240234E-1  
 1.084000000000000E7    -8.206230401992798E-1   4.739840030670166E-1   1.410568207502365E-1   2.442143559455872E-1   1.414815336465836E-1   2.437538653612137E-1  -8.179551362991333E-1   4.710310101509094E-1  
 1.086000000000000E7    -8.196874856948853E-1   4.746656715869904E-1   1.417258530855179E-1   2.444554865360260E-1   1.417482644319534E-1   2.440573573112488E-1  -8.174210786819458E-1   4.715358018875122E-1  
 1.088000000000000E7    -8.193124532699585E-1   4.752990603446960E-1   1.422543078660965E-1   2.450429052114487E-1   1.423661708831787E-1   2.446455061435700E-1  -8.170501589775085E-1   4.725989997386932E-1  
 1.090000000000000E7    -8.182004094123840E-1   4.759002327919006E-1   1.425056010484695E-1   2.453901469707489E-1   1.427252441644669E-1   2.453795969486237E-1  -8.166735172271729E-1   4.729068875312805E-1  
 1.092000000000000E7    -8.177117705345154E-1   4.774593412876129E-1   1.433970928192139E-1   2.456986010074616E-1   1.436663419008255E-1   2.455420345067978E-1  -8.155210018157959E-1   4.738051593303680E-1  
 1.094000000000000E7    -8.166490793228149E-1   4.782401323318481E-1   1.437981575727463E-1   2.459046691656113E-1   1.441739499568939E-1   2.457113564014435E-1  -8.150210976600647E-1   4.746927320957184E-1  
 1.096000000000000E7    -8.165704607963562E-1   4.787738919258118E-1   1.445739418268204E-1   2.464295178651810E-1   1.446299701929092E-1   2.462227493524551E-1  -8.141328096389771E-1   4.753158688545227E-1  
 1.098000000000000E7    -8.157600760459900E-1   4.796830117702484E-1   1.452834904193878E-1   2.467365860939026E-1   1.450574100017548E-1   2.464543133974075E-1  -8.135275840759277E-1   4.758602082729340E-1  
 1.100000000000000E7    -8.154506683349609E-1   4.806440174579620E-1   1.458467096090317E-1   2.473558038473129E-1   1.461973041296005E-1   2.470875233411789E-1  -8.126217722892761E-1   4.768677651882172E-1  
 1.102000000000000E7    -8.145295381546021E-1   4.813160598278046E-1   1.462278217077255E-1   2.475303262472153E-1   1.464250236749649E-1   2.474682927131653E-1  -8.121452927589417E-1   4.775956869125366E-1  
 1.104000000000000E7    -8.131221532821655E-1   4.817828536033630E-1   1.468100249767304E-1   2.477715462446213E-1   1.468990296125412E-1   2.475014328956604E-1  -8.114409446716309E-1   4.786990880966187E-1  
 1.106000000000000E7    -8.128783702850342E-1   4.823215901851654E-1   1.474275141954422E-1   2.483699023723602E-1   1.477148085832596E-1   2.480683475732803E-1  -8.107513785362244E-1   4.798039793968201E-1  
 1.108000000000000E7    -8.125403523445129E-1   4.829643964767456E-1   1.480317562818527E-1   2.485248744487763E-1   1.481168717145920E-1   2.484437227249146E-1  -8.094720840454102E-1   4.801520407199860E-1  
 1.110000000000000E7    -8.114346265792847E-1   4.838861525058746E-1   1.482389271259308E-1   2.490584254264832E-1   1.487335115671158E-1   2.489661276340485E-1  -8.095091581344605E-1   4.811124503612518E-1  
 1.112000000000000E7    -8.107542991638184E-1   4.848065674304962E-1   1.491681337356567E-1   2.494744360446930E-1   1.493327468633652E-1   2.492053210735321E-1  -8.086266517639160E-1   4.815460145473480E-1  
 1.114000000000000E7    -8.100969195365906E-1   4.856441020965576E-1   1.498388648033142E-1   2.499894648790360E-1   1.500454097986221E-1   2.495606243610382E-1  -8.081730008125305E-1   4.823346734046936E-1  
 1.116000000000000E7    -8.093604445457459E-1   4.861745834350586E-1   1.503793299198151E-1   2.498530745506287E-1   1.505208015441895E-1   2.498679012060165E-1  -8.072350025177002E-1   4.830611646175385E-1  
 1.118000000000000E7    -8.087180852890015E-1   4.873133003711700E-1   1.507080793380737E-1   2.504312694072723E-1   1.509114354848862E-1   2.505403459072113E-1  -8.067045807838440E-1   4.841318130493164E-1  
 1.120000000000000E7    -8.081569671630859E-1   4.881950616836548E-1   1.516344249248505E-1   2.508978247642517E-1   1.516949832439423E-1   2.504504919052124E-1  -8.055506944656372E-1   4.846991598606110E-1  
 1.122000000000000E7    -8.078399896621704E-1   4.887694418430328E-1   1.521390825510025E-1   2.512417733669281E-1   1.523784697055817E-1   2.511503994464874E-1  -8.048968315124512E-1   4.857231378555298E-1  
 1.124000000000000E7    -8.069196343421936E-1   4.897294342517853E-1   1.524044126272202E-1   2.517906427383423E-1   1.528547108173370E-1   2.515325546264648E-1  -8.044211268424988E-1   4.855936467647553E-1  
 1.126000000000000E7    -8.061802983283997E-1   4.901099205017090E-1   1.533659398555756E-1   2.521499395370483E-1   1.537452340126038E-1   2.517846822738648E-1  -8.036170005798340E-1   4.870824217796326E-1  
 1.128000000000000E7    -8.056245446205139E-1   4.907426238059998E-1   1.538919806480408E-1   2.524664998054504E-1   1.542530804872513E-1   2.524132430553436E-1  -8.028978109359741E-1   4.878852963447571E-1  
 1.130000000000000E7    -8.045229315757752E-1   4.916793107986450E-1   1.544813215732575E-1   2.526878416538239E-1   1.549898087978363E-1   2.528350353240967E-1  -8.022694587707520E-1   4.886557757854462E-1  
 1.132000000000000E7    -8.036618232727051E-1   4.932090044021606E-1   1.552546173334122E-1   2.529803216457367E-1   1.556022316217423E-1   2.526715099811554E-1  -8.011785745620728E-1   4.889192283153534E-1  
 1.134000000000000E7    -8.035919070243835E-1   4.932823181152344E-1   1.558344513177872E-1   2.537403404712677E-1   1.559915244579315E-1   2.533292472362518E-1  -8.005915284156799E-1   4.895024001598358E-1  
 1.136000000000000E7    -8.025047183036804E-1   4.944184124469757E-1   1.563802212476730E-1   2.539924979209900E-1   1.564971059560776E-1   2.538382411003113E-1  -8.002902269363403E-1   4.907135963439941E-1  
 1.138000000000000E7    -8.018575310707092E-1   4.946713745594025E-1   1.567409634590149E-1   2.539649605751038E-1   1.571671515703201E-1   2.541750967502594E-1  -7.995419502258301E-1   4.915732741355896E-1  
 1.140000000000000E7    -8.013027906417847E-1   4.956070184707642E-1   1.572628766298294E-1   2.548788487911224E-1   1.575164049863815E-1   2.544308900833130E-1  -7.989196181297302E-1   4.921103119850159E-1  
 1.142000000000000E7    -8.003747463226318E-1   4.963577389717102E-1   1.580566465854645E-1   2.550023198127747E-1   1.583698689937592E-1   2.546887397766113E-1  -7.978853583335877E-1   4.928032457828522E-1  
 1.144000000000000E7    -7.992962002754211E-1   4.972298443317413E-1   1.587932258844376E-1   2.552979886531830E-1   1.591014564037323E-1   2.550591528415680E-1  -7.977538704872131E-1   4.938990175724030E-1  
 1.146000000000000E7    -7.989314198493958E-1   4.979124665260315E-1   1.592479050159454E-1   2.558322548866272E-1   1.596923619508743E-1   2.557296156883240E-1  -7.969915270805359E-1   4.942994713783264E-1  
 1.148000000000000E7    -7.982289195060730E-1   4.989565014839172E-1   1.599303632974625E-1   2.559889853000641E-1   1.604089289903641E-1   2.556757032871246E-1  -7.957025766372681E-1   4.954963326454163E-1  
 1.150000000000000E7    -7.970486283302307E-1   4.993279278278351E-1   1.604668349027634E-1   2.564222514629364E-1   1.608564257621765E-1   2.560548186302185E-1  -7.950114607810974E-1   4.961144924163818E-1  
 1.152000000000000E7    -7.965018153190613E-1   4.999661147594452E-1   1.611697822809219E-1   2.567609846591950E-1   1.614779084920883E-1   2.566535174846649E-1  -7.947041392326355E-1   4.967257082462311E-1  
 1.154000000000000E7    -7.957893013954163E-1   5.008545517921448E-1   1.617707610130310E-1   2.568421065807343E-1   1.618708074092865E-1   2.567170262336731E-1  -7.935165166854858E-1   4.976442158222199E-1  
 1.156000000000000E7    -7.952982783317566E-1   5.017567873001099E-1   1.626463830471039E-1   2.574265003204346E-1   1.628599762916565E-1   2.574521899223328E-1  -7.932598590850830E-1   4.982258081436157E-1  
 1.158000000000000E7    -7.942566275596619E-1   5.024178624153137E-1   1.630167514085770E-1   2.577771842479706E-1   1.632565408945084E-1   2.577046751976013E-1  -7.924227714538574E-1   4.991365671157837E-1  
 1.160000000000000E7    -7.934395670890808E-1   5.028497576713562E-1   1.634127646684647E-1   2.582191824913025E-1   1.639338731765747E-1   2.581036090850830E-1  -7.918183207511902E-1   4.993183612823486E-1  
 1.162000000000000E7    -7.927578091621399E-1   5.042431354522705E-1   1.642636060714722E-1   2.586802244186401E-1   1.647017300128937E-1   2.583684921264648E-1  -7.904534935951233E-1   5.005798935890198E-1  
 1.164000000000000E7    -7.921531200408936E-1   5.049754381179810E-1   1.649288535118103E-1   2.590315937995911E-1   1.654763966798782E-1   2.588491439819336E-1  -7.900218367576599E-1   5.009906888008118E-1  
 1.166000000000000E7    -7.914173603057861E-1   5.055048465728760E-1   1.658233553171158E-1   2.594407796859741E-1   1.658670008182526E-1   2.593308091163635E-1  -7.898014187812805E-1   5.019262433052063E-1  
 1.168000000000000E7    -7.910186648368835E-1   5.061895847320557E-1   1.663651317358017E-1   2.600607872009277E-1   1.665817350149155E-1   2.595094740390778E-1  -7.893162965774536E-1   5.030624866485596E-1  
 1.170000000000000E7    -7.898419499397278E-1   5.073220729827881E-1   1.670812219381332E-1   2.598405480384827E-1   1.673274636268616E-1   2.599398493766785E-1  -7.874572277069092E-1   5.036486983299255E-1  
 1.172000000000000E7    -7.889522910118103E-1   5.075033307075501E-1   1.673804372549057E-1   2.602874934673309E-1   1.678734123706818E-1   2.601327002048492E-1  -7.872776389122009E-1   5.046419501304627E-1  
 1.174000000000000E7    -7.882743477821350E-1   5.085595250129700E-1   1.680518537759781E-1   2.608471512794495E-1   1.683954596519470E-1   2.607359886169434E-1  -7.868834733963013E-1   5.047817826271057E-1  
 1.176000000000000E7    -7.880898714065552E-1   5.092458128929138E-1   1.685675382614136E-1   2.610938549041748E-1   1.690090745687485E-1   2.607934474945068E-1  -7.855776548385620E-1   5.056511759757996E-1  
 1.178000000000000E7    -7.872399687767029E-1   5.102472901344299E-1   1.696501672267914E-1   2.615347206592560E-1   1.700320541858673E-1   2.613560259342194E-1  -7.851977348327637E-1   5.064307451248169E-1  
 1.180000000000000E7    -7.865335345268250E-1   5.106667876243591E-1   1.700007468461990E-1   2.618288695812225E-1   1.703605651855469E-1   2.616174519062042E-1  -7.840692996978760E-1   5.071234107017517E-1  
 1.182000000000000E7    -7.852758765220642E-1   5.121443271636963E-1   1.706856638193131E-1   2.622647881507874E-1   1.709527224302292E-1   2.617297768592835E-1  -7.834387421607971E-1   5.079705715179443E-1  
 1.184000000000000E7    -7.848213315010071E-1   5.125789046287537E-1   1.716067343950272E-1   2.621707320213318E-1   1.718177348375320E-1   2.620930373668671E-1  -7.824718952178955E-1   5.088936090469360E-1  
 1.186000000000000E7    -7.842090725898743E-1   5.132688879966736E-1   1.722048670053482E-1   2.629580795764923E-1   1.724677234888077E-1   2.628554403781891E-1  -7.821730375289917E-1   5.095699429512024E-1  
 1.188000000000000E7    -7.826340198516846E-1   5.141927599906921E-1   1.727859824895859E-1   2.633070051670075E-1   1.729931980371475E-1   2.629462182521820E-1  -7.812241315841675E-1   5.104580521583557E-1  
 1.190000000000000E7    -7.820976972579956E-1   5.146061778068543E-1   1.730497330427170E-1   2.635933756828308E-1   1.735146641731262E-1   2.631710469722748E-1  -7.808002233505249E-1   5.107576251029968E-1  
 1.192000000000000E7    -7.818537950515747E-1   5.150527954101563E-1   1.736709177494049E-1   2.637565732002258E-1   1.740700006484985E-1   2.636480033397675E-1  -7.799502015113831E-1   5.115728378295898E-1  
 1.194000000000000E7    -7.809871435165405E-1   5.160197019577026E-1   1.746801584959030E-1   2.642731070518494E-1   1.749647408723831E-1   2.639795839786530E-1  -7.790343761444092E-1   5.125088691711426E-1  
 1.196000000000000E7    -7.803477644920349E-1   5.170033574104309E-1   1.751662343740463E-1   2.644746005535126E-1   1.754308044910431E-1   2.642668485641480E-1  -7.779163718223572E-1   5.130118131637573E-1  
 1.198000000000000E7    -7.795695662498474E-1   5.176946520805359E-1   1.761077791452408E-1   2.651291489601135E-1   1.762692332267761E-1   2.647513449192047E-1  -7.776014804840088E-1   5.141470432281494E-1  
 1.200000000000000E7    -7.784595489501953E-1   5.184067487716675E-1   1.764516830444336E-1   2.655166089534760E-1   1.768731325864792E-1   2.650171816349030E-1  -7.764809131622315E-1   5.148262977600098E-1  
 1.202000000000000E7    -7.775242328643799E-1   5.191821455955505E-1   1.772807985544205E-1   2.653079926967621E-1   1.779000461101532E-1   2.655493617057800E-1  -7.758425474166870E-1   5.156814455986023E-1  
 1.204000000000000E7    -7.769414186477661E-1   5.202469825744629E-1   1.776488125324249E-1   2.659147977828980E-1   1.781461387872696E-1   2.658378481864929E-1  -7.750795483589172E-1   5.162417888641357E-1  
 1.206000000000000E7    -7.761560678482056E-1   5.204143524169922E-1   1.784751713275909E-1   2.661969363689423E-1   1.790375113487244E-1   2.659949064254761E-1  -7.743293046951294E-1   5.167090296745300E-1  
 1.208000000000000E7    -7.750947475433350E-1   5.214548707008362E-1   1.793208569288254E-1   2.662869989871979E-1   1.797984093427658E-1   2.665357291698456E-1  -7.735970020294190E-1   5.176540613174439E-1  
 1.210000000000000E7    -7.750833034515381E-1   5.217747688293457E-1   1.797637045383453E-1   2.674276828765869E-1   1.801510453224182E-1   2.668148875236511E-1  -7.729197740554810E-1   5.183857083320618E-1  
 1.212000000000000E7    -7.739278674125671E-1   5.227584838867188E-1   1.806347221136093E-1   2.672849297523499E-1   1.808733940124512E-1   2.671207487583160E-1  -7.717067003250122E-1   5.187267065048218E-1  
 1.214000000000000E7    -7.732529044151306E-1   5.239429473876953E-1   1.811292469501495E-1   2.677096128463745E-1   1.816574186086655E-1   2.676705718040466E-1  -7.716568708419800E-1   5.193192362785339E-1  
 1.216000000000000E7    -7.722236514091492E-1   5.244242548942566E-1   1.819394975900650E-1   2.681760191917419E-1   1.823799759149551E-1   2.678681015968323E-1  -7.707660198211670E-1   5.209830403327942E-1  
 1.218000000000000E7    -7.718191742897034E-1   5.249899029731751E-1   1.824617236852646E-1   2.683374881744385E-1   1.827370077371597E-1   2.679248154163361E-1  -7.695615291595459E-1   5.211626887321472E-1  
 1.220000000000000E7    -7.710435986518860E-1   5.258772373199463E-1   1.833486557006836E-1   2.687209248542786E-1   1.838782578706741E-1   2.684711813926697E-1  -7.687680721282959E-1   5.222671627998352E-1  
 1.222000000000000E7    -7.699603438377380E-1   5.266370177268982E-1   1.838542371988297E-1   2.689284086227417E-1   1.841954886913300E-1   2.689083814620972E-1  -7.676908373832703E-1   5.222001671791077E-1  
 1.224000000000000E7    -7.693436145782471E-1   5.275532007217407E-1   1.848688572645187E-1   2.693470716476440E-1   1.851406991481781E-1   2.689309716224670E-1  -7.671651840209961E-1   5.237166285514832E-1  
 1.226000000000000E7    -7.681397199630737E-1   5.279054045677185E-1   1.857800036668778E-1   2.697594761848450E-1   1.857809126377106E-1   2.696111798286438E-1  -7.664408683776856E-1   5.244768857955933E-1  
 1.228000000000000E7    -7.674435973167419E-1   5.286937355995178E-1   1.860547214746475E-1   2.700655460357666E-1   1.865114867687225E-1   2.697791159152985E-1  -7.656677365303040E-1   5.251438021659851E-1  
 1.230000000000000E7    -7.670221924781799E-1   5.293445587158203E-1   1.866610199213028E-1   2.703099846839905E-1   1.870814859867096E-1   2.703530192375183E-1  -7.649417519569397E-1   5.259400010108948E-1  
 1.232000000000000E7    -7.659927606582642E-1   5.302390456199646E-1   1.874323636293411E-1   2.708683907985687E-1   1.880147606134415E-1   2.706419825553894E-1  -7.641817331314087E-1   5.264548063278198E-1  
 1.234000000000000E7    -7.653364539146423E-1   5.310919284820557E-1   1.878207623958588E-1   2.709379494190216E-1   1.883679777383804E-1   2.706859409809113E-1  -7.632474303245544E-1   5.268325805664063E-1  
 1.236000000000000E7    -7.640772461891174E-1   5.311850309371948E-1   1.886062920093536E-1   2.714763283729553E-1   1.889425218105316E-1   2.712763845920563E-1  -7.628360390663147E-1   5.278701782226563E-1  
 1.238000000000000E7    -7.637867927551270E-1   5.323790907859802E-1   1.892974376678467E-1   2.719594538211823E-1   1.898652017116547E-1   2.719432115554810E-1  -7.617481946945190E-1   5.287779569625855E-1  
 1.240000000000000E7    -7.628340125083923E-1   5.334427356719971E-1   1.902630180120468E-1   2.719886898994446E-1   1.904554814100266E-1   2.718896269798279E-1  -7.607310414314270E-1   5.288918018341065E-1  
 1.242000000000000E7    -7.617372274398804E-1   5.336213707923889E-1   1.906619518995285E-1   2.724733650684357E-1   1.912013292312622E-1   2.721578180789948E-1  -7.600892782211304E-1   5.300143957138062E-1  
 1.244000000000000E7    -7.606366276741028E-1   5.346246957778931E-1   1.915220171213150E-1   2.729255259037018E-1   1.918243914842606E-1   2.726370990276337E-1  -7.593822479248047E-1   5.307829380035400E-1  
 1.246000000000000E7    -7.602906823158264E-1   5.351165533065796E-1   1.923276185989380E-1   2.732039093971252E-1   1.924643516540527E-1   2.731018364429474E-1  -7.583110928535461E-1   5.315834283828735E-1  
 1.248000000000000E7    -7.593488097190857E-1   5.361970067024231E-1   1.931652575731278E-1   2.732057571411133E-1   1.932914108037949E-1   2.732931077480316E-1  -7.576763629913330E-1   5.322105884552002E-1  
 1.250000000000000E7    -7.584795355796814E-1   5.366659760475159E-1   1.934254467487335E-1   2.736103236675263E-1   1.937496513128281E-1   2.737451791763306E-1  -7.568492889404297E-1   5.328727960586548E-1  
 1.252000000000000E7    -7.576667070388794E-1   5.379619598388672E-1   1.944549679756165E-1   2.739761769771576E-1   1.949079036712647E-1   2.737946808338165E-1  -7.559161782264710E-1   5.338724255561829E-1  
 1.254000000000000E7    -7.566166520118713E-1   5.382096171379089E-1   1.952383071184158E-1   2.739585936069489E-1   1.953487694263458E-1   2.739856243133545E-1  -7.549728751182556E-1   5.345915555953980E-1  
 1.256000000000000E7    -7.559720277786255E-1   5.392299890518189E-1   1.954680532217026E-1   2.747967839241028E-1   1.961968094110489E-1   2.746139764785767E-1  -7.542333006858826E-1   5.347940325737000E-1  
 1.258000000000000E7    -7.549241781234741E-1   5.399486422538757E-1   1.964424550533295E-1   2.748983502388001E-1   1.967631429433823E-1   2.748594284057617E-1  -7.534703016281128E-1   5.356077551841736E-1  
 1.260000000000000E7    -7.544085383415222E-1   5.403633713722229E-1   1.969073116779327E-1   2.753404378890991E-1   1.974340975284576E-1   2.754201292991638E-1  -7.525314688682556E-1   5.364520549774170E-1  
 1.262000000000000E7    -7.537221908569336E-1   5.410441756248474E-1   1.977153569459915E-1   2.756192386150360E-1   1.982094049453735E-1   2.755352556705475E-1  -7.520060539245606E-1   5.370988845825195E-1  
 1.264000000000000E7    -7.527873516082764E-1   5.415331721305847E-1   1.985532790422440E-1   2.760631442070007E-1   1.988676786422730E-1   2.759444415569305E-1  -7.510855793952942E-1   5.382819771766663E-1  
 1.266000000000000E7    -7.524199485778809E-1   5.420142412185669E-1   1.992658823728561E-1   2.764204740524292E-1   1.992929577827454E-1   2.761842608451843E-1  -7.500507831573486E-1   5.388383865356445E-1  
 1.268000000000000E7    -7.518292069435120E-1   5.435558557510376E-1   2.001699060201645E-1   2.769677639007568E-1   2.002589255571365E-1   2.766578197479248E-1  -7.493057250976563E-1   5.388650894165039E-1  
 1.270000000000000E7    -7.502086162567139E-1   5.441762208938599E-1   2.005585432052612E-1   2.770297825336456E-1   2.011003494262695E-1   2.767731547355652E-1  -7.485995888710022E-1   5.395246148109436E-1  
 1.272000000000000E7    -7.494352459907532E-1   5.443225502967835E-1   2.014512717723846E-1   2.774576544761658E-1   2.019644677639008E-1   2.773718237876892E-1  -7.480078935623169E-1   5.411059856414795E-1  
 1.274000000000000E7    -7.485049366950989E-1   5.450475811958313E-1   2.019589990377426E-1   2.777733802795410E-1   2.023875117301941E-1   2.774763405323029E-1  -7.471311092376709E-1   5.411986708641052E-1  
 1.276000000000000E7    -7.479853034019470E-1   5.459411740303040E-1   2.032127231359482E-1   2.780289053916931E-1   2.034095972776413E-1   2.777207493782044E-1  -7.456731200218201E-1   5.422863364219666E-1  
 1.278000000000000E7    -7.472534775733948E-1   5.469189286231995E-1   2.038747966289520E-1   2.784063518047333E-1   2.040689438581467E-1   2.780671715736389E-1  -7.451466917991638E-1   5.431090593338013E-1  
 1.280000000000000E7    -7.459575533866882E-1   5.477407574653626E-1   2.044685482978821E-1   2.785458266735077E-1   2.045779824256897E-1   2.783288061618805E-1  -7.442358136177063E-1   5.433533191680908E-1  
 1.282000000000000E7    -7.451781034469605E-1   5.480298399925232E-1   2.048828750848770E-1   2.788188457489014E-1   2.053641527891159E-1   2.790084779262543E-1  -7.436871528625488E-1   5.442286729812622E-1  
 1.284000000000000E7    -7.442498207092285E-1   5.491145253181458E-1   2.057028561830521E-1   2.795723974704742E-1   2.061344981193543E-1   2.789666652679443E-1  -7.428332567214966E-1   5.452579259872437E-1  
 1.286000000000000E7    -7.434138655662537E-1   5.493252277374268E-1   2.064988166093826E-1   2.796931564807892E-1   2.068480849266052E-1   2.794586718082428E-1  -7.417690753936768E-1   5.456994771957398E-1  
 1.288000000000000E7    -7.425447702407837E-1   5.503930449485779E-1   2.070467174053192E-1   2.800263762474060E-1   2.075833380222321E-1   2.795780003070831E-1  -7.412211894989014E-1   5.465602874755859E-1  
 1.290000000000000E7    -7.419820427894592E-1   5.504850149154663E-1   2.076553106307983E-1   2.803840339183807E-1   2.081096321344376E-1   2.799694538116455E-1  -7.402157783508301E-1   5.469617843627930E-1  
 1.292000000000000E7    -7.409109473228455E-1   5.514700412750244E-1   2.082430869340897E-1   2.805000841617584E-1   2.085497826337814E-1   2.803917229175568E-1  -7.394820451736450E-1   5.475288629531860E-1  
 1.294000000000000E7    -7.401542067527771E-1   5.524145364761353E-1   2.091116309165955E-1   2.810204923152924E-1   2.098500132560730E-1   2.806875407695770E-1  -7.384699583053589E-1   5.486834049224854E-1  
 1.296000000000000E7    -7.388948202133179E-1   5.530630946159363E-1   2.102407366037369E-1   2.814791798591614E-1   2.107280641794205E-1   2.808791399002075E-1  -7.380460500717163E-1   5.492879748344421E-1  
 1.298000000000000E7    -7.383593916893005E-1   5.538634657859802E-1   2.113744318485260E-1   2.813209891319275E-1   2.113001346588135E-1   2.812332808971405E-1  -7.366542816162109E-1   5.496577024459839E-1  
 1.300000000000000E7    -7.373941540718079E-1   5.546163320541382E-1   2.117537856101990E-1   2.818387746810913E-1   2.117704898118973E-1   2.816413044929504E-1  -7.355641722679138E-1   5.501215457916260E-1  
 1.302000000000000E7    -7.363392114639282E-1   5.556374788284302E-1   2.125945091247559E-1   2.817172110080719E-1   2.127538174390793E-1   2.816499173641205E-1  -7.347654104232788E-1   5.512515306472778E-1  
 1.304000000000000E7    -7.356832027435303E-1   5.561444759368897E-1   2.129286974668503E-1   2.826690673828125E-1   2.134609073400497E-1   2.820686697959900E-1  -7.340313792228699E-1   5.514979958534241E-1  
 1.306000000000000E7    -7.346982955932617E-1   5.571017265319824E-1   2.145268768072128E-1   2.824389040470123E-1   2.144896835088730E-1   2.824242413043976E-1  -7.331011891365051E-1   5.526983737945557E-1  
 1.308000000000000E7    -7.341768145561218E-1   5.575212836265564E-1   2.147259265184403E-1   2.827898263931274E-1   2.151528298854828E-1   2.827823460102081E-1  -7.322928905487061E-1   5.533610582351685E-1  
 1.310000000000000E7    -7.329597473144531E-1   5.578456521034241E-1   2.154777646064758E-1   2.833056449890137E-1   2.158916443586350E-1   2.828558683395386E-1  -7.315073609352112E-1   5.541162490844727E-1  
 1.312000000000000E7    -7.321197390556335E-1   5.587933063507080E-1   2.160853445529938E-1   2.835984230041504E-1   2.164971083402634E-1   2.835762500762940E-1  -7.310132384300232E-1   5.547174811363220E-1  
 1.314000000000000E7    -7.312112450599670E-1   5.597633719444275E-1   2.174182236194611E-1   2.841421663761139E-1   2.172067761421204E-1   2.840055823326111E-1  -7.301289439201355E-1   5.552467107772827E-1  
 1.316000000000000E7    -7.302587628364563E-1   5.604315400123596E-1   2.176951915025711E-1   2.844687402248383E-1   2.181686758995056E-1   2.839909195899963E-1  -7.289835214614868E-1   5.560296177864075E-1  
 1.318000000000000E7    -7.294378876686096E-1   5.609954595565796E-1   2.188947498798370E-1   2.847533822059631E-1   2.191314995288849E-1   2.847231030464172E-1  -7.285192012786865E-1   5.572415590286255E-1  
 1.320000000000000E7    -7.284922003746033E-1   5.615010261535645E-1   2.194420099258423E-1   2.848676443099976E-1   2.196151614189148E-1   2.843873202800751E-1  -7.269541025161743E-1   5.576041936874390E-1  
 1.322000000000000E7    -7.273181676864624E-1   5.621336102485657E-1   2.201949506998062E-1   2.852701544761658E-1   2.205110937356949E-1   2.848699390888214E-1  -7.261990904808044E-1   5.583997368812561E-1  
 1.324000000000000E7    -7.269304990768433E-1   5.630001425743103E-1   2.209107279777527E-1   2.853865921497345E-1   2.212986499071121E-1   2.850714325904846E-1  -7.250485420227051E-1   5.587363243103027E-1  
 1.326000000000000E7    -7.260282635688782E-1   5.637853741645813E-1   2.219530344009399E-1   2.857045531272888E-1   2.219972461462021E-1   2.858346700668335E-1  -7.246408462524414E-1   5.595648884773254E-1  
 1.328000000000000E7    -7.249783277511597E-1   5.644040703773499E-1   2.224635183811188E-1   2.861848175525665E-1   2.226826101541519E-1   2.858448624610901E-1  -7.236912250518799E-1   5.602827668190002E-1  
 1.330000000000000E7    -7.241256833076477E-1   5.648435950279236E-1   2.231447249650955E-1   2.864533066749573E-1   2.235665172338486E-1   2.862442135810852E-1  -7.230179309844971E-1   5.608568787574768E-1  
 1.332000000000000E7    -7.231328487396240E-1   5.658394694328308E-1   2.238875329494476E-1   2.869458496570587E-1   2.244466394186020E-1   2.863863110542297E-1  -7.218486666679382E-1   5.617140531539917E-1  
 1.334000000000000E7    -7.225732803344727E-1   5.661038756370544E-1   2.247313559055328E-1   2.874647378921509E-1   2.249902635812759E-1   2.868623137474060E-1  -7.209539413452148E-1   5.625379681587219E-1  
 1.336000000000000E7    -7.213082313537598E-1   5.669792890548706E-1   2.256036847829819E-1   2.874795198440552E-1   2.254572063684464E-1   2.870765328407288E-1  -7.201966047286987E-1   5.630572438240051E-1  
 1.338000000000000E7    -7.206462621688843E-1   5.678392648696899E-1   2.263065874576569E-1   2.876711189746857E-1   2.268372327089310E-1   2.875375151634216E-1  -7.192137837409973E-1   5.639052391052246E-1  
 1.340000000000000E7    -7.196358442306519E-1   5.682584643363953E-1   2.273894101381302E-1   2.880609631538391E-1   2.276231646537781E-1   2.877939045429230E-1  -7.179654836654663E-1   5.647202730178833E-1  
 1.342000000000000E7    -7.184211015701294E-1   5.689298510551453E-1   2.280377298593521E-1   2.883098125457764E-1   2.283426076173782E-1   2.879802286624908E-1  -7.176079154014587E-1   5.652077198028565E-1  
 1.344000000000000E7    -7.179679274559021E-1   5.698925256729126E-1   2.285321950912476E-1   2.883091866970062E-1   2.287261933088303E-1   2.881171405315399E-1  -7.160093784332275E-1   5.654857754707336E-1  
 1.346000000000000E7    -7.170239090919495E-1   5.709377527236939E-1   2.296487390995026E-1   2.888226509094238E-1   2.299253046512604E-1   2.886055707931519E-1  -7.155765891075134E-1   5.659942626953125E-1  
 1.348000000000000E7    -7.156158685684204E-1   5.713118314743042E-1   2.301774173974991E-1   2.887599468231201E-1   2.306807786226273E-1   2.887307703495026E-1  -7.149093747138977E-1   5.670868754386902E-1  
 1.350000000000000E7    -7.149772047996521E-1   5.714747309684753E-1   2.308129817247391E-1   2.892541587352753E-1   2.315882295370102E-1   2.888669073581696E-1  -7.132700085639954E-1   5.678260326385498E-1  
 1.352000000000000E7    -7.139621376991272E-1   5.724565982818604E-1   2.320691198110580E-1   2.893795073032379E-1   2.321080863475800E-1   2.892515957355499E-1  -7.124916911125183E-1   5.682169198989868E-1  
 1.354000000000000E7    -7.130181789398193E-1   5.732259750366211E-1   2.327918112277985E-1   2.895392775535584E-1   2.330915778875351E-1   2.895225584506989E-1  -7.112983465194702E-1   5.687429904937744E-1  
 1.356000000000000E7    -7.121464014053345E-1   5.737509131431580E-1   2.332002073526382E-1   2.899210751056671E-1   2.335733771324158E-1   2.897527217864990E-1  -7.105095386505127E-1   5.697138905525208E-1  
 1.358000000000000E7    -7.112579941749573E-1   5.744376778602600E-1   2.344897538423538E-1   2.905455529689789E-1   2.348097264766693E-1   2.903354167938232E-1  -7.099233269691467E-1   5.705574154853821E-1  
 1.360000000000000E7    -7.102675437927246E-1   5.756608843803406E-1   2.352418303489685E-1   2.909211516380310E-1   2.354590892791748E-1   2.908027768135071E-1  -7.087985873222351E-1   5.710925459861755E-1  
 1.362000000000000E7    -7.097697854042053E-1   5.760314464569092E-1   2.358492016792297E-1   2.912415266036987E-1   2.366962879896164E-1   2.911448180675507E-1  -7.078824639320374E-1   5.717687606811523E-1  
 1.364000000000000E7    -7.085963487625122E-1   5.764926671981812E-1   2.365679293870926E-1   2.912712395191193E-1   2.367528975009918E-1   2.910360097885132E-1  -7.069043517112732E-1   5.720124244689941E-1  
 1.366000000000000E7    -7.075406908988953E-1   5.773358345031738E-1   2.373420149087906E-1   2.916663885116577E-1   2.379307150840759E-1   2.916190326213837E-1  -7.063242793083191E-1   5.728098154067993E-1  
 1.368000000000000E7    -7.065352797508240E-1   5.781072974205017E-1   2.382535040378571E-1   2.917515337467194E-1   2.387651801109314E-1   2.917048633098602E-1  -7.055012583732605E-1   5.735650062561035E-1  
 1.370000000000000E7    -7.055150270462036E-1   5.785526037216187E-1   2.392495274543762E-1   2.923422157764435E-1   2.395582795143127E-1   2.918287217617035E-1  -7.041480541229248E-1   5.743528604507446E-1  
 1.372000000000000E7    -7.050321698188782E-1   5.790567994117737E-1   2.395707964897156E-1   2.926476895809174E-1   2.401832491159439E-1   2.922379970550537E-1  -7.035914063453674E-1   5.748047232627869E-1  
 1.374000000000000E7    -7.037277817726135E-1   5.796359181404114E-1   2.407053560018539E-1   2.927509248256683E-1   2.407539784908295E-1   2.925319373607636E-1  -7.025824189186096E-1   5.753867626190186E-1  
 1.376000000000000E7    -7.029315233230591E-1   5.804923772811890E-1   2.415926903486252E-1   2.932740151882172E-1   2.421293109655380E-1   2.927186489105225E-1  -7.015646696090698E-1   5.763094425201416E-1  
 1.378000000000000E7    -7.019162178039551E-1   5.813386440277100E-1   2.421654015779495E-1   2.928709983825684E-1   2.425493597984314E-1   2.929639816284180E-1  -7.002428174018860E-1   5.764498710632324E-1  
 1.380000000000000E7    -7.007308006286621E-1   5.818724632263184E-1   2.432146966457367E-1   2.935088872909546E-1   2.434784024953842E-1   2.931659221649170E-1  -6.994682550430298E-1   5.776901841163635E-1  
 1.382000000000000E7    -6.998341679573059E-1   5.824730396270752E-1   2.440080791711807E-1   2.937057018280029E-1   2.441778928041458E-1   2.935145497322083E-1  -6.985727548599243E-1   5.778514146804810E-1  
 1.384000000000000E7    -6.989514231681824E-1   5.831981897354126E-1   2.447087764739990E-1   2.940105199813843E-1   2.452486157417297E-1   2.941676974296570E-1  -6.975727677345276E-1   5.785423517227173E-1  
 1.386000000000000E7    -6.983785033226013E-1   5.840249657630920E-1   2.458224743604660E-1   2.943343222141266E-1   2.459920793771744E-1   2.943062782287598E-1  -6.967109441757202E-1   5.795195698738098E-1  
 1.388000000000000E7    -6.971976757049561E-1   5.842080116271973E-1   2.462573498487473E-1   2.947468161582947E-1   2.467546015977860E-1   2.943206429481506E-1  -6.956920027732849E-1   5.803758502006531E-1  
 1.390000000000000E7    -6.956852078437805E-1   5.855188369750977E-1   2.475436329841614E-1   2.949869930744171E-1   2.479621618986130E-1   2.948982715606690E-1  -6.951867938041687E-1   5.808088779449463E-1  
 1.392000000000000E7    -6.954140663146973E-1   5.857491493225098E-1   2.481448054313660E-1   2.951440513134003E-1   2.484076768159866E-1   2.951616644859314E-1  -6.941602826118469E-1   5.814416408538818E-1  
 1.394000000000000E7    -6.940504312515259E-1   5.867345929145813E-1   2.492907792329788E-1   2.950300872325897E-1   2.498387396335602E-1   2.948784530162811E-1  -6.927327513694763E-1   5.821751356124878E-1  
 1.396000000000000E7    -6.928818225860596E-1   5.874107480049133E-1   2.500964105129242E-1   2.958050072193146E-1   2.505407929420471E-1   2.953677475452423E-1  -6.924062967300415E-1   5.830302238464356E-1  
 1.398000000000000E7    -6.922816634178162E-1   5.877502560615540E-1   2.505181431770325E-1   2.959008812904358E-1   2.511679232120514E-1   2.956020236015320E-1  -6.912540793418884E-1   5.834216475486755E-1  
 1.400000000000000E7    -6.917090415954590E-1   5.882557630538940E-1   2.513722181320190E-1   2.962247729301453E-1   2.520062923431397E-1   2.960317432880402E-1  -6.900749206542969E-1   5.841741561889648E-1  
 1.402000000000000E7    -6.905053853988648E-1   5.889805555343628E-1   2.526682913303375E-1   2.964119315147400E-1   2.527424097061157E-1   2.961070239543915E-1  -6.890364885330200E-1   5.845752358436585E-1  
 1.404000000000000E7    -6.893914937973023E-1   5.896652340888977E-1   2.534812092781067E-1   2.969968914985657E-1   2.533932030200958E-1   2.964137196540833E-1  -6.881671547889710E-1   5.857431888580322E-1  
 1.406000000000000E7    -6.882352828979492E-1   5.903958678245544E-1   2.538996934890747E-1   2.969502508640289E-1   2.544046342372894E-1   2.969082593917847E-1  -6.870601773262024E-1   5.863972902297974E-1  
 1.408000000000000E7    -6.877003312110901E-1   5.912162661552429E-1   2.551110982894898E-1   2.971343398094177E-1   2.556776106357575E-1   2.970499992370606E-1  -6.860581040382385E-1   5.868731737136841E-1  
 1.410000000000000E7    -6.864246129989624E-1   5.914835333824158E-1   2.559308111667633E-1   2.976383268833160E-1   2.561428546905518E-1   2.971875667572022E-1  -6.849913001060486E-1   5.877550244331360E-1  
 1.412000000000000E7    -6.852279305458069E-1   5.922984480857849E-1   2.566861510276794E-1   2.975269556045532E-1   2.572864890098572E-1   2.976418733596802E-1  -6.844907999038696E-1   5.881794095039368E-1  
 1.414000000000000E7    -6.844856142997742E-1   5.926321744918823E-1   2.578518092632294E-1   2.979312837123871E-1   2.581305205821991E-1   2.975033521652222E-1  -6.830045580863953E-1   5.889332294464111E-1  
 1.416000000000000E7    -6.833723187446594E-1   5.930875539779663E-1   2.586982548236847E-1   2.981585562229157E-1   2.588459551334381E-1   2.978737354278565E-1  -6.819031834602356E-1   5.896666049957275E-1  
 1.418000000000000E7    -6.821919083595276E-1   5.936803221702576E-1   2.592340707778931E-1   2.983793914318085E-1   2.594661116600037E-1   2.984047234058380E-1  -6.814169883728027E-1   5.899225473403931E-1  
 1.420000000000000E7    -6.814926862716675E-1   5.945081710815430E-1   2.604402601718903E-1   2.991248667240143E-1   2.605014145374298E-1   2.983499765396118E-1  -6.805572509765625E-1   5.910211205482483E-1  
 1.422000000000000E7    -6.804458498954773E-1   5.952108502388001E-1   2.610330879688263E-1   2.989405393600464E-1   2.615348100662231E-1   2.991807758808136E-1  -6.795603632926941E-1   5.911452174186707E-1  
 1.424000000000000E7    -6.793399453163147E-1   5.959224700927734E-1   2.617652118206024E-1   2.994624674320221E-1   2.620534896850586E-1   2.989338040351868E-1  -6.784726381301880E-1   5.918655991554260E-1  
 1.426000000000000E7    -6.783276200294495E-1   5.967458486557007E-1   2.626802027225494E-1   2.993837296962738E-1   2.632128596305847E-1   2.992040216922760E-1  -6.770724654197693E-1   5.925699472427368E-1  
 1.428000000000000E7    -6.775227785110474E-1   5.974205136299133E-1   2.634344100952148E-1   2.996807694435120E-1   2.641817033290863E-1   2.992172539234161E-1  -6.761581301689148E-1   5.930063128471375E-1  
 1.430000000000000E7    -6.765904426574707E-1   5.978220701217651E-1   2.645851075649262E-1   2.998678684234619E-1   2.651205360889435E-1   2.996705472469330E-1  -6.749787926673889E-1   5.934026241302490E-1  
 1.432000000000000E7    -6.749743819236755E-1   5.986597537994385E-1   2.655173540115356E-1   3.005185127258301E-1   2.660367786884308E-1   2.999063134193420E-1  -6.748810410499573E-1   5.941300392150879E-1  
 1.434000000000000E7    -6.741086840629578E-1   5.992941856384277E-1   2.665809988975525E-1   3.005888164043427E-1   2.669575214385986E-1   3.003346621990204E-1  -6.735621094703674E-1   5.953699350357056E-1  
 1.436000000000000E7    -6.738240122795105E-1   5.994867086410523E-1   2.669064104557037E-1   3.009380102157593E-1   2.674241662025452E-1   3.003333806991577E-1  -6.722867488861084E-1   5.957134366035461E-1  
 1.438000000000000E7    -6.722439527511597E-1   5.998568534851074E-1   2.680674493312836E-1   3.006552755832672E-1   2.680128514766693E-1   3.007231950759888E-1  -6.713041067123413E-1   5.963306427001953E-1  
 1.440000000000000E7    -6.714721322059631E-1   6.008561253547669E-1   2.687652707099915E-1   3.011613488197327E-1   2.693315744400024E-1   3.005337417125702E-1  -6.704334020614624E-1   5.968131422996521E-1  
 1.442000000000000E7    -6.704479455947876E-1   6.015500426292419E-1   2.702018320560455E-1   3.013636171817780E-1   2.705738842487335E-1   3.013616502285004E-1  -6.694527268409729E-1   5.977305173873901E-1  
 1.444000000000000E7    -6.694471836090088E-1   6.023867726325989E-1   2.708406746387482E-1   3.016775250434876E-1   2.711151838302612E-1   3.011089265346527E-1  -6.683293581008911E-1   5.980069041252136E-1  
 1.446000000000000E7    -6.682181954383850E-1   6.026697158813477E-1   2.714347541332245E-1   3.021010756492615E-1   2.717278301715851E-1   3.016255795955658E-1  -6.674880385398865E-1   5.983052849769592E-1  
 1.448000000000000E7    -6.670809984207153E-1   6.036261320114136E-1   2.721956372261047E-1   3.021638691425324E-1   2.727449536323547E-1   3.019340038299561E-1  -6.661503911018372E-1   5.990078449249268E-1  
 1.450000000000000E7    -6.662649512290955E-1   6.042129397392273E-1   2.735633850097656E-1   3.026152849197388E-1   2.737340033054352E-1   3.023658096790314E-1  -6.654270887374878E-1   5.998386144638062E-1  
 1.452000000000000E7    -6.652316451072693E-1   6.047217249870300E-1   2.742820084095001E-1   3.026345968246460E-1   2.747997045516968E-1   3.021108806133270E-1  -6.645151972770691E-1   6.000960469245911E-1  
 1.454000000000000E7    -6.639169454574585E-1   6.051557064056397E-1   2.753768265247345E-1   3.029065132141113E-1   2.757568955421448E-1   3.023647665977478E-1  -6.633795499801636E-1   6.010890007019043E-1  
 1.456000000000000E7    -6.632373332977295E-1   6.055160760879517E-1   2.759115695953369E-1   3.032875955104828E-1   2.761514186859131E-1   3.026929199695587E-1  -6.620991230010986E-1   6.014637947082520E-1  
 1.458000000000000E7    -6.619047522544861E-1   6.062015891075134E-1   2.770380377769470E-1   3.029329776763916E-1   2.773265540599823E-1   3.027510941028595E-1  -6.610516905784607E-1   6.022014617919922E-1  
 1.460000000000000E7    -6.610912680625916E-1   6.071895360946655E-1   2.780221104621887E-1   3.036478161811829E-1   2.782230973243713E-1   3.026835322380066E-1  -6.599707603454590E-1   6.027349829673767E-1  
 1.462000000000000E7    -6.598241329193115E-1   6.075559854507446E-1   2.790226638317108E-1   3.034597635269165E-1   2.794131934642792E-1   3.030291199684143E-1  -6.589359045028687E-1   6.034858822822571E-1  
 1.464000000000000E7    -6.593370437622070E-1   6.080594062805176E-1   2.801157832145691E-1   3.038227260112763E-1   2.802005708217621E-1   3.037685751914978E-1  -6.579832434654236E-1   6.043217778205872E-1  
 1.466000000000000E7    -6.575681567192078E-1   6.084607839584351E-1   2.805821895599365E-1   3.041175603866577E-1   2.809607088565826E-1   3.040079474449158E-1  -6.571512818336487E-1   6.044791936874390E-1  
 1.468000000000000E7    -6.569566130638123E-1   6.095018386840820E-1   2.816928625106812E-1   3.042553663253784E-1   2.821469008922577E-1   3.042913377285004E-1  -6.562199592590332E-1   6.048192977905273E-1  
 1.470000000000000E7    -6.557081341743469E-1   6.100365519523621E-1   2.827326059341431E-1   3.042871356010437E-1   2.831071317195892E-1   3.041245937347412E-1  -6.548743247985840E-1   6.054393053054810E-1  
 1.472000000000000E7    -6.549569964408875E-1   6.102091670036316E-1   2.834647595882416E-1   3.045895099639893E-1   2.840825021266937E-1   3.046143054962158E-1  -6.539016962051392E-1   6.064030528068543E-1  
 1.474000000000000E7    -6.536735296249390E-1   6.108404994010925E-1   2.846136689186096E-1   3.046299517154694E-1   2.849915623664856E-1   3.046064376831055E-1  -6.524990200996399E-1   6.069757342338562E-1  
 1.476000000000000E7    -6.524864435195923E-1   6.118988394737244E-1   2.854956388473511E-1   3.053891062736511E-1   2.858992815017700E-1   3.049497604370117E-1  -6.521517634391785E-1   6.077968478202820E-1  
 1.478000000000000E7    -6.516157984733582E-1   6.123170852661133E-1   2.861070930957794E-1   3.053025007247925E-1   2.863802611827850E-1   3.051112890243530E-1  -6.507177948951721E-1   6.082004308700562E-1  
 1.480000000000000E7    -6.502345800399780E-1   6.129876971244812E-1   2.871696949005127E-1   3.056065738201141E-1   2.874003946781158E-1   3.054753541946411E-1  -6.497423648834229E-1   6.089348793029785E-1  
 1.482000000000000E7    -6.495309472084045E-1   6.137660741806030E-1   2.885123193264008E-1   3.060971796512604E-1   2.886037826538086E-1   3.057069480419159E-1  -6.490043997764587E-1   6.094173789024353E-1  
 1.484000000000000E7    -6.484983563423157E-1   6.144206523895264E-1   2.893501818180084E-1   3.061870932579041E-1   2.898016870021820E-1   3.055143654346466E-1  -6.471996903419495E-1   6.103758811950684E-1  
 1.486000000000000E7    -6.475991010665894E-1   6.147713065147400E-1   2.900842726230621E-1   3.063599169254303E-1   2.903974056243897E-1   3.061839044094086E-1  -6.466054916381836E-1   6.102319359779358E-1  
 1.488000000000000E7    -6.464302539825440E-1   6.153432130813599E-1   2.909646034240723E-1   3.065212070941925E-1   2.914676070213318E-1   3.060092031955719E-1  -6.456725597381592E-1   6.108518838882446E-1  
 1.490000000000000E7    -6.449850201606751E-1   6.159166097640991E-1   2.918953299522400E-1   3.065544068813324E-1   2.924975156784058E-1   3.063233494758606E-1  -6.442800760269165E-1   6.114646792411804E-1  
 1.492000000000000E7    -6.437695622444153E-1   6.162892580032349E-1   2.928110957145691E-1   3.068265914916992E-1   2.934431731700897E-1   3.060861527919769E-1  -6.434041857719421E-1   6.124177575111389E-1  
 1.494000000000000E7    -6.431618928909302E-1   6.175096631050110E-1   2.942394018173218E-1   3.069370388984680E-1   2.943861186504364E-1   3.065607249736786E-1  -6.420457363128662E-1   6.127648949623108E-1  
 1.496000000000000E7    -6.418232321739197E-1   6.174930930137634E-1   2.948561906814575E-1   3.071560859680176E-1   2.953812777996063E-1   3.068523406982422E-1  -6.412549018859863E-1   6.134233474731445E-1  
 1.498000000000000E7    -6.408697366714478E-1   6.180436015129089E-1   2.954458296298981E-1   3.073169887065888E-1   2.963453233242035E-1   3.069736063480377E-1  -6.399604082107544E-1   6.141884922981262E-1  
 1.500000000000000E7    -6.400109529495239E-1   6.186869144439697E-1   2.969561219215393E-1   3.076611459255219E-1   2.971501946449280E-1   3.074619472026825E-1  -6.390357613563538E-1   6.149659752845764E-1  
 1.502000000000000E7    -6.387181878089905E-1   6.193315386772156E-1   2.978344559669495E-1   3.079726696014404E-1   2.977019548416138E-1   3.073480129241943E-1  -6.379034519195557E-1   6.155099272727966E-1  
 1.504000000000000E7    -6.375750899314880E-1   6.201611757278442E-1   2.990432381629944E-1   3.081423044204712E-1   2.995219826698303E-1   3.077887892723084E-1  -6.372679471969605E-1   6.161335110664368E-1  
 1.506000000000000E7    -6.367766857147217E-1   6.202853322029114E-1   2.998884618282318E-1   3.081684410572052E-1   2.998135089874268E-1   3.078962564468384E-1  -6.355059146881104E-1   6.165988445281982E-1  
 1.508000000000000E7    -6.356129050254822E-1   6.211568713188171E-1   3.007806241512299E-1   3.086756169795990E-1   3.008899688720703E-1   3.080233931541443E-1  -6.345137953758240E-1   6.172044277191162E-1  
 1.510000000000000E7    -6.344244480133057E-1   6.215472817420960E-1   3.017175197601318E-1   3.086452782154083E-1   3.020462989807129E-1   3.083757162094116E-1  -6.336994171142578E-1   6.176048517227173E-1  
 1.512000000000000E7    -6.333441138267517E-1   6.217648983001709E-1   3.029150962829590E-1   3.085649311542511E-1   3.031554818153381E-1   3.083922564983368E-1  -6.325256228446960E-1   6.185827851295471E-1  
 1.514000000000000E7    -6.324348449707031E-1   6.231249570846558E-1   3.035057485103607E-1   3.089531660079956E-1   3.042176961898804E-1   3.089385628700256E-1  -6.321468949317932E-1   6.184315085411072E-1  
 1.516000000000000E7    -6.309401392936707E-1   6.233369708061218E-1   3.048048615455627E-1   3.090249598026276E-1   3.047603368759155E-1   3.092428147792816E-1  -6.306689977645874E-1   6.193573474884033E-1  
 1.518000000000000E7    -6.302063465118408E-1   6.233632564544678E-1   3.054552376270294E-1   3.096361756324768E-1   3.057458698749542E-1   3.091613948345184E-1  -6.291265487670898E-1   6.202673912048340E-1  
 1.520000000000000E7    -6.286283731460571E-1   6.245248913764954E-1   3.067776560783386E-1   3.090996742248535E-1   3.071146011352539E-1   3.092346787452698E-1  -6.278830766677856E-1   6.202712655067444E-1  
 1.522000000000000E7    -6.278554797172546E-1   6.252789497375488E-1   3.077411055564880E-1   3.097357153892517E-1   3.079439103603363E-1   3.092194199562073E-1  -6.270104646682739E-1   6.211969852447510E-1  
 1.524000000000000E7    -6.263855099678040E-1   6.255971193313599E-1   3.083036243915558E-1   3.098627924919128E-1   3.087925016880035E-1   3.093349039554596E-1  -6.259552836418152E-1   6.217972040176392E-1  
 1.526000000000000E7    -6.255846023559570E-1   6.264006495475769E-1   3.099593818187714E-1   3.099207580089569E-1   3.100273609161377E-1   3.097223639488220E-1  -6.248883605003357E-1   6.224957704544067E-1  
 1.528000000000000E7    -6.243036985397339E-1   6.270648241043091E-1   3.107634782791138E-1   3.101740181446075E-1   3.114024996757507E-1   3.100738525390625E-1  -6.238496303558350E-1   6.231825947761536E-1  
 1.530000000000000E7    -6.234079599380493E-1   6.274968981742859E-1   3.113048374652863E-1   3.102456331253052E-1   3.120129108428955E-1   3.098965883255005E-1  -6.219682693481445E-1   6.230779290199280E-1  
 1.532000000000000E7    -6.222460269927979E-1   6.274914741516113E-1   3.123025596141815E-1   3.103095293045044E-1   3.128007650375366E-1   3.102401196956635E-1  -6.211279034614563E-1   6.236631870269775E-1  
 1.534000000000000E7    -6.208488345146179E-1   6.284531950950623E-1   3.134359121322632E-1   3.107657134532929E-1   3.137304484844208E-1   3.103505671024323E-1  -6.208302974700928E-1   6.241294145584106E-1  
 1.536000000000000E7    -6.199522018432617E-1   6.290148496627808E-1   3.144211173057556E-1   3.109192550182343E-1   3.150051236152649E-1   3.106939792633057E-1  -6.189902424812317E-1   6.249771714210510E-1  
 1.538000000000000E7    -6.187394261360169E-1   6.298997998237610E-1   3.157403469085693E-1   3.109344840049744E-1   3.159488737583160E-1   3.105306327342987E-1  -6.178497076034546E-1   6.253643631935120E-1  
 1.540000000000000E7    -6.175721287727356E-1   6.300435662269592E-1   3.163765370845795E-1   3.108894228935242E-1   3.168861567974091E-1   3.106436729431152E-1  -6.164883971214294E-1   6.258826851844788E-1  
 1.542000000000000E7    -6.162515282630920E-1   6.302686929702759E-1   3.175919651985169E-1   3.109477460384369E-1   3.179211318492889E-1   3.108568787574768E-1  -6.150116920471191E-1   6.266246438026428E-1  
 1.544000000000000E7    -6.155065894126892E-1   6.315146684646606E-1   3.188257813453674E-1   3.111884593963623E-1   3.189055621623993E-1   3.109385967254639E-1  -6.143858432769775E-1   6.268643736839294E-1  
 1.546000000000000E7    -6.144530177116394E-1   6.314831376075745E-1   3.197102844715118E-1   3.111985921859741E-1   3.203398883342743E-1   3.111889958381653E-1  -6.132164597511292E-1   6.275239586830139E-1  
 1.548000000000000E7    -6.130526065826416E-1   6.323783397674561E-1   3.208534717559815E-1   3.120923638343811E-1   3.211623430252075E-1   3.114727437496185E-1  -6.122184395790100E-1   6.283148527145386E-1  
 1.550000000000000E7    -6.118381023406982E-1   6.326923370361328E-1   3.216189742088318E-1   3.118793070316315E-1   3.218287527561188E-1   3.113189935684204E-1  -6.109382510185242E-1   6.287110447883606E-1  
 1.552000000000000E7    -6.108136773109436E-1   6.333585977554321E-1   3.229233324527741E-1   3.120289444923401E-1   3.232066631317139E-1   3.117393851280212E-1  -6.101240515708923E-1   6.291390657424927E-1  
 1.554000000000000E7    -6.099880337715149E-1   6.341266632080078E-1   3.232673406600952E-1   3.125833868980408E-1   3.244965672492981E-1   3.118190467357636E-1  -6.087015271186829E-1   6.300224661827087E-1  
 1.556000000000000E7    -6.085915565490723E-1   6.341303586959839E-1   3.246233463287354E-1   3.124468922615051E-1   3.248779773712158E-1   3.120802044868469E-1  -6.076995134353638E-1   6.299930214881897E-1  
 1.558000000000000E7    -6.078940033912659E-1   6.350514888763428E-1   3.258225321769714E-1   3.128324747085571E-1   3.266474604606628E-1   3.122518360614777E-1  -6.062119603157044E-1   6.308838725090027E-1  
 1.560000000000000E7    -6.060907840728760E-1   6.354245543479919E-1   3.266941308975220E-1   3.124835193157196E-1   3.275057077407837E-1   3.124538958072662E-1  -6.055159568786621E-1   6.316227316856384E-1  
 1.562000000000000E7    -6.050430536270142E-1   6.358158588409424E-1   3.277438282966614E-1   3.125690221786499E-1   3.276956975460053E-1   3.123337030410767E-1  -6.037495732307434E-1   6.312687993049622E-1  
 1.564000000000000E7    -6.039486527442932E-1   6.362915635108948E-1   3.286950290203095E-1   3.131626844406128E-1   3.291777968406677E-1   3.125658929347992E-1  -6.033770442008972E-1   6.317309141159058E-1  
 1.566000000000000E7    -6.026995778083801E-1   6.374720931053162E-1   3.300794661045075E-1   3.129870891571045E-1   3.302971720695496E-1   3.126397132873535E-1  -6.022380590438843E-1   6.320664882659912E-1  
 1.568000000000000E7    -6.016291379928589E-1   6.376786231994629E-1   3.312343955039978E-1   3.129150867462158E-1   3.313328921794891E-1   3.126673400402069E-1  -6.004979014396668E-1   6.333608627319336E-1  
 1.570000000000000E7    -6.003401279449463E-1   6.384026408195496E-1   3.324868977069855E-1   3.133364021778107E-1   3.324944674968720E-1   3.128591775894165E-1  -5.990056395530701E-1   6.340706348419190E-1  
 1.572000000000000E7    -5.988440513610840E-1   6.390030384063721E-1   3.329801857471466E-1   3.132336139678955E-1   3.340979814529419E-1   3.130409121513367E-1  -5.986081957817078E-1   6.341531276702881E-1  
 1.574000000000000E7    -5.979263782501221E-1   6.389341354370117E-1   3.341984450817108E-1   3.137817084789276E-1   3.345893025398254E-1   3.132169842720032E-1  -5.970681309700012E-1   6.349363327026367E-1  
 1.576000000000000E7    -5.968515872955322E-1   6.399668455123901E-1   3.355068266391754E-1   3.135646879673004E-1   3.358834385871887E-1   3.132435381412506E-1  -5.956805944442749E-1   6.350874900817871E-1  
 1.578000000000000E7    -5.956329107284546E-1   6.400713920593262E-1   3.360708355903626E-1   3.140326738357544E-1   3.361029624938965E-1   3.133441805839539E-1  -5.945968627929688E-1   6.358311176300049E-1  
 1.580000000000000E7    -5.942072868347168E-1   6.404689550399780E-1   3.375668823719025E-1   3.141382634639740E-1   3.377961516380310E-1   3.136197924613953E-1  -5.937228202819824E-1   6.366373300552368E-1  
 1.582000000000000E7    -5.930380821228027E-1   6.410666108131409E-1   3.382847309112549E-1   3.140146434307098E-1   3.388381898403168E-1   3.133993148803711E-1  -5.925073027610779E-1   6.372148394584656E-1  
 1.584000000000000E7    -5.919716358184815E-1   6.411030888557434E-1   3.393338918685913E-1   3.142122924327850E-1   3.398433327674866E-1   3.138963878154755E-1  -5.911170244216919E-1   6.375454664230347E-1  
 1.586000000000000E7    -5.908665657043457E-1   6.421584486961365E-1   3.406236171722412E-1   3.143871128559113E-1   3.407858610153198E-1   3.138637840747833E-1  -5.899126529693604E-1   6.377274394035339E-1  
 1.588000000000000E7    -5.896124839782715E-1   6.423050761222839E-1   3.417287766933441E-1   3.143198192119598E-1   3.421377837657929E-1   3.140053451061249E-1  -5.892001986503601E-1   6.383613348007202E-1  
 1.590000000000000E7    -5.882738828659058E-1   6.427265405654907E-1   3.426630198955536E-1   3.146298527717590E-1   3.428917825222015E-1   3.139702081680298E-1  -5.875645875930786E-1   6.386404037475586E-1  
 1.592000000000000E7    -5.868563652038574E-1   6.440696716308594E-1   3.438639342784882E-1   3.142313361167908E-1   3.441029787063599E-1   3.138863444328308E-1  -5.864704251289368E-1   6.392036676406860E-1  
 1.594000000000000E7    -5.857490897178650E-1   6.442822217941284E-1   3.448384404182434E-1   3.143513500690460E-1   3.454456329345703E-1   3.140791058540344E-1  -5.850559473037720E-1   6.393830180168152E-1  
 1.596000000000000E7    -5.849357247352600E-1   6.442083716392517E-1   3.461812436580658E-1   3.144403100013733E-1   3.456211984157562E-1   3.145131468772888E-1  -5.841032266616821E-1   6.405225396156311E-1  
 1.598000000000000E7    -5.830974578857422E-1   6.448395848274231E-1   3.470141291618347E-1   3.149551749229431E-1   3.470159471035004E-1   3.142839670181274E-1  -5.828327536582947E-1   6.413438320159912E-1  
 1.600000000000000E7    -5.825609564781189E-1   6.448432803153992E-1   3.481785058975220E-1   3.148757517337799E-1   3.482444882392883E-1   3.145001232624054E-1  -5.814129114151001E-1   6.416603922843933E-1  
 1.602000000000000E7    -5.814759731292725E-1   6.460375785827637E-1   3.493214547634125E-1   3.151223659515381E-1   3.497480452060700E-1   3.149669170379639E-1  -5.803750753402710E-1   6.422107219696045E-1  
 1.604000000000000E7    -5.797453522682190E-1   6.464976668357849E-1   3.501696884632111E-1   3.144012689590454E-1   3.503493070602417E-1   3.143972754478455E-1  -5.790300369262695E-1   6.419582366943359E-1  
 1.606000000000000E7    -5.785090923309326E-1   6.470385789871216E-1   3.514062762260437E-1   3.149072527885437E-1   3.519196510314941E-1   3.150679767131805E-1  -5.777693986892700E-1   6.429247260093689E-1  
 1.608000000000000E7    -5.775336027145386E-1   6.476646661758423E-1   3.523478806018829E-1   3.160228729248047E-1   3.527182936668396E-1   3.148656189441681E-1  -5.769057869911194E-1   6.429132819175720E-1  
 1.610000000000000E7    -5.765145421028137E-1   6.477654576301575E-1   3.540038168430328E-1   3.153518736362457E-1   3.543448746204376E-1   3.153290748596191E-1  -5.753152370452881E-1   6.439498662948608E-1  
 1.612000000000000E7    -5.750004053115845E-1   6.485846638679504E-1   3.547313809394836E-1   3.153391480445862E-1   3.552947342395783E-1   3.149676918983460E-1  -5.740500688552856E-1   6.440558433532715E-1  
 1.614000000000000E7    -5.739014148712158E-1   6.487064957618713E-1   3.555186092853546E-1   3.156426250934601E-1   3.559678494930267E-1   3.152563273906708E-1  -5.730230808258057E-1   6.446933746337891E-1  
 1.616000000000000E7    -5.723731517791748E-1   6.491823792457581E-1   3.569937646389008E-1   3.158203959465027E-1   3.574068546295166E-1   3.150546848773956E-1  -5.717068910598755E-1   6.454529762268066E-1  
 1.618000000000000E7    -5.711259245872498E-1   6.500969529151917E-1   3.581023514270783E-1   3.158909678459168E-1   3.588213026523590E-1   3.150262534618378E-1  -5.703180432319641E-1   6.458002328872681E-1  
 1.620000000000000E7    -5.697315931320190E-1   6.503930687904358E-1   3.595449924468994E-1   3.159186244010925E-1   3.598411083221436E-1   3.151177167892456E-1  -5.693856477737427E-1   6.460473537445068E-1  
 1.622000000000000E7    -5.690540075302124E-1   6.507774591445923E-1   3.603110313415527E-1   3.160587549209595E-1   3.608016371726990E-1   3.156073987483978E-1  -5.676453709602356E-1   6.466235518455505E-1  
 1.624000000000000E7    -5.674584507942200E-1   6.513441205024719E-1   3.617957234382629E-1   3.161394298076630E-1   3.618680834770203E-1   3.154519796371460E-1  -5.668892264366150E-1   6.471977233886719E-1  
 1.626000000000000E7    -5.658323168754578E-1   6.514807343482971E-1   3.624253869056702E-1   3.160039186477661E-1   3.628608286380768E-1   3.154253959655762E-1  -5.656395554542542E-1   6.480668783187866E-1  
 1.628000000000000E7    -5.649789571762085E-1   6.519533991813660E-1   3.637009561061859E-1   3.160228431224823E-1   3.638820350170136E-1   3.161990642547607E-1  -5.643554925918579E-1   6.480077505111694E-1  
 1.630000000000000E7    -5.638934969902039E-1   6.520166993141174E-1   3.647661805152893E-1   3.158473670482636E-1   3.653515577316284E-1   3.156535923480988E-1  -5.629302859306335E-1   6.484076380729675E-1  
 1.632000000000000E7    -5.625493526458740E-1   6.529687643051148E-1   3.657914400100708E-1   3.163373172283173E-1   3.659511208534241E-1   3.161526322364807E-1  -5.618295669555664E-1   6.484931707382202E-1  
 1.634000000000000E7    -5.613697767257690E-1   6.536727547645569E-1   3.673597574234009E-1   3.160901367664337E-1   3.672877550125122E-1   3.159030377864838E-1  -5.600422620773315E-1   6.488658189773560E-1  
 1.636000000000000E7    -5.596294999122620E-1   6.536692976951599E-1   3.683606982231140E-1   3.163637220859528E-1   3.685067296028137E-1   3.158426284790039E-1  -5.593287348747253E-1   6.500762104988098E-1  
 1.638000000000000E7    -5.586102008819580E-1   6.541147232055664E-1   3.693948388099670E-1   3.164353072643280E-1   3.695487380027771E-1   3.158088028430939E-1  -5.581263303756714E-1   6.498932242393494E-1  
 1.640000000000000E7    -5.573809146881104E-1   6.545056104660034E-1   3.702584207057953E-1   3.163112998008728E-1   3.708323240280151E-1   3.162764906883240E-1  -5.567879080772400E-1   6.511639952659607E-1  
 1.642000000000000E7    -5.558635592460632E-1   6.554271578788757E-1   3.717946410179138E-1   3.160252571105957E-1   3.723326921463013E-1   3.157088160514832E-1  -5.550181269645691E-1   6.511433720588684E-1  
 1.644000000000000E7    -5.545892119407654E-1   6.555495262145996E-1   3.726639151573181E-1   3.164770901203156E-1   3.737101554870606E-1   3.159905672073364E-1  -5.547339320182800E-1   6.514853239059448E-1  
 1.646000000000000E7    -5.534133911132813E-1   6.561239957809448E-1   3.735625147819519E-1   3.159905076026917E-1   3.741337060928345E-1   3.158928453922272E-1  -5.524565577507019E-1   6.513600945472717E-1  
 1.648000000000000E7    -5.521332621574402E-1   6.564872264862061E-1   3.747836649417877E-1   3.167064785957336E-1   3.755562305450440E-1   3.162687122821808E-1  -5.518283843994141E-1   6.521478891372681E-1  
 1.650000000000000E7    -5.509864091873169E-1   6.570438742637634E-1   3.765892088413239E-1   3.166269063949585E-1   3.768786787986755E-1   3.161733746528626E-1  -5.508309006690979E-1   6.526318788528442E-1  
 1.652000000000000E7    -5.499612092971802E-1   6.572815179824829E-1   3.776807188987732E-1   3.167163133621216E-1   3.777837753295898E-1   3.161352276802063E-1  -5.490562915802002E-1   6.532415151596069E-1  
 1.654000000000000E7    -5.484953522682190E-1   6.580478549003601E-1   3.785220980644226E-1   3.168267309665680E-1   3.789279460906982E-1   3.160747885704041E-1  -5.475659966468811E-1   6.538097262382507E-1  
 1.656000000000000E7    -5.467102527618408E-1   6.581166386604309E-1   3.796369433403015E-1   3.167293071746826E-1   3.799717128276825E-1   3.161183595657349E-1  -5.463817119598389E-1   6.537677049636841E-1  
 1.658000000000000E7    -5.454722046852112E-1   6.587097644805908E-1   3.804056048393250E-1   3.165807723999023E-1   3.812876939773560E-1   3.162176311016083E-1  -5.452635884284973E-1   6.545367836952210E-1  
 1.660000000000000E7    -5.444900989532471E-1   6.587206125259399E-1   3.817043602466583E-1   3.166343569755554E-1   3.820044398307800E-1   3.159112036228180E-1  -5.438845753669739E-1   6.550454497337341E-1  
 1.662000000000000E7    -5.429110527038574E-1   6.595671176910400E-1   3.834488391876221E-1   3.166792392730713E-1   3.838453888893127E-1   3.163740932941437E-1  -5.425956845283508E-1   6.553195714950562E-1  
 1.664000000000000E7    -5.417741537094116E-1   6.595511436462402E-1   3.840944170951843E-1   3.165587782859802E-1   3.851476907730103E-1   3.161298036575317E-1  -5.412459969520569E-1   6.555588245391846E-1  
 1.666000000000000E7    -5.405034422874451E-1   6.602693200111389E-1   3.856015205383301E-1   3.167022466659546E-1   3.858046829700470E-1   3.162125349044800E-1  -5.399517416954041E-1   6.558689475059509E-1  
 1.668000000000000E7    -5.395363569259644E-1   6.609155535697937E-1   3.870525658130646E-1   3.163685500621796E-1   3.869768381118774E-1   3.159224689006805E-1  -5.387449264526367E-1   6.565104126930237E-1  
 1.670000000000000E7    -5.376420617103577E-1   6.606358885765076E-1   3.880551457405090E-1   3.166567981243134E-1   3.881176710128784E-1   3.160750865936279E-1  -5.376449227333069E-1   6.568236351013184E-1  
 1.672000000000000E7    -5.365529060363770E-1   6.611155271530151E-1   3.892416954040527E-1   3.165293037891388E-1   3.895383477210999E-1   3.164868652820587E-1  -5.359963774681091E-1   6.572991609573364E-1  
 1.674000000000000E7    -5.351505279541016E-1   6.615470051765442E-1   3.903433680534363E-1   3.168901205062866E-1   3.908579647541046E-1   3.162112236022949E-1  -5.347706079483032E-1   6.577854156494141E-1  
 1.676000000000000E7    -5.339660644531250E-1   6.622786521911621E-1   3.918032348155975E-1   3.166389167308807E-1   3.917652964591980E-1   3.158794343471527E-1  -5.331508517265320E-1   6.580177545547485E-1  
 1.678000000000000E7    -5.325270891189575E-1   6.625116467475891E-1   3.921346664428711E-1   3.168054223060608E-1   3.927760720252991E-1   3.165548145771027E-1  -5.322095751762390E-1   6.586383581161499E-1  
 1.680000000000000E7    -5.310573577880859E-1   6.629153490066528E-1   3.941132724285126E-1   3.164571523666382E-1   3.941245079040527E-1   3.162138164043427E-1  -5.307437181472778E-1   6.589809060096741E-1  
 1.682000000000000E7    -5.301097631454468E-1   6.631575822830200E-1   3.955454230308533E-1   3.166244924068451E-1   3.953898549079895E-1   3.162923753261566E-1  -5.296511054039002E-1   6.591559052467346E-1  
 1.684000000000000E7    -5.286412835121155E-1   6.638465523719788E-1   3.965717256069183E-1   3.165726959705353E-1   3.965640068054199E-1   3.164713382720947E-1  -5.280962586402893E-1   6.596667766571045E-1  
 1.686000000000000E7    -5.272730588912964E-1   6.639341115951538E-1   3.976325094699860E-1   3.162398636341095E-1   3.978067934513092E-1   3.165908157825470E-1  -5.271940231323242E-1   6.599006056785584E-1  
 1.688000000000000E7    -5.257975459098816E-1   6.646110415458679E-1   3.988686800003052E-1   3.168742954730988E-1   3.993807435035706E-1   3.160597681999207E-1  -5.256438851356506E-1   6.607684493064880E-1  
 1.690000000000000E7    -5.248553752899170E-1   6.647233366966248E-1   3.998256027698517E-1   3.169740736484528E-1   4.002132117748261E-1   3.166987597942352E-1  -5.240835547447205E-1   6.606795787811279E-1  
 1.692000000000000E7    -5.234264731407166E-1   6.648200750350952E-1   4.013731777667999E-1   3.166942298412323E-1   4.015320539474487E-1   3.161583244800568E-1  -5.225023627281189E-1   6.615980863571167E-1  
 1.694000000000000E7    -5.222733020782471E-1   6.656894683837891E-1   4.025894999504089E-1   3.166218996047974E-1   4.030714631080627E-1   3.161665499210358E-1  -5.211492180824280E-1   6.613792181015015E-1  
 1.696000000000000E7    -5.206245183944702E-1   6.661045551300049E-1   4.036947488784790E-1   3.170095980167389E-1   4.040412306785584E-1   3.162999153137207E-1  -5.199487805366516E-1   6.617625355720520E-1  
 1.698000000000000E7    -5.191344022750855E-1   6.661614775657654E-1   4.048959016799927E-1   3.163243234157562E-1   4.055908918380737E-1   3.158891499042511E-1  -5.188490152359009E-1   6.617991328239441E-1  
 1.700000000000000E7    -5.184286832809448E-1   6.668189167976379E-1   4.061497151851654E-1   3.163640797138214E-1   4.065088629722595E-1   3.161287903785706E-1  -5.172771811485291E-1   6.623218655586243E-1  
 1.702000000000000E7    -5.164672136306763E-1   6.673261523246765E-1   4.076636433601379E-1   3.164173960685730E-1   4.078342616558075E-1   3.166007101535797E-1  -5.159666538238525E-1   6.633964776992798E-1  
 1.704000000000000E7    -5.151339769363403E-1   6.673804521560669E-1   4.084540903568268E-1   3.161225914955139E-1   4.089424312114716E-1   3.159904479980469E-1  -5.150477290153503E-1   6.632496714591980E-1  
 1.706000000000000E7    -5.133509039878845E-1   6.676518321037293E-1   4.098476171493530E-1   3.166184723377228E-1   4.102145731449127E-1   3.155556917190552E-1  -5.136123895645142E-1   6.640344262123108E-1  
 1.708000000000000E7    -5.126190781593323E-1   6.681486368179321E-1   4.116291105747223E-1   3.161752223968506E-1   4.112382829189301E-1   3.158035278320313E-1  -5.115609169006348E-1   6.639980673789978E-1  
 1.710000000000000E7    -5.110133886337280E-1   6.680151224136353E-1   4.124098718166351E-1   3.165443837642670E-1   4.123903512954712E-1   3.160883188247681E-1  -5.108614563941956E-1   6.648846864700317E-1  
 1.712000000000000E7    -5.096781253814697E-1   6.691143512725830E-1   4.139083921909332E-1   3.162063360214233E-1   4.140207171440125E-1   3.161069750785828E-1  -5.089733600616455E-1   6.646173000335693E-1  
 1.714000000000000E7    -5.080978274345398E-1   6.690512299537659E-1   4.145666956901550E-1   3.158661425113678E-1   4.150868058204651E-1   3.157360851764679E-1  -5.078530907630920E-1   6.652628183364868E-1  
 1.716000000000000E7    -5.067701935768127E-1   6.693322062492371E-1   4.166998267173767E-1   3.160953223705292E-1   4.162257313728333E-1   3.157623708248138E-1  -5.065742135047913E-1   6.657962799072266E-1  
 1.718000000000000E7    -5.056436061859131E-1   6.697431206703186E-1   4.174062013626099E-1   3.162785470485687E-1   4.175791442394257E-1   3.159592151641846E-1  -5.046997666358948E-1   6.655936241149902E-1  
 1.720000000000000E7    -5.041643381118774E-1   6.698034405708313E-1   4.184375703334808E-1   3.157237768173218E-1   4.186010360717773E-1   3.155007958412170E-1  -5.036137700080872E-1   6.661633253097534E-1  
 1.722000000000000E7    -5.025657415390015E-1   6.703413128852844E-1   4.199728369712830E-1   3.156364858150482E-1   4.203016161918640E-1   3.155831992626190E-1  -5.017815828323364E-1   6.665226817131043E-1  
 1.724000000000000E7    -5.007878541946411E-1   6.706806421279907E-1   4.211646318435669E-1   3.159545063972473E-1   4.213017523288727E-1   3.151128292083740E-1  -5.011689662933350E-1   6.663513779640198E-1  
 1.726000000000000E7    -4.996512234210968E-1   6.713124513626099E-1   4.223213195800781E-1   3.157816231250763E-1   4.224749803543091E-1   3.150901198387146E-1  -4.993725717067719E-1   6.670092344284058E-1  
 1.728000000000000E7    -4.985088407993317E-1   6.709999442100525E-1   4.237402677536011E-1   3.156265616416931E-1   4.236810803413391E-1   3.153184354305267E-1  -4.977076053619385E-1   6.673886775970459E-1  
 1.730000000000000E7    -4.965644776821137E-1   6.715559959411621E-1   4.250005185604096E-1   3.156037330627441E-1   4.249888658523560E-1   3.153402209281921E-1  -4.967375695705414E-1   6.675764918327332E-1  
 1.732000000000000E7    -4.953331947326660E-1   6.718940138816834E-1   4.260438084602356E-1   3.155948221683502E-1   4.269623160362244E-1   3.149615824222565E-1  -4.956278800964356E-1   6.682811975479126E-1  
 1.734000000000000E7    -4.946417510509491E-1   6.721431016921997E-1   4.275889396667481E-1   3.151828646659851E-1   4.279898405075073E-1   3.151263892650604E-1  -4.938079416751862E-1   6.681399345397949E-1  
 1.736000000000000E7    -4.929646253585815E-1   6.723958253860474E-1   4.284686148166657E-1   3.154358565807343E-1   4.289050102233887E-1   3.146753311157227E-1  -4.923327565193176E-1   6.690375804901123E-1  
 1.738000000000000E7    -4.909673333168030E-1   6.728079915046692E-1   4.299591183662415E-1   3.153046071529388E-1   4.301677942276001E-1   3.139667809009552E-1  -4.907934069633484E-1   6.686246395111084E-1  
 1.740000000000000E7    -4.901642203330994E-1   6.733068227767944E-1   4.317257404327393E-1   3.149529397487640E-1   4.311231374740601E-1   3.145422935485840E-1  -4.890735447406769E-1   6.690928339958191E-1  
 1.742000000000000E7    -4.884059429168701E-1   6.729057431221008E-1   4.327701628208160E-1   3.150314688682556E-1   4.323249757289887E-1   3.142825067043304E-1  -4.881944954395294E-1   6.694555878639221E-1  
 1.744000000000000E7    -4.874209165573120E-1   6.736572384834290E-1   4.343462586402893E-1   3.144405484199524E-1   4.338745474815369E-1   3.143123388290405E-1  -4.862577617168427E-1   6.693525910377502E-1  
 1.746000000000000E7    -4.861886799335480E-1   6.741255521774292E-1   4.354809522628784E-1   3.145831227302551E-1   4.353683888912201E-1   3.147373497486115E-1  -4.852917492389679E-1   6.699690818786621E-1  
 1.748000000000000E7    -4.839333891868591E-1   6.744881868362427E-1   4.365299046039581E-1   3.145176768302918E-1   4.369478523731232E-1   3.141239881515503E-1  -4.837211072444916E-1   6.701089143753052E-1  
 1.750000000000000E7    -4.827134013175964E-1   6.750577688217163E-1   4.374625086784363E-1   3.144916296005249E-1   4.375433027744293E-1   3.141448199748993E-1  -4.825329780578613E-1   6.702547669410706E-1  
 1.752000000000000E7    -4.813472628593445E-1   6.754654645919800E-1   4.391929507255554E-1   3.142668008804321E-1   4.394198656082153E-1   3.138438463211060E-1  -4.809591472148895E-1   6.708351373672485E-1  
 1.754000000000000E7    -4.802808165550232E-1   6.752100586891174E-1   4.407576322555542E-1   3.141922354698181E-1   4.405122101306915E-1   3.136601746082306E-1  -4.794633090496063E-1   6.714400649070740E-1  
 1.756000000000000E7    -4.784143269062042E-1   6.755899786949158E-1   4.418153464794159E-1   3.142710030078888E-1   4.422237277030945E-1   3.132352530956268E-1  -4.780249297618866E-1   6.712910532951355E-1  
 1.758000000000000E7    -4.770507514476776E-1   6.756810545921326E-1   4.428422152996063E-1   3.143774569034576E-1   4.430965781211853E-1   3.133347332477570E-1  -4.766522049903870E-1   6.715372204780579E-1  
 1.760000000000000E7    -4.757915735244751E-1   6.762627959251404E-1   4.443905949592590E-1   3.139515519142151E-1   4.447896480560303E-1   3.133016228675842E-1  -4.751301407814026E-1   6.718044877052307E-1  
 1.762000000000000E7    -4.742605984210968E-1   6.756141781806946E-1   4.459422230720520E-1   3.135508000850678E-1   4.459414482116699E-1   3.129389882087708E-1  -4.735455214977264E-1   6.721132397651672E-1  
 1.764000000000000E7    -4.727301001548767E-1   6.765387058258057E-1   4.472863078117371E-1   3.134390413761139E-1   4.470385015010834E-1   3.132241666316986E-1  -4.722415208816528E-1   6.724584698677063E-1  
 1.766000000000000E7    -4.712995290756226E-1   6.768398284912109E-1   4.485591650009155E-1   3.135465085506439E-1   4.485099613666534E-1   3.132839798927307E-1  -4.706507921218872E-1   6.726006865501404E-1  
 1.768000000000000E7    -4.698707163333893E-1   6.768679618835449E-1   4.494515359401703E-1   3.132876157760620E-1   4.498504400253296E-1   3.131350278854370E-1  -4.688577651977539E-1   6.728326082229614E-1  
 1.770000000000000E7    -4.681189954280853E-1   6.772235035896301E-1   4.509137272834778E-1   3.135268986225128E-1   4.512740671634674E-1   3.127816915512085E-1  -4.676060080528259E-1   6.730473637580872E-1  
 1.772000000000000E7    -4.669269025325775E-1   6.774244904518127E-1   4.521595239639282E-1   3.131624460220337E-1   4.526046514511108E-1   3.123776614665985E-1  -4.660192131996155E-1   6.730694174766541E-1  
 1.774000000000000E7    -4.648294448852539E-1   6.778624653816223E-1   4.535745978355408E-1   3.127689361572266E-1   4.544759392738342E-1   3.121163547039032E-1  -4.646907448768616E-1   6.733154654502869E-1  
 1.776000000000000E7    -4.636807143688202E-1   6.778028607368469E-1   4.549473822116852E-1   3.127335906028748E-1   4.550374448299408E-1   3.119563460350037E-1  -4.634293913841248E-1   6.739336848258972E-1  
 1.778000000000000E7    -4.623625278472900E-1   6.782456636428833E-1   4.561912715435028E-1   3.122127652168274E-1   4.563353657722473E-1   3.117369413375855E-1  -4.618430733680725E-1   6.739790439605713E-1  
 1.780000000000000E7    -4.607419073581696E-1   6.784745454788208E-1   4.573768675327301E-1   3.122246563434601E-1   4.580898880958557E-1   3.117586970329285E-1  -4.604462385177612E-1   6.743509769439697E-1  
 1.782000000000000E7    -4.593459069728851E-1   6.786729693412781E-1   4.589214920997620E-1   3.120291829109192E-1   4.589316844940186E-1   3.116600811481476E-1  -4.586625993251801E-1   6.742713451385498E-1  
 1.784000000000000E7    -4.578957557678223E-1   6.784493923187256E-1   4.606193602085114E-1   3.116329312324524E-1   4.606060683727264E-1   3.114603757858276E-1  -4.572548568248749E-1   6.750104427337647E-1  
 1.786000000000000E7    -4.560918509960175E-1   6.791940927505493E-1   4.618070721626282E-1   3.118612766265869E-1   4.616710841655731E-1   3.109763860702515E-1  -4.560441970825195E-1   6.745988726615906E-1  
 1.788000000000000E7    -4.550063312053680E-1   6.788191795349121E-1   4.631543159484863E-1   3.109527826309204E-1   4.631716310977936E-1   3.113150000572205E-1  -4.545240402221680E-1   6.757285594940186E-1  
 1.790000000000000E7    -4.535691142082214E-1   6.793840527534485E-1   4.642071723937988E-1   3.107398152351379E-1   4.648420214653015E-1   3.109652996063232E-1  -4.525462985038757E-1   6.755795478820801E-1  
 1.792000000000000E7    -4.519217014312744E-1   6.795899271965027E-1   4.657821953296661E-1   3.110368549823761E-1   4.659824967384338E-1   3.103912770748138E-1  -4.516035318374634E-1   6.753393411636353E-1  
 1.794000000000000E7    -4.504979848861694E-1   6.798003911972046E-1   4.669977128505707E-1   3.107392191886902E-1   4.675002098083496E-1   3.099916577339172E-1  -4.501335322856903E-1   6.756643056869507E-1  
 1.796000000000000E7    -4.486018717288971E-1   6.800633072853088E-1   4.684779047966003E-1   3.108792603015900E-1   4.688977003097534E-1   3.098192811012268E-1  -4.484648406505585E-1   6.760672330856323E-1  
 1.798000000000000E7    -4.477368891239166E-1   6.804680228233337E-1   4.700495004653931E-1   3.103630840778351E-1   4.703721106052399E-1   3.105086088180542E-1  -4.466804265975952E-1   6.758985519409180E-1  
 1.800000000000000E7    -4.457393288612366E-1   6.800439357757568E-1   4.716304242610931E-1   3.100920617580414E-1   4.716235995292664E-1   3.099672496318817E-1  -4.455422461032867E-1   6.765979528427124E-1  
 1.802000000000000E7    -4.447521269321442E-1   6.802846193313599E-1   4.724096357822418E-1   3.099987208843231E-1   4.731874763965607E-1   3.095611631870270E-1  -4.434632956981659E-1   6.762595176696777E-1  
 1.804000000000000E7    -4.422609210014343E-1   6.801190376281738E-1   4.739502966403961E-1   3.092654943466187E-1   4.742105007171631E-1   3.088313341140747E-1  -4.422784745693207E-1   6.763632893562317E-1  
 1.806000000000000E7    -4.413858056068420E-1   6.808733940124512E-1   4.750595688819885E-1   3.092789649963379E-1   4.754953980445862E-1   3.094048798084259E-1  -4.404624998569489E-1   6.763595342636108E-1  
 1.808000000000000E7    -4.400424659252167E-1   6.810491681098938E-1   4.767943322658539E-1   3.093971610069275E-1   4.768002927303314E-1   3.090122044086456E-1  -4.393006265163422E-1   6.767969727516174E-1  
 1.810000000000000E7    -4.382641017436981E-1   6.812527179718018E-1   4.785099625587463E-1   3.092626631259918E-1   4.781376421451569E-1   3.086403012275696E-1  -4.382656514644623E-1   6.767773628234863E-1  
 1.812000000000000E7    -4.369404911994934E-1   6.813256144523621E-1   4.793842434883118E-1   3.088728189468384E-1   4.799602031707764E-1   3.084757328033447E-1  -4.364559948444367E-1   6.776762008666992E-1  
 1.814000000000000E7    -4.351575076580048E-1   6.815588474273682E-1   4.812443554401398E-1   3.079008758068085E-1   4.812148213386536E-1   3.082752525806427E-1  -4.345045983791351E-1   6.775606870651245E-1  
 1.816000000000000E7    -4.335057139396668E-1   6.816362142562866E-1   4.824777841567993E-1   3.082271814346314E-1   4.825087487697601E-1   3.078316450119019E-1  -4.326139688491821E-1   6.777264475822449E-1  
 1.818000000000000E7    -4.318100810050964E-1   6.817759275436401E-1   4.834778904914856E-1   3.074843883514404E-1   4.838413596153259E-1   3.072112798690796E-1  -4.314934909343720E-1   6.774912476539612E-1  
 1.820000000000000E7    -4.301603138446808E-1   6.815539002418518E-1   4.848730266094208E-1   3.076768219470978E-1   4.854906797409058E-1   3.070455193519592E-1  -4.300263524055481E-1   6.775045990943909E-1  
 1.822000000000000E7    -4.291184544563294E-1   6.818277835845947E-1   4.866174459457398E-1   3.075299859046936E-1   4.867151677608490E-1   3.072259128093720E-1  -4.283893406391144E-1   6.775922775268555E-1  
 1.824000000000000E7    -4.266404509544373E-1   6.817392706871033E-1   4.877670407295227E-1   3.072060644626617E-1   4.882148802280426E-1   3.062096238136292E-1  -4.266660511493683E-1   6.779057383537293E-1  
 1.826000000000000E7    -4.258654117584229E-1   6.825225353240967E-1   4.895370304584503E-1   3.070141673088074E-1   4.895439147949219E-1   3.062100410461426E-1  -4.252750575542450E-1   6.780173778533936E-1  
 1.828000000000000E7    -4.244143664836884E-1   6.825002431869507E-1   4.906853735446930E-1   3.065885603427887E-1   4.914195537567139E-1   3.061399161815643E-1  -4.238156974315643E-1   6.783106923103333E-1  
 1.830000000000000E7    -4.222405254840851E-1   6.823462247848511E-1   4.924460053443909E-1   3.065959811210632E-1   4.923146069049835E-1   3.059707283973694E-1  -4.223138391971588E-1   6.784783601760864E-1  
 1.832000000000000E7    -4.209002256393433E-1   6.825656890869141E-1   4.937744140625000E-1   3.057101070880890E-1   4.935921430587769E-1   3.055184483528137E-1  -4.206983745098114E-1   6.786627769470215E-1  
 1.834000000000000E7    -4.191369116306305E-1   6.825392842292786E-1   4.951446056365967E-1   3.059986233711243E-1   4.949588179588318E-1   3.049788177013397E-1  -4.191258251667023E-1   6.786572933197022E-1  
 1.836000000000000E7    -4.177817702293396E-1   6.830781698226929E-1   4.965301156044006E-1   3.052833676338196E-1   4.968377351760864E-1   3.053868710994721E-1  -4.173860251903534E-1   6.785114407539368E-1  
 1.838000000000000E7    -4.163440465927124E-1   6.830008029937744E-1   4.983695745468140E-1   3.049820959568024E-1   4.980080425739288E-1   3.044879138469696E-1  -4.161576628684998E-1   6.788247823715210E-1  
 1.840000000000000E7    -4.144062697887421E-1   6.825845241546631E-1   4.992713034152985E-1   3.049476444721222E-1   4.990578591823578E-1   3.040269613265991E-1  -4.145379066467285E-1   6.786682605743408E-1  
 1.842000000000000E7    -4.128084480762482E-1   6.826996803283691E-1   5.013354420661926E-1   3.041884303092957E-1   5.009910464286804E-1   3.038564622402191E-1  -4.129229485988617E-1   6.788138747215271E-1  
 1.844000000000000E7    -4.115568399429321E-1   6.830157041549683E-1   5.020918250083923E-1   3.041549921035767E-1   5.018314719200134E-1   3.035110831260681E-1  -4.112197160720825E-1   6.788726449012756E-1  
 1.846000000000000E7    -4.096937775611877E-1   6.832823753356934E-1   5.032601356506348E-1   3.039265573024750E-1   5.035889744758606E-1   3.033094108104706E-1  -4.092271625995636E-1   6.786324977874756E-1  
 1.848000000000000E7    -4.081380665302277E-1   6.829119324684143E-1   5.047795176506043E-1   3.035010397434235E-1   5.050777196884155E-1   3.026775717735291E-1  -4.083877801895142E-1   6.788053512573242E-1  
 1.850000000000000E7    -4.070085883140564E-1   6.835364699363709E-1   5.065093040466309E-1   3.030993044376373E-1   5.067059397697449E-1   3.028301596641541E-1  -4.063186049461365E-1   6.787012219429016E-1  
 1.852000000000000E7    -4.049227833747864E-1   6.830456256866455E-1   5.079492330551148E-1   3.034670352935791E-1   5.082126259803772E-1   3.022727966308594E-1  -4.051443636417389E-1   6.794910430908203E-1  
 1.854000000000000E7    -4.036653041839600E-1   6.832195520401001E-1   5.097074508666992E-1   3.021349310874939E-1   5.099533200263977E-1   3.021837770938873E-1  -4.033082723617554E-1   6.795410513877869E-1  
 1.856000000000000E7    -4.017558097839356E-1   6.832472085952759E-1   5.111407637596130E-1   3.013922572135925E-1   5.110102891921997E-1   3.012576401233673E-1  -4.019012749195099E-1   6.797108054161072E-1  
 1.858000000000000E7    -4.007238149642944E-1   6.836833953857422E-1   5.125906467437744E-1   3.013179600238800E-1   5.128217935562134E-1   3.010890483856201E-1  -4.001013040542603E-1   6.790838241577148E-1  
 1.860000000000000E7    -3.989125192165375E-1   6.833239793777466E-1   5.139352679252625E-1   3.012908101081848E-1   5.140429139137268E-1   3.009806573390961E-1  -3.987092971801758E-1   6.795502305030823E-1  
 1.862000000000000E7    -3.969056606292725E-1   6.836671233177185E-1   5.157572627067566E-1   3.014484047889710E-1   5.156482458114624E-1   3.005897104740143E-1  -3.974346518516541E-1   6.794825792312622E-1  
 1.864000000000000E7    -3.951363563537598E-1   6.833562850952148E-1   5.170727372169495E-1   3.002821207046509E-1   5.169033408164978E-1   3.002761602401733E-1  -3.951833248138428E-1   6.799557209014893E-1  
 1.866000000000000E7    -3.937090039253235E-1   6.838810443878174E-1   5.182625651359558E-1   3.002038300037384E-1   5.187533497810364E-1   2.996813952922821E-1  -3.937373161315918E-1   6.795122027397156E-1  
 1.868000000000000E7    -3.923802375793457E-1   6.835924983024597E-1   5.196181535720825E-1   2.992579638957977E-1   5.196900963783264E-1   2.992947697639465E-1  -3.917276859283447E-1   6.790311336517334E-1  
 1.870000000000000E7    -3.904278576374054E-1   6.834911704063416E-1   5.209907293319702E-1   2.992303073406220E-1   5.216416120529175E-1   2.990208268165588E-1  -3.900389671325684E-1   6.793286800384522E-1  
 1.872000000000000E7    -3.884670138359070E-1   6.837936043739319E-1   5.225605964660645E-1   2.989877164363861E-1   5.228016972541809E-1   2.987470626831055E-1  -3.886044323444367E-1   6.796616315841675E-1  
 1.874000000000000E7    -3.870290219783783E-1   6.835460066795349E-1   5.242555141448975E-1   2.985238432884216E-1   5.241214632987976E-1   2.979685068130493E-1  -3.872120380401611E-1   6.796178817749023E-1  
 1.876000000000000E7    -3.854316174983978E-1   6.832142472267151E-1   5.256711244583130E-1   2.979858517646790E-1   5.252935886383057E-1   2.973840534687042E-1  -3.852683007717133E-1   6.796919107437134E-1  
 1.878000000000000E7    -3.839492499828339E-1   6.833725571632385E-1   5.273202657699585E-1   2.979724109172821E-1   5.271388292312622E-1   2.976146936416626E-1  -3.832096159458160E-1   6.800418496131897E-1  
 1.880000000000000E7    -3.822052776813507E-1   6.836118102073669E-1   5.286961793899536E-1   2.968613505363464E-1   5.286111235618591E-1   2.967599630355835E-1  -3.824520409107208E-1   6.794227361679077E-1  
 1.882000000000000E7    -3.800884485244751E-1   6.835938692092896E-1   5.307914614677429E-1   2.969799041748047E-1   5.302475094795227E-1   2.967746853828430E-1  -3.801520168781281E-1   6.797633767127991E-1  
 1.884000000000000E7    -3.789452314376831E-1   6.833785772323608E-1   5.317337512969971E-1   2.966582775115967E-1   5.317369103431702E-1   2.960101962089539E-1  -3.784838318824768E-1   6.798583269119263E-1  
 1.886000000000000E7    -3.772664070129395E-1   6.840123534202576E-1   5.333244800567627E-1   2.960302233695984E-1   5.332010984420776E-1   2.957960367202759E-1  -3.775178790092468E-1   6.795706748962402E-1  
 1.888000000000000E7    -3.754453659057617E-1   6.839407086372376E-1   5.345891714096069E-1   2.958011925220490E-1   5.349925160408020E-1   2.952901721000671E-1  -3.757300972938538E-1   6.792910695075989E-1  
 1.890000000000000E7    -3.739127814769745E-1   6.832629442214966E-1   5.359031558036804E-1   2.952651977539063E-1   5.361692905426025E-1   2.947301864624023E-1  -3.737711906433106E-1   6.798048615455627E-1  
 1.892000000000000E7    -3.724316358566284E-1   6.834914088249207E-1   5.375260114669800E-1   2.945123314857483E-1   5.372588038444519E-1   2.944260835647583E-1  -3.717460930347443E-1   6.797285079956055E-1  
 1.894000000000000E7    -3.704690635204315E-1   6.831985712051392E-1   5.393770337104797E-1   2.941576242446899E-1   5.389993190765381E-1   2.938657999038696E-1  -3.704106211662293E-1   6.792886257171631E-1  
 1.896000000000000E7    -3.691470026969910E-1   6.835328340530396E-1   5.405263900756836E-1   2.934471368789673E-1   5.403497815132141E-1   2.934477329254150E-1  -3.686467707157135E-1   6.792473196983337E-1  
 1.898000000000000E7    -3.674702048301697E-1   6.831440925598145E-1   5.418853163719177E-1   2.933313548564911E-1   5.423686504364014E-1   2.930976450443268E-1  -3.668246269226074E-1   6.793289780616760E-1  
 1.900000000000000E7    -3.660413324832916E-1   6.830542087554932E-1   5.437391996383667E-1   2.928505837917328E-1   5.436839461326599E-1   2.930120527744293E-1  -3.655343353748322E-1   6.788528561592102E-1  
 1.902000000000000E7    -3.640848994255066E-1   6.829409003257752E-1   5.452202558517456E-1   2.918433845043182E-1   5.453657507896423E-1   2.920306921005249E-1  -3.638768196105957E-1   6.789514422416687E-1  
 1.904000000000000E7    -3.623981475830078E-1   6.828209757804871E-1   5.472288131713867E-1   2.915625870227814E-1   5.467287302017212E-1   2.913851141929627E-1  -3.616816401481628E-1   6.784211397171021E-1  
 1.906000000000000E7    -3.605713248252869E-1   6.828436851501465E-1   5.486415028572083E-1   2.912059128284454E-1   5.483664870262146E-1   2.913145422935486E-1  -3.602147698402405E-1   6.790928840637207E-1  
 1.908000000000000E7    -3.588992953300476E-1   6.833234429359436E-1   5.495138764381409E-1   2.910446524620056E-1   5.503942370414734E-1   2.908308506011963E-1  -3.590449392795563E-1   6.785436272621155E-1  
 1.910000000000000E7    -3.573263287544251E-1   6.827784776687622E-1   5.513252019882202E-1   2.901942133903503E-1   5.512819290161133E-1   2.900449931621552E-1  -3.571407198905945E-1   6.789186000823975E-1  
 1.912000000000000E7    -3.550328016281128E-1   6.825038790702820E-1   5.529832243919373E-1   2.901208698749542E-1   5.532345175743103E-1   2.892952561378479E-1  -3.558171093463898E-1   6.781650781631470E-1  
 1.914000000000000E7    -3.537712693214417E-1   6.825280785560608E-1   5.538274049758911E-1   2.890036404132843E-1   5.543476939201355E-1   2.887172400951386E-1  -3.536190986633301E-1   6.788011789321899E-1  
 1.916000000000000E7    -3.518581092357636E-1   6.822967529296875E-1   5.561927556991577E-1   2.893646061420441E-1   5.563198924064636E-1   2.884946763515472E-1  -3.519668579101563E-1   6.783231496810913E-1  
 1.918000000000000E7    -3.500537574291229E-1   6.824019551277161E-1   5.573257803916931E-1   2.883513569831848E-1   5.576145052909851E-1   2.879409193992615E-1  -3.501521050930023E-1   6.781299114227295E-1  
 1.920000000000000E7    -3.486392498016357E-1   6.818059086799622E-1   5.593481659889221E-1   2.873429059982300E-1   5.594232082366943E-1   2.874318063259125E-1  -3.486716449260712E-1   6.777577996253967E-1  
 1.922000000000000E7    -3.463942706584930E-1   6.818869709968567E-1   5.606859326362610E-1   2.872472107410431E-1   5.604603290557861E-1   2.861930131912231E-1  -3.467431366443634E-1   6.780589818954468E-1  
 1.924000000000000E7    -3.451387882232666E-1   6.820738911628723E-1   5.621097683906555E-1   2.866312265396118E-1   5.622285008430481E-1   2.860440909862518E-1  -3.454328179359436E-1   6.774218082427979E-1  
 1.926000000000000E7    -3.433836996555328E-1   6.819103360176086E-1   5.637372136116028E-1   2.858574092388153E-1   5.634307861328125E-1   2.855688035488129E-1  -3.436799645423889E-1   6.774900555610657E-1  
 1.928000000000000E7    -3.417029082775116E-1   6.815352439880371E-1   5.652400255203247E-1   2.856435775756836E-1   5.648681521415710E-1   2.853696942329407E-1  -3.422125577926636E-1   6.773417592048645E-1  
 1.930000000000000E7    -3.402842581272125E-1   6.812510490417481E-1   5.670542716979981E-1   2.850858569145203E-1   5.665324330329895E-1   2.848729491233826E-1  -3.401683270931244E-1   6.774208545684815E-1  
 1.932000000000000E7    -3.387553095817566E-1   6.806515455245972E-1   5.684948563575745E-1   2.839730083942413E-1   5.683210492134094E-1   2.837879955768585E-1  -3.380820453166962E-1   6.771945357322693E-1  
 1.934000000000000E7    -3.365814983844757E-1   6.811360120773315E-1   5.702112913131714E-1   2.837781012058258E-1   5.698934793472290E-1   2.833128273487091E-1  -3.370337188243866E-1   6.767684221267700E-1  
 1.936000000000000E7    -3.349730968475342E-1   6.808094382286072E-1   5.714502334594727E-1   2.830215394496918E-1   5.714849233627319E-1   2.832276225090027E-1  -3.345901966094971E-1   6.767222881317139E-1  
 1.938000000000000E7    -3.333296775817871E-1   6.806925535202026E-1   5.732544660568237E-1   2.822090983390808E-1   5.728021264076233E-1   2.822235226631165E-1  -3.332715332508087E-1   6.766057610511780E-1  
 1.940000000000000E7    -3.315816521644592E-1   6.806933879852295E-1   5.743697881698608E-1   2.821992039680481E-1   5.747756958007813E-1   2.817945480346680E-1  -3.312203288078308E-1   6.765246391296387E-1  
 1.942000000000000E7    -3.296537697315216E-1   6.801728606224060E-1   5.760136842727661E-1   2.816163599491119E-1   5.760452747344971E-1   2.809537351131439E-1  -3.301177918910980E-1   6.760683059692383E-1  
 1.944000000000000E7    -3.277205526828766E-1   6.802241802215576E-1   5.776720643043518E-1   2.804309427738190E-1   5.779013037681580E-1   2.800569832324982E-1  -3.281835913658142E-1   6.758313775062561E-1  
 1.946000000000000E7    -3.262950181961060E-1   6.795247793197632E-1   5.791845321655273E-1   2.799131274223328E-1   5.789427757263184E-1   2.794885635375977E-1  -3.261162042617798E-1   6.759286522865295E-1  
 1.948000000000000E7    -3.243647217750549E-1   6.793928146362305E-1   5.813769102096558E-1   2.791756391525269E-1   5.809879302978516E-1   2.787583470344544E-1  -3.247630000114441E-1   6.754245758056641E-1  
 1.950000000000000E7    -3.228256404399872E-1   6.796705722808838E-1   5.820732116699219E-1   2.787814140319824E-1   5.821555852890015E-1   2.781527936458588E-1  -3.228120505809784E-1   6.747996807098389E-1  
 1.952000000000000E7    -3.208113610744476E-1   6.795011758804321E-1   5.842894315719605E-1   2.784913480281830E-1   5.838723778724670E-1   2.778010070323944E-1  -3.212026655673981E-1   6.749969124794006E-1  
 1.954000000000000E7    -3.188253343105316E-1   6.789528131484985E-1   5.853086113929749E-1   2.781067192554474E-1   5.856517553329468E-1   2.769183814525604E-1  -3.199202120304108E-1   6.748660802841187E-1  
 1.956000000000000E7    -3.174842000007629E-1   6.787465214729309E-1   5.871782302856445E-1   2.770845890045166E-1   5.877147316932678E-1   2.763016819953919E-1  -3.174733817577362E-1   6.742365360260010E-1  
 1.958000000000000E7    -3.155919909477234E-1   6.783781647682190E-1   5.890123248100281E-1   2.766331732273102E-1   5.890800356864929E-1   2.757751643657684E-1  -3.157936632633209E-1   6.742267608642578E-1  
 1.960000000000000E7    -3.134991526603699E-1   6.780821084976196E-1   5.905489921569824E-1   2.756431698799133E-1   5.909786820411682E-1   2.748194634914398E-1  -3.143678307533264E-1   6.741852760314941E-1  
 1.962000000000000E7    -3.118964731693268E-1   6.778357625007629E-1   5.920941829681397E-1   2.751198709011078E-1   5.918686389923096E-1   2.749389410018921E-1  -3.121257424354553E-1   6.738917231559753E-1  
 1.964000000000000E7    -3.105435371398926E-1   6.777136325836182E-1   5.931905508041382E-1   2.739692628383637E-1   5.937672853469849E-1   2.738685309886932E-1  -3.104533851146698E-1   6.735213398933411E-1  
 1.966000000000000E7    -3.083667755126953E-1   6.771491169929504E-1   5.956299901008606E-1   2.736903429031372E-1   5.954332947731018E-1   2.728519141674042E-1  -3.086133599281311E-1   6.728026270866394E-1  
 1.968000000000000E7    -3.065265417098999E-1   6.766627430915833E-1   5.969614982604981E-1   2.733605802059174E-1   5.970378518104553E-1   2.732584476470947E-1  -3.066025674343109E-1   6.730185151100159E-1  
 1.970000000000000E7    -3.049589693546295E-1   6.760255098342896E-1   5.987972617149353E-1   2.721408009529114E-1   5.981432199478149E-1   2.719703018665314E-1  -3.049250245094299E-1   6.725968122482300E-1  
 1.972000000000000E7    -3.033514618873596E-1   6.764381527900696E-1   6.002036929130554E-1   2.715565562248230E-1   6.004390120506287E-1   2.712854444980621E-1  -3.035668730735779E-1   6.718497276306152E-1  
 1.974000000000000E7    -3.012665510177612E-1   6.755729913711548E-1   6.014017462730408E-1   2.704371213912964E-1   6.015461683273315E-1   2.702241539955139E-1  -3.014312982559204E-1   6.720831990242004E-1  
 1.976000000000000E7    -2.995519042015076E-1   6.754436492919922E-1   6.028656959533691E-1   2.698177099227905E-1   6.035653948783875E-1   2.695692777633667E-1  -2.997981011867523E-1   6.712940931320190E-1  
 1.978000000000000E7    -2.977100312709808E-1   6.752131581306458E-1   6.052994132041931E-1   2.695368826389313E-1   6.048380136489868E-1   2.689124345779419E-1  -2.982421517372131E-1   6.706945300102234E-1  
 1.980000000000000E7    -2.960700690746307E-1   6.743466258049011E-1   6.068212389945984E-1   2.686368525028229E-1   6.063016653060913E-1   2.682071328163147E-1  -2.960429191589356E-1   6.710997223854065E-1  
 1.982000000000000E7    -2.947548329830170E-1   6.742634773254395E-1   6.083583831787109E-1   2.677263319492340E-1   6.080198287963867E-1   2.673645615577698E-1  -2.945658862590790E-1   6.707881093025208E-1  
 1.984000000000000E7    -2.923027276992798E-1   6.741340756416321E-1   6.092711687088013E-1   2.675508558750153E-1   6.097447276115418E-1   2.666522264480591E-1  -2.928162813186646E-1   6.697390079498291E-1  
 1.986000000000000E7    -2.904053330421448E-1   6.736753582954407E-1   6.109464168548584E-1   2.666323781013489E-1   6.115031838417053E-1   2.659180164337158E-1  -2.912274599075317E-1   6.693884134292603E-1  
 1.988000000000000E7    -2.886652052402496E-1   6.731634140014648E-1   6.136112809181213E-1   2.652362287044525E-1   6.126819849014282E-1   2.646519541740418E-1  -2.896406352519989E-1   6.697189211845398E-1  
 1.990000000000000E7    -2.868439257144928E-1   6.736508607864380E-1   6.142400503158569E-1   2.645505368709564E-1   6.143996715545654E-1   2.641569375991821E-1  -2.876993119716644E-1   6.691676378250122E-1  
 1.992000000000000E7    -2.850327789783478E-1   6.728961467742920E-1   6.160961389541626E-1   2.638124525547028E-1   6.164246797561646E-1   2.632597386837006E-1  -2.853535711765289E-1   6.690439581871033E-1  
 1.994000000000000E7    -2.832331657409668E-1   6.720715761184692E-1   6.182093620300293E-1   2.632910907268524E-1   6.175407171249390E-1   2.623308598995209E-1  -2.842107713222504E-1   6.686486601829529E-1  
 1.996000000000000E7    -2.819064259529114E-1   6.716487407684326E-1   6.191462874412537E-1   2.620317041873932E-1   6.192814111709595E-1   2.618411183357239E-1  -2.816999554634094E-1   6.680828928947449E-1  
 1.998000000000000E7    -2.799167931079865E-1   6.713120937347412E-1   6.209987401962280E-1   2.617069482803345E-1   6.208521127700806E-1   2.612825334072113E-1  -2.802450060844421E-1   6.678965687751770E-1  
 2.000000000000000E7    -2.779455184936523E-1   6.706759929656982E-1   6.227712631225586E-1   2.605968117713928E-1   6.221244931221008E-1   2.601220011711121E-1  -2.781115770339966E-1   6.676080226898193E-1  
 2.002000000000000E7    -2.775436043739319E-1   6.692527532577515E-1   6.236149072647095E-1   2.609559893608093E-1   6.231783628463745E-1   2.608797848224640E-1  -2.782493531703949E-1   6.654228568077087E-1  
 2.004000000000000E7    -2.756105363368988E-1   6.694521903991699E-1   6.250978112220764E-1   2.602993249893189E-1   6.244803667068481E-1   2.601452767848969E-1  -2.760687172412872E-1   6.650625467300415E-1  
 2.006000000000000E7    -2.731378078460693E-1   6.684300303459168E-1   6.266570091247559E-1   2.596225142478943E-1   6.264992952346802E-1   2.592618167400360E-1  -2.745940387248993E-1   6.641170382499695E-1  
 2.008000000000000E7    -2.717693448066711E-1   6.680809855461121E-1   6.284170150756836E-1   2.586335539817810E-1   6.276792287826538E-1   2.583945989608765E-1  -2.721448540687561E-1   6.642622351646423E-1  
 2.010000000000000E7    -2.702017426490784E-1   6.677052974700928E-1   6.296186447143555E-1   2.575595378875732E-1   6.295172572135925E-1   2.578922510147095E-1  -2.703554034233093E-1   6.636426448822022E-1  
 2.012000000000000E7    -2.680561542510986E-1   6.672061085700989E-1   6.313773393630981E-1   2.569846510887146E-1   6.311018466949463E-1   2.568093538284302E-1  -2.685451209545136E-1   6.633831858634949E-1  
 2.014000000000000E7    -2.658182382583618E-1   6.664229631423950E-1   6.333498954772949E-1   2.563923895359039E-1   6.327480077743530E-1   2.559568583965302E-1  -2.670192718505859E-1   6.629368662834168E-1  
 2.016000000000000E7    -2.642002105712891E-1   6.658214330673218E-1   6.351320743560791E-1   2.553859353065491E-1   6.346206665039063E-1   2.549359500408173E-1  -2.652276456356049E-1   6.625714898109436E-1  
 2.018000000000000E7    -2.629413604736328E-1   6.655564904212952E-1   6.366485953330994E-1   2.536278367042542E-1   6.361372470855713E-1   2.539676427841187E-1  -2.634725868701935E-1   6.620636582374573E-1  
 2.020000000000000E7    -2.607574760913849E-1   6.647691130638123E-1   6.385874152183533E-1   2.536121308803558E-1   6.376501321792603E-1   2.531151771545410E-1  -2.612868547439575E-1   6.609299182891846E-1  
 2.022000000000000E7    -2.590080797672272E-1   6.646013259887695E-1   6.405881047248840E-1   2.523460090160370E-1   6.390582919120789E-1   2.522038221359253E-1  -2.596433460712433E-1   6.612623333930969E-1  
 2.024000000000000E7    -2.573662400245667E-1   6.643950343132019E-1   6.412827968597412E-1   2.516920566558838E-1   6.414697766304016E-1   2.515153884887695E-1  -2.574841082096100E-1   6.606152653694153E-1  
 2.026000000000000E7    -2.551261186599731E-1   6.642172932624817E-1   6.429634094238281E-1   2.505542933940888E-1   6.434830427169800E-1   2.508004605770111E-1  -2.557796239852905E-1   6.599428057670593E-1  
 2.028000000000000E7    -2.538652420043945E-1   6.635950803756714E-1   6.448482871055603E-1   2.497284710407257E-1   6.446235179901123E-1   2.495104521512985E-1  -2.538442611694336E-1   6.593850851058960E-1  
 2.030000000000000E7    -2.517329156398773E-1   6.632591485977173E-1   6.460084319114685E-1   2.490323781967163E-1   6.465134024620056E-1   2.485880553722382E-1  -2.527927756309509E-1   6.584754586219788E-1  
 2.032000000000000E7    -2.498649507761002E-1   6.619577407836914E-1   6.484537124633789E-1   2.483088970184326E-1   6.481848359107971E-1   2.475103735923767E-1  -2.502163648605347E-1   6.582028269767761E-1  
 2.034000000000000E7    -2.476249635219574E-1   6.611486673355103E-1   6.504805088043213E-1   2.471847087144852E-1   6.498830318450928E-1   2.468772530555725E-1  -2.485918998718262E-1   6.579673290252686E-1  
 2.036000000000000E7    -2.459522783756256E-1   6.613172292709351E-1   6.514653563499451E-1   2.464085668325424E-1   6.510251164436340E-1   2.457517236471176E-1  -2.469839453697205E-1   6.573293805122376E-1  
 2.038000000000000E7    -2.440937310457230E-1   6.601759791374207E-1   6.532947421073914E-1   2.450722604990006E-1   6.533149480819702E-1   2.446970343589783E-1  -2.448650747537613E-1   6.564854383468628E-1  
 2.040000000000000E7    -2.419187426567078E-1   6.604388952255249E-1   6.545082330703735E-1   2.437866032123566E-1   6.543127298355103E-1   2.438382059335709E-1  -2.434985190629959E-1   6.557281017303467E-1  
 2.042000000000000E7    -2.393803000450134E-1   6.593701839447022E-1   6.568555831909180E-1   2.432573437690735E-1   6.555091738700867E-1   2.426123172044754E-1  -2.421422600746155E-1   6.559810042381287E-1  
 2.044000000000000E7    -2.382357418537140E-1   6.585929989814758E-1   6.583421230316162E-1   2.423420995473862E-1   6.577670574188232E-1   2.419891655445099E-1  -2.392610907554627E-1   6.548388600349426E-1  
 2.046000000000000E7    -2.363446056842804E-1   6.582497358322144E-1   6.599708199501038E-1   2.410286366939545E-1   6.595664620399475E-1   2.404171228408814E-1  -2.381058633327484E-1   6.538022756576538E-1  
 2.048000000000000E7    -2.350107580423355E-1   6.579387187957764E-1   6.615906953811646E-1   2.398343533277512E-1   6.616642475128174E-1   2.397267818450928E-1  -2.360182553529739E-1   6.531913280487061E-1  
 2.050000000000000E7    -2.330430746078491E-1   6.568841934204102E-1   6.635182499885559E-1   2.390239387750626E-1   6.633892655372620E-1   2.387371659278870E-1  -2.341007888317108E-1   6.527302861213684E-1  
 2.052000000000000E7    -2.311014235019684E-1   6.560335159301758E-1   6.649426221847534E-1   2.376836985349655E-1   6.642196178436279E-1   2.375197261571884E-1  -2.322945743799210E-1   6.522281169891357E-1  
 2.054000000000000E7    -2.290809452533722E-1   6.556577682495117E-1   6.664727926254273E-1   2.369312942028046E-1   6.659991741180420E-1   2.368370294570923E-1  -2.303181439638138E-1   6.516163945198059E-1  
 2.056000000000000E7    -2.272772341966629E-1   6.548862457275391E-1   6.681326627731323E-1   2.360434234142304E-1   6.677520275115967E-1   2.356715053319931E-1  -2.285283803939819E-1   6.513916850090027E-1  
 2.058000000000000E7    -2.249457240104675E-1   6.548458337783814E-1   6.696596145629883E-1   2.352266311645508E-1   6.692316532135010E-1   2.346383333206177E-1  -2.268102616071701E-1   6.504795551300049E-1  
 2.060000000000000E7    -2.236883640289307E-1   6.540641784667969E-1   6.712116003036499E-1   2.337365448474884E-1   6.712543964385986E-1   2.332672327756882E-1  -2.248439937829971E-1   6.496927142143250E-1  
 2.062000000000000E7    -2.219671607017517E-1   6.526300907135010E-1   6.733031272888184E-1   2.326921522617340E-1   6.728270649909973E-1   2.323350310325623E-1  -2.227802127599716E-1   6.492290496826172E-1  
 2.064000000000000E7    -2.198885530233383E-1   6.522316336631775E-1   6.748635768890381E-1   2.314205169677734E-1   6.745734214782715E-1   2.309088110923767E-1  -2.210740447044373E-1   6.483021378517151E-1  
 2.066000000000000E7    -2.177541851997376E-1   6.516463160514832E-1   6.766503453254700E-1   2.307182699441910E-1   6.761531829833984E-1   2.304493784904480E-1  -2.186788618564606E-1   6.474012136459351E-1  
 2.068000000000000E7    -2.159975171089172E-1   6.508077383041382E-1   6.784678697586060E-1   2.294176071882248E-1   6.778532266616821E-1   2.290351986885071E-1  -2.171946316957474E-1   6.476713418960571E-1  
 2.070000000000000E7    -2.140870690345764E-1   6.504371166229248E-1   6.796165704727173E-1   2.281506210565567E-1   6.798072457313538E-1   2.278305888175964E-1  -2.153639793395996E-1   6.462450623512268E-1  
 2.072000000000000E7    -2.122926115989685E-1   6.487107872962952E-1   6.820495128631592E-1   2.273529917001724E-1   6.812871694564819E-1   2.272021770477295E-1  -2.133774161338806E-1   6.460922360420227E-1  
 2.074000000000000E7    -2.106961309909821E-1   6.480710506439209E-1   6.838498115539551E-1   2.259720861911774E-1   6.831347346305847E-1   2.255423963069916E-1  -2.111908197402954E-1   6.449062824249268E-1  
 2.076000000000000E7    -2.084831893444061E-1   6.476501822471619E-1   6.850312948226929E-1   2.250867187976837E-1   6.848081946372986E-1   2.243248075246811E-1  -2.103537321090698E-1   6.441039443016052E-1  
 2.078000000000000E7    -2.063681036233902E-1   6.471841931343079E-1   6.866927146911621E-1   2.235072702169418E-1   6.868219375610352E-1   2.232355624437332E-1  -2.079215347766876E-1   6.431430578231812E-1  
 2.080000000000000E7    -2.054278552532196E-1   6.463004350662231E-1   6.886380910873413E-1   2.221998423337936E-1   6.883795857429504E-1   2.220831811428070E-1  -2.060857713222504E-1   6.427344083786011E-1  
 2.082000000000000E7    -2.027922421693802E-1   6.449924707412720E-1   6.905304193496704E-1   2.212536334991455E-1   6.898078918457031E-1   2.211996167898178E-1  -2.042776644229889E-1   6.421477794647217E-1  
 2.084000000000000E7    -2.011082321405411E-1   6.443115472793579E-1   6.919398307800293E-1   2.201384603977203E-1   6.912459135055542E-1   2.199304401874542E-1  -2.022310346364975E-1   6.410012841224670E-1  
 2.086000000000000E7    -1.991072893142700E-1   6.437330842018127E-1   6.935235857963562E-1   2.185852229595184E-1   6.935067176818848E-1   2.186569571495056E-1  -2.001880407333374E-1   6.400547027587891E-1  
 2.088000000000000E7    -1.972282230854034E-1   6.435296535491943E-1   6.947765350341797E-1   2.180301249027252E-1   6.949044466018677E-1   2.174096256494522E-1  -1.986053436994553E-1   6.394173502922058E-1  
 2.090000000000000E7    -1.952880769968033E-1   6.422305107116699E-1   6.971313357353210E-1   2.167294621467590E-1   6.962715387344360E-1   2.160777151584625E-1  -1.971560716629028E-1   6.389978528022766E-1  
 2.092000000000000E7    -1.937203109264374E-1   6.414828896522522E-1   6.986941099166870E-1   2.146269381046295E-1   6.984933614730835E-1   2.149794995784760E-1  -1.950286924839020E-1   6.375457048416138E-1  
 2.094000000000000E7    -1.912611871957779E-1   6.404402256011963E-1   7.005578279495239E-1   2.138099968433380E-1   6.999205946922302E-1   2.136240601539612E-1  -1.933161169290543E-1   6.372901797294617E-1  
 2.096000000000000E7    -1.895789057016373E-1   6.393457651138306E-1   7.019287943840027E-1   2.126417309045792E-1   7.015368938446045E-1   2.124727964401245E-1  -1.907553076744080E-1   6.360600590705872E-1  
 2.098000000000000E7    -1.880936026573181E-1   6.386259794235230E-1   7.036051154136658E-1   2.111032754182816E-1   7.032208442687988E-1   2.108962684869766E-1  -1.889359652996063E-1   6.356396079063416E-1  
 2.100000000000000E7    -1.859628856182098E-1   6.381225585937500E-1   7.049269080162048E-1   2.101254165172577E-1   7.049868702888489E-1   2.097838521003723E-1  -1.872740685939789E-1   6.345968842506409E-1  
 2.102000000000000E7    -1.839559078216553E-1   6.374989748001099E-1   7.071155309677124E-1   2.086529731750488E-1   7.069416046142578E-1   2.086638808250427E-1  -1.850190162658691E-1   6.335144639015198E-1  
 2.104000000000000E7    -1.818012595176697E-1   6.361989378929138E-1   7.087320089340210E-1   2.080997228622437E-1   7.084679007530212E-1   2.074180245399475E-1  -1.828494369983673E-1   6.329108476638794E-1  
 2.106000000000000E7    -1.805558055639267E-1   6.351524591445923E-1   7.107314467430115E-1   2.061872482299805E-1   7.105779051780701E-1   2.059572637081146E-1  -1.816586703062058E-1   6.312693357467651E-1  
 2.108000000000000E7    -1.789609193801880E-1   6.338434815406799E-1   7.124924063682556E-1   2.046950608491898E-1   7.121858000755310E-1   2.044666409492493E-1  -1.794899404048920E-1   6.305919885635376E-1  
 2.110000000000000E7    -1.760881841182709E-1   6.338809728622437E-1   7.137498259544373E-1   2.041472196578980E-1   7.136298418045044E-1   2.034462839365006E-1  -1.777571290731430E-1   6.299719810485840E-1  
 2.112000000000000E7    -1.749504804611206E-1   6.324768066406250E-1   7.156910300254822E-1   2.024144381284714E-1   7.153313159942627E-1   2.021588832139969E-1  -1.758301854133606E-1   6.289879679679871E-1  
 2.114000000000000E7    -1.732609719038010E-1   6.316342353820801E-1   7.170490026473999E-1   2.007094025611877E-1   7.170190811157227E-1   2.008160948753357E-1  -1.736066043376923E-1   6.280550956726074E-1  
 2.116000000000000E7    -1.713454127311707E-1   6.303521990776062E-1   7.190128564834595E-1   1.994929462671280E-1   7.186711430549622E-1   1.991956233978272E-1  -1.723348200321198E-1   6.270856857299805E-1  
 2.118000000000000E7    -1.689742207527161E-1   6.295697689056397E-1   7.206484079360962E-1   1.986912637948990E-1   7.199668884277344E-1   1.978577077388763E-1  -1.709540784358978E-1   6.264769434928894E-1  
 2.120000000000000E7    -1.671859622001648E-1   6.284086704254150E-1   7.226145267486572E-1   1.965996026992798E-1   7.219265699386597E-1   1.968120485544205E-1  -1.682875156402588E-1   6.254942417144775E-1  
 2.122000000000000E7    -1.653452813625336E-1   6.275346875190735E-1   7.239860892295837E-1   1.957519203424454E-1   7.236095070838928E-1   1.955018937587738E-1  -1.661722213029862E-1   6.239765286445618E-1  
 2.124000000000000E7    -1.631254851818085E-1   6.267887949943543E-1   7.258532643318176E-1   1.942831575870514E-1   7.254440784454346E-1   1.940317153930664E-1  -1.648244112730026E-1   6.233188509941101E-1  
 2.126000000000000E7    -1.616946756839752E-1   6.254870891571045E-1   7.273353934288025E-1   1.922532767057419E-1   7.270361185073853E-1   1.921126693487167E-1  -1.632614582777023E-1   6.221132874488831E-1  
 2.128000000000000E7    -1.595501750707626E-1   6.247907280921936E-1   7.291603088378906E-1   1.914926618337631E-1   7.282236218452454E-1   1.907616853713989E-1  -1.610319912433624E-1   6.214767098426819E-1  
 2.130000000000000E7    -1.575170755386353E-1   6.236165761947632E-1   7.308132052421570E-1   1.898795962333679E-1   7.305375337600708E-1   1.893799751996994E-1  -1.592609286308289E-1   6.198194026947022E-1  
 2.132000000000000E7    -1.557604372501373E-1   6.220481395721436E-1   7.327233552932739E-1   1.885183900594711E-1   7.322234511375427E-1   1.883092224597931E-1  -1.573791950941086E-1   6.189362406730652E-1  
 2.134000000000000E7    -1.542870104312897E-1   6.213703751564026E-1   7.339940667152405E-1   1.863768696784973E-1   7.336542606353760E-1   1.866093128919601E-1  -1.548410654067993E-1   6.180972456932068E-1  
 2.136000000000000E7    -1.522119343280792E-1   6.200712323188782E-1   7.359382510185242E-1   1.855123937129974E-1   7.350518107414246E-1   1.852298378944397E-1  -1.533404290676117E-1   6.169332861900330E-1  
 2.138000000000000E7    -1.499204337596893E-1   6.195478439331055E-1   7.370743751525879E-1   1.842356473207474E-1   7.368882298469544E-1   1.838474869728088E-1  -1.515186429023743E-1   6.156702637672424E-1  
 2.140000000000000E7    -1.487470269203186E-1   6.179624795913696E-1   7.394273281097412E-1   1.821300089359283E-1   7.384542226791382E-1   1.821318715810776E-1  -1.498130410909653E-1   6.144272089004517E-1  
 2.142000000000000E7    -1.467627286911011E-1   6.171946525573731E-1   7.405794262886047E-1   1.807735860347748E-1   7.403874993324280E-1   1.805151402950287E-1  -1.477218866348267E-1   6.131082177162170E-1  
 2.144000000000000E7    -1.445501148700714E-1   6.154150366783142E-1   7.428207397460938E-1   1.793590039014816E-1   7.421629428863525E-1   1.791238635778427E-1  -1.460088193416596E-1   6.130094528198242E-1  
 2.146000000000000E7    -1.428090929985046E-1   6.143655180931091E-1   7.442480921745300E-1   1.776881515979767E-1   7.435290813446045E-1   1.775070577859879E-1  -1.441360414028168E-1   6.115375757217407E-1  
 2.148000000000000E7    -1.409788727760315E-1   6.137049198150635E-1   7.454388141632080E-1   1.766417324542999E-1   7.456101775169373E-1   1.760831624269486E-1  -1.425915956497192E-1   6.100225448608398E-1  
 2.150000000000000E7    -1.389576196670532E-1   6.122118830680847E-1   7.479870915412903E-1   1.747214049100876E-1   7.468516826629639E-1   1.748188287019730E-1  -1.401936262845993E-1   6.094582676887512E-1  
 2.152000000000000E7    -1.370222270488739E-1   6.114777326583862E-1   7.491067647933960E-1   1.733954399824143E-1   7.486452460289002E-1   1.725358664989471E-1  -1.392122954130173E-1   6.075519919395447E-1  
 2.154000000000000E7    -1.356823295354843E-1   6.104127168655396E-1   7.509119510650635E-1   1.714730858802795E-1   7.505850195884705E-1   1.714071333408356E-1  -1.365667879581451E-1   6.065506339073181E-1  
 2.156000000000000E7    -1.327640414237976E-1   6.089129447937012E-1   7.520389556884766E-1   1.708260178565979E-1   7.522608637809753E-1   1.700235903263092E-1  -1.347049176692963E-1   6.052744388580322E-1  
 2.158000000000000E7    -1.316164880990982E-1   6.079732775688171E-1   7.542771697044373E-1   1.684621721506119E-1   7.538896799087524E-1   1.684020012617111E-1  -1.328811645507813E-1   6.044042110443115E-1  
 2.160000000000000E7    -1.296016871929169E-1   6.065714955329895E-1   7.559205293655396E-1   1.668772101402283E-1   7.550995349884033E-1   1.666256636381149E-1  -1.310673058032990E-1   6.032466292381287E-1  
 2.162000000000000E7    -1.275073289871216E-1   6.058386564254761E-1   7.573565840721130E-1   1.652677804231644E-1   7.565423250198364E-1   1.648351848125458E-1  -1.295673102140427E-1   6.023414134979248E-1  
 2.164000000000000E7    -1.258738189935684E-1   6.040351390838623E-1   7.592779397964478E-1   1.639033257961273E-1   7.585170269012451E-1   1.630788594484329E-1  -1.272581219673157E-1   6.009453535079956E-1  
 2.166000000000000E7    -1.241372823715210E-1   6.027042269706726E-1   7.607383131980896E-1   1.617862880229950E-1   7.607307434082031E-1   1.616460680961609E-1  -1.253319084644318E-1   5.992042422294617E-1  
 2.168000000000000E7    -1.221584528684616E-1   6.020480394363403E-1   7.620940804481506E-1   1.601674705743790E-1   7.619187831878662E-1   1.597923785448074E-1  -1.238016933202744E-1   5.984848141670227E-1  
 2.170000000000000E7    -1.205300018191338E-1   5.996519923210144E-1   7.645856738090515E-1   1.587531119585037E-1   7.637419700622559E-1   1.586108952760696E-1  -1.214619651436806E-1   5.977247357368469E-1  
 2.172000000000000E7    -1.184308677911758E-1   5.986520648002625E-1   7.656902670860291E-1   1.571116298437119E-1   7.656379342079163E-1   1.570777595043182E-1  -1.196531802415848E-1   5.956381559371948E-1  
 2.174000000000000E7    -1.166067197918892E-1   5.975223779678345E-1   7.672376632690430E-1   1.553400158882141E-1   7.668015956878662E-1   1.551543921232224E-1  -1.181888729333878E-1   5.944377779960632E-1  
 2.176000000000000E7    -1.153058186173439E-1   5.960149765014648E-1   7.693980932235718E-1   1.532549709081650E-1   7.688602209091187E-1   1.534960269927979E-1  -1.160416305065155E-1   5.929707884788513E-1  
 2.178000000000000E7    -1.127493754029274E-1   5.947363376617432E-1   7.710614204406738E-1   1.520682871341705E-1   7.700026631355286E-1   1.512773931026459E-1  -1.143840923905373E-1   5.920901894569397E-1  
 2.180000000000000E7    -1.113441139459610E-1   5.933185815811157E-1   7.721472382545471E-1   1.498692929744721E-1   7.716959118843079E-1   1.500443518161774E-1  -1.123297736048698E-1   5.907592177391052E-1  
 2.182000000000000E7    -1.093003824353218E-1   5.920865535736084E-1   7.742066979408264E-1   1.484278589487076E-1   7.731235027313232E-1   1.480226665735245E-1  -1.103781312704086E-1   5.889453291893005E-1  
 2.184000000000000E7    -1.072831824421883E-1   5.907784700393677E-1   7.761471867561340E-1   1.468902081251144E-1   7.748478055000305E-1   1.466824263334274E-1  -1.095816716551781E-1   5.879002809524536E-1  
 2.186000000000000E7    -1.052119061350822E-1   5.898631215095520E-1   7.771807909011841E-1   1.451044529676437E-1   7.766597270965576E-1   1.452811211347580E-1  -1.068227216601372E-1   5.861651301383972E-1  
 2.188000000000000E7    -1.037387922406197E-1   5.879197120666504E-1   7.789354920387268E-1   1.433036327362061E-1   7.778882384300232E-1   1.434121727943420E-1  -1.047586873173714E-1   5.852873921394348E-1  
 2.190000000000000E7    -1.017939373850822E-1   5.865525603294373E-1   7.804990410804749E-1   1.414785534143448E-1   7.800002694129944E-1   1.410740166902542E-1  -1.031537055969238E-1   5.833873748779297E-1  
 2.192000000000000E7    -1.001231595873833E-1   5.855992436408997E-1   7.823253273963928E-1   1.394170224666596E-1   7.817459106445313E-1   1.391996443271637E-1  -1.016907691955566E-1   5.819006562232971E-1  
 2.194000000000000E7    -9.783520549535751E-2   5.840379595756531E-1   7.838824987411499E-1   1.378318816423416E-1   7.832338809967041E-1   1.374427676200867E-1  -1.000059843063355E-1   5.802965760231018E-1  
 2.196000000000000E7    -9.609465301036835E-2   5.821347236633301E-1   7.852307558059692E-1   1.360766589641571E-1   7.849351763725281E-1   1.356027722358704E-1  -9.753945469856262E-2   5.793649554252625E-1  
 2.198000000000000E7    -9.431134164333344E-2   5.809344649314880E-1   7.872863411903381E-1   1.340703964233398E-1   7.861828804016113E-1   1.341730207204819E-1  -9.598609805107117E-2   5.777640938758850E-1  
 2.200000000000000E7    -9.322194755077362E-2   5.791819095611572E-1   7.891501188278198E-1   1.323652714490891E-1   7.886745333671570E-1   1.320051550865173E-1  -9.425871074199677E-2   5.759248733520508E-1  
 2.202000000000000E7    -9.087678790092468E-2   5.784180164337158E-1   7.902278900146484E-1   1.304339617490768E-1   7.896724939346314E-1   1.300712972879410E-1  -9.274041652679443E-2   5.747393965721130E-1  
 2.204000000000000E7    -8.909131586551666E-2   5.764901638031006E-1   7.919017076492310E-1   1.287758946418762E-1   7.913343906402588E-1   1.285410225391388E-1  -9.052151441574097E-2   5.733367204666138E-1  
 2.206000000000000E7    -8.748267590999603E-2   5.750944018363953E-1   7.932740449905396E-1   1.265878379344940E-1   7.928128242492676E-1   1.266005486249924E-1  -8.833262324333191E-2   5.722662806510925E-1  
 2.208000000000000E7    -8.506333082914352E-2   5.734224915504456E-1   7.950344085693359E-1   1.246901154518127E-1   7.942725419998169E-1   1.244281232357025E-1  -8.723987638950348E-2   5.705350637435913E-1  
 2.210000000000000E7    -8.404660224914551E-2   5.721265673637390E-1   7.967188954353333E-1   1.229863390326500E-1   7.957448363304138E-1   1.222714781761169E-1  -8.540970087051392E-2   5.688766241073608E-1  
 2.212000000000000E7    -8.164820075035095E-2   5.706678628921509E-1   7.977352142333984E-1   1.212200149893761E-1   7.974967956542969E-1   1.207579448819161E-1  -8.328859508037567E-2   5.673157572746277E-1  
 2.214000000000000E7    -7.988528907299042E-2   5.681266188621521E-1   8.001728057861328E-1   1.189970001578331E-1   7.994760274887085E-1   1.184824034571648E-1  -8.192516863346100E-2   5.657878518104553E-1  
 2.216000000000000E7    -7.822006195783615E-2   5.667411684989929E-1   8.015310764312744E-1   1.169286519289017E-1   8.001377582550049E-1   1.169234216213226E-1  -7.990680634975433E-2   5.647059679031372E-1  
 2.218000000000000E7    -7.614750415086746E-2   5.648950338363648E-1   8.031384944915772E-1   1.150977015495300E-1   8.022335171699524E-1   1.145584806799889E-1  -7.823728024959564E-2   5.625539422035217E-1  
 2.220000000000000E7    -7.480416446924210E-2   5.636699199676514E-1   8.043650984764099E-1   1.129068136215210E-1   8.041794300079346E-1   1.125999838113785E-1  -7.666198909282684E-2   5.613149404525757E-1  
 2.222000000000000E7    -7.294903695583344E-2   5.625419020652771E-1   8.058561086654663E-1   1.110519617795944E-1   8.052386641502380E-1   1.105014011263847E-1  -7.463347166776657E-2   5.594049096107483E-1  
 2.224000000000000E7    -7.154069095849991E-2   5.604524612426758E-1   8.074832558631897E-1   1.089876741170883E-1   8.067985773086548E-1   1.086884215474129E-1  -7.304292172193527E-2   5.577574968338013E-1  
 2.226000000000000E7    -6.926588714122772E-2   5.588373541831970E-1   8.089689016342163E-1   1.070949286222458E-1   8.083646297454834E-1   1.070498675107956E-1  -7.084759324789047E-2   5.561340451240540E-1  
 2.228000000000000E7    -6.709256023168564E-2   5.571600794792175E-1   8.106949925422669E-1   1.052471697330475E-1   8.097330331802368E-1   1.047632098197937E-1  -6.989650428295136E-2   5.544627308845520E-1  
 2.230000000000000E7    -6.551171839237213E-2   5.557529926300049E-1   8.124014139175415E-1   1.031406372785568E-1   8.113051056861877E-1   1.029986292123795E-1  -6.790640950202942E-2   5.529938340187073E-1  
 2.232000000000000E7    -6.412254273891449E-2   5.542591810226440E-1   8.138238787651062E-1   1.008044779300690E-1   8.132862448692322E-1   1.011569947004318E-1  -6.555281579494476E-2   5.511566996574402E-1  
 2.234000000000000E7    -6.279183179140091E-2   5.529154539108276E-1   8.150783181190491E-1   9.843915700912476E-2   8.144446611404419E-1   9.844312071800232E-2  -6.418144702911377E-2   5.493010282516480E-1  
 2.236000000000000E7    -6.086007505655289E-2   5.512706041336060E-1   8.165834546089172E-1   9.666052460670471E-2   8.160842657089233E-1   9.643921256065369E-2  -6.229988113045692E-2   5.475515127182007E-1  
 2.238000000000000E7    -5.869469419121742E-2   5.492078065872192E-1   8.182350397109985E-1   9.532004594802856E-2   8.175719976425171E-1   9.416811168193817E-2  -6.097950041294098E-2   5.458487868309021E-1  
 2.240000000000000E7    -5.715347453951836E-2   5.472127795219421E-1   8.198707699775696E-1   9.278048574924469E-2   8.189042210578919E-1   9.253323078155518E-2  -5.905631184577942E-2   5.443511009216309E-1  
 2.242000000000000E7    -5.559325590729713E-2   5.456026196479797E-1   8.209881782531738E-1   9.011969715356827E-2   8.210095763206482E-1   9.056061506271362E-2  -5.754449591040611E-2   5.423775911331177E-1  
 2.244000000000000E7    -5.364121869206429E-2   5.441209077835083E-1   8.223864436149597E-1   8.820194005966187E-2   8.223783373832703E-1   8.850076794624329E-2  -5.500687286257744E-2   5.401661992073059E-1  
 2.246000000000000E7    -5.204308778047562E-2   5.422908663749695E-1   8.241572380065918E-1   8.650673925876617E-2   8.235981464385986E-1   8.590629696846008E-2  -5.355915799736977E-2   5.388427972793579E-1  
 2.248000000000000E7    -5.015300586819649E-2   5.408416986465454E-1   8.257220983505249E-1   8.411753177642822E-2   8.250288963317871E-1   8.402050286531448E-2  -5.204277113080025E-2   5.373430848121643E-1  
 2.250000000000000E7    -4.854879528284073E-2   5.380770564079285E-1   8.276104331016541E-1   8.171410858631134E-2   8.266168832778931E-1   8.203328400850296E-2  -5.035298690199852E-2   5.360311865806580E-1  
 2.252000000000000E7    -4.682169854640961E-2   5.373243093490601E-1   8.283088207244873E-1   8.005414903163910E-2   8.281532526016235E-1   7.968021929264069E-2  -4.802959412336350E-2   5.336546301841736E-1  
 2.254000000000000E7    -4.524158313870430E-2   5.348690152168274E-1   8.302320837974548E-1   7.756991684436798E-2   8.295727968215942E-1   7.736373692750931E-2  -4.714814573526382E-2   5.318687558174133E-1  
 2.256000000000000E7    -4.307425022125244E-2   5.327246785163879E-1   8.316892981529236E-1   7.560686767101288E-2   8.310433030128479E-1   7.510504126548767E-2  -4.565955698490143E-2   5.298881530761719E-1  
 2.258000000000000E7    -4.195788875222206E-2   5.309529900550842E-1   8.334389925003052E-1   7.327492535114288E-2   8.324988484382629E-1   7.310652732849121E-2  -4.393224418163300E-2   5.280764102935791E-1  
 2.260000000000000E7    -4.036012291908264E-2   5.289951562881470E-1   8.346245288848877E-1   7.096510380506516E-2   8.339139819145203E-1   7.062716037034988E-2  -4.225363582372665E-2   5.263140201568604E-1  
 2.262000000000000E7    -3.822474181652069E-2   5.272538661956787E-1   8.360041379928589E-1   6.874471902847290E-2   8.361381888389587E-1   6.894736737012863E-2  -4.018750786781311E-2   5.239688158035278E-1  
 2.264000000000000E7    -3.700263053178787E-2   5.249114632606506E-1   8.376740217208862E-1   6.663257628679276E-2   8.371536135673523E-1   6.626427918672562E-2  -3.858674317598343E-2   5.222829580307007E-1  
 2.266000000000000E7    -3.533687442541122E-2   5.226064324378967E-1   8.391066789627075E-1   6.405633687973023E-2   8.384426236152649E-1   6.388561427593231E-2  -3.747549280524254E-2   5.207766890525818E-1  
 2.268000000000000E7    -3.350383043289185E-2   5.210642814636231E-1   8.406972289085388E-1   6.191261857748032E-2   8.399685025215149E-1   6.167758256196976E-2  -3.533646091818810E-2   5.184850096702576E-1  
 2.270000000000000E7    -3.183465451002121E-2   5.195842385292053E-1   8.417655229568481E-1   5.980285257101059E-2   8.409916758537293E-1   5.931151658296585E-2  -3.365709632635117E-2   5.168598890304565E-1  
 2.272000000000000E7    -3.070193529129028E-2   5.176762938499451E-1   8.430045843124390E-1   5.700512975454330E-2   8.424386978149414E-1   5.719001218676567E-2  -3.252999484539032E-2   5.147398114204407E-1  
 2.274000000000000E7    -2.845782786607742E-2   5.151467919349670E-1   8.447188735008240E-1   5.539723113179207E-2   8.438024520874023E-1   5.493966117501259E-2  -3.059662878513336E-2   5.127770304679871E-1  
 2.276000000000000E7    -2.688118815422058E-2   5.136707425117493E-1   8.453777432441711E-1   5.257973074913025E-2   8.455212712287903E-1   5.247610807418823E-2  -2.923199534416199E-2   5.108433961868286E-1  
 2.278000000000000E7    -2.508552372455597E-2   5.110857486724854E-1   8.475894331932068E-1   5.016521364450455E-2   8.462581038475037E-1   4.986915364861488E-2  -2.796790748834610E-2   5.094028711318970E-1  
 2.280000000000000E7    -2.428271621465683E-2   5.094884037971497E-1   8.487823009490967E-1   4.787438362836838E-2   8.476784825325012E-1   4.804357513785362E-2  -2.553154528141022E-2   5.074017047882080E-1  
 2.282000000000000E7    -2.226223051548004E-2   5.077427625656128E-1   8.502663373947144E-1   4.608120396733284E-2   8.494223952293396E-1   4.539197310805321E-2  -2.391904592514038E-2   5.044565200805664E-1  
 2.284000000000000E7    -2.089376002550125E-2   5.053026676177979E-1   8.514629006385803E-1   4.313225299119949E-2   8.509382009506226E-1   4.302964359521866E-2  -2.276389300823212E-2   5.028633475303650E-1  
 2.286000000000000E7    -1.895483583211899E-2   5.030726790428162E-1   8.531309962272644E-1   4.080079123377800E-2   8.521804213523865E-1   4.073546081781387E-2  -2.098978310823441E-2   5.008673667907715E-1  
 2.288000000000000E7    -1.770740002393723E-2   5.009882450103760E-1   8.545143604278565E-1   3.842941299080849E-2   8.534905910491943E-1   3.836989402770996E-2  -1.933714002370834E-2   4.986690580844879E-1  
 2.290000000000000E7    -1.656956970691681E-2   4.993348121643066E-1   8.558436632156372E-1   3.580009192228317E-2   8.549563288688660E-1   3.575690463185310E-2  -1.753124594688416E-2   4.973118007183075E-1  
 2.292000000000000E7    -1.446699351072311E-2   4.970239102840424E-1   8.567576408386231E-1   3.310916200280190E-2   8.559570312500000E-1   3.354193270206451E-2  -1.647683978080750E-2   4.953249990940094E-1  
 2.294000000000000E7    -1.321122050285339E-2   4.946736097335815E-1   8.583799600601196E-1   3.074411302804947E-2   8.571729660034180E-1   3.090267255902290E-2  -1.548030227422714E-2   4.934468567371368E-1  
 2.296000000000000E7    -1.193284243345261E-2   4.929106831550598E-1   8.596678972244263E-1   2.846381068229675E-2   8.593063950538635E-1   2.841969206929207E-2  -1.294280588626862E-2   4.900433719158173E-1  
 2.298000000000000E7    -1.000405848026276E-2   4.907867908477783E-1   8.612148761749268E-1   2.604844048619270E-2   8.601967096328735E-1   2.604595944285393E-2  -1.209916919469833E-2   4.885804057121277E-1  
 2.300000000000000E7    -8.718408644199371E-3   4.887143075466156E-1   8.623708486557007E-1   2.386561781167984E-2   8.612492084503174E-1   2.299031242728233E-2  -1.079744845628738E-2   4.868394732475281E-1  
 2.302000000000000E7    -7.388629019260407E-3   4.864671826362610E-1   8.635715246200562E-1   2.094180881977081E-2   8.630023598670960E-1   2.099667116999626E-2  -8.187912404537201E-3   4.841460585594177E-1  
 2.304000000000000E7    -5.653806030750275E-3   4.844458103179932E-1   8.648787736892700E-1   1.821254938840866E-2   8.638328909873962E-1   1.847479119896889E-2  -7.118254899978638E-3   4.821009337902069E-1  
 2.306000000000000E7    -4.383124411106110E-3   4.819446802139282E-1   8.656330704689026E-1   1.579204201698303E-2   8.652669191360474E-1   1.565207168459892E-2  -5.711063742637634E-3   4.802443981170654E-1  
 2.308000000000000E7    -2.109952270984650E-3   4.799096584320068E-1   8.673081994056702E-1   1.344983652234078E-2   8.668000102043152E-1   1.354929432272911E-2  -4.069194197654724E-3   4.775152206420898E-1  
 2.310000000000000E7    -1.021772623062134E-3   4.780856370925903E-1   8.679077625274658E-1   1.078001409769058E-2   8.679404258728027E-1   1.091372221708298E-2  -2.803906798362732E-3   4.751996397972107E-1  
 2.312000000000000E7     2.176165435230359E-4   4.757352769374847E-1   8.695001602172852E-1   8.643168956041336E-3   8.688611984252930E-1   7.724795490503311E-3  -1.634955406188965E-3   4.728540778160095E-1  
 2.314000000000000E7     1.401580870151520E-3   4.730948507785797E-1   8.707087039947510E-1   5.396123975515366E-3   8.703012466430664E-1   5.377687513828278E-3  -3.107041411567479E-4   4.711177051067352E-1  
 2.316000000000000E7     3.272265195846558E-3   4.711791574954987E-1   8.723246455192566E-1   3.066334873437882E-3   8.719041347503662E-1   2.424139529466629E-3   1.162484288215637E-3   4.682015180587769E-1  
 2.318000000000000E7     4.861295223236084E-3   4.682594537734985E-1   8.737466335296631E-1   2.491735212970525E-4   8.728440403938294E-1   2.473331696819514E-4   2.392031252384186E-3   4.668382108211517E-1  
 2.320000000000000E7     5.973033607006073E-3   4.660904109477997E-1   8.747605085372925E-1  -2.393025904893875E-3   8.741005659103394E-1  -2.653691917657852E-3   3.758855164051056E-3   4.639256298542023E-1  
 2.322000000000000E7     6.764523684978485E-3   4.644220173358917E-1   8.754127621650696E-1  -5.134068429470062E-3   8.751441240310669E-1  -5.054574459791184E-3   5.409419536590576E-3   4.620138108730316E-1  
 2.324000000000000E7     8.736342191696167E-3   4.615838527679443E-1   8.771633505821228E-1  -7.874071598052979E-3   8.757584095001221E-1  -7.730163633823395E-3   6.713077425956726E-3   4.601054787635803E-1  
 2.326000000000000E7     1.035258173942566E-2   4.592553973197937E-1   8.779140114784241E-1  -1.017070934176445E-2   8.774806857109070E-1  -1.013839058578014E-2   8.265875279903412E-3   4.579324126243591E-1  
 2.328000000000000E7     1.249324530363083E-2   4.565026760101318E-1   8.796377778053284E-1  -1.249147579073906E-2   8.786436319351196E-1  -1.294068992137909E-2   9.424768388271332E-3   4.551206827163696E-1  
 2.330000000000000E7     1.329024881124497E-2   4.548904299736023E-1   8.804357051849365E-1  -1.534869894385338E-2   8.794190287590027E-1  -1.589569449424744E-2   1.065961271524429E-2   4.527821838855743E-1  
 2.332000000000000E7     1.486548781394959E-2   4.518136382102966E-1   8.821207880973816E-1  -1.764959469437599E-2   8.809219598770142E-1  -1.860442012548447E-2   1.233198493719101E-2   4.498206973075867E-1  
 2.334000000000000E7     1.592910289764404E-2   4.495247304439545E-1   8.832003474235535E-1  -2.090215496718884E-2   8.817003965377808E-1  -2.096702903509140E-2   1.317763328552246E-2   4.482430219650269E-1  
 2.336000000000000E7     1.702830195426941E-2   4.469876289367676E-1   8.841341137886047E-1  -2.337891794741154E-2   8.830012679100037E-1  -2.347807958722115E-2   1.536630094051361E-2   4.456744790077210E-1  
 2.338000000000000E7     1.864632964134216E-2   4.448737800121307E-1   8.852425813674927E-1  -2.631200104951859E-2   8.839954733848572E-1  -2.659888006746769E-2   1.573067158460617E-2   4.432729780673981E-1  
 2.340000000000000E7     2.001842856407166E-2   4.432634413242340E-1   8.861127495765686E-1  -2.919301763176918E-2   8.851829767227173E-1  -2.917343936860561E-2   1.716184616088867E-2   4.407044947147369E-1  
 2.342000000000000E7     2.001380920410156E-2   4.402951002120972E-1   8.870471119880676E-1  -3.238321840763092E-2   8.859788179397583E-1  -3.223487734794617E-2   1.862294226884842E-2   4.386174678802490E-1  
 2.344000000000000E7     2.155627310276032E-2   4.373136758804321E-1   8.883645534515381E-1  -3.511048853397369E-2   8.873585462570190E-1  -3.545756638050079E-2   1.965411007404327E-2   4.361194670200348E-1  
 2.346000000000000E7     2.312203496694565E-2   4.349958598613739E-1   8.895958065986633E-1  -3.768398985266686E-2   8.882663249969482E-1  -3.729902580380440E-2   2.179759740829468E-2   4.337525367736816E-1  
 2.348000000000000E7     2.425926923751831E-2   4.326755404472351E-1   8.899790048599243E-1  -4.028044641017914E-2   8.892664313316345E-1  -4.064162075519562E-2   2.293785661458969E-2   4.312585890293121E-1  
 2.350000000000000E7     2.481351047754288E-2   4.299342632293701E-1   8.911845684051514E-1  -4.345921427011490E-2   8.903737664222717E-1  -4.324744269251823E-2   2.429869771003723E-2   4.287524819374085E-1  
 2.352000000000000E7     2.715013176202774E-2   4.278666377067566E-1   8.922292590141296E-1  -4.615095257759094E-2   8.914909362792969E-1  -4.595162719488144E-2   2.566044777631760E-2   4.256694316864014E-1  
 2.354000000000000E7     2.810263633728027E-2   4.249731004238129E-1   8.933664560317993E-1  -4.916126281023026E-2   8.927004933357239E-1  -4.874096065759659E-2   2.663359045982361E-2   4.240759015083313E-1  
 2.356000000000000E7     2.949704229831696E-2   4.227519035339356E-1   8.942165374755859E-1  -5.193608999252319E-2   8.934820890426636E-1  -5.200940370559692E-2   2.729485929012299E-2   4.212693572044373E-1  
 2.358000000000000E7     3.025312721729279E-2   4.202769994735718E-1   8.950963616371155E-1  -5.455250293016434E-2   8.946884870529175E-1  -5.478275194764137E-2   2.920966595411301E-2   4.183512926101685E-1  
 2.360000000000000E7     3.152504563331604E-2   4.181551635265350E-1   8.961625099182129E-1  -5.795017629861832E-2   8.955725431442261E-1  -5.776557698845863E-2   2.962388843297958E-2   4.159244596958160E-1  
 2.362000000000000E7     3.258395940065384E-2   4.154460430145264E-1   8.971418738365173E-1  -6.070838868618012E-2   8.967463374137878E-1  -6.104815751314163E-2   3.009818494319916E-2   4.133219718933106E-1  
 2.364000000000000E7     3.399696201086044E-2   4.124974310398102E-1   8.981285095214844E-1  -6.349870562553406E-2   8.971831202507019E-1  -6.325602531433106E-2   3.237544745206833E-2   4.109266996383667E-1  
 2.366000000000000E7     3.575005382299423E-2   4.106055498123169E-1   8.989158868789673E-1  -6.603792309761047E-2   8.982359766960144E-1  -6.669367849826813E-2   3.313599526882172E-2   4.080803394317627E-1  
 2.368000000000000E7     3.600626438856125E-2   4.074672162532806E-1   9.001012444496155E-1  -6.960284709930420E-2   8.992857336997986E-1  -6.957672536373138E-2   3.419249504804611E-2   4.052319824695587E-1  
 2.370000000000000E7     3.747808933258057E-2   4.049540162086487E-1   9.009097814559937E-1  -7.246898859739304E-2   9.002428054809570E-1  -7.234011590480804E-2   3.543943911790848E-2   4.029598236083984E-1  
 2.372000000000000E7     3.843259811401367E-2   4.018295407295227E-1   9.017771482467651E-1  -7.560563087463379E-2   9.009864926338196E-1  -7.518199831247330E-2   3.637368977069855E-2   4.006557464599609E-1  
 2.374000000000000E7     3.991775959730148E-2   3.990219533443451E-1   9.028099775314331E-1  -7.826839387416840E-2   9.017976522445679E-1  -7.851357758045197E-2   3.677960485219955E-2   3.979504108428955E-1  
 2.376000000000000E7     4.025992006063461E-2   3.967248797416687E-1   9.035711884498596E-1  -8.117909729480743E-2   9.027558565139771E-1  -8.128336071968079E-2   3.865496069192886E-2   3.950191736221314E-1  
 2.378000000000000E7     4.199533909559250E-2   3.937225639820099E-1   9.045880436897278E-1  -8.437804132699966E-2   9.032683372497559E-1  -8.437422662973404E-2   3.896802663803101E-2   3.929572701454163E-1  
 2.380000000000000E7     4.227503389120102E-2   3.916200399398804E-1   9.052839875221252E-1  -8.753996342420578E-2   9.045124053955078E-1  -8.730061352252960E-2   4.051394015550613E-2   3.902762532234192E-1  
 2.382000000000000E7     4.335480183362961E-2   3.885567784309387E-1   9.063640832901001E-1  -9.021635353565216E-2   9.054480791091919E-1  -9.067547321319580E-2   4.122066497802734E-2   3.867727220058441E-1  
 2.384000000000000E7     4.495727270841599E-2   3.859990835189819E-1   9.068628549575806E-1  -9.317351877689362E-2   9.057510495185852E-1  -9.358773380517960E-2   4.241916537284851E-2   3.850474357604981E-1  
 2.386000000000000E7     4.478551447391510E-2   3.830846846103668E-1   9.079028964042664E-1  -9.698533266782761E-2   9.067452549934387E-1  -9.690369665622711E-2   4.279018938541412E-2   3.820774853229523E-1  
 2.388000000000000E7     4.636217653751373E-2   3.798287510871887E-1   9.081540107727051E-1  -9.958405792713165E-2   9.079852700233460E-1  -9.956407546997070E-2   4.410820454359055E-2   3.790884912014008E-1  
 2.390000000000000E7     4.684939235448837E-2   3.774975538253784E-1   9.089787602424622E-1  -1.029634475708008E-1   9.082012176513672E-1  -1.030486226081848E-1   4.467533528804779E-2   3.762459158897400E-1  
 2.392000000000000E7     4.812920093536377E-2   3.747998476028442E-1   9.099942445755005E-1  -1.059041619300842E-1   9.090776443481445E-1  -1.058743298053742E-1   4.588240385055542E-2   3.736050724983215E-1  
 2.394000000000000E7     4.919198155403137E-2   3.727493286132813E-1   9.102420806884766E-1  -1.087695285677910E-1   9.097926020622253E-1  -1.088399142026901E-1   4.723348468542099E-2   3.701790273189545E-1  
 2.396000000000000E7     5.028047785162926E-2   3.691630959510803E-1   9.115825891494751E-1  -1.119458377361298E-1   9.105351567268372E-1  -1.120063588023186E-1   4.775276035070419E-2   3.679332733154297E-1  
 2.398000000000000E7     5.070770531892777E-2   3.667587637901306E-1   9.114644527435303E-1  -1.154116839170456E-1   9.110243916511536E-1  -1.154659092426300E-1   4.905671626329422E-2   3.658413290977478E-1  
 2.400000000000000E7     5.161334946751595E-2   3.636975884437561E-1   9.124971628189087E-1  -1.183035895228386E-1   9.118672609329224E-1  -1.180653423070908E-1   4.998628422617912E-2   3.626202940940857E-1  
 2.402000000000000E7     5.217312276363373E-2   3.610369265079498E-1   9.132853150367737E-1  -1.217965334653854E-1   9.126452803611755E-1  -1.213763207197189E-1   5.075522884726524E-2   3.597088754177094E-1  
 2.404000000000000E7     5.313340201973915E-2   3.578304052352905E-1   9.140404462814331E-1  -1.245780289173126E-1   9.135153293609619E-1  -1.246454417705536E-1   5.155637115240097E-2   3.563069999217987E-1  
 2.406000000000000E7     5.443782359361649E-2   3.551563620567322E-1   9.143922924995422E-1  -1.279561370611191E-1   9.139690995216370E-1  -1.276963353157044E-1   5.204012617468834E-2   3.541254997253418E-1  
 2.408000000000000E7     5.594130977988243E-2   3.522115051746368E-1   9.151769876480103E-1  -1.310116648674011E-1   9.142079949378967E-1  -1.306082159280777E-1   5.331591144204140E-2   3.511454463005066E-1  
 2.410000000000000E7     5.631562322378159E-2   3.500289022922516E-1   9.156094193458557E-1  -1.341657191514969E-1   9.148941040039063E-1  -1.346041113138199E-1   5.304206907749176E-2   3.483546078205109E-1  
 2.412000000000000E7     5.675257742404938E-2   3.463272750377655E-1   9.163776040077210E-1  -1.375816911458969E-1   9.150937199592590E-1  -1.373879462480545E-1   5.428926646709442E-2   3.461089730262756E-1  
 2.414000000000000E7     5.713748186826706E-2   3.435032367706299E-1   9.167658090591431E-1  -1.407625973224640E-1   9.157577157020569E-1  -1.412498801946640E-1   5.493909493088722E-2   3.436036407947540E-1  
 2.416000000000000E7     5.767687782645226E-2   3.411306738853455E-1   9.175416231155396E-1  -1.442867964506149E-1   9.169527292251587E-1  -1.439277380704880E-1   5.582730472087860E-2   3.402377963066101E-1  
 2.418000000000000E7     5.884741246700287E-2   3.385234475135803E-1   9.178691506385803E-1  -1.473608613014221E-1   9.173073172569275E-1  -1.470229923725128E-1   5.649220198392868E-2   3.367219269275665E-1  
 2.420000000000000E7     5.915196239948273E-2   3.351273536682129E-1   9.182700514793396E-1  -1.506469845771790E-1   9.174586534500122E-1  -1.504951268434525E-1   5.743406713008881E-2   3.351323902606964E-1  
 2.422000000000000E7     5.968201532959938E-2   3.320703506469727E-1   9.187514781951904E-1  -1.537410169839859E-1   9.178578257560730E-1  -1.539891213178635E-1   5.739057809114456E-2   3.317761719226837E-1  
 2.424000000000000E7     6.068428233265877E-2   3.291115760803223E-1   9.196411967277527E-1  -1.569857895374298E-1   9.184057116508484E-1  -1.572002917528153E-1   5.833644047379494E-2   3.284028172492981E-1  
 2.426000000000000E7     6.122452020645142E-2   3.263984024524689E-1   9.197868704795837E-1  -1.602162271738052E-1   9.185888171195984E-1  -1.598968654870987E-1   5.924455821514130E-2   3.258607983589172E-1  
 2.428000000000000E7     6.158666312694550E-2   3.235712051391602E-1   9.199219346046448E-1  -1.633847355842590E-1   9.191509485244751E-1  -1.638108789920807E-1   5.939557403326035E-2   3.230458498001099E-1  
 2.430000000000000E7     6.279502809047699E-2   3.207375109195709E-1   9.207294583320618E-1  -1.667038947343826E-1   9.191863536834717E-1  -1.667832434177399E-1   6.048128753900528E-2   3.197009265422821E-1  
 2.432000000000000E7     6.285053491592407E-2   3.177962899208069E-1   9.209458827972412E-1  -1.699989289045334E-1   9.200353622436523E-1  -1.700264066457748E-1   6.069004535675049E-2   3.167851567268372E-1  
 2.434000000000000E7     6.355786323547363E-2   3.139968514442444E-1   9.216615557670593E-1  -1.733463406562805E-1   9.202876687049866E-1  -1.728219240903854E-1   6.175391376018524E-2   3.136033415794373E-1  
 2.436000000000000E7     6.362909823656082E-2   3.120778203010559E-1   9.214482307434082E-1  -1.769815236330032E-1   9.207170605659485E-1  -1.769816726446152E-1   6.169459968805313E-2   3.109101355075836E-1  
 2.438000000000000E7     6.462597101926804E-2   3.084284961223602E-1   9.221965074539185E-1  -1.801729202270508E-1   9.212015271186829E-1  -1.798336058855057E-1   6.295453011989594E-2   3.080412447452545E-1  
 2.440000000000000E7     6.496082246303558E-2   3.061044812202454E-1   9.223113059997559E-1  -1.838057637214661E-1   9.213376641273499E-1  -1.835631877183914E-1   6.273162364959717E-2   3.043782413005829E-1  
 2.442000000000000E7     6.563255190849304E-2   3.029408156871796E-1   9.228494167327881E-1  -1.866210997104645E-1   9.216676950454712E-1  -1.868250668048859E-1   6.409748643636704E-2   3.016699552536011E-1  
 2.444000000000000E7     6.635513901710510E-2   2.999904751777649E-1   9.226912260055542E-1  -1.904371231794357E-1   9.222897291183472E-1  -1.904367059469223E-1   6.348031759262085E-2   2.983529567718506E-1  
 2.446000000000000E7     6.594972312450409E-2   2.971082925796509E-1   9.228963851928711E-1  -1.940222233533859E-1   9.219680428504944E-1  -1.940148770809174E-1   6.375415623188019E-2   2.963854968547821E-1  
 2.448000000000000E7     6.684987992048264E-2   2.934654951095581E-1   9.235606193542481E-1  -1.972940713167191E-1   9.222757220268250E-1  -1.973381638526917E-1   6.434164941310883E-2   2.930655479431152E-1  
 2.450000000000000E7     6.791515648365021E-2   2.906382977962494E-1   9.235954880714417E-1  -2.005749046802521E-1   9.227712154388428E-1  -2.003218680620194E-1   6.518726050853729E-2   2.898798584938049E-1  
 2.452000000000000E7     6.865728646516800E-2   2.872031927108765E-1   9.240357875823975E-1  -2.038312554359436E-1   9.227976202964783E-1  -2.041262984275818E-1   6.488181650638580E-2   2.868063151836395E-1  
 2.454000000000000E7     6.712964177131653E-2   2.842022478580475E-1   9.237439036369324E-1  -2.077652066946030E-1   9.232501983642578E-1  -2.073213905096054E-1   6.567529588937759E-2   2.835694849491119E-1  
 2.456000000000000E7     6.818635761737824E-2   2.816583812236786E-1   9.242551922798157E-1  -2.108879387378693E-1   9.230039119720459E-1  -2.104879766702652E-1   6.622737646102905E-2   2.804998755455017E-1  
 2.458000000000000E7     6.799856573343277E-2   2.780386805534363E-1   9.240977168083191E-1  -2.146174758672714E-1   9.234014749526978E-1  -2.140774577856064E-1   6.643439829349518E-2   2.773969769477844E-1  
 2.460000000000000E7     6.863480061292648E-2   2.756390571594238E-1   9.244027137756348E-1  -2.179363071918488E-1   9.230527281761169E-1  -2.177693545818329E-1   6.631752103567123E-2   2.740193307399750E-1  
 2.462000000000000E7     6.979969888925552E-2   2.721869349479675E-1   9.239844083786011E-1  -2.210730165243149E-1   9.230104684829712E-1  -2.207413762807846E-1   6.706901639699936E-2   2.722193896770477E-1  
 2.464000000000000E7     6.936202198266983E-2   2.693409621715546E-1   9.241086840629578E-1  -2.245511710643768E-1   9.238768815994263E-1  -2.243676185607910E-1   6.769749522209168E-2   2.679819166660309E-1  
 2.466000000000000E7     6.960538029670715E-2   2.653071880340576E-1   9.245614409446716E-1  -2.281759083271027E-1   9.235911369323731E-1  -2.277800738811493E-1   6.754095852375031E-2   2.647438645362854E-1  
 2.468000000000000E7     7.000055909156799E-2   2.629944682121277E-1   9.244064688682556E-1  -2.316238731145859E-1   9.236981868743897E-1  -2.313261926174164E-1   6.786932051181793E-2   2.622537612915039E-1  
 2.470000000000000E7     7.000461220741272E-2   2.600432634353638E-1   9.242862462997437E-1  -2.352146059274674E-1   9.235836267471314E-1  -2.345984280109406E-1   6.836281716823578E-2   2.590051889419556E-1  
 2.472000000000000E7     6.998321413993835E-2   2.568659782409668E-1   9.240647554397583E-1  -2.386972308158875E-1   9.235498905181885E-1  -2.388107329607010E-1   6.754997372627258E-2   2.556554079055786E-1  
 2.474000000000000E7     7.049848884344101E-2   2.533448338508606E-1   9.243369698524475E-1  -2.419157773256302E-1   9.234187006950378E-1  -2.415043860673904E-1   6.807071715593338E-2   2.528131604194641E-1  
 2.476000000000000E7     7.061755657196045E-2   2.498909682035446E-1   9.240497350692749E-1  -2.459164410829544E-1   9.234105348587036E-1  -2.452241927385330E-1   6.813681125640869E-2   2.495291233062744E-1  
 2.478000000000000E7     7.040062546730042E-2   2.473383247852325E-1   9.241544008255005E-1  -2.491298615932465E-1   9.228500723838806E-1  -2.489814758300781E-1   6.818925589323044E-2   2.463609576225281E-1  
 2.480000000000000E7     6.964371353387833E-2   2.444859892129898E-1   9.240199327468872E-1  -2.526591420173645E-1   9.233859181404114E-1  -2.522615194320679E-1   6.877677142620087E-2   2.436544001102448E-1  
 2.482000000000000E7     7.107127457857132E-2   2.412728220224381E-1   9.238365292549133E-1  -2.557768225669861E-1   9.227544665336609E-1  -2.558810710906982E-1   6.817975640296936E-2   2.406861484050751E-1  
 2.484000000000000E7     7.013939321041107E-2   2.372038960456848E-1   9.238098263740540E-1  -2.595406472682953E-1   9.229893088340759E-1  -2.593056559562683E-1   6.910993903875351E-2   2.374615669250488E-1  
 2.486000000000000E7     7.032858580350876E-2   2.352125942707062E-1   9.234240055084229E-1  -2.630351781845093E-1   9.227207303047180E-1  -2.629552185535431E-1   6.845659017562866E-2   2.334208190441132E-1  
 2.488000000000000E7     7.058212161064148E-2   2.310919463634491E-1   9.233261942863464E-1  -2.666125893592835E-1   9.226888418197632E-1  -2.665214538574219E-1   6.836306303739548E-2   2.307870090007782E-1  
 2.490000000000000E7     7.116651535034180E-2   2.281635105609894E-1   9.231053590774536E-1  -2.702814936637878E-1   9.220426082611084E-1  -2.698266506195068E-1   6.837576627731323E-2   2.280230522155762E-1  
 2.492000000000000E7     7.049421966075897E-2   2.249880284070969E-1   9.229123592376709E-1  -2.738107144832611E-1   9.224720597267151E-1  -2.736599445343018E-1   6.809963285923004E-2   2.241015136241913E-1  
 2.494000000000000E7     7.023158669471741E-2   2.215823978185654E-1   9.228199720382690E-1  -2.776476442813873E-1   9.217786788940430E-1  -2.772529721260071E-1   6.797131150960922E-2   2.214486449956894E-1  
 2.496000000000000E7     6.986033916473389E-2   2.180725485086441E-1   9.221238493919373E-1  -2.810795307159424E-1   9.215155839920044E-1  -2.805196940898895E-1   6.825458258390427E-2   2.184476107358933E-1  
 2.498000000000000E7     7.050494849681854E-2   2.152060866355896E-1   9.216228127479553E-1  -2.841503024101257E-1   9.211730360984802E-1  -2.840485572814941E-1   6.850998103618622E-2   2.147381603717804E-1  
 2.500000000000000E7     7.027095556259155E-2   2.122360467910767E-1   9.214119911193848E-1  -2.880244851112366E-1   9.207177162170410E-1  -2.873883247375488E-1   6.783517450094223E-2   2.117879539728165E-1  
 2.502000000000000E7     6.921543180942535E-2   2.087005674839020E-1   9.214375615119934E-1  -2.916287183761597E-1   9.201996922492981E-1  -2.913788557052612E-1   6.755056977272034E-2   2.085164487361908E-1  
 2.504000000000000E7     6.975167989730835E-2   2.051780372858048E-1   9.207482933998108E-1  -2.949464917182922E-1   9.200316071510315E-1  -2.945837974548340E-1   6.741418689489365E-2   2.053641229867935E-1  
 2.506000000000000E7     6.885577738285065E-2   2.026464194059372E-1   9.205912947654724E-1  -2.989243268966675E-1   9.191543459892273E-1  -2.983644902706146E-1   6.785216927528381E-2   2.026576697826386E-1  
 2.508000000000000E7     6.889794766902924E-2   1.993688046932221E-1   9.197468161582947E-1  -3.026703596115112E-1   9.189946055412293E-1  -3.019685447216034E-1   6.678836047649384E-2   1.991976797580719E-1  
 2.510000000000000E7     6.832875311374664E-2   1.957953274250031E-1   9.193359613418579E-1  -3.061884343624115E-1   9.185428023338318E-1  -3.056142628192902E-1   6.612548977136612E-2   1.964268088340759E-1  
 2.512000000000000E7     6.826746463775635E-2   1.924502253532410E-1   9.192287325859070E-1  -3.093712329864502E-1   9.178957939147949E-1  -3.094884753227234E-1   6.646122783422470E-2   1.927765607833862E-1  
 2.514000000000000E7     6.768580526113510E-2   1.892595589160919E-1   9.186729192733765E-1  -3.130220174789429E-1   9.176603555679321E-1  -3.128896653652191E-1   6.585358083248138E-2   1.893171072006226E-1  
 2.516000000000000E7     6.719034165143967E-2   1.862340569496155E-1   9.178727269172669E-1  -3.167820572853088E-1   9.172922968864441E-1  -3.165585100650787E-1   6.537316739559174E-2   1.860292404890060E-1  
 2.518000000000000E7     6.745637208223343E-2   1.832680851221085E-1   9.170222282409668E-1  -3.205603063106537E-1   9.162312746047974E-1  -3.197114467620850E-1   6.533379107713699E-2   1.835579723119736E-1  
 2.520000000000000E7     6.733220070600510E-2   1.802194118499756E-1   9.167597889900208E-1  -3.237678408622742E-1   9.157083034515381E-1  -3.235890865325928E-1   6.492412835359573E-2   1.800266802310944E-1  
 2.522000000000000E7     6.695929914712906E-2   1.774840056896210E-1   9.157631993293762E-1  -3.271550834178925E-1   9.150218963623047E-1  -3.273827731609345E-1   6.467348337173462E-2   1.768184006214142E-1  
 2.524000000000000E7     6.584635376930237E-2   1.734609156847000E-1   9.155786633491516E-1  -3.309735953807831E-1   9.144461154937744E-1  -3.308591842651367E-1   6.425910443067551E-2   1.739473938941956E-1  
 2.526000000000000E7     6.517826765775681E-2   1.698263734579086E-1   9.147219061851502E-1  -3.346435129642487E-1   9.138814210891724E-1  -3.344341218471527E-1   6.408217549324036E-2   1.700385510921478E-1  
 2.528000000000000E7     6.420699506998062E-2   1.674847751855850E-1   9.137098193168640E-1  -3.383873701095581E-1   9.132551550865173E-1  -3.381289541721344E-1   6.341489404439926E-2   1.670208722352982E-1  
 2.530000000000000E7     6.470081210136414E-2   1.641168743371964E-1   9.132335782051086E-1  -3.420291244983673E-1   9.123380184173584E-1  -3.415733277797699E-1   6.228842958807945E-2   1.640823781490326E-1  
 2.532000000000000E7     6.382855772972107E-2   1.602856516838074E-1   9.124755263328552E-1  -3.454764783382416E-1   9.118439555168152E-1  -3.452215790748596E-1   6.210681796073914E-2   1.607804596424103E-1  
 2.534000000000000E7     6.339026987552643E-2   1.568710505962372E-1   9.117875099182129E-1  -3.489376008510590E-1   9.111604094505310E-1  -3.488369584083557E-1   6.175078451633453E-2   1.574441939592362E-1  
 2.536000000000000E7     6.226428970694542E-2   1.537918746471405E-1   9.108944535255432E-1  -3.526641726493835E-1   9.101273417472839E-1  -3.524030745029450E-1   6.096867471933365E-2   1.542885899543762E-1  
 2.538000000000000E7     6.206655129790306E-2   1.511255651712418E-1   9.103192090988159E-1  -3.565712273120880E-1   9.091480374336243E-1  -3.559528291225433E-1   6.044235080480576E-2   1.511821597814560E-1  
 2.540000000000000E7     6.138173863291740E-2   1.477874666452408E-1   9.096378087997437E-1  -3.600386977195740E-1   9.084706306457520E-1  -3.592128455638886E-1   5.989924818277359E-2   1.474535763263702E-1  
 2.542000000000000E7     6.037855148315430E-2   1.440771520137787E-1   9.082590937614441E-1  -3.636266887187958E-1   9.079110622406006E-1  -3.630957603454590E-1   5.907327681779862E-2   1.446946412324905E-1  
 2.544000000000000E7     5.973990261554718E-2   1.410865187644959E-1   9.073038101196289E-1  -3.672027587890625E-1   9.067475199699402E-1  -3.668972551822662E-1   5.841958150267601E-2   1.414238810539246E-1  
 2.546000000000000E7     5.919519066810608E-2   1.381382197141647E-1   9.064837694168091E-1  -3.707425594329834E-1   9.057598114013672E-1  -3.704811334609985E-1   5.748384445905685E-2   1.387728899717331E-1  
 2.548000000000000E7     5.878205969929695E-2   1.346395462751389E-1   9.057448506355286E-1  -3.744437992572784E-1   9.049914479255676E-1  -3.737508654594421E-1   5.767296254634857E-2   1.350468099117279E-1  
 2.550000000000000E7     5.706750229001045E-2   1.312714070081711E-1   9.048298001289368E-1  -3.781486749649048E-1   9.035739302635193E-1  -3.776850700378418E-1   5.600151419639587E-2   1.316553205251694E-1  
 2.552000000000000E7     5.677428096532822E-2   1.283285617828369E-1   9.036163091659546E-1  -3.816649615764618E-1   9.027897119522095E-1  -3.812927007675171E-1   5.539923906326294E-2   1.286776512861252E-1  
 2.554000000000000E7     5.635450780391693E-2   1.243536695837975E-1   9.028245806694031E-1  -3.850166797637940E-1   9.018706083297730E-1  -3.846635818481445E-1   5.453267693519592E-2   1.253418922424316E-1  
 2.556000000000000E7     5.547372251749039E-2   1.219179034233093E-1   9.018213152885437E-1  -3.887469768524170E-1   9.008687138557434E-1  -3.885806798934937E-1   5.332266911864281E-2   1.218629479408264E-1  
 2.558000000000000E7     5.486430227756500E-2   1.184912100434303E-1   9.003698229789734E-1  -3.922372460365295E-1   8.998171687126160E-1  -3.918003141880035E-1   5.294315144419670E-2   1.185660064220429E-1  
 2.560000000000000E7     5.306167900562286E-2   1.149939522147179E-1   8.994757533073425E-1  -3.960159122943878E-1   8.986685276031494E-1  -3.954806625843048E-1   5.213905870914459E-2   1.157142147421837E-1  
 2.562000000000000E7     5.269989743828774E-2   1.123173311352730E-1   8.984463214874268E-1  -3.995081186294556E-1   8.973526358604431E-1  -3.991300761699677E-1   5.059228092432022E-2   1.124429702758789E-1  
 2.564000000000000E7     5.106995254755020E-2   1.090416386723518E-1   8.968908786773682E-1  -4.032280743122101E-1   8.966631889343262E-1  -4.028213918209076E-1   5.021356418728828E-2   1.088964492082596E-1  
 2.566000000000000E7     5.047919228672981E-2   1.051367372274399E-1   8.960900306701660E-1  -4.069819152355194E-1   8.952078223228455E-1  -4.065051972866058E-1   4.854950681328774E-2   1.066339910030365E-1  
 2.568000000000000E7     5.010627955198288E-2   1.021076217293739E-1   8.945322632789612E-1  -4.100139439105988E-1   8.940637707710266E-1  -4.101465940475464E-1   4.734830185770989E-2   1.034239977598190E-1  
 2.570000000000000E7     4.901571571826935E-2   9.925577789545059E-2   8.933973908424377E-1  -4.137216210365295E-1   8.927690386772156E-1  -4.130490720272064E-1   4.731142520904541E-2   1.010440662503243E-1  
 2.572000000000000E7     4.732834920287132E-2   9.654152393341065E-2   8.923343420028687E-1  -4.174040853977203E-1   8.915237784385681E-1  -4.171364307403565E-1   4.613362997770309E-2   9.660923480987549E-2  
 2.574000000000000E7     4.660513624548912E-2   9.272035956382752E-2   8.910407423973084E-1  -4.211907088756561E-1   8.901792168617249E-1  -4.203858971595764E-1   4.470894113183022E-2   9.365715086460114E-2  
 2.576000000000000E7     4.514568299055100E-2   8.988469094038010E-2   8.899016380310059E-1  -4.246136844158173E-1   8.889085650444031E-1  -4.242350161075592E-1   4.352686554193497E-2   9.058609604835510E-2  
 2.578000000000000E7     4.432838037610054E-2   8.660355210304260E-2   8.881030082702637E-1  -4.281501471996307E-1   8.876856565475464E-1  -4.275489449501038E-1   4.295458644628525E-2   8.730937540531158E-2  
 2.580000000000000E7     4.289980977773666E-2   8.294555544853210E-2   8.873869180679321E-1  -4.313586056232452E-1   8.859661817550659E-1  -4.310068190097809E-1   4.160030931234360E-2   8.394820988178253E-2  
 2.582000000000000E7     4.191727936267853E-2   8.017710596323013E-2   8.857083320617676E-1  -4.351652264595032E-1   8.845712542533875E-1  -4.351571500301361E-1   3.989194333553314E-2   8.074168860912323E-2  
 2.584000000000000E7     3.971446305513382E-2   7.675355672836304E-2   8.843259215354919E-1  -4.390735030174255E-1   8.835738897323608E-1  -4.381647109985352E-1   3.905231505632401E-2   7.767902314662933E-2  
 2.586000000000000E7     3.867571055889130E-2   7.379481196403503E-2   8.827604055404663E-1  -4.426023066043854E-1   8.819663524627686E-1  -4.421016871929169E-1   3.729995712637901E-2   7.497416436672211E-2  
 2.588000000000000E7     3.855899721384049E-2   7.119391858577728E-2   8.812978267669678E-1  -4.457956552505493E-1   8.806799650192261E-1  -4.454262852668762E-1   3.637553006410599E-2   7.151799649000168E-2  
 2.590000000000000E7     3.645929694175720E-2   6.699211895465851E-2   8.798189759254456E-1  -4.495123922824860E-1   8.791069984436035E-1  -4.489921927452087E-1   3.452033549547195E-2   6.862678378820419E-2  
 2.592000000000000E7     3.539816290140152E-2   6.463968753814697E-2   8.783273100852966E-1  -4.529635906219482E-1   8.775603175163269E-1  -4.525563716888428E-1   3.376879543066025E-2   6.532888114452362E-2  
 2.594000000000000E7     3.417183831334114E-2   6.179607659578323E-2   8.770079612731934E-1  -4.561821818351746E-1   8.756642341613770E-1  -4.563324451446533E-1   3.273928910493851E-2   6.206213682889938E-2  
 2.596000000000000E7     3.292117640376091E-2   5.804376676678658E-2   8.755712509155273E-1  -4.599491357803345E-1   8.743112087249756E-1  -4.593489468097687E-1   3.132099658250809E-2   5.893757194280624E-2  
 2.598000000000000E7     3.082093223929405E-2   5.500808358192444E-2   8.735798001289368E-1  -4.635100960731506E-1   8.729766011238098E-1  -4.630419909954071E-1   2.957060746848583E-2   5.611915141344070E-2  
 2.600000000000000E7     2.932388707995415E-2   5.235895887017250E-2   8.717946410179138E-1  -4.667693078517914E-1   8.715072870254517E-1  -4.665887355804443E-1   2.834800258278847E-2   5.338501930236816E-2  
 2.602000000000000E7     2.833390235900879E-2   4.877816513180733E-2   8.704296350479126E-1  -4.703505933284760E-1   8.696312904357910E-1  -4.700976014137268E-1   2.695672586560249E-2   4.994658008217812E-2  
 2.604000000000000E7     2.733779698610306E-2   4.582628980278969E-2   8.689421415328980E-1  -4.736509621143341E-1   8.680057525634766E-1  -4.736208617687225E-1   2.570490911602974E-2   4.633564502000809E-2  
 2.606000000000000E7     2.533154934644699E-2   4.269680008292198E-2   8.671680688858032E-1  -4.772127866744995E-1   8.661497235298157E-1  -4.770642518997192E-1   2.350712195038796E-2   4.392358288168907E-2  
 2.608000000000000E7     2.337079495191574E-2   3.992213681340218E-2   8.650025129318237E-1  -4.808814227581024E-1   8.645174503326416E-1  -4.800644218921661E-1   2.206087484955788E-2   4.079474136233330E-2  
 2.610000000000000E7     2.266255766153336E-2   3.664011508226395E-2   8.637352585792542E-1  -4.841782152652741E-1   8.623689413070679E-1  -4.836097657680512E-1   2.069415897130966E-2   3.787346184253693E-2  
 2.612000000000000E7     2.027788013219833E-2   3.312093019485474E-2   8.616597652435303E-1  -4.878756701946259E-1   8.610358238220215E-1  -4.871058464050293E-1   1.965818926692009E-2   3.488280996680260E-2  
 2.614000000000000E7     1.907910406589508E-2   3.044807910919190E-2   8.597874045372009E-1  -4.909022152423859E-1   8.593831062316895E-1  -4.907568693161011E-1   1.730092242360115E-2   3.185122460126877E-2  
 2.616000000000000E7     1.772617921233177E-2   2.697786688804627E-2   8.581461906433106E-1  -4.946297705173492E-1   8.572197556495667E-1  -4.939575791358948E-1   1.538833603262901E-2   2.901002764701843E-2  
 2.618000000000000E7     1.548377797007561E-2   2.440800517797470E-2   8.563255667686462E-1  -4.977602958679199E-1   8.554251790046692E-1  -4.976168274879456E-1   1.482481509447098E-2   2.587286382913590E-2  
 2.620000000000000E7     1.457571238279343E-2   2.162323147058487E-2   8.544417619705200E-1  -5.013305544853210E-1   8.535591959953308E-1  -5.007350444793701E-1   1.296635344624519E-2   2.211084216833115E-2  
 2.622000000000000E7     1.254643499851227E-2   1.898677647113800E-2   8.525055050849915E-1  -5.043772459030151E-1   8.519570827484131E-1  -5.042487382888794E-1   1.159303262829781E-2   1.946478337049484E-2  
 2.624000000000000E7     1.057556271553040E-2   1.525767892599106E-2   8.503611087799072E-1  -5.080648064613342E-1   8.500767946243286E-1  -5.074809789657593E-1   9.189143776893616E-3   1.710058748722076E-2  
 2.626000000000000E7     8.930854499340057E-3   1.279735565185547E-2   8.487232327461243E-1  -5.116722583770752E-1   8.478853106498718E-1  -5.106673836708069E-1   7.449790835380554E-3   1.371049135923386E-2  
 2.628000000000000E7     6.529867649078369E-3   1.024246215820313E-2   8.465272784233093E-1  -5.146006345748901E-1   8.459178805351257E-1  -5.143207311630249E-1   6.516821682453156E-3   1.083654910326004E-2  
 2.630000000000000E7     5.657963454723358E-3   6.924256682395935E-3   8.445918560028076E-1  -5.180041193962097E-1   8.440478444099426E-1  -5.175498127937317E-1   3.935933113098145E-3   7.278665900230408E-3  
 2.632000000000000E7     3.143794834613800E-3   2.579003572463989E-3   8.424000740051270E-1  -5.214080214500427E-1   8.419622182846069E-1  -5.210489034652710E-1   2.445153892040253E-3   5.440197885036469E-3  
 2.634000000000000E7     1.702301204204559E-3   5.345419049263001E-4   8.405001759529114E-1  -5.247301459312439E-1   8.401543498039246E-1  -5.243055224418640E-1   7.388144731521606E-4   1.923896372318268E-3  
 2.636000000000000E7    -2.160743169952184E-4  -2.866439521312714E-3   8.386173248291016E-1  -5.284538269042969E-1   8.379290103912354E-1  -5.272460579872131E-1  -1.368455588817596E-3  -6.492361426353455E-4  
 2.638000000000000E7    -1.788370311260223E-3  -4.970639944076538E-3   8.363639712333679E-1  -5.314344763755798E-1   8.356771469116211E-1  -5.306590795516968E-1  -3.417417407035828E-3  -4.093401134014130E-3  
 2.640000000000000E7    -4.123598337173462E-3  -8.699439465999603E-3   8.340979218482971E-1  -5.345756411552429E-1   8.336246013641357E-1  -5.341538786888123E-1  -4.806585609912872E-3  -6.427057087421417E-3  
 2.642000000000000E7    -5.434803664684296E-3  -1.109894365072250E-2   8.322960734367371E-1  -5.378547906875610E-1   8.313555717468262E-1  -5.374060273170471E-1  -6.973214447498322E-3  -9.765192866325378E-3  
 2.644000000000000E7    -7.449842989444733E-3  -1.406191289424896E-2   8.298608064651489E-1  -5.409666299819946E-1   8.295466303825378E-1  -5.402987599372864E-1  -9.118683636188507E-3  -1.263412088155747E-2  
 2.646000000000000E7    -9.950220584869385E-3  -1.722520589828491E-2   8.279270529747009E-1  -5.445174574851990E-1   8.273792266845703E-1  -5.434841513633728E-1  -1.108386367559433E-2  -1.525363326072693E-2  
 2.648000000000000E7    -1.183647662401199E-2  -1.955695450305939E-2   8.255667686462402E-1  -5.476434826850891E-1   8.247273564338684E-1  -5.468164086341858E-1  -1.307692378759384E-2  -1.746924966573715E-2  
 2.650000000000000E7    -1.386225968599320E-2  -2.261076867580414E-2   8.233462572097778E-1  -5.507071018218994E-1   8.226547837257385E-1  -5.498650074005127E-1  -1.457005739212036E-2  -2.010510861873627E-2  
 2.652000000000000E7    -1.526631414890289E-2  -2.588363736867905E-2   8.212149739265442E-1  -5.537096261978149E-1   8.205155134201050E-1  -5.532532930374146E-1  -1.705016195774078E-2  -2.327711880207062E-2  
 2.654000000000000E7    -1.838991791009903E-2  -2.742896229028702E-2   8.189903497695923E-1  -5.568600893020630E-1   8.183887600898743E-1  -5.564938187599182E-1  -1.870654523372650E-2  -2.647532522678375E-2  
 2.656000000000000E7    -1.952794939279556E-2  -3.137927502393723E-2   8.164253830909729E-1  -5.602515935897827E-1   8.160593509674072E-1  -5.594184398651123E-1  -2.111329883337021E-2  -2.907516807317734E-2  
 2.658000000000000E7    -2.276610583066940E-2  -3.347952663898468E-2   8.139391541481018E-1  -5.630718469619751E-1   8.137384057044983E-1  -5.631776452064514E-1  -2.259255200624466E-2  -3.191841393709183E-2  
 2.660000000000000E7    -2.496369183063507E-2  -3.647877275943756E-2   8.118757605552673E-1  -5.660101771354675E-1   8.112016320228577E-1  -5.661584734916687E-1  -2.501409500837326E-2  -3.485469520092011E-2  
 2.662000000000000E7    -2.660176157951355E-2  -3.879848867654800E-2   8.092228174209595E-1  -5.695100426673889E-1   8.088393807411194E-1  -5.691070556640625E-1  -2.713708579540253E-2  -3.711805492639542E-2  
 2.664000000000000E7    -2.916932851076126E-2  -4.179380834102631E-2   8.067555427551270E-1  -5.726601481437683E-1   8.066740632057190E-1  -5.723305344581604E-1  -3.022009134292603E-2  -3.980880230665207E-2  
 2.666000000000000E7    -3.057587891817093E-2  -4.458644241094589E-2   8.045590519905090E-1  -5.759445428848267E-1   8.041075468063355E-1  -5.751693844795227E-1  -3.152060508728027E-2  -4.274639487266541E-2  
 2.668000000000000E7    -3.297631442546845E-2  -4.756296426057816E-2   8.019891977310181E-1  -5.787401795387268E-1   8.014468550682068E-1  -5.783357620239258E-1  -3.334272652864456E-2  -4.570741951465607E-2  
 2.670000000000000E7    -3.549323976039887E-2  -5.012145638465881E-2   7.994731068611145E-1  -5.821251273155212E-1   7.991366982460022E-1  -5.808888673782349E-1  -3.661977499723434E-2  -4.753871262073517E-2  
 2.672000000000000E7    -3.811830282211304E-2  -5.301882326602936E-2   7.967569828033447E-1  -5.847332477569580E-1   7.967848181724548E-1  -5.844140052795410E-1  -3.886993229389191E-2  -5.002468824386597E-2  
 2.674000000000000E7    -4.051008075475693E-2  -5.528679490089417E-2   7.948039174079895E-1  -5.881482958793640E-1   7.939614057540894E-1  -5.872524380683899E-1  -4.107058793306351E-2  -5.405545979738236E-2  
 2.676000000000000E7    -4.253692924976349E-2  -5.791130661964417E-2   7.919350862503052E-1  -5.906752347946167E-1   7.917923927307129E-1  -5.902552604675293E-1  -4.293065518140793E-2  -5.609819293022156E-2  
 2.678000000000000E7    -4.462113976478577E-2  -5.957811325788498E-2   7.897394299507141E-1  -5.939579010009766E-1   7.889028787612915E-1  -5.932276248931885E-1  -4.571259766817093E-2  -5.885744094848633E-2  
 2.680000000000000E7    -4.669441282749176E-2  -6.250787526369095E-2   7.870904803276062E-1  -5.970293879508972E-1   7.864748835563660E-1  -5.962810516357422E-1  -4.755712300539017E-2  -6.130503118038178E-2  
 2.682000000000000E7    -4.944486171007156E-2  -6.563941389322281E-2   7.845921516418457E-1  -5.997403264045715E-1   7.837510704994202E-1  -5.989249348640442E-1  -5.029608309268951E-2  -6.265447288751602E-2  
 2.684000000000000E7    -5.189643800258637E-2  -6.824294477701187E-2   7.818755507469177E-1  -6.029070019721985E-1   7.813776135444641E-1  -6.016734242439270E-1  -5.254550278186798E-2  -6.566035747528076E-2  
 2.686000000000000E7    -5.444698035717011E-2  -7.096249610185623E-2   7.792773246765137E-1  -6.055383682250977E-1   7.786568403244019E-1  -6.051329374313355E-1  -5.457540601491928E-2  -6.937383860349655E-2  
 2.688000000000000E7    -5.636228621006012E-2  -7.353313267230988E-2   7.765129804611206E-1  -6.083962321281433E-1   7.761549949645996E-1  -6.078117489814758E-1  -5.776920169591904E-2  -7.083860784769058E-2  
 2.690000000000000E7    -5.899942666292191E-2  -7.571171224117279E-2   7.736557722091675E-1  -6.111434102058411E-1   7.734472155570984E-1  -6.108756065368652E-1  -5.947065353393555E-2  -7.309901714324951E-2  
 2.692000000000000E7    -6.192675977945328E-2  -7.787700742483139E-2   7.709593772888184E-1  -6.142270565032959E-1   7.705489993095398E-1  -6.136454939842224E-1  -6.260128319263458E-2  -7.670773565769196E-2  
 2.694000000000000E7    -6.449010968208313E-2  -8.060228824615479E-2   7.683899998664856E-1  -6.170814037322998E-1   7.678436040878296E-1  -6.164426803588867E-1  -6.459423154592514E-2  -7.836767286062241E-2  
 2.696000000000000E7    -6.671852618455887E-2  -8.271175622940064E-2   7.655777931213379E-1  -6.197071671485901E-1   7.653262019157410E-1  -6.194373965263367E-1  -6.736368685960770E-2  -8.055917918682098E-2  
 2.698000000000000E7    -6.982080638408661E-2  -8.540540933609009E-2   7.627340555191040E-1  -6.224278807640076E-1   7.624263763427734E-1  -6.220764517784119E-1  -6.918767094612122E-2  -8.312013745307922E-2  
 2.700000000000000E7    -7.066111266613007E-2  -8.734588325023651E-2   7.601183652877808E-1  -6.254699826240540E-1   7.596896290779114E-1  -6.248205900192261E-1  -7.188091427087784E-2  -8.542382717132568E-2  
 2.702000000000000E7    -7.388909161090851E-2  -9.033571928739548E-2   7.572675347328186E-1  -6.279414296150208E-1   7.568468451499939E-1  -6.275166869163513E-1  -7.563437521457672E-2  -8.772400021553040E-2  
 2.704000000000000E7    -7.697806507349014E-2  -9.207154065370560E-2   7.548991441726685E-1  -6.309959292411804E-1   7.540124654769898E-1  -6.300790309906006E-1  -7.777626812458038E-2  -9.023478627204895E-2  
 2.706000000000000E7    -7.977600395679474E-2  -9.444388747215271E-2   7.517245411872864E-1  -6.337630748748779E-1   7.512125372886658E-1  -6.331105232238770E-1  -8.063693344593048E-2  -9.331512451171875E-2  
 2.708000000000000E7    -8.254362642765045E-2  -9.641265124082565E-2   7.487851977348328E-1  -6.359906196594238E-1   7.484418749809265E-1  -6.359041333198547E-1  -8.295944333076477E-2  -9.503266960382462E-2  
 2.710000000000000E7    -8.525636792182922E-2  -9.895581007003784E-2   7.460884451866150E-1  -6.387780308723450E-1   7.454729080200195E-1  -6.383118629455566E-1  -8.523458987474442E-2  -9.714653342962265E-2  
 2.712000000000000E7    -8.812314271926880E-2  -1.016183197498322E-1   7.432387471199036E-1  -6.415370702743530E-1   7.426428794860840E-1  -6.409866809844971E-1  -8.857332170009613E-2  -9.921956062316895E-2  
 2.714000000000000E7    -8.938097953796387E-2  -1.044521033763886E-1   7.403672337532044E-1  -6.441788077354431E-1   7.397103905677795E-1  -6.435057520866394E-1  -9.077996015548706E-2  -1.016513183712959E-1  
 2.716000000000000E7    -9.289081394672394E-2  -1.059502065181732E-1   7.373534440994263E-1  -6.465483903884888E-1   7.368239164352417E-1  -6.458737254142761E-1  -9.385104477405548E-2  -1.039766371250153E-1  
 2.718000000000000E7    -9.601968526840210E-2  -1.086526811122894E-1   7.340855598449707E-1  -6.489031910896301E-1   7.338185906410217E-1  -6.489952802658081E-1  -9.638749063014984E-2  -1.062384471297264E-1  
 2.720000000000000E7    -9.873600304126740E-2  -1.104714199900627E-1   7.313131093978882E-1  -6.516858935356140E-1   7.310656309127808E-1  -6.512342095375061E-1  -9.883662313222885E-2  -1.081762164831162E-1  
 2.722000000000000E7    -1.009077876806259E-1  -1.127035766839981E-1   7.282637953758240E-1  -6.543756127357483E-1   7.279644012451172E-1  -6.536983847618103E-1  -1.018295139074326E-1  -1.114695966243744E-1  
 2.724000000000000E7    -1.043796688318253E-1  -1.152428686618805E-1   7.251761555671692E-1  -6.566227674484253E-1   7.251349687576294E-1  -6.563196182250977E-1  -1.046766489744186E-1  -1.122334003448486E-1  
 2.726000000000000E7    -1.072028502821922E-1  -1.167948991060257E-1   7.223634719848633E-1  -6.596489548683167E-1   7.219381928443909E-1  -6.581819653511047E-1  -1.073246970772743E-1  -1.143030971288681E-1  
 2.728000000000000E7    -1.100289970636368E-1  -1.185841858386993E-1   7.192664146423340E-1  -6.617914438247681E-1   7.189578413963318E-1  -6.612102985382080E-1  -1.099905818700790E-1  -1.169451177120209E-1  
 2.730000000000000E7    -1.122824549674988E-1  -1.214136183261871E-1   7.163182497024536E-1  -6.643936038017273E-1   7.158235907554627E-1  -6.638153791427612E-1  -1.132619604468346E-1  -1.191628575325012E-1  
 2.732000000000000E7    -1.147407740354538E-1  -1.230486631393433E-1   7.129818201065064E-1  -6.667666435241699E-1   7.131190299987793E-1  -6.659856438636780E-1  -1.165159046649933E-1  -1.200229227542877E-1  
 2.734000000000000E7    -1.174296438694000E-1  -1.248666048049927E-1   7.103848457336426E-1  -6.694921255111694E-1   7.095349431037903E-1  -6.683307886123657E-1  -1.185768246650696E-1  -1.229737624526024E-1  
 2.736000000000000E7    -1.208055764436722E-1  -1.272918879985809E-1   7.066819071769714E-1  -6.715301871299744E-1   7.065581679344177E-1  -6.712701320648193E-1  -1.206300407648087E-1  -1.246010810136795E-1  
 2.738000000000000E7    -1.243559718132019E-1  -1.291187703609467E-1   7.038125395774841E-1  -6.736364960670471E-1   7.034363150596619E-1  -6.735668182373047E-1  -1.240870058536530E-1  -1.267252713441849E-1  
 2.740000000000000E7    -1.274675130844116E-1  -1.316413581371307E-1   7.006976604461670E-1  -6.761705875396729E-1   7.004302740097046E-1  -6.756528615951538E-1  -1.271907389163971E-1  -1.287758350372315E-1  
 2.742000000000000E7    -1.292795836925507E-1  -1.330781280994415E-1   6.976404786109924E-1  -6.783508062362671E-1   6.972091197967529E-1  -6.781612038612366E-1  -1.301109343767166E-1  -1.299618035554886E-1  
 2.744000000000000E7    -1.331158280372620E-1  -1.350400149822235E-1   6.946738958358765E-1  -6.809499859809876E-1   6.940304040908814E-1  -6.802765130996704E-1  -1.326348185539246E-1  -1.323125660419464E-1  
 2.746000000000000E7    -1.357449591159821E-1  -1.364253163337708E-1   6.913734078407288E-1  -6.828340291976929E-1   6.911705732345581E-1  -6.825794577598572E-1  -1.351386755704880E-1  -1.341138184070587E-1  
 2.748000000000000E7    -1.388706266880035E-1  -1.381029784679413E-1   6.882293820381165E-1  -6.851983666419983E-1   6.876924037933350E-1  -6.843720078468323E-1  -1.393462121486664E-1  -1.358712613582611E-1  
 2.750000000000000E7    -1.420860141515732E-1  -1.399958431720734E-1   6.851839423179627E-1  -6.875365376472473E-1   6.846400499343872E-1  -6.869760751724243E-1  -1.420975029468536E-1  -1.373651921749115E-1  
 2.752000000000000E7    -1.446295231580734E-1  -1.426313072443008E-1   6.818163990974426E-1  -6.895112991333008E-1   6.813524961471558E-1  -6.891875863075256E-1  -1.454985737800598E-1  -1.396278291940689E-1  
 2.754000000000000E7    -1.474472582340241E-1  -1.440589129924774E-1   6.783276200294495E-1  -6.917579174041748E-1   6.781997084617615E-1  -6.913807392120361E-1  -1.475203633308411E-1  -1.413773447275162E-1  
 2.756000000000000E7    -1.502107679843903E-1  -1.457649022340775E-1   6.752532720565796E-1  -6.940464377403259E-1   6.750716567039490E-1  -6.935054659843445E-1  -1.505748629570007E-1  -1.433244645595551E-1  
 2.758000000000000E7    -1.534747034311295E-1  -1.476404666900635E-1   6.720367074012756E-1  -6.963882446289063E-1   6.721788644790649E-1  -6.956427693367004E-1  -1.531967669725418E-1  -1.436922401189804E-1  
 2.760000000000000E7    -1.566721946001053E-1  -1.489464938640595E-1   6.690146327018738E-1  -6.985459923744202E-1   6.681536436080933E-1  -6.972944140434265E-1  -1.565929055213928E-1  -1.465447247028351E-1  
 2.762000000000000E7    -1.593710482120514E-1  -1.511055082082748E-1   6.656825542449951E-1  -7.002313733100891E-1   6.649039983749390E-1  -7.000467181205750E-1  -1.586986482143402E-1  -1.487756073474884E-1  
 2.764000000000000E7    -1.628340333700180E-1  -1.523832529783249E-1   6.624914407730103E-1  -7.022882103919983E-1   6.619827151298523E-1  -7.017651200294495E-1  -1.627002358436585E-1  -1.500445902347565E-1  
 2.766000000000000E7    -1.660304069519043E-1  -1.544496268033981E-1   6.587197780609131E-1  -7.042484879493713E-1   6.589109897613525E-1  -7.037606239318848E-1  -1.656207740306854E-1  -1.513402462005615E-1  
 2.768000000000000E7    -1.684589385986328E-1  -1.550494581460953E-1   6.557494401931763E-1  -7.062389850616455E-1   6.555955410003662E-1  -7.056378722190857E-1  -1.691035032272339E-1  -1.532998234033585E-1  
 2.770000000000000E7    -1.722183972597122E-1  -1.575916707515717E-1   6.525253653526306E-1  -7.079935669898987E-1   6.519616246223450E-1  -7.080065608024597E-1  -1.711232215166092E-1  -1.546225249767304E-1  
 2.772000000000000E7    -1.750322878360748E-1  -1.588291078805924E-1   6.490460038185120E-1  -7.098671793937683E-1   6.486380100250244E-1  -7.098013162612915E-1  -1.746368110179901E-1  -1.565084755420685E-1  
 2.774000000000000E7    -1.775896996259689E-1  -1.601592451334000E-1   6.459103822708130E-1  -7.121807932853699E-1   6.451405286788940E-1  -7.111643552780151E-1  -1.786819100379944E-1  -1.582531332969666E-1  
 2.776000000000000E7    -1.813435256481171E-1  -1.624939888715744E-1   6.421519517898560E-1  -7.138936519622803E-1   6.420117616653442E-1  -7.130373120307922E-1  -1.816189289093018E-1  -1.592176705598831E-1  
 2.778000000000000E7    -1.845303177833557E-1  -1.636947989463806E-1   6.388460993766785E-1  -7.158203125000000E-1   6.385744810104370E-1  -7.151052355766296E-1  -1.849188953638077E-1  -1.613674610853195E-1  
 2.780000000000000E7    -1.881961077451706E-1  -1.645787805318832E-1   6.359261274337769E-1  -7.176074981689453E-1   6.351484656333923E-1  -7.172219157218933E-1  -1.874205172061920E-1  -1.621529757976532E-1  
 2.782000000000000E7    -1.906844377517700E-1  -1.669081151485443E-1   6.322787404060364E-1  -7.196071147918701E-1   6.315963864326477E-1  -7.188991904258728E-1  -1.903744637966156E-1  -1.642436981201172E-1  
 2.784000000000000E7    -1.943680793046951E-1  -1.676478981971741E-1   6.291124224662781E-1  -7.212901711463928E-1   6.280758976936340E-1  -7.205963730812073E-1  -1.936703920364380E-1  -1.660136282444000E-1  
 2.786000000000000E7    -1.977611482143402E-1  -1.695030629634857E-1   6.255139112472534E-1  -7.228580117225647E-1   6.247262358665466E-1  -7.225667834281921E-1  -1.967094838619232E-1  -1.662826985120773E-1  
 2.788000000000000E7    -2.005595564842224E-1  -1.709313094615936E-1   6.220285296440125E-1  -7.247442007064819E-1   6.218613386154175E-1  -7.245104312896729E-1  -1.997513622045517E-1  -1.680763661861420E-1  
 2.790000000000000E7    -2.039322555065155E-1  -1.719173043966293E-1   6.186268329620361E-1  -7.263817191123962E-1   6.181118488311768E-1  -7.257925271987915E-1  -2.032239139080048E-1  -1.700990200042725E-1  
 2.792000000000000E7    -2.075088918209076E-1  -1.733235716819763E-1   6.150467991828919E-1  -7.279308438301086E-1   6.149576902389526E-1  -7.277141809463501E-1  -2.067292034626007E-1  -1.706481575965881E-1  
 2.794000000000000E7    -2.102974653244019E-1  -1.741738021373749E-1   6.117613315582275E-1  -7.298500537872315E-1   6.115818619728088E-1  -7.292307615280151E-1  -2.092921435832977E-1  -1.717455089092255E-1  
 2.796000000000000E7    -2.128921896219254E-1  -1.762992739677429E-1   6.083385348320007E-1  -7.320436239242554E-1   6.078992486000061E-1  -7.307005524635315E-1  -2.130403518676758E-1  -1.728877723217011E-1  
 2.798000000000000E7    -2.163596302270889E-1  -1.773048937320709E-1   6.046563386917114E-1  -7.333138585090637E-1   6.047641634941101E-1  -7.323360443115234E-1  -2.165142595767975E-1  -1.744394600391388E-1  
 2.800000000000000E7    -2.199748307466507E-1  -1.783801615238190E-1   6.015029549598694E-1  -7.346640825271606E-1   6.012293696403503E-1  -7.341549992561340E-1  -2.183877825737000E-1  -1.750818938016892E-1  
 2.802000000000000E7    -2.231473773717880E-1  -1.796267330646515E-1   5.977126359939575E-1  -7.357459068298340E-1   5.975612998008728E-1  -7.352703213691711E-1  -2.227069288492203E-1  -1.770132184028626E-1  
 2.804000000000000E7    -2.262333929538727E-1  -1.809133440256119E-1   5.944188833236694E-1  -7.378335595130920E-1   5.942499041557312E-1  -7.374298572540283E-1  -2.255187630653381E-1  -1.777019798755646E-1  
 2.806000000000000E7    -2.286188453435898E-1  -1.817007362842560E-1   5.911389589309692E-1  -7.394174933433533E-1   5.905632376670837E-1  -7.389196157455444E-1  -2.289307415485382E-1  -1.789193451404572E-1  
 2.808000000000000E7    -2.321441173553467E-1  -1.823906004428864E-1   5.877257585525513E-1  -7.408967018127441E-1   5.874981284141541E-1  -7.402315139770508E-1  -2.317429333925247E-1  -1.796258985996246E-1  
 2.810000000000000E7    -2.359514981508255E-1  -1.841143071651459E-1   5.842951536178589E-1  -7.422039508819580E-1   5.834844708442688E-1  -7.416143417358398E-1  -2.356188893318176E-1  -1.812759339809418E-1  
 2.812000000000000E7    -2.390127927064896E-1  -1.856625676155090E-1   5.801349282264710E-1  -7.435190081596375E-1   5.805533528327942E-1  -7.435297966003418E-1  -2.383274435997009E-1  -1.824692636728287E-1  
 2.814000000000000E7    -2.424488067626953E-1  -1.862965077161789E-1   5.770465731620789E-1  -7.448913455009460E-1   5.770374536514282E-1  -7.441923022270203E-1  -2.420478612184525E-1  -1.832709908485413E-1  
 2.816000000000000E7    -2.453279495239258E-1  -1.873161345720291E-1   5.734370350837708E-1  -7.466843128204346E-1   5.731309652328491E-1  -7.458551526069641E-1  -2.448573410511017E-1  -1.847932785749435E-1  
 2.818000000000000E7    -2.497076690196991E-1  -1.880205124616623E-1   5.697601437568665E-1  -7.475191950798035E-1   5.697333216667175E-1  -7.473515272140503E-1  -2.478953748941422E-1  -1.857073307037354E-1  
 2.820000000000000E7    -2.525712847709656E-1  -1.896716505289078E-1   5.664042830467224E-1  -7.492626905441284E-1   5.663510560989380E-1  -7.482640743255615E-1  -2.516313791275024E-1  -1.855576038360596E-1  
 2.822000000000000E7    -2.557952404022217E-1  -1.900869607925415E-1   5.631231665611267E-1  -7.504246234893799E-1   5.626282691955566E-1  -7.498035430908203E-1  -2.548615038394928E-1  -1.866831183433533E-1  
 2.824000000000000E7    -2.589215040206909E-1  -1.912492513656616E-1   5.591199398040772E-1  -7.514696121215820E-1   5.594766736030579E-1  -7.515125274658203E-1  -2.574062347412109E-1  -1.877633631229401E-1  
 2.826000000000000E7    -2.619056403636932E-1  -1.916929185390472E-1   5.562567114830017E-1  -7.526956200599670E-1   5.556064248085022E-1  -7.524210810661316E-1  -2.608355581760407E-1  -1.884743273258209E-1  
 2.828000000000000E7    -2.661500871181488E-1  -1.926451921463013E-1   5.523293018341065E-1  -7.537763714790344E-1   5.521988272666931E-1  -7.535675764083862E-1  -2.648084461688995E-1  -1.897656023502350E-1  
 2.830000000000000E7    -2.685773372650147E-1  -1.935195028781891E-1   5.487236380577087E-1  -7.553959488868713E-1   5.485892891883850E-1  -7.550153732299805E-1  -2.678334712982178E-1  -1.906869113445282E-1  
 2.832000000000000E7    -2.720026969909668E-1  -1.948190927505493E-1   5.451493859291077E-1  -7.563479542732239E-1   5.452390313148499E-1  -7.560144662857056E-1  -2.713086903095245E-1  -1.917234659194946E-1  
 2.834000000000000E7    -2.756514251232147E-1  -1.950858682394028E-1   5.415236949920654E-1  -7.573689818382263E-1   5.419961810112000E-1  -7.574609518051148E-1  -2.744385600090027E-1  -1.919458210468292E-1  
 2.836000000000000E7    -2.777787148952484E-1  -1.955044865608215E-1   5.382268428802490E-1  -7.589496970176697E-1   5.380814671516419E-1  -7.582820057868958E-1  -2.786243259906769E-1  -1.933318376541138E-1  
 2.838000000000000E7    -2.822721600532532E-1  -1.963837146759033E-1   5.346258282661438E-1  -7.594350576400757E-1   5.344894528388977E-1  -7.591539025306702E-1  -2.815286517143250E-1  -1.931013464927673E-1  
 2.840000000000000E7    -2.852697968482971E-1  -1.974150687456131E-1   5.309109687805176E-1  -7.609277963638306E-1   5.312883853912354E-1  -7.607229351997376E-1  -2.844223976135254E-1  -1.941257864236832E-1  
 2.842000000000000E7    -2.885916233062744E-1  -1.972068250179291E-1   5.279247164726257E-1  -7.616487145423889E-1   5.273559689521790E-1  -7.614233493804932E-1  -2.882063388824463E-1  -1.950513571500778E-1  
 2.844000000000000E7    -2.922897934913635E-1  -1.984211504459381E-1   5.242750644683838E-1  -7.627419233322144E-1   5.237194895744324E-1  -7.625796794891357E-1  -2.901460230350494E-1  -1.956259906291962E-1  
 2.846000000000000E7    -2.950937747955322E-1  -1.991083621978760E-1   5.207003951072693E-1  -7.643724083900452E-1   5.199831724166870E-1  -7.635266780853272E-1  -2.943715751171112E-1  -1.966626942157745E-1  
 2.848000000000000E7    -2.990850508213043E-1  -1.994249522686005E-1   5.172012448310852E-1  -7.648863792419434E-1   5.164562463760376E-1  -7.645075321197510E-1  -2.978167533874512E-1  -1.970113068819046E-1  
 2.850000000000000E7    -3.026142120361328E-1  -2.006763964891434E-1   5.131945013999939E-1  -7.658954858779907E-1   5.133242607116699E-1  -7.653062343597412E-1  -3.008968532085419E-1  -1.971309930086136E-1  
 2.852000000000000E7    -3.053543269634247E-1  -2.004859894514084E-1   5.101463794708252E-1  -7.667823433876038E-1   5.094386339187622E-1  -7.665452361106873E-1  -3.043123781681061E-1  -1.983150690793991E-1  
 2.854000000000000E7    -3.082947432994843E-1  -2.013005465269089E-1   5.064046382904053E-1  -7.676903009414673E-1   5.060749650001526E-1  -7.671883702278137E-1  -3.076317608356476E-1  -1.984470039606094E-1  
 2.856000000000000E7    -3.117617964744568E-1  -2.016052603721619E-1   5.029281377792358E-1  -7.684820890426636E-1   5.028844475746155E-1  -7.685614824295044E-1  -3.105102181434631E-1  -1.987258791923523E-1  
 2.858000000000000E7    -3.156926333904266E-1  -2.026358097791672E-1   4.994083344936371E-1  -7.691205739974976E-1   4.987963140010834E-1  -7.692027091979981E-1  -3.136054575443268E-1  -1.998890787363052E-1  
 2.860000000000000E7    -3.189528286457062E-1  -2.023364454507828E-1   4.958546459674835E-1  -7.699606418609619E-1   4.954635500907898E-1  -7.701028585433960E-1  -3.168985247612000E-1  -2.000993788242340E-1  
 2.862000000000000E7    -3.216156661510468E-1  -2.030795663595200E-1   4.924331605434418E-1  -7.711157798767090E-1   4.914598762989044E-1  -7.704303860664368E-1  -3.207595348358154E-1  -2.010125219821930E-1  
 2.864000000000000E7    -3.255863785743713E-1  -2.038542777299881E-1   4.884174466133118E-1  -7.717639207839966E-1   4.883237183094025E-1  -7.713295817375183E-1  -3.240208923816681E-1  -2.011424601078033E-1  
 2.866000000000000E7    -3.286620378494263E-1  -2.034625411033630E-1   4.852331578731537E-1  -7.723679542541504E-1   4.849309921264648E-1  -7.724373936653137E-1  -3.263929486274719E-1  -2.008283138275147E-1  
 2.868000000000000E7    -3.319479525089264E-1  -2.047573626041412E-1   4.813535511493683E-1  -7.732253074645996E-1   4.814791381359100E-1  -7.728103995323181E-1  -3.304590284824371E-1  -2.013806998729706E-1  
 2.870000000000000E7    -3.349428772926331E-1  -2.046901136636734E-1   4.778039157390595E-1  -7.739602923393250E-1   4.780727326869965E-1  -7.736093997955322E-1  -3.336489796638489E-1  -2.014670222997665E-1  
 2.872000000000000E7    -3.381256163120270E-1  -2.050654590129852E-1   4.744312763214111E-1  -7.748116850852966E-1   4.743854403495789E-1  -7.742195725440979E-1  -3.374006152153015E-1  -2.018496692180634E-1  
 2.874000000000000E7    -3.417956829071045E-1  -2.048592865467072E-1   4.711319208145142E-1  -7.753977775573731E-1   4.704751074314117E-1  -7.749463915824890E-1  -3.400772511959076E-1  -2.025125473737717E-1  
 2.876000000000000E7    -3.450608551502228E-1  -2.056918889284134E-1   4.671435356140137E-1  -7.756870985031128E-1   4.671919941902161E-1  -7.756186723709106E-1  -3.435198664665222E-1  -2.026509344577789E-1  
 2.878000000000000E7    -3.481771349906921E-1  -2.052997350692749E-1   4.639410376548767E-1  -7.765861153602600E-1   4.635035097599030E-1  -7.757393717765808E-1  -3.477068543434143E-1  -2.024727463722229E-1  
 2.880000000000000E7    -3.514935076236725E-1  -2.059585452079773E-1   4.599926769733429E-1  -7.767838835716248E-1   4.597383141517639E-1  -7.767591476440430E-1  -3.502016663551331E-1  -2.030129134654999E-1  
 2.882000000000000E7    -3.551021218299866E-1  -2.064273655414581E-1   4.563576877117157E-1  -7.771354913711548E-1   4.564312100410461E-1  -7.770467400550842E-1  -3.535044193267822E-1  -2.028116583824158E-1  
 2.884000000000000E7    -3.589626848697662E-1  -2.064901590347290E-1   4.528970122337341E-1  -7.780110836029053E-1   4.529487490653992E-1  -7.775968313217163E-1  -3.569156527519226E-1  -2.033323943614960E-1  
 2.886000000000000E7    -3.613711595535278E-1  -2.063397169113159E-1   4.496603906154633E-1  -7.786701917648315E-1   4.495022296905518E-1  -7.782207131385803E-1  -3.600227534770966E-1  -2.035655975341797E-1  
 2.888000000000000E7    -3.650546073913574E-1  -2.067599594593048E-1   4.459712505340576E-1  -7.792093753814697E-1   4.456621110439301E-1  -7.786464095115662E-1  -3.631740212440491E-1  -2.039453238248825E-1  
 2.890000000000000E7    -3.684314787387848E-1  -2.061519920825958E-1   4.424600005149841E-1  -7.788420915603638E-1   4.423283040523529E-1  -7.788580060005188E-1  -3.665336966514587E-1  -2.037601768970490E-1  
 2.892000000000000E7    -3.715774416923523E-1  -2.062313407659531E-1   4.394464492797852E-1  -7.796649336814880E-1   4.388616979122162E-1  -7.793285846710205E-1  -3.700748383998871E-1  -2.035466879606247E-1  
 2.894000000000000E7    -3.750470876693726E-1  -2.066191583871841E-1   4.353277087211609E-1  -7.804636955261231E-1   4.353455901145935E-1  -7.796666622161865E-1  -3.730963766574860E-1  -2.036298364400864E-1  
 2.896000000000000E7    -3.781137466430664E-1  -2.065923660993576E-1   4.321022629737854E-1  -7.806857824325562E-1   4.319186210632324E-1  -7.803709506988525E-1  -3.762351274490356E-1  -2.034029364585877E-1  
 2.898000000000000E7    -3.811859488487244E-1  -2.068616747856140E-1   4.282127022743225E-1  -7.811468839645386E-1   4.284421205520630E-1  -7.807621359825134E-1  -3.798047602176666E-1  -2.034338116645813E-1  
 2.900000000000000E7    -3.844860494136810E-1  -2.069374918937683E-1   4.248508810997009E-1  -7.810944318771362E-1   4.247203171253204E-1  -7.812074422836304E-1  -3.828027844429016E-1  -2.037504315376282E-1  
 2.902000000000000E7    -3.879098594188690E-1  -2.068439275026321E-1   4.212885200977325E-1  -7.817908525466919E-1   4.212646484375000E-1  -7.811570763587952E-1  -3.863067030906677E-1  -2.034563422203064E-1  
 2.904000000000000E7    -3.903105854988098E-1  -2.060323953628540E-1   4.181783795356751E-1  -7.820935249328613E-1   4.177356660366058E-1  -7.814396023750305E-1  -3.898673653602600E-1  -2.037628889083862E-1  
 2.906000000000000E7    -3.943782448768616E-1  -2.068624794483185E-1   4.146623611450195E-1  -7.819862961769104E-1   4.143487215042114E-1  -7.815093398094177E-1  -3.929951786994934E-1  -2.032204270362854E-1  
 2.908000000000000E7    -3.975637853145599E-1  -2.062408030033112E-1   4.112302362918854E-1  -7.826128005981445E-1   4.109446704387665E-1  -7.819264531135559E-1  -3.958247900009155E-1  -2.033328711986542E-1  
 2.910000000000000E7    -4.008018374443054E-1  -2.059262245893478E-1   4.077051877975464E-1  -7.827712297439575E-1   4.073694646358490E-1  -7.823448181152344E-1  -3.985231816768646E-1  -2.032263875007629E-1  
 2.912000000000000E7    -4.043468832969666E-1  -2.057305127382278E-1   4.044071137905121E-1  -7.827618718147278E-1   4.037176668643951E-1  -7.827334403991699E-1  -4.020002484321594E-1  -2.029656320810318E-1  
 2.914000000000000E7    -4.067935347557068E-1  -2.056290060281754E-1   4.009311199188232E-1  -7.831212282180786E-1   4.006111025810242E-1  -7.826520800590515E-1  -4.057223796844482E-1  -2.025898396968842E-1  
 2.916000000000000E7    -4.103622436523438E-1  -2.056369334459305E-1   3.972645699977875E-1  -7.831056118011475E-1   3.974646031856537E-1  -7.823746204376221E-1  -4.087125957012177E-1  -2.016999125480652E-1  
 2.918000000000000E7    -4.128140509128571E-1  -2.052108943462372E-1   3.936616182327271E-1  -7.834691405296326E-1   3.938048779964447E-1  -7.829462289810181E-1  -4.120906591415405E-1  -2.020758390426636E-1  
 2.920000000000000E7    -4.170331060886383E-1  -2.056713998317719E-1   3.901618719100952E-1  -7.835174202919006E-1   3.900674581527710E-1  -7.830466032028198E-1  -4.149645268917084E-1  -2.019926309585571E-1  
 2.922000000000000E7    -4.204195737838745E-1  -2.047235965728760E-1   3.869925737380981E-1  -7.831332087516785E-1   3.867087960243225E-1  -7.831377387046814E-1  -4.186334609985352E-1  -2.016969621181488E-1  
 2.924000000000000E7    -4.233151674270630E-1  -2.045290172100067E-1   3.834507465362549E-1  -7.834381461143494E-1   3.831802606582642E-1  -7.831612229347229E-1  -4.216050207614899E-1  -2.018144875764847E-1  
 2.926000000000000E7    -4.266382455825806E-1  -2.035564929246903E-1   3.804404139518738E-1  -7.835682034492493E-1   3.800270855426788E-1  -7.831176519393921E-1  -4.242367148399353E-1  -2.009802907705307E-1  
 2.928000000000000E7    -4.297202825546265E-1  -2.035659402608872E-1   3.768046498298645E-1  -7.834955453872681E-1   3.764926493167877E-1  -7.828912138938904E-1  -4.278045296669006E-1  -2.006144225597382E-1  
 2.930000000000000E7    -4.326475858688355E-1  -2.035856544971466E-1   3.729509413242340E-1  -7.840363979339600E-1   3.733478188514710E-1  -7.834088802337647E-1  -4.303386807441711E-1  -2.003911733627319E-1  
 2.932000000000000E7    -4.354338645935059E-1  -2.027046233415604E-1   3.699505031108856E-1  -7.838298678398132E-1   3.696547448635101E-1  -7.831964492797852E-1  -4.341072440147400E-1  -2.001091241836548E-1  
 2.934000000000000E7    -4.391119480133057E-1  -2.027181386947632E-1   3.666489124298096E-1  -7.834248542785645E-1   3.661455512046814E-1  -7.832515835762024E-1  -4.365512132644653E-1  -1.999546587467194E-1  
 2.936000000000000E7    -4.432458877563477E-1  -2.022386789321899E-1   3.628746867179871E-1  -7.829995751380920E-1   3.628932237625122E-1  -7.827786207199097E-1  -4.403814375400543E-1  -1.991618424654007E-1  
 2.938000000000000E7    -4.451828300952911E-1  -2.019535452127457E-1   3.596920669078827E-1  -7.833936810493469E-1   3.595672547817230E-1  -7.828335762023926E-1  -4.437986314296722E-1  -1.983299553394318E-1  
 2.940000000000000E7    -4.485593736171722E-1  -2.011100202798843E-1   3.566314280033112E-1  -7.833471298217773E-1   3.564983606338501E-1  -7.826926708221436E-1  -4.461151063442230E-1  -1.978722959756851E-1  
 2.942000000000000E7    -4.517236948013306E-1  -2.009478658437729E-1   3.529973030090332E-1  -7.830578088760376E-1   3.529394268989563E-1  -7.830129861831665E-1  -4.498163163661957E-1  -1.977816224098206E-1  
 2.944000000000000E7    -4.551924467086792E-1  -2.003057003021240E-1   3.498722612857819E-1  -7.826887369155884E-1   3.496199548244476E-1  -7.828340530395508E-1  -4.524487257003784E-1  -1.973482072353363E-1  
 2.946000000000000E7    -4.585272967815399E-1  -2.003133296966553E-1   3.461082279682159E-1  -7.823604941368103E-1   3.463544249534607E-1  -7.824597358703613E-1  -4.553731083869934E-1  -1.967714130878449E-1  
 2.948000000000000E7    -4.606289565563202E-1  -1.993796378374100E-1   3.428960442543030E-1  -7.827216386795044E-1   3.427449166774750E-1  -7.823062539100647E-1  -4.586313962936401E-1  -1.962423324584961E-1  
 2.950000000000000E7    -4.640639722347260E-1  -1.986908912658691E-1   3.397465348243713E-1  -7.821125984191895E-1   3.395539522171021E-1  -7.819566130638123E-1  -4.620972275733948E-1  -1.954578757286072E-1  
 2.952000000000000E7    -4.671306610107422E-1  -1.981530487537384E-1   3.360587954521179E-1  -7.819963097572327E-1   3.361385464668274E-1  -7.818872332572937E-1  -4.650422334671021E-1  -1.949267983436585E-1  
 2.954000000000000E7    -4.701726436614990E-1  -1.974810659885407E-1   3.329823017120361E-1  -7.816151380538940E-1   3.329387903213501E-1  -7.815341353416443E-1  -4.682494401931763E-1  -1.939864456653595E-1  
 2.956000000000000E7    -4.734838008880615E-1  -1.967922151088715E-1   3.296312689781189E-1  -7.816037535667419E-1   3.294680416584015E-1  -7.811567187309265E-1  -4.712912738323212E-1  -1.940353214740753E-1  
 2.958000000000000E7    -4.761320650577545E-1  -1.962980329990387E-1   3.267157077789307E-1  -7.815741896629334E-1   3.258285224437714E-1  -7.813861370086670E-1  -4.735143184661865E-1  -1.933315396308899E-1  
 2.960000000000000E7    -4.794853329658508E-1  -1.952040344476700E-1   3.235089480876923E-1  -7.809178233146668E-1   3.231365084648132E-1  -7.808662652969360E-1  -4.763517677783966E-1  -1.921710073947907E-1  
 2.962000000000000E7    -4.823235869407654E-1  -1.950497180223465E-1   3.197227418422699E-1  -7.803770303726196E-1   3.197954893112183E-1  -7.802565693855286E-1  -4.801090359687805E-1  -1.916717439889908E-1  
 2.964000000000000E7    -4.854955673217773E-1  -1.935947835445404E-1   3.166577517986298E-1  -7.802767753601074E-1   3.163750767707825E-1  -7.800529599189758E-1  -4.827543199062347E-1  -1.912482976913452E-1  
 2.966000000000000E7    -4.878597259521484E-1  -1.930723190307617E-1   3.133780956268311E-1  -7.799256443977356E-1   3.127900063991547E-1  -7.794385552406311E-1  -4.861586689949036E-1  -1.907604038715363E-1  
 2.968000000000000E7    -4.916551113128662E-1  -1.923117339611054E-1   3.102257549762726E-1  -7.795368432998657E-1   3.097212314605713E-1  -7.789812684059143E-1  -4.894169569015503E-1  -1.897359937429428E-1  
 2.970000000000000E7    -4.942564666271210E-1  -1.916121393442154E-1   3.068654835224152E-1  -7.793555259704590E-1   3.063723444938660E-1  -7.794136404991150E-1  -4.914915263652802E-1  -1.890805363655090E-1  
 2.972000000000000E7    -4.972688555717468E-1  -1.910493671894074E-1   3.031098246574402E-1  -7.787160277366638E-1   3.039513826370239E-1  -7.785906791687012E-1  -4.947329759597778E-1  -1.878616809844971E-1  
 2.974000000000000E7    -5.004783272743225E-1  -1.901143491268158E-1   3.006155192852020E-1  -7.778303027153015E-1   3.003792166709900E-1  -7.775107622146606E-1  -4.977933764457703E-1  -1.868304610252380E-1  
 2.976000000000000E7    -5.029445886611939E-1  -1.892449855804443E-1   2.972163259983063E-1  -7.778294682502747E-1   2.972350418567658E-1  -7.774328589439392E-1  -5.010625720024109E-1  -1.860635876655579E-1  
 2.978000000000000E7    -5.063564777374268E-1  -1.889486312866211E-1   2.939435839653015E-1  -7.772215008735657E-1   2.941448092460632E-1  -7.769382596015930E-1  -5.036104321479797E-1  -1.852173358201981E-1  
 2.980000000000000E7    -5.092287659645081E-1  -1.875546872615814E-1   2.910718321800232E-1  -7.765041589736939E-1   2.905168533325195E-1  -7.766100168228149E-1  -5.059977173805237E-1  -1.849133968353272E-1  
 2.982000000000000E7    -5.122851133346558E-1  -1.866328716278076E-1   2.876301705837250E-1  -7.761816382408142E-1   2.876832783222199E-1  -7.759894728660584E-1  -5.095542669296265E-1  -1.834952235221863E-1  
 2.984000000000000E7    -5.150321722030640E-1  -1.858606934547424E-1   2.846469283103943E-1  -7.757592201232910E-1   2.842694818973541E-1  -7.754772305488586E-1  -5.122734308242798E-1  -1.830356866121292E-1  
 2.986000000000000E7    -5.173389911651611E-1  -1.852091848850250E-1   2.817074060440064E-1  -7.752174735069275E-1   2.813391983509064E-1  -7.750065922737122E-1  -5.154224634170532E-1  -1.818851828575134E-1  
 2.988000000000000E7    -5.206077694892883E-1  -1.842224001884460E-1   2.783596515655518E-1  -7.747858166694641E-1   2.780129015445709E-1  -7.741015553474426E-1  -5.183809995651245E-1  -1.810599416494370E-1  
 2.990000000000000E7    -5.241216421127319E-1  -1.830974221229553E-1   2.751551866531372E-1  -7.740905880928040E-1   2.752763628959656E-1  -7.741817235946655E-1  -5.203679800033569E-1  -1.801477223634720E-1  
 2.992000000000000E7    -5.265505313873291E-1  -1.821480095386505E-1   2.723257541656494E-1  -7.734935283660889E-1   2.718823850154877E-1  -7.730303406715393E-1  -5.240032076835632E-1  -1.789275556802750E-1  
 2.994000000000000E7    -5.291393399238586E-1  -1.814905107021332E-1   2.685070037841797E-1  -7.728985548019409E-1   2.688091397285461E-1  -7.723993062973023E-1  -5.267068743705750E-1  -1.779928803443909E-1  
 2.996000000000000E7    -5.322236418724060E-1  -1.798556447029114E-1   2.661639153957367E-1  -7.718920707702637E-1   2.657423317432404E-1  -7.718119025230408E-1  -5.295109152793884E-1  -1.775431483983994E-1  
 2.998000000000000E7    -5.347614288330078E-1  -1.791242361068726E-1   2.627718448638916E-1  -7.719650268554688E-1   2.627169787883759E-1  -7.710379958152771E-1  -5.324116349220276E-1  -1.763264238834381E-1  
 3.000000000000000E7    -5.380483269691467E-1  -1.784187406301498E-1   2.594130635261536E-1  -7.706065177917481E-1   2.599006295204163E-1  -7.711951732635498E-1  -5.348291397094727E-1  -1.749145984649658E-1  
 3.002000000000000E7    -5.406565666198731E-1  -1.772714555263519E-1   2.564781308174133E-1  -7.704449892044067E-1   2.566585838794708E-1  -7.700483202934265E-1  -5.378366112709045E-1  -1.738348156213760E-1  
 3.004000000000000E7    -5.433570146560669E-1  -1.763652563095093E-1   2.533583641052246E-1  -7.695706486701965E-1   2.535003423690796E-1  -7.692062258720398E-1  -5.405359268188477E-1  -1.732338070869446E-1  
 3.006000000000000E7    -5.469507575035095E-1  -1.750099360942841E-1   2.506282329559326E-1  -7.682438492774963E-1   2.501591444015503E-1  -7.686580419540405E-1  -5.429733395576477E-1  -1.722658127546310E-1  
 3.008000000000000E7    -5.490356087684631E-1  -1.740479916334152E-1   2.473842799663544E-1  -7.682617902755737E-1   2.470726221799851E-1  -7.679703235626221E-1  -5.461819171905518E-1  -1.717242896556854E-1  
 3.010000000000000E7    -5.517609119415283E-1  -1.722840070724487E-1   2.447505891323090E-1  -7.674362659454346E-1   2.439684867858887E-1  -7.670987248420715E-1  -5.490669012069702E-1  -1.708434224128723E-1  
 3.012000000000000E7    -5.541697740554810E-1  -1.715366989374161E-1   2.416778653860092E-1  -7.666130661964417E-1   2.415177822113037E-1  -7.661973237991333E-1  -5.517442822456360E-1  -1.689841151237488E-1  
 3.014000000000000E7    -5.573717951774597E-1  -1.707202792167664E-1   2.385964244604111E-1  -7.657545208930969E-1   2.381903231143951E-1  -7.652767896652222E-1  -5.549347996711731E-1  -1.678887605667114E-1  
 3.016000000000000E7    -5.596636533737183E-1  -1.699786484241486E-1   2.353439927101135E-1  -7.650242447853088E-1   2.358313500881195E-1  -7.646080851554871E-1  -5.572233796119690E-1  -1.661062538623810E-1  
 3.018000000000000E7    -5.626355409622192E-1  -1.684198379516602E-1   2.327020019292831E-1  -7.644523978233337E-1   2.329094856977463E-1  -7.639277577400208E-1  -5.598762631416321E-1  -1.648782193660736E-1  
 3.020000000000000E7    -5.653465986251831E-1  -1.673276424407959E-1   2.296254038810730E-1  -7.631804347038269E-1   2.293503582477570E-1  -7.629737257957459E-1  -5.627720952033997E-1  -1.642151623964310E-1  
 3.022000000000000E7    -5.679429173469544E-1  -1.660670042037964E-1   2.268573343753815E-1  -7.625740766525269E-1   2.265057414770126E-1  -7.622881531715393E-1  -5.649677515029907E-1  -1.633417457342148E-1  
 3.024000000000000E7    -5.705600976943970E-1  -1.642668843269348E-1   2.238379567861557E-1  -7.618064284324646E-1   2.233897894620895E-1  -7.613128423690796E-1  -5.676929354667664E-1  -1.619881540536881E-1  
 3.026000000000000E7    -5.734195709228516E-1  -1.637048721313477E-1   2.208974361419678E-1  -7.606469392776489E-1   2.206709682941437E-1  -7.604124546051025E-1  -5.707346200942993E-1  -1.604279279708862E-1  
 3.028000000000000E7    -5.757555961608887E-1  -1.624737381935120E-1   2.180524915456772E-1  -7.600998282432556E-1   2.179036736488342E-1  -7.600241303443909E-1  -5.728564262390137E-1  -1.591494381427765E-1  
 3.030000000000000E7    -5.787086486816406E-1  -1.608387976884842E-1   2.154216468334198E-1  -7.587274909019470E-1   2.151711732149124E-1  -7.586243748664856E-1  -5.758993029594421E-1  -1.579331159591675E-1  
 3.032000000000000E7    -5.818006992340088E-1  -1.597677469253540E-1   2.119613885879517E-1  -7.577125430107117E-1   2.124851047992706E-1  -7.578064203262329E-1  -5.782737731933594E-1  -1.564006209373474E-1  
 3.034000000000000E7    -5.840039849281311E-1  -1.588807553052902E-1   2.088269144296646E-1  -7.573255300521851E-1   2.093224078416824E-1  -7.570049762725830E-1  -5.809620022773743E-1  -1.557781398296356E-1  
 3.036000000000000E7    -5.864548683166504E-1  -1.571330577135086E-1   2.069656699895859E-1  -7.559410929679871E-1   2.062242925167084E-1  -7.557446360588074E-1  -5.836695432662964E-1  -1.544447839260101E-1  
 3.038000000000000E7    -5.890051722526550E-1  -1.556321531534195E-1   2.035455703735352E-1  -7.553241252899170E-1   2.038795650005341E-1  -7.549104690551758E-1  -5.861517190933228E-1  -1.526078581809998E-1  
 3.040000000000000E7    -5.923428535461426E-1  -1.549237966537476E-1   2.009043395519257E-1  -7.540218234062195E-1   2.008680403232575E-1  -7.541756033897400E-1  -5.882644653320313E-1  -1.512881368398666E-1  
 3.042000000000000E7    -5.943330526351929E-1  -1.527393162250519E-1   1.984583139419556E-1  -7.530010342597961E-1   1.980392336845398E-1  -7.529638409614563E-1  -5.910642743110657E-1  -1.502283811569214E-1  
 3.044000000000000E7    -5.965367555618286E-1  -1.510787606239319E-1   1.957776993513107E-1  -7.526388764381409E-1   1.950941979885101E-1  -7.521800994873047E-1  -5.935057997703552E-1  -1.493718773126602E-1  
 3.046000000000000E7    -5.992161035537720E-1  -1.501758396625519E-1   1.925072222948074E-1  -7.513442635536194E-1   1.924940943717957E-1  -7.513591647148132E-1  -5.963967442512512E-1  -1.474165022373200E-1  
 3.048000000000000E7    -6.018235683441162E-1  -1.492848545312882E-1   1.894082278013229E-1  -7.506656646728516E-1   1.897009909152985E-1  -7.501448988914490E-1  -5.988341569900513E-1  -1.467378884553909E-1  
 3.050000000000000E7    -6.040664911270142E-1  -1.475169509649277E-1   1.871656775474548E-1  -7.497346401214600E-1   1.866108179092407E-1  -7.488490939140320E-1  -6.012297868728638E-1  -1.452045738697052E-1  
 3.052000000000000E7    -6.067875623703003E-1  -1.459925472736359E-1   1.843885779380798E-1  -7.483282685279846E-1   1.840386539697647E-1  -7.481004595756531E-1  -6.034855246543884E-1  -1.434785425662994E-1  
 3.054000000000000E7    -6.096776127815247E-1  -1.446257233619690E-1   1.820051521062851E-1  -7.467377781867981E-1   1.813963204622269E-1  -7.468720674514771E-1  -6.058099269866943E-1  -1.422786712646484E-1  
 3.056000000000000E7    -6.116483211517334E-1  -1.433469653129578E-1   1.790608316659927E-1  -7.462891340255737E-1   1.787610799074173E-1  -7.456393837928772E-1  -6.085800528526306E-1  -1.406843364238739E-1  
 3.058000000000000E7    -6.141829490661621E-1  -1.418413817882538E-1   1.763435900211334E-1  -7.451773285865784E-1   1.756803095340729E-1  -7.456174492835999E-1  -6.104179620742798E-1  -1.399179697036743E-1  
 3.060000000000000E7    -6.165308952331543E-1  -1.406259536743164E-1   1.735872328281403E-1  -7.441472411155701E-1   1.736062914133072E-1  -7.439698576927185E-1  -6.132057309150696E-1  -1.378437727689743E-1  
 3.062000000000000E7    -6.189846992492676E-1  -1.388431787490845E-1   1.710779517889023E-1  -7.428809404373169E-1   1.706391423940659E-1  -7.424965500831604E-1  -6.162342429161072E-1  -1.368158459663391E-1  
 3.064000000000000E7    -6.213242411613464E-1  -1.371752172708511E-1   1.685973852872849E-1  -7.415695190429688E-1   1.685235202312470E-1  -7.413735985755920E-1  -6.179921627044678E-1  -1.344811320304871E-1  
 3.066000000000000E7    -6.238369941711426E-1  -1.361751556396484E-1   1.657322347164154E-1  -7.407456040382385E-1   1.653888225555420E-1  -7.402276396751404E-1  -6.205530166625977E-1  -1.333685815334320E-1  
 3.068000000000000E7    -6.261444091796875E-1  -1.345747858285904E-1   1.629540771245956E-1  -7.398350834846497E-1   1.628344357013702E-1  -7.392786145210266E-1  -6.228778362274170E-1  -1.320059448480606E-1  
 3.070000000000000E7    -6.282672882080078E-1  -1.332926154136658E-1   1.602962911128998E-1  -7.384266257286072E-1   1.599431931972504E-1  -7.384755611419678E-1  -6.254164576530457E-1  -1.306423693895340E-1  
 3.072000000000000E7    -6.309504508972168E-1  -1.320552676916122E-1   1.575411558151245E-1  -7.372731566429138E-1   1.572766602039337E-1  -7.375253438949585E-1  -6.274542808532715E-1  -1.292127668857575E-1  
 3.074000000000000E7    -6.332669258117676E-1  -1.297878772020340E-1   1.551599204540253E-1  -7.361794114112854E-1   1.546413451433182E-1  -7.359953522682190E-1  -6.301302313804627E-1  -1.276191622018814E-1  
 3.076000000000000E7    -6.353573203086853E-1  -1.288226246833801E-1   1.524901241064072E-1  -7.349204421043396E-1   1.528681069612503E-1  -7.349189519882202E-1  -6.321969628334045E-1  -1.256426572799683E-1  
 3.078000000000000E7    -6.377244591712952E-1  -1.272296011447907E-1   1.496918201446533E-1  -7.342258691787720E-1   1.499519944190979E-1  -7.337738871574402E-1  -6.342885494232178E-1  -1.243694275617600E-1  
 3.080000000000000E7    -6.400076150894165E-1  -1.255576461553574E-1   1.473557502031326E-1  -7.324292063713074E-1   1.474464833736420E-1  -7.321129441261292E-1  -6.372131705284119E-1  -1.227097213268280E-1  
 3.082000000000000E7    -6.426002979278565E-1  -1.244408339262009E-1   1.447775810956955E-1  -7.310854792594910E-1   1.452698856592178E-1  -7.311765551567078E-1  -6.389077305793762E-1  -1.208712309598923E-1  
 3.084000000000000E7    -6.445017457008362E-1  -1.227583214640617E-1   1.421972066164017E-1  -7.303098440170288E-1   1.420916765928268E-1  -7.296274304389954E-1  -6.415705680847168E-1  -1.198482215404511E-1  
 3.086000000000000E7    -6.469606161117554E-1  -1.206682026386261E-1   1.398873031139374E-1  -7.293509840965271E-1   1.396481394767761E-1  -7.291754484176636E-1  -6.433020830154419E-1  -1.183213591575623E-1  
 3.088000000000000E7    -6.488405466079712E-1  -1.194233447313309E-1   1.372107267379761E-1  -7.276374101638794E-1   1.376722306013107E-1  -7.272050380706787E-1  -6.456870436668396E-1  -1.164021417498589E-1  
 3.090000000000000E7    -6.508646011352539E-1  -1.175605803728104E-1   1.350886225700378E-1  -7.268769741058350E-1   1.349340975284576E-1  -7.260820269584656E-1  -6.482483744621277E-1  -1.150722205638886E-1  
 3.092000000000000E7    -6.539327502250671E-1  -1.156157553195953E-1   1.328148245811462E-1  -7.250891923904419E-1   1.320610642433167E-1  -7.249844074249268E-1  -6.499098539352417E-1  -1.136185079813004E-1  
 3.094000000000000E7    -6.553998589515686E-1  -1.143695339560509E-1   1.299291998147965E-1  -7.243021130561829E-1   1.297850608825684E-1  -7.237418889999390E-1  -6.525917053222656E-1  -1.117414087057114E-1  
 3.096000000000000E7    -6.581052541732788E-1  -1.128055602312088E-1   1.274787485599518E-1  -7.229327559471130E-1   1.269791722297669E-1  -7.226011753082275E-1  -6.542389988899231E-1  -1.103382706642151E-1  
 3.098000000000000E7    -6.599532365798950E-1  -1.114667803049088E-1   1.250085532665253E-1  -7.211642861366272E-1   1.248260885477066E-1  -7.211886644363403E-1  -6.570101976394653E-1  -1.085779890418053E-1  
 3.100000000000000E7    -6.624422669410706E-1  -1.095258593559265E-1   1.228486448526382E-1  -7.202336192131043E-1   1.226737648248673E-1  -7.200658321380615E-1  -6.584960222244263E-1  -1.070222184062004E-1  
 3.102000000000000E7    -6.650844216346741E-1  -1.076387465000153E-1   1.205037832260132E-1  -7.184471487998962E-1   1.201019585132599E-1  -7.183536291122437E-1  -6.609478592872620E-1  -1.054302379488945E-1  
 3.104000000000000E7    -6.662432551383972E-1  -1.053968891501427E-1   1.182683780789375E-1  -7.178351879119873E-1   1.177188083529472E-1  -7.169371247291565E-1  -6.636401414871216E-1  -1.038230061531067E-1  
 3.106000000000000E7    -6.692566871643066E-1  -1.045951396226883E-1   1.154837310314179E-1  -7.158740758895874E-1   1.152303665876389E-1  -7.158241271972656E-1  -6.652774214744568E-1  -1.021634936332703E-1  
 3.108000000000000E7    -6.709877252578735E-1  -1.027428805828095E-1   1.132217198610306E-1  -7.148720622062683E-1   1.129815578460693E-1  -7.147153615951538E-1  -6.675624251365662E-1  -1.004859954118729E-1  
 3.110000000000000E7    -6.729491353034973E-1  -1.012673452496529E-1   1.108655929565430E-1  -7.138982415199280E-1   1.107608601450920E-1  -7.136499285697937E-1  -6.693502068519592E-1  -9.875918924808502E-2  
 3.112000000000000E7    -6.747563481330872E-1  -9.959980845451355E-2   1.083686351776123E-1  -7.122421264648438E-1   1.085443943738937E-1  -7.121118903160095E-1  -6.716471910476685E-1  -9.690313786268234E-2  
 3.114000000000000E7    -6.771582365036011E-1  -9.786380827426910E-2   1.063114106655121E-1  -7.108908295631409E-1   1.059525758028030E-1  -7.105680704116821E-1  -6.735135912895203E-1  -9.521885216236115E-2  
 3.116000000000000E7    -6.789942383766174E-1  -9.625668823719025E-2   1.039041727781296E-1  -7.095773220062256E-1   1.038112044334412E-1  -7.093257904052734E-1  -6.756917834281921E-1  -9.363206475973129E-2  
 3.118000000000000E7    -6.811754107475281E-1  -9.430231153964996E-2   1.017466932535172E-1  -7.082648873329163E-1   1.012232005596161E-1  -7.081587910652161E-1  -6.774694919586182E-1  -9.191526472568512E-2  
 3.120000000000000E7    -6.833347678184509E-1  -9.243872761726379E-2   9.953007847070694E-2  -7.062533497810364E-1   9.900534898042679E-2  -7.061848044395447E-1  -6.796107292175293E-1  -9.013824164867401E-2  
 3.122000000000000E7    -6.849217414855957E-1  -9.083239734172821E-2   9.692178666591644E-2  -7.055313587188721E-1   9.675963222980499E-2  -7.053872942924500E-1  -6.812481284141541E-1  -8.845166862010956E-2  
 3.124000000000000E7    -6.872538328170776E-1  -8.914542198181152E-2   9.475877135992050E-2  -7.040523290634155E-1   9.429913759231567E-2  -7.034539580345154E-1  -6.834269762039185E-1  -8.682231605052948E-2  
 3.126000000000000E7    -6.889368891716003E-1  -8.745573461055756E-2   9.235253930091858E-2  -7.028596997261047E-1   9.240721166133881E-2  -7.024266719818115E-1  -6.857078075408936E-1  -8.487950265407562E-2  
 3.128000000000000E7    -6.910098195075989E-1  -8.549072593450546E-2   9.040246903896332E-2  -7.010539174079895E-1   8.993676304817200E-2  -7.005764842033386E-1  -6.878178119659424E-1  -8.358780294656754E-2  
 3.130000000000000E7    -6.931147575378418E-1  -8.394294977188110E-2   8.809451758861542E-2  -6.996488571166992E-1   8.795614540576935E-2  -6.992413997650147E-1  -6.895748376846314E-1  -8.152790367603302E-2  
 3.132000000000000E7    -6.949929594993591E-1  -8.176474273204804E-2   8.611663430929184E-2  -6.985991597175598E-1   8.583435416221619E-2  -6.980178356170654E-1  -6.912478804588318E-1  -7.983823120594025E-2  
 3.134000000000000E7    -6.967377662658691E-1  -8.077511191368103E-2   8.357939124107361E-2  -6.973910331726074E-1   8.320501446723938E-2  -6.968374252319336E-1  -6.933527588844299E-1  -7.807775586843491E-2  
 3.136000000000000E7    -6.987810134887695E-1  -7.861499488353729E-2   8.157818764448166E-2  -6.956462860107422E-1   8.147025108337402E-2  -6.946878433227539E-1  -6.954984664916992E-1  -7.630090415477753E-2  
 3.138000000000000E7    -7.012060284614563E-1  -7.666312903165817E-2   7.930368185043335E-2  -6.940693259239197E-1   7.852876186370850E-2  -6.939890384674072E-1  -6.968218684196472E-1  -7.482396066188812E-2  
 3.140000000000000E7    -7.023873925209045E-1  -7.480764389038086E-2   7.742382586002350E-2  -6.931115984916687E-1   7.687981426715851E-2  -6.921926140785217E-1  -6.990286111831665E-1  -7.317090034484863E-2  
 3.142000000000000E7    -7.043136954307556E-1  -7.296268641948700E-2   7.563577592372894E-2  -6.912695169448853E-1   7.492512464523315E-2  -6.912131905555725E-1  -7.005280852317810E-1  -7.113154232501984E-2  
 3.144000000000000E7    -7.061870694160461E-1  -7.137177884578705E-2   7.289018481969833E-2  -6.899344921112061E-1   7.299040257930756E-2  -6.897926330566406E-1  -7.024980187416077E-1  -6.874965131282806E-2  
 3.146000000000000E7    -7.085424661636353E-1  -6.989905238151550E-2   7.061974704265595E-2  -6.882553100585938E-1   7.069748640060425E-2  -6.884431242942810E-1  -7.040370702743530E-1  -6.733626127243042E-2  
 3.148000000000000E7    -7.101771235466003E-1  -6.741148233413696E-2   6.924982368946075E-2  -6.866871714591980E-1   6.861172616481781E-2  -6.866937875747681E-1  -7.062283754348755E-1  -6.566895544528961E-2  
 3.150000000000000E7    -7.118090391159058E-1  -6.569258123636246E-2   6.662265956401825E-2  -6.852827072143555E-1   6.657317280769348E-2  -6.852055191993713E-1  -7.080929279327393E-1  -6.343910843133926E-2  
 3.152000000000000E7    -7.132886052131653E-1  -6.386931240558624E-2   6.495070457458496E-2  -6.839579343795776E-1   6.470163911581039E-2  -6.839213371276856E-1  -7.100942134857178E-1  -6.181468814611435E-2  
 3.154000000000000E7    -7.152765989303589E-1  -6.290601938962936E-2   6.261485815048218E-2  -6.822620034217835E-1   6.272372603416443E-2  -6.823093295097351E-1  -7.115377783775330E-1  -5.966887995600700E-2  
 3.156000000000000E7    -7.169957756996155E-1  -6.021654605865479E-2   6.074569374322891E-2  -6.811913847923279E-1   6.047328189015389E-2  -6.809853315353394E-1  -7.132461667060852E-1  -5.803768336772919E-2  
 3.158000000000000E7    -7.190552949905396E-1  -5.848953872919083E-2   5.871799215674400E-2  -6.793218255043030E-1   5.824318155646324E-2  -6.788286566734314E-1  -7.151796817779541E-1  -5.649587139487267E-2  
 3.160000000000000E7    -7.206829786300659E-1  -5.723812431097031E-2   5.639850348234177E-2  -6.780565977096558E-1   5.651725456118584E-2  -6.779301762580872E-1  -7.167106866836548E-1  -5.450737476348877E-2  
 3.162000000000000E7    -7.227035760879517E-1  -5.485881119966507E-2   5.479039251804352E-2  -6.762443780899048E-1   5.410761013627052E-2  -6.761119961738586E-1  -7.187072634696960E-1  -5.271446332335472E-2  
 3.164000000000000E7    -7.242377400398254E-1  -5.281262099742889E-2   5.292438715696335E-2  -6.745756268501282E-1   5.206975340843201E-2  -6.751704812049866E-1  -7.196792364120483E-1  -5.120318010449410E-2  
 3.166000000000000E7    -7.258543968200684E-1  -5.092960596084595E-2   5.052565783262253E-2  -6.732714772224426E-1   5.048403516411781E-2  -6.730554103851318E-1  -7.220219373703003E-1  -4.904448613524437E-2  
 3.168000000000000E7    -7.277121543884277E-1  -4.955615475773811E-2   4.860385879874229E-2  -6.719849109649658E-1   4.830141365528107E-2  -6.719579100608826E-1  -7.234273552894592E-1  -4.690494760870934E-2  
 3.170000000000000E7    -7.292703986167908E-1  -4.724838584661484E-2   4.692359641194344E-2  -6.702722907066345E-1   4.629842564463615E-2  -6.701859235763550E-1  -7.248819470405579E-1  -4.551822319626808E-2  
 3.172000000000000E7    -7.307155132293701E-1  -4.536725580692291E-2   4.442938417196274E-2  -6.688646078109741E-1   4.435832798480988E-2  -6.686927676200867E-1  -7.268425822257996E-1  -4.350924119353294E-2  
 3.174000000000000E7    -7.324374318122864E-1  -4.374806210398674E-2   4.297771677374840E-2  -6.676802635192871E-1   4.295620322227478E-2  -6.669241786003113E-1  -7.287911772727966E-1  -4.132889211177826E-2  
 3.176000000000000E7    -7.341021895408630E-1  -4.213449358940125E-2   4.081791266798973E-2  -6.657370924949646E-1   4.073468595743179E-2  -6.652944684028626E-1  -7.304783463478088E-1  -3.966616094112396E-2  
 3.178000000000000E7    -7.356703281402588E-1  -3.970804437994957E-2   3.901823237538338E-2  -6.642313003540039E-1   3.896030411124229E-2  -6.640971302986145E-1  -7.317439913749695E-1  -3.785477951169014E-2  
 3.180000000000000E7    -7.371727824211121E-1  -3.813957795500755E-2   3.708917275071144E-2  -6.629728078842163E-1   3.713395819067955E-2  -6.625933647155762E-1  -7.332683205604553E-1  -3.542463853955269E-2  
 3.182000000000000E7    -7.391668558120728E-1  -3.600123524665833E-2   3.508704900741577E-2  -6.608747243881226E-1   3.483504056930542E-2  -6.611552834510803E-1  -7.346788644790649E-1  -3.395139798521996E-2  
 3.184000000000000E7    -7.405120134353638E-1  -3.387974575161934E-2   3.382669016718864E-2  -6.595243215560913E-1   3.315798938274384E-2  -6.598186492919922E-1  -7.363809943199158E-1  -3.220455721020699E-2  
 3.186000000000000E7    -7.423424720764160E-1  -3.278420493006706E-2   3.153867647051811E-2  -6.579352617263794E-1   3.164589405059815E-2  -6.581172943115234E-1  -7.381735444068909E-1  -2.994271367788315E-2  
 3.188000000000000E7    -7.436465620994568E-1  -3.004785254597664E-2   3.036188706755638E-2  -6.562780737876892E-1   2.954262495040894E-2  -6.562933921813965E-1  -7.396425008773804E-1  -2.818278968334198E-2  
 3.190000000000000E7    -7.452599406242371E-1  -2.866166830062866E-2   2.789498865604401E-2  -6.550623178482056E-1   2.792476117610931E-2  -6.548606753349304E-1  -7.407405376434326E-1  -2.646167203783989E-2  
 3.192000000000000E7    -7.469260692596436E-1  -2.656410261988640E-2   2.629366144537926E-2  -6.531741023063660E-1   2.622095495462418E-2  -6.528668999671936E-1  -7.428686022758484E-1  -2.470518276095390E-2  
 3.194000000000000E7    -7.486516237258911E-1  -2.480956912040710E-2   2.436758205294609E-2  -6.515870690345764E-1   2.356949821114540E-2  -6.516641378402710E-1  -7.440775036811829E-1  -2.281190454959869E-2  
 3.196000000000000E7    -7.498399019241333E-1  -2.300622686743736E-2   2.235849946737289E-2  -6.502594351768494E-1   2.272458374500275E-2  -6.502948403358460E-1  -7.455369830131531E-1  -2.041237056255341E-2  
 3.198000000000000E7    -7.514479756355286E-1  -2.068321779370308E-2   2.097166702151299E-2  -6.487371921539307E-1   2.095064148306847E-2  -6.488886475563049E-1  -7.468635439872742E-1  -1.844398304820061E-2  
 3.200000000000000E7    -7.528417706489563E-1  -1.901537179946899E-2   1.925742998719215E-2  -6.469689607620239E-1   1.895387843251228E-2  -6.465735435485840E-1  -7.484126091003418E-1  -1.661691442131996E-2  
 3.202000000000000E7    -7.542006373405457E-1  -1.695888116955757E-2   1.716943085193634E-2  -6.458428502082825E-1   1.743933558464050E-2  -6.454435586929321E-1  -7.497235536575317E-1  -1.459375582635403E-2  
 3.204000000000000E7    -7.558134794235230E-1  -1.481885835528374E-2   1.601478084921837E-2  -6.439028978347778E-1   1.576930657029152E-2  -6.439763307571411E-1  -7.513544559478760E-1  -1.307509467005730E-2  
 3.206000000000000E7    -7.573620676994324E-1  -1.307167112827301E-2   1.415352523326874E-2  -6.422454118728638E-1   1.388563960790634E-2  -6.425521969795227E-1  -7.527615427970886E-1  -1.100234314799309E-2  
 3.208000000000000E7    -7.586668133735657E-1  -1.118823513388634E-2   1.250255480408669E-2  -6.407575607299805E-1   1.244512200355530E-2  -6.410683393478394E-1  -7.539152503013611E-1  -9.303689002990723E-3  
 3.210000000000000E7    -7.600249052047730E-1  -9.357046335935593E-3   1.077515631914139E-2  -6.389589905738831E-1   1.040256395936012E-2  -6.390376091003418E-1  -7.556910514831543E-1  -7.172528654336929E-3  
 3.212000000000000E7    -7.612213492393494E-1  -7.268380373716354E-3   8.843686431646347E-3  -6.374259591102600E-1   8.677471429109573E-3  -6.373333930969238E-1  -7.571999430656433E-1  -5.427427589893341E-3  
 3.214000000000000E7    -7.626634836196899E-1  -5.782939493656158E-3   6.893079727888107E-3  -6.358550786972046E-1   6.893139332532883E-3  -6.353331804275513E-1  -7.592139244079590E-1  -3.542892634868622E-3  
 3.216000000000000E7    -7.641513943672180E-1  -3.403775393962860E-3   5.522429943084717E-3  -6.340320706367493E-1   5.553137511014938E-3  -6.343789696693420E-1  -7.597531080245972E-1  -1.589465886354446E-3  
 3.218000000000000E7    -7.652947902679443E-1  -1.514617353677750E-3   3.780338913202286E-3  -6.329513192176819E-1   3.682956099510193E-3  -6.330191493034363E-1  -7.610394954681397E-1   1.402869820594788E-4  
 3.220000000000000E7    -7.662879824638367E-1   1.985579729080200E-4   2.107948064804077E-3  -6.313281059265137E-1   2.150774002075195E-3  -6.309791803359985E-1  -7.628323435783386E-1   2.491276711225510E-3  
 3.222000000000000E7    -7.681975960731506E-1   2.264261245727539E-3   3.959350578952581E-4  -6.294184923171997E-1   4.936380355502479E-5  -6.295294165611267E-1  -7.639664411544800E-1   4.145484417676926E-3  
 3.224000000000000E7    -7.694029211997986E-1   4.550021141767502E-3  -8.593946695327759E-4  -6.280180811882019E-1  -1.048192381858826E-3  -6.280623674392700E-1  -7.652353048324585E-1   6.340321153402329E-3  
 3.226000000000000E7    -7.711012363433838E-1   6.538409739732742E-3  -1.906767487525940E-3  -6.260622143745422E-1  -3.020424395799637E-3  -6.259626746177673E-1  -7.664547562599182E-1   8.564081043004990E-3  
 3.228000000000000E7    -7.722073793411255E-1   8.482456207275391E-3  -3.880646079778671E-3  -6.245279908180237E-1  -4.068829119205475E-3  -6.247665882110596E-1  -7.677453756332398E-1   1.020519807934761E-2  
 3.230000000000000E7    -7.731274962425232E-1   1.044040173292160E-2  -5.138620734214783E-3  -6.232982277870178E-1  -5.399286746978760E-3  -6.228784918785095E-1  -7.691184878349304E-1   1.228332519531250E-2  
 3.232000000000000E7    -7.748280167579651E-1   1.246182247996330E-2  -6.826333701610565E-3  -6.214978694915772E-1  -7.140185683965683E-3  -6.219618916511536E-1  -7.699786424636841E-1   1.427521929144859E-2  
 3.234000000000000E7    -7.761702537536621E-1   1.423959061503410E-2  -8.825324475765228E-3  -6.195251345634460E-1  -9.068079292774200E-3  -6.192108392715454E-1  -7.720971107482910E-1   1.588683575391769E-2  
 3.236000000000000E7    -7.775104045867920E-1   1.619998738169670E-2  -1.005322486162186E-2  -6.180302500724793E-1  -1.015397533774376E-2  -6.178932785987854E-1  -7.727030515670776E-1   1.821830123662949E-2  
 3.238000000000000E7    -7.784702777862549E-1   1.820669695734978E-2  -1.156863197684288E-2  -6.164979934692383E-1  -1.199697330594063E-2  -6.159063577651978E-1  -7.741235494613648E-1   1.994958147406578E-2  
 3.240000000000000E7    -7.797819972038269E-1   1.999031752347946E-2  -1.309761777520180E-2  -6.151393055915833E-1  -1.315541565418243E-2  -6.149149537086487E-1  -7.754787206649780E-1   2.174210548400879E-2  
 3.242000000000000E7    -7.811905741691589E-1   2.210957929491997E-2  -1.450503990054131E-2  -6.131894588470459E-1  -1.501550525426865E-2  -6.132264733314514E-1  -7.766026854515076E-1   2.403669059276581E-2  
 3.244000000000000E7    -7.822120189666748E-1   2.406776696443558E-2  -1.592605561017990E-2  -6.116022467613220E-1  -1.618198305368424E-2  -6.115653514862061E-1  -7.778964042663574E-1   2.631574124097824E-2  
 3.246000000000000E7    -7.839112877845764E-1   2.595839276909828E-2  -1.765047013759613E-2  -6.096823215484619E-1  -1.743968576192856E-2  -6.097038984298706E-1  -7.789019346237183E-1   2.819180116057396E-2  
 3.248000000000000E7    -7.844663262367249E-1   2.813763916492462E-2  -1.922190934419632E-2  -6.084477305412293E-1  -1.915759593248367E-2  -6.083137989044190E-1  -7.803323268890381E-1   2.993512153625488E-2  
 3.250000000000000E7    -7.858484387397766E-1   3.010462969541550E-2  -2.054555714130402E-2  -6.062195897102356E-1  -2.085648104548454E-2  -6.064098477363586E-1  -7.815189361572266E-1   3.182683885097504E-2  
 3.252000000000000E7    -7.869959473609924E-1   3.160460665822029E-2  -2.200485765933991E-2  -6.051412224769592E-1  -2.208362519741058E-2  -6.049723625183106E-1  -7.823045849800110E-1   3.371688723564148E-2  
 3.254000000000000E7    -7.880458235740662E-1   3.410006687045097E-2  -2.341740578413010E-2  -6.036513447761536E-1  -2.388003095984459E-2  -6.035567522048950E-1  -7.837334275245667E-1   3.565207123756409E-2  
 3.256000000000000E7    -7.892898321151733E-1   3.612190112471581E-2  -2.466658502817154E-2  -6.018443107604981E-1  -2.507782354950905E-2  -6.018075942993164E-1  -7.847905158996582E-1   3.769738599658012E-2  
 3.258000000000000E7    -7.901397943496704E-1   3.792465850710869E-2  -2.618135139346123E-2  -6.000838875770569E-1  -2.610355615615845E-2  -5.998354554176331E-1  -7.857603430747986E-1   3.978054970502853E-2  
 3.260000000000000E7    -7.915764451026917E-1   3.964357823133469E-2  -2.753040567040443E-2  -5.983379483222961E-1  -2.748196572065353E-2  -5.986247062683106E-1  -7.870502471923828E-1   4.200248792767525E-2  
 3.262000000000000E7    -7.925848960876465E-1   4.143792390823364E-2  -2.912398055195808E-2  -5.967997312545776E-1  -2.903543040156364E-2  -5.970506668090820E-1  -7.881994843482971E-1   4.383887350559235E-2  
 3.264000000000000E7    -7.934614419937134E-1   4.377976432442665E-2  -3.018608689308167E-2  -5.956507921218872E-1  -3.027867898344994E-2  -5.952336788177490E-1  -7.893368601799011E-1   4.563384130597115E-2  
 3.266000000000000E7    -7.947677373886108E-1   4.562838003039360E-2  -3.203362226486206E-2  -5.935572981834412E-1  -3.195204958319664E-2  -5.932101011276245E-1  -7.906616926193237E-1   4.758003726601601E-2  
 3.268000000000000E7    -7.959467768669128E-1   4.796913638710976E-2  -3.303880989551544E-2  -5.916708111763001E-1  -3.329018503427506E-2  -5.918743014335632E-1  -7.913535237312317E-1   4.940709471702576E-2  
 3.270000000000000E7    -7.971172332763672E-1   4.976781457662582E-2  -3.419062495231628E-2  -5.901518464088440E-1  -3.490412980318070E-2  -5.902752280235291E-1  -7.923851609230042E-1   5.151119828224182E-2  
 3.272000000000000E7    -7.980257272720337E-1   5.170970037579536E-2  -3.580267354846001E-2  -5.890405178070068E-1  -3.636046126484871E-2  -5.884605646133423E-1  -7.936866283416748E-1   5.336011946201325E-2  
 3.274000000000000E7    -7.989752292633057E-1   5.389686673879623E-2  -3.699249774217606E-2  -5.872251987457275E-1  -3.727392107248306E-2  -5.868147015571594E-1  -7.945296764373779E-1   5.536549538373947E-2  
 3.276000000000000E7    -7.999362945556641E-1   5.543369054794312E-2  -3.815117478370667E-2  -5.855920910835266E-1  -3.819318488240242E-2  -5.856702923774719E-1  -7.953485846519470E-1   5.767168477177620E-2  
 3.278000000000000E7    -8.011835813522339E-1   5.779262632131577E-2  -3.953060880303383E-2  -5.839181542396545E-1  -3.965815156698227E-2  -5.834949016571045E-1  -7.962900996208191E-1   5.937683209776878E-2  
 3.280000000000000E7    -8.017646074295044E-1   5.947020649909973E-2  -4.098789393901825E-2  -5.819810628890991E-1  -4.109412059187889E-2  -5.820144414901733E-1  -7.973346114158630E-1   6.157750636339188E-2  
 3.282000000000000E7    -8.030213713645935E-1   6.179843842983246E-2  -4.183761775493622E-2  -5.801177024841309E-1  -4.234348610043526E-2  -5.801689624786377E-1  -7.984939813613892E-1   6.339377164840698E-2  
 3.284000000000000E7    -8.036056160926819E-1   6.361524015665054E-2  -4.339569434523583E-2  -5.793890357017517E-1  -4.339056089520454E-2  -5.790301561355591E-1  -7.994890213012695E-1   6.546925753355026E-2  
 3.286000000000000E7    -8.048702478408814E-1   6.570556759834290E-2  -4.490549117326737E-2  -5.774844288825989E-1  -4.476523026823998E-2  -5.772164463996887E-1  -7.999322414398193E-1   6.744199991226196E-2  
 3.288000000000000E7    -8.056961297988892E-1   6.755511462688446E-2  -4.573959484696388E-2  -5.754588246345520E-1  -4.608765617012978E-2  -5.754246115684509E-1  -8.012543916702271E-1   6.903519481420517E-2  
 3.290000000000000E7    -8.069056272506714E-1   6.932141631841660E-2  -4.751125350594521E-2  -5.738257169723511E-1  -4.751877114176750E-2  -5.736690759658814E-1  -8.024002313613892E-1   7.149439305067062E-2  
 3.292000000000000E7    -8.080824613571167E-1   7.183029502630234E-2  -4.847929626703262E-2  -5.720081925392151E-1  -4.836199432611466E-2  -5.721670985221863E-1  -8.030938506126404E-1   7.352101802825928E-2  
 3.294000000000000E7    -8.092200160026550E-1   7.382634282112122E-2  -4.944355413317680E-2  -5.701865553855896E-1  -4.989667981863022E-2  -5.703851580619812E-1  -8.037296533584595E-1   7.541137933731079E-2  
 3.296000000000000E7    -8.097030520439148E-1   7.536697387695313E-2  -5.107776820659638E-2  -5.693192481994629E-1  -5.103991925716400E-2  -5.688698291778565E-1  -8.051954507827759E-1   7.765585929155350E-2  
 3.298000000000000E7    -8.105689287185669E-1   7.774196565151215E-2  -5.171836912631989E-2  -5.674998760223389E-1  -5.197004973888397E-2  -5.673295855522156E-1  -8.059334158897400E-1   7.934358716011047E-2  
 3.300000000000000E7    -8.114044070243835E-1   7.961247861385346E-2  -5.285877734422684E-2  -5.657502412796021E-1  -5.296324193477631E-2  -5.653845071792603E-1  -8.071579933166504E-1   8.121600747108460E-2  
 3.302000000000000E7    -8.125014901161194E-1   8.137878030538559E-2  -5.433429405093193E-2  -5.638749599456787E-1  -5.389359220862389E-2  -5.637548565864563E-1  -8.077509403228760E-1   8.352381736040115E-2  
 3.304000000000000E7    -8.132558465003967E-1   8.324442058801651E-2  -5.538478866219521E-2  -5.625920295715332E-1  -5.579216405749321E-2  -5.623899102210999E-1  -8.083943128585815E-1   8.502734452486038E-2  
 3.306000000000000E7    -8.140934705734253E-1   8.543314784765244E-2  -5.652276426553726E-2  -5.607179403305054E-1  -5.663891881704330E-2  -5.603924393653870E-1  -8.091871142387390E-1   8.730798959732056E-2  
 3.308000000000000E7    -8.150726556777954E-1   8.781093358993530E-2  -5.781561881303787E-2  -5.587583184242249E-1  -5.777175724506378E-2  -5.586249828338623E-1  -8.103765845298767E-1   8.911119401454926E-2  
 3.310000000000000E7    -8.160125613212585E-1   8.980011940002441E-2  -5.881886556744576E-2  -5.573544502258301E-1  -5.912157148122788E-2  -5.572686791419983E-1  -8.109915852546692E-1   9.091194719076157E-2  
 3.312000000000000E7    -8.166911602020264E-1   9.142671525478363E-2  -6.026645377278328E-2  -5.557998418807983E-1  -6.018395349383354E-2  -5.555208921432495E-1  -8.119140863418579E-1   9.297956526279450E-2  
 3.314000000000000E7    -8.176644444465637E-1   9.354105591773987E-2  -6.140745803713799E-2  -5.542236566543579E-1  -6.144974753260613E-2  -5.546035170555115E-1  -8.127157688140869E-1   9.500420093536377E-2  
 3.316000000000000E7    -8.184756040573120E-1   9.573338925838471E-2  -6.240186840295792E-2  -5.522652268409729E-1  -6.243444979190826E-2  -5.522360801696777E-1  -8.136754631996155E-1   9.716050326824188E-2  
 3.318000000000000E7    -8.193469047546387E-1   9.745287150144577E-2  -6.334470212459564E-2  -5.506201982498169E-1  -6.362092494964600E-2  -5.504814982414246E-1  -8.141776919364929E-1   9.914550185203552E-2  
 3.320000000000000E7    -8.198485374450684E-1   9.960873425006867E-2  -6.423717737197876E-2  -5.491203069686890E-1  -6.459399312734604E-2  -5.490041375160217E-1  -8.150540590286255E-1   1.009759902954102E-1  
 3.322000000000000E7    -8.207986354827881E-1   1.014378517866135E-1  -6.522439420223236E-2  -5.474705100059509E-1  -6.567697972059250E-2  -5.473952889442444E-1  -8.160295486450195E-1   1.030073910951614E-1  
 3.324000000000000E7    -8.212546706199646E-1   1.034086346626282E-1  -6.667817384004593E-2  -5.461010336875916E-1  -6.687296181917191E-2  -5.458393692970276E-1  -8.166021108627319E-1   1.047216653823853E-1  
 3.326000000000000E7    -8.225228190422058E-1   1.055070906877518E-1  -6.736211478710175E-2  -5.439527034759522E-1  -6.783073395490646E-2  -5.444795489311218E-1  -8.173012137413025E-1   1.067387685179710E-1  
 3.328000000000000E7    -8.229262232780457E-1   1.071829944849014E-1  -6.853190064430237E-2  -5.427229404449463E-1  -6.887003779411316E-2  -5.427496433258057E-1  -8.183829188346863E-1   1.087857261300087E-1  
 3.330000000000000E7    -8.237863779067993E-1   1.091829016804695E-1  -6.956234574317932E-2  -5.411722064018250E-1  -6.970126926898956E-2  -5.411571264266968E-1  -8.189916610717773E-1   1.106338948011398E-1  
 3.332000000000000E7    -8.244895339012146E-1   1.114507243037224E-1  -7.040911912918091E-2  -5.394891500473023E-1  -7.113354653120041E-2  -5.391451716423035E-1  -8.197709321975708E-1   1.128192245960236E-1  
 3.334000000000000E7    -8.255857825279236E-1   1.131158471107483E-1  -7.154155522584915E-2  -5.376157164573669E-1  -7.144170999526978E-2  -5.377148985862732E-1  -8.201026916503906E-1   1.149028316140175E-1  
 3.336000000000000E7    -8.258706927299500E-1   1.153426319360733E-1  -7.254140824079514E-2  -5.366012454032898E-1  -7.278459519147873E-2  -5.362019538879395E-1  -8.210800290107727E-1   1.166985780000687E-1  
 3.338000000000000E7    -8.271001577377319E-1   1.174952909350395E-1  -7.348412275314331E-2  -5.344259738922119E-1  -7.374602556228638E-2  -5.345143675804138E-1  -8.215079903602600E-1   1.184038817882538E-1  
 3.340000000000000E7    -8.274316787719727E-1   1.190275549888611E-1  -7.455035299062729E-2  -5.326851606369019E-1  -7.456959784030914E-2  -5.327118039131165E-1  -8.225777745246887E-1   1.206556260585785E-1  
 3.342000000000000E7    -8.280304074287415E-1   1.212175264954567E-1  -7.584640383720398E-2  -5.314005017280579E-1  -7.622142881155014E-2  -5.314239859580994E-1  -8.228883743286133E-1   1.227109730243683E-1  
 3.344000000000000E7    -8.290635347366333E-1   1.233205497264862E-1  -7.653114199638367E-2  -5.296192169189453E-1  -7.677824050188065E-2  -5.295595526695252E-1  -8.236463665962219E-1   1.245338395237923E-1  
 3.346000000000000E7    -8.298109173774719E-1   1.248974055051804E-1  -7.758523523807526E-2  -5.277820229530335E-1  -7.757280021905899E-2  -5.282658934593201E-1  -8.242002129554749E-1   1.267316043376923E-1  
 3.348000000000000E7    -8.300891518592835E-1   1.268053799867630E-1  -7.831577956676483E-2  -5.263441801071167E-1  -7.873173058032990E-2  -5.262395143508911E-1  -8.250558972358704E-1   1.282915472984314E-1  
 3.350000000000000E7    -8.306899666786194E-1   1.288839876651764E-1  -7.971517741680145E-2  -5.244750976562500E-1  -7.957900315523148E-2  -5.248882770538330E-1  -8.255707621574402E-1   1.301868706941605E-1  
 3.352000000000000E7    -8.310278058052063E-1   1.307886391878128E-1  -8.052352070808411E-2  -5.230709314346314E-1  -8.048027008771896E-2  -5.226017832756043E-1  -8.265708684921265E-1   1.323028802871704E-1  
 3.354000000000000E7    -8.325112462043762E-1   1.329373419284821E-1  -8.081205934286118E-2  -5.211184024810791E-1  -8.134936541318893E-2  -5.213361382484436E-1  -8.267892003059387E-1   1.342667788267136E-1  
 3.356000000000000E7    -8.322242498397827E-1   1.348883807659149E-1  -8.210958540439606E-2  -5.198928117752075E-1  -8.206778019666672E-2  -5.196916460990906E-1  -8.279013037681580E-1   1.363781541585922E-1  
 3.358000000000000E7    -8.332599401473999E-1   1.368479430675507E-1  -8.321806788444519E-2  -5.183513760566711E-1  -8.306536823511124E-2  -5.181216001510620E-1  -8.284473419189453E-1   1.381224542856216E-1  
 3.360000000000000E7    -8.337711691856384E-1   1.388949602842331E-1  -8.396409451961517E-2  -5.168543457984924E-1  -8.428936451673508E-2  -5.167174935340881E-1  -8.286033868789673E-1   1.401146650314331E-1  
 3.362000000000000E7    -8.343091011047363E-1   1.406594216823578E-1  -8.500282466411591E-2  -5.150055885314941E-1  -8.503581583499908E-2  -5.148916244506836E-1  -8.292973637580872E-1   1.417353004217148E-1  
 3.364000000000000E7    -8.348480463027954E-1   1.425897926092148E-1  -8.587710559368134E-2  -5.134854316711426E-1  -8.606139570474625E-2  -5.133886933326721E-1  -8.301841020584106E-1   1.436264961957932E-1  
 3.366000000000000E7    -8.356139659881592E-1   1.447329223155975E-1  -8.710286021232605E-2  -5.117214918136597E-1  -8.680358529090881E-2  -5.115602612495422E-1  -8.305903673171997E-1   1.460881531238556E-1  
 3.368000000000000E7    -8.358182907104492E-1   1.464568972587585E-1  -8.736422657966614E-2  -5.106381177902222E-1  -8.727379143238068E-2  -5.100105404853821E-1  -8.314076066017151E-1   1.478244066238403E-1  
 3.370000000000000E7    -8.368368148803711E-1   1.487019658088684E-1  -8.864705264568329E-2  -5.086506009101868E-1  -8.862151205539703E-2  -5.085945129394531E-1  -8.317216038703919E-1   1.496181339025497E-1  
 3.372000000000000E7    -8.376275300979614E-1   1.505636274814606E-1  -8.896145969629288E-2  -5.067983269691467E-1  -8.893918991088867E-2  -5.064837932586670E-1  -8.324676752090454E-1   1.519837081432343E-1  
 3.374000000000000E7    -8.377835154533386E-1   1.522279083728790E-1  -8.995752781629562E-2  -5.051965117454529E-1  -9.035874158143997E-2  -5.047504901885986E-1  -8.327273726463318E-1   1.534863263368607E-1  
 3.376000000000000E7    -8.381471633911133E-1   1.542470306158066E-1  -9.062118828296661E-2  -5.039995908737183E-1  -9.102144837379456E-2  -5.040358304977417E-1  -8.334464430809021E-1   1.556672751903534E-1  
 3.378000000000000E7    -8.391419053077698E-1   1.558878719806671E-1  -9.178041666746140E-2  -5.021190643310547E-1  -9.201059490442276E-2  -5.017716884613037E-1  -8.340365290641785E-1   1.575723439455032E-1  
 3.380000000000000E7    -8.396434783935547E-1   1.583307087421417E-1  -9.223178029060364E-2  -5.008447766304016E-1  -9.264621883630753E-2  -5.004616975784302E-1  -8.343152403831482E-1   1.591995507478714E-1  
 3.382000000000000E7    -8.398383259773254E-1   1.602440178394318E-1  -9.320183843374252E-2  -4.986791014671326E-1  -9.344197064638138E-2  -4.985551238059998E-1  -8.347266316413879E-1   1.612937450408936E-1  
 3.384000000000000E7    -8.405449390411377E-1   1.621220707893372E-1  -9.375673532485962E-2  -4.974987506866455E-1  -9.434629976749420E-2  -4.969305992126465E-1  -8.354801535606384E-1   1.632722914218903E-1  
 3.386000000000000E7    -8.407903313636780E-1   1.637781262397766E-1  -9.494626522064209E-2  -4.956861436367035E-1  -9.459866583347321E-2  -4.955500960350037E-1  -8.357204794883728E-1   1.653231233358383E-1  
 3.388000000000000E7    -8.412958383560181E-1   1.657849550247192E-1  -9.570949524641037E-2  -4.942697584629059E-1  -9.576181322336197E-2  -4.943398833274841E-1  -8.359754085540772E-1   1.671167761087418E-1  
 3.390000000000000E7    -8.418176770210266E-1   1.679386645555496E-1  -9.592931717634201E-2  -4.925154447555542E-1  -9.616233408451080E-2  -4.926616549491882E-1  -8.367014527320862E-1   1.691777855157852E-1  
 3.392000000000000E7    -8.423572778701782E-1   1.695761978626251E-1  -9.725389629602432E-2  -4.910700917243958E-1  -9.712418913841248E-2  -4.908354878425598E-1  -8.370766639709473E-1   1.708994209766388E-1  
 3.394000000000000E7    -8.429172635078430E-1   1.717335730791092E-1  -9.786627441644669E-2  -4.893155097961426E-1  -9.810927510261536E-2  -4.892387986183167E-1  -8.375114202499390E-1   1.726972162723541E-1  
 3.396000000000000E7    -8.429707884788513E-1   1.738390922546387E-1  -9.845851361751556E-2  -4.876287877559662E-1  -9.863491356372833E-2  -4.874933362007141E-1  -8.380766510963440E-1   1.747094988822937E-1  
 3.398000000000000E7    -8.437060117721558E-1   1.752711683511734E-1  -9.927326440811157E-2  -4.861433207988739E-1  -9.962954372167587E-2  -4.858626127243042E-1  -8.386293053627014E-1   1.767931282520294E-1  
 3.400000000000000E7    -8.441869020462036E-1   1.773425936698914E-1  -1.000305786728859E-1  -4.845508933067322E-1  -1.000395119190216E-1  -4.846990406513214E-1  -8.386572599411011E-1   1.784382909536362E-1  
 3.402000000000000E7    -8.447728157043457E-1   1.793947070837021E-1  -1.007386744022369E-1  -4.825603365898132E-1  -1.007628738880158E-1  -4.827422201633453E-1  -8.390582203865051E-1   1.806032061576843E-1  
 3.404000000000000E7    -8.449944853782654E-1   1.811168342828751E-1  -1.015626639127731E-1  -4.811793565750122E-1  -1.017074733972549E-1  -4.811725914478302E-1  -8.391536474227905E-1   1.823570877313614E-1  
 3.406000000000000E7    -8.451752066612244E-1   1.830454915761948E-1  -1.024339050054550E-1  -4.795178472995758E-1  -1.025310754776001E-1  -4.797523319721222E-1  -8.400495052337647E-1   1.841893792152405E-1  
 3.408000000000000E7    -8.454889655113220E-1   1.854191720485687E-1  -1.026016697287560E-1  -4.784811735153198E-1  -1.031305491924286E-1  -4.779345691204071E-1  -8.408032059669495E-1   1.861538290977478E-1  
 3.410000000000000E7    -8.457620739936829E-1   1.871709078550339E-1  -1.035848259925842E-1  -4.766921997070313E-1  -1.037496551871300E-1  -4.762875735759735E-1  -8.407858014106751E-1   1.880728304386139E-1  
 3.412000000000000E7    -8.466234207153320E-1   1.888317018747330E-1  -1.041341945528984E-1  -4.749552309513092E-1  -1.045601218938828E-1  -4.751359224319458E-1  -8.408973813056946E-1   1.899123936891556E-1  
 3.414000000000000E7    -8.467624783515930E-1   1.908449083566666E-1  -1.047592982649803E-1  -4.735628366470337E-1  -1.051429882645607E-1  -4.731269180774689E-1  -8.412836790084839E-1   1.918772310018539E-1  
 3.416000000000000E7    -8.468670248985291E-1   1.925770193338394E-1  -1.057309657335281E-1  -4.719286561012268E-1  -1.062663346529007E-1  -4.714175760746002E-1  -8.420541882514954E-1   1.939938962459564E-1  
 3.418000000000000E7    -8.476887345314026E-1   1.945080161094666E-1  -1.063555106520653E-1  -4.701250791549683E-1  -1.065389662981033E-1  -4.703938663005829E-1  -8.419668674468994E-1   1.956612616777420E-1  
 3.420000000000000E7    -8.477115035057068E-1   1.963250637054443E-1  -1.069135218858719E-1  -4.689646065235138E-1  -1.071860045194626E-1  -4.687331318855286E-1  -8.427800536155701E-1   1.974339634180069E-1  
 3.422000000000000E7    -8.480883836746216E-1   1.983468681573868E-1  -1.074963584542275E-1  -4.673884510993958E-1  -1.080073341727257E-1  -4.672555327415466E-1  -8.428210616111755E-1   1.993505358695984E-1  
 3.424000000000000E7    -8.485884666442871E-1   2.001626342535019E-1  -1.081855446100235E-1  -4.656266272068024E-1  -1.083834394812584E-1  -4.657708704471588E-1  -8.430218100547791E-1   2.012815922498703E-1  
 3.426000000000000E7    -8.491364717483521E-1   2.018800228834152E-1  -1.090400218963623E-1  -4.642527103424072E-1  -1.090791672468185E-1  -4.642130732536316E-1  -8.433987498283386E-1   2.034972608089447E-1  
 3.428000000000000E7    -8.493745923042297E-1   2.041404247283936E-1  -1.092766448855400E-1  -4.629063606262207E-1  -1.098820641636848E-1  -4.628437161445618E-1  -8.436886668205261E-1   2.048275172710419E-1  
 3.430000000000000E7    -8.498540520668030E-1   2.061464339494705E-1  -1.097863689064980E-1  -4.607712030410767E-1  -1.098779216408730E-1  -4.609689712524414E-1  -8.438949584960938E-1   2.069523483514786E-1  
 3.432000000000000E7    -8.499398827552795E-1   2.076974213123322E-1  -1.106221005320549E-1  -4.594850242137909E-1  -1.104917675256729E-1  -4.596367776393890E-1  -8.445560336112976E-1   2.087667882442474E-1  
 3.434000000000000E7    -8.501645326614380E-1   2.094271332025528E-1  -1.114183440804482E-1  -4.577772021293640E-1  -1.115427613258362E-1  -4.580463171005249E-1  -8.447531461715698E-1   2.109062075614929E-1  
 3.436000000000000E7    -8.502064943313599E-1   2.112543880939484E-1  -1.118489578366280E-1  -4.560687243938446E-1  -1.121703758835793E-1  -4.561539590358734E-1  -8.451967835426331E-1   2.123239934444428E-1  
 3.438000000000000E7    -8.508101701736450E-1   2.133358120918274E-1  -1.124099642038345E-1  -4.552118480205536E-1  -1.127619221806526E-1  -4.551339745521545E-1  -8.453363776206970E-1   2.144812941551209E-1  
 3.440000000000000E7    -8.507823944091797E-1   2.148476094007492E-1  -1.133052185177803E-1  -4.530899822711945E-1  -1.127598360180855E-1  -4.529776871204376E-1  -8.455962538719177E-1   2.164197862148285E-1  
 3.442000000000000E7    -8.513469696044922E-1   2.171516865491867E-1  -1.138532608747482E-1  -4.517550468444824E-1  -1.139442995190620E-1  -4.516080617904663E-1  -8.457735180854797E-1   2.181376963853836E-1  
 3.444000000000000E7    -8.513167500495911E-1   2.191445082426071E-1  -1.141583174467087E-1  -4.504237771034241E-1  -1.143480092287064E-1  -4.500637352466583E-1  -8.460478782653809E-1   2.196658104658127E-1  
 3.446000000000000E7    -8.516847491264343E-1   2.204753607511520E-1  -1.143800690770149E-1  -4.486469924449921E-1  -1.144468709826469E-1  -4.485740065574646E-1  -8.464851975440979E-1   2.218974083662033E-1  
 3.448000000000000E7    -8.520978689193726E-1   2.228614091873169E-1  -1.153847873210907E-1  -4.471725523471832E-1  -1.153972148895264E-1  -4.470419287681580E-1  -8.466889858245850E-1   2.235328555107117E-1  
 3.450000000000000E7    -8.526310920715332E-1   2.245020568370819E-1  -1.162267401814461E-1  -4.454486370086670E-1  -1.162783950567246E-1  -4.456064701080322E-1  -8.466954231262207E-1   2.252789139747620E-1  
 3.452000000000000E7    -8.527061343193054E-1   2.263632863759995E-1  -1.162212714552879E-1  -4.440911710262299E-1  -1.166041418910027E-1  -4.444049298763275E-1  -8.467610478401184E-1   2.270329296588898E-1  
 3.454000000000000E7    -8.531662225723267E-1   2.280379682779312E-1  -1.168835237622261E-1  -4.427227377891541E-1  -1.168132275342941E-1  -4.429202079772949E-1  -8.472984433174133E-1   2.290831506252289E-1  
 3.456000000000000E7    -8.530580997467041E-1   2.300559282302856E-1  -1.172542646527290E-1  -4.411249160766602E-1  -1.175927817821503E-1  -4.408392310142517E-1  -8.473399281501770E-1   2.307161837816238E-1  
 3.458000000000000E7    -8.529392480850220E-1   2.316802293062210E-1  -1.178588420152664E-1  -4.395218789577484E-1  -1.181484386324883E-1  -4.393470585346222E-1  -8.478421568870544E-1   2.326609045267105E-1  
 3.460000000000000E7    -8.533908128738403E-1   2.339656949043274E-1  -1.185252517461777E-1  -4.380275011062622E-1  -1.188552677631378E-1  -4.379820525646210E-1  -8.479282855987549E-1   2.343420386314392E-1  
 3.462000000000000E7    -8.538870811462402E-1   2.357520610094070E-1  -1.189633533358574E-1  -4.364213347434998E-1  -1.190135851502419E-1  -4.363835752010346E-1  -8.484305143356323E-1   2.361687123775482E-1  
 3.464000000000000E7    -8.539887666702271E-1   2.371890544891357E-1  -1.193641722202301E-1  -4.348068237304688E-1  -1.195276379585266E-1  -4.346636831760407E-1  -8.482297658920288E-1   2.382590472698212E-1  
 3.466000000000000E7    -8.540675044059753E-1   2.393149882555008E-1  -1.200226470828056E-1  -4.335410594940186E-1  -1.202590391039848E-1  -4.332636892795563E-1  -8.484643697738648E-1   2.397808730602264E-1  
 3.468000000000000E7    -8.541570901870728E-1   2.409505546092987E-1  -1.204010695219040E-1  -4.323408305644989E-1  -1.202363595366478E-1  -4.324919879436493E-1  -8.487908840179443E-1   2.416163682937622E-1  
 3.470000000000000E7    -8.545862436294556E-1   2.424167990684509E-1  -1.208365634083748E-1  -4.307715892791748E-1  -1.206191480159760E-1  -4.307186305522919E-1  -8.490430712699890E-1   2.435756176710129E-1  
 3.472000000000000E7    -8.547376394271851E-1   2.447205781936646E-1  -1.211635172367096E-1  -4.290542602539063E-1  -1.216265857219696E-1  -4.291117489337921E-1  -8.490759134292603E-1   2.452356219291687E-1  
 3.474000000000000E7    -8.551638722419739E-1   2.463243156671524E-1  -1.215928420424461E-1  -4.273428618907929E-1  -1.217457652091980E-1  -4.276162981987000E-1  -8.488484025001526E-1   2.472573071718216E-1  
 3.476000000000000E7    -8.547698855400085E-1   2.482153326272965E-1  -1.222584992647171E-1  -4.262661337852478E-1  -1.223726719617844E-1  -4.262293875217438E-1  -8.494991660118103E-1   2.486975640058518E-1  
 3.478000000000000E7    -8.552615046501160E-1   2.495354712009430E-1  -1.229086294770241E-1  -4.251004755496979E-1  -1.229900047183037E-1  -4.245761632919312E-1  -8.493575453758240E-1   2.507944405078888E-1  
 3.480000000000000E7    -8.552375435829163E-1   2.516787946224213E-1  -1.229313537478447E-1  -4.233058691024780E-1  -1.233169287443161E-1  -4.231229424476624E-1  -8.495420217514038E-1   2.523531615734100E-1  
 3.482000000000000E7    -8.551790714263916E-1   2.532446384429932E-1  -1.235112920403481E-1  -4.216306209564209E-1  -1.234463080763817E-1  -4.215539097785950E-1  -8.497160673141480E-1   2.543798983097076E-1  
 3.484000000000000E7    -8.554183840751648E-1   2.552203238010407E-1  -1.239281147718430E-1  -4.202437400817871E-1  -1.237367391586304E-1  -4.201894402503967E-1  -8.496873974800110E-1   2.561733722686768E-1  
 3.486000000000000E7    -8.559229969978333E-1   2.576018571853638E-1  -1.241051927208901E-1  -4.187449514865875E-1  -1.245528161525726E-1  -4.187443852424622E-1  -8.499231338500977E-1   2.578985095024109E-1  
 3.488000000000000E7    -8.557831645011902E-1   2.591703534126282E-1  -1.250224113464356E-1  -4.175145030021668E-1  -1.249130517244339E-1  -4.173405766487122E-1  -8.498145341873169E-1   2.594674527645111E-1  
 3.490000000000000E7    -8.561898469924927E-1   2.608121931552887E-1  -1.251481473445892E-1  -4.152233600616455E-1  -1.257728785276413E-1  -4.155084788799286E-1  -8.499969840049744E-1   2.612628936767578E-1  
 3.492000000000000E7    -8.561207056045532E-1   2.626327574253082E-1  -1.255982518196106E-1  -4.144101142883301E-1  -1.254314333200455E-1  -4.145061075687408E-1  -8.502629399299622E-1   2.632780969142914E-1  
 3.494000000000000E7    -8.562120199203491E-1   2.642223238945007E-1  -1.265461742877960E-1  -4.128767549991608E-1  -1.259409636259079E-1  -4.128103852272034E-1  -8.506037592887878E-1   2.652651071548462E-1  
 3.496000000000000E7    -8.560920953750610E-1   2.660726308822632E-1  -1.264657229185104E-1  -4.114685952663422E-1  -1.264422237873077E-1  -4.118005335330963E-1  -8.505124449729919E-1   2.668560743331909E-1  
 3.498000000000000E7    -8.565964102745056E-1   2.679299414157867E-1  -1.268582940101624E-1  -4.100445210933685E-1  -1.269659698009491E-1  -4.098739027976990E-1  -8.507266640663147E-1   2.685672938823700E-1  
 3.500000000000000E7    -8.565461039543152E-1   2.693759202957153E-1  -1.272619217634201E-1  -4.085689187049866E-1  -1.274848133325577E-1  -4.087460041046143E-1  -8.506224751472473E-1   2.703403234481812E-1  
 3.502000000000000E7    -8.566319346427918E-1   2.710758745670319E-1  -1.276687085628510E-1  -4.073924422264099E-1  -1.278139650821686E-1  -4.072068333625794E-1  -8.509956598281860E-1   2.721222937107086E-1  
 3.504000000000000E7    -8.564288616180420E-1   2.730950117111206E-1  -1.280487030744553E-1  -4.055849015712738E-1  -1.280152052640915E-1  -4.055520892143250E-1  -8.507699966430664E-1   2.737624645233154E-1  
 3.506000000000000E7    -8.565581440925598E-1   2.749617099761963E-1  -1.285481601953507E-1  -4.041358828544617E-1  -1.287474334239960E-1  -4.044577777385712E-1  -8.509441614151001E-1   2.752906084060669E-1  
 3.508000000000000E7    -8.569554686546326E-1   2.770173251628876E-1  -1.286666691303253E-1  -4.022533893585205E-1  -1.290280520915985E-1  -4.024995267391205E-1  -8.509950637817383E-1   2.774461209774017E-1  
 3.510000000000000E7    -8.569300174713135E-1   2.785501182079315E-1  -1.288883239030838E-1  -4.011726677417755E-1  -1.292517334222794E-1  -4.010390043258667E-1  -8.507583737373352E-1   2.792570888996124E-1  
 3.512000000000000E7    -8.566389083862305E-1   2.801895141601563E-1  -1.295000910758972E-1  -3.997156023979187E-1  -1.296824365854263E-1  -3.998926877975464E-1  -8.510458469390869E-1   2.809989750385284E-1  
 3.514000000000000E7    -8.568726181983948E-1   2.821350991725922E-1  -1.294740736484528E-1  -3.984573781490326E-1  -1.297884881496429E-1  -3.984690606594086E-1  -8.512353301048279E-1   2.824883460998535E-1  
 3.516000000000000E7    -8.573215603828430E-1   2.836664915084839E-1  -1.301151216030121E-1  -3.969803452491760E-1  -1.301400512456894E-1  -3.968646526336670E-1  -8.510767817497253E-1   2.842800915241242E-1  
 3.518000000000000E7    -8.570528626441956E-1   2.852842211723328E-1  -1.301848292350769E-1  -3.960020244121552E-1  -1.303167939186096E-1  -3.956238329410553E-1  -8.511224985122681E-1   2.860773801803589E-1  
 3.520000000000000E7    -8.573055863380432E-1   2.870572805404663E-1  -1.309455782175064E-1  -3.939334154129028E-1  -1.306546181440353E-1  -3.937660455703735E-1  -8.509429693222046E-1   2.876367866992950E-1  
 3.522000000000000E7    -8.569133281707764E-1   2.888848185539246E-1  -1.309174895286560E-1  -3.928898572921753E-1  -1.313795447349548E-1  -3.928473889827728E-1  -8.512926101684570E-1   2.896461784839630E-1  
 3.524000000000000E7    -8.571345210075378E-1   2.905910611152649E-1  -1.312933713197708E-1  -3.912593722343445E-1  -1.316050887107849E-1  -3.911181688308716E-1  -8.509749770164490E-1   2.910777330398560E-1  
 3.526000000000000E7    -8.570056557655335E-1   2.924312949180603E-1  -1.315764486789703E-1  -3.896063566207886E-1  -1.317509859800339E-1  -3.899515271186829E-1  -8.511254191398621E-1   2.927335798740387E-1  
 3.528000000000000E7    -8.571020960807800E-1   2.938390970230103E-1  -1.319530308246613E-1  -3.887180089950562E-1  -1.321898400783539E-1  -3.882248401641846E-1  -8.510820865631104E-1   2.943767309188843E-1  
 3.530000000000000E7    -8.571014404296875E-1   2.957417368888855E-1  -1.320507675409317E-1  -3.867454826831818E-1  -1.321059912443161E-1  -3.868566155433655E-1  -8.508019447326660E-1   2.964029312133789E-1  
 3.532000000000000E7    -8.570579886436462E-1   2.977070212364197E-1  -1.329580694437027E-1  -3.856346905231476E-1  -1.326867491006851E-1  -3.857761919498444E-1  -8.510314822196960E-1   2.977312803268433E-1  
 3.534000000000000E7    -8.572542667388916E-1   2.994351685047150E-1  -1.329246610403061E-1  -3.839464187622070E-1  -1.328355371952057E-1  -3.841705024242401E-1  -8.509224653244019E-1   2.998890280723572E-1  
 3.536000000000000E7    -8.570185899734497E-1   3.010186254978180E-1  -1.336743980646133E-1  -3.830891847610474E-1  -1.333543062210083E-1  -3.827808201313019E-1  -8.514050245285034E-1   3.016993701457977E-1  
 3.538000000000000E7    -8.570945262908936E-1   3.027846813201904E-1  -1.333086043596268E-1  -3.812168836593628E-1  -1.335500776767731E-1  -3.813526630401611E-1  -8.512387871742249E-1   3.031339645385742E-1  
 3.540000000000000E7    -8.569407463073731E-1   3.044255971908569E-1  -1.338651627302170E-1  -3.800631761550903E-1  -1.341704726219177E-1  -3.802361488342285E-1  -8.512349724769592E-1   3.046298325061798E-1  
 3.542000000000000E7    -8.566263318061829E-1   3.062525093555450E-1  -1.343165338039398E-1  -3.787907660007477E-1  -1.341871917247772E-1  -3.785431087017059E-1  -8.511112332344055E-1   3.067731559276581E-1  
 3.544000000000000E7    -8.568045496940613E-1   3.077915012836456E-1  -1.344682425260544E-1  -3.771621882915497E-1  -1.346266418695450E-1  -3.771065771579742E-1  -8.511499762535095E-1   3.084362149238586E-1  
 3.546000000000000E7    -8.568297028541565E-1   3.095054328441620E-1  -1.343370229005814E-1  -3.757435083389282E-1  -1.347030699253082E-1  -3.758416771888733E-1  -8.511204123497009E-1   3.100175261497498E-1  
 3.548000000000000E7    -8.568443059921265E-1   3.114824593067169E-1  -1.347641050815582E-1  -3.743682205677033E-1  -1.349613964557648E-1  -3.745860159397125E-1  -8.511037230491638E-1   3.114919364452362E-1  
 3.550000000000000E7    -8.566851019859314E-1   3.130244910717011E-1  -1.349005997180939E-1  -3.732587099075317E-1  -1.352020502090454E-1  -3.731616437435150E-1  -8.509131073951721E-1   3.130881786346436E-1  
 3.552000000000000E7    -8.568198680877686E-1   3.146311044692993E-1  -1.354080736637116E-1  -3.713223636150360E-1  -1.355868875980377E-1  -3.718060255050659E-1  -8.509386777877808E-1   3.149808049201965E-1  
 3.554000000000000E7    -8.564866781234741E-1   3.166957795619965E-1  -1.354650855064392E-1  -3.703670203685761E-1  -1.355405449867249E-1  -3.703249096870422E-1  -8.508318066596985E-1   3.164767920970917E-1  
 3.556000000000000E7    -8.565358519554138E-1   3.180617094039917E-1  -1.359870433807373E-1  -3.692478239536285E-1  -1.358459740877152E-1  -3.690590560436249E-1  -8.507967591285706E-1   3.182004690170288E-1  
 3.558000000000000E7    -8.564362525939941E-1   3.196645379066467E-1  -1.360250562429428E-1  -3.676436245441437E-1  -1.361694037914276E-1  -3.678616881370544E-1  -8.508009910583496E-1   3.199329674243927E-1  
 3.560000000000000E7    -8.564601540565491E-1   3.212231099605560E-1  -1.361472159624100E-1  -3.659947812557221E-1  -1.364720314741135E-1  -3.661294877529144E-1  -8.503688573837280E-1   3.213679194450378E-1  
 3.562000000000000E7    -8.563629388809204E-1   3.230971097946167E-1  -1.367975324392319E-1  -3.647547960281372E-1  -1.367584466934204E-1  -3.650281429290772E-1  -8.504905104637146E-1   3.233588933944702E-1  
 3.564000000000000E7    -8.563309907913208E-1   3.245617151260376E-1  -1.366527229547501E-1  -3.638641238212585E-1  -1.367827802896500E-1  -3.634935021400452E-1  -8.502036333084106E-1   3.250449597835541E-1  
 3.566000000000000E7    -8.563902378082275E-1   3.266659080982208E-1  -1.369674801826477E-1  -3.621371686458588E-1  -1.369639039039612E-1  -3.621776700019836E-1  -8.499488830566406E-1   3.267866373062134E-1  
 3.568000000000000E7    -8.560107946395874E-1   3.276580274105072E-1  -1.373598426580429E-1  -3.605604469776154E-1  -1.371522992849350E-1  -3.607189953327179E-1  -8.504135012626648E-1   3.287051618099213E-1  
 3.570000000000000E7    -8.558539748191834E-1   3.297470510005951E-1  -1.376485377550125E-1  -3.591162264347076E-1  -1.373845040798187E-1  -3.593709468841553E-1  -8.501182198524475E-1   3.299240767955780E-1  
 3.572000000000000E7    -8.558167219161987E-1   3.312512040138245E-1  -1.376331001520157E-1  -3.579900860786438E-1  -1.375602483749390E-1  -3.581398427486420E-1  -8.499724268913269E-1   3.317148387432098E-1  
 3.574000000000000E7    -8.555484414100647E-1   3.330207765102387E-1  -1.373006999492645E-1  -3.571207523345947E-1  -1.372944265604019E-1  -3.569579720497131E-1  -8.500321507453919E-1   3.329614102840424E-1  
 3.576000000000000E7    -8.555880188941956E-1   3.345253169536591E-1  -1.379341036081314E-1  -3.552980124950409E-1  -1.377468705177307E-1  -3.553793728351593E-1  -8.498674035072327E-1   3.350652456283569E-1  
 3.578000000000000E7    -8.553556203842163E-1   3.364581763744354E-1  -1.379946470260620E-1  -3.543754220008850E-1  -1.381745040416718E-1  -3.539389669895172E-1  -8.496291041374207E-1   3.364347815513611E-1  
 3.580000000000000E7    -8.554461598396301E-1   3.380087316036224E-1  -1.382391303777695E-1  -3.525626659393311E-1  -1.381430774927139E-1  -3.527804613113403E-1  -8.495442867279053E-1   3.382309675216675E-1  
 3.582000000000000E7    -8.554057478904724E-1   3.396663665771484E-1  -1.385826915502548E-1  -3.514147698879242E-1  -1.385928690433502E-1  -3.512519896030426E-1  -8.491219282150269E-1   3.395686745643616E-1  
 3.584000000000000E7    -8.552654981613159E-1   3.413532972335815E-1  -1.388711184263229E-1  -3.500235080718994E-1  -1.389321535825729E-1  -3.503066301345825E-1  -8.490849733352661E-1   3.412089645862579E-1  
 3.586000000000000E7    -8.552178740501404E-1   3.428059816360474E-1  -1.387629508972168E-1  -3.488322496414185E-1  -1.388904750347138E-1  -3.488009572029114E-1  -8.490108251571655E-1   3.429125249385834E-1  
 3.588000000000000E7    -8.549683094024658E-1   3.445977270603180E-1  -1.386373192071915E-1  -3.471940159797669E-1  -1.391480267047882E-1  -3.476253151893616E-1  -8.489713072776794E-1   3.444243371486664E-1  
 3.590000000000000E7    -8.545921444892883E-1   3.460965454578400E-1  -1.389694660902023E-1  -3.460337519645691E-1  -1.387862265110016E-1  -3.461793363094330E-1  -8.489601016044617E-1   3.464449048042297E-1  
 3.592000000000000E7    -8.544227480888367E-1   3.478382825851440E-1  -1.392764598131180E-1  -3.448931276798248E-1  -1.395971029996872E-1  -3.445803225040436E-1  -8.484233021736145E-1   3.481421470642090E-1  
 3.594000000000000E7    -8.546394705772400E-1   3.493532240390778E-1  -1.392066478729248E-1  -3.439185619354248E-1  -1.392133533954620E-1  -3.436876833438873E-1  -8.484440445899963E-1   3.494153618812561E-1  
 3.596000000000000E7    -8.545476794242859E-1   3.509208261966705E-1  -1.392988413572311E-1  -3.421285450458527E-1  -1.394748687744141E-1  -3.426440656185150E-1  -8.485246896743774E-1   3.512525856494904E-1  
 3.598000000000000E7    -8.542031049728394E-1   3.524720370769501E-1  -1.395176351070404E-1  -3.407404124736786E-1  -1.396890878677368E-1  -3.410851955413818E-1  -8.481506705284119E-1   3.529798984527588E-1  
 3.600000000000000E7    -8.539776802062988E-1   3.544000387191773E-1  -1.397172957658768E-1  -3.394701480865479E-1  -1.398846805095673E-1  -3.399178087711334E-1  -8.479590415954590E-1   3.546301126480103E-1  
 3.602000000000000E7    -8.540812730789185E-1   3.557975590229034E-1  -1.396890878677368E-1  -3.386510014533997E-1  -1.398854404687882E-1  -3.387987911701202E-1  -8.481691479682922E-1   3.558582663536072E-1  
 3.604000000000000E7    -8.539736866950989E-1   3.573404252529144E-1  -1.400788873434067E-1  -3.371524810791016E-1  -1.401783078908920E-1  -3.372354507446289E-1  -8.479518890380859E-1   3.574960231781006E-1  
 3.606000000000000E7    -8.537048101425171E-1   3.592696189880371E-1  -1.400736570358276E-1  -3.359094560146332E-1  -1.404030621051788E-1  -3.358460366725922E-1  -8.477641940116882E-1   3.587034344673157E-1  
 3.608000000000000E7    -8.536344170570374E-1   3.607651889324188E-1  -1.401949822902679E-1  -3.345433771610260E-1  -1.402294635772705E-1  -3.347586691379547E-1  -8.475669026374817E-1   3.603565990924835E-1  
 3.610000000000000E7    -8.535387516021729E-1   3.619407415390015E-1  -1.402423977851868E-1  -3.330821990966797E-1  -1.404870450496674E-1  -3.334290087223053E-1  -8.471137881278992E-1   3.618679642677307E-1  
 3.612000000000000E7    -8.532387018203735E-1   3.637955784797669E-1  -1.405601501464844E-1  -3.317863941192627E-1  -1.406321674585342E-1  -3.318608105182648E-1  -8.472453355789185E-1   3.638480007648468E-1  
 3.614000000000000E7    -8.531350493431091E-1   3.656245768070221E-1  -1.405102610588074E-1  -3.307329416275024E-1  -1.406939327716827E-1  -3.308877646923065E-1  -8.468328714370728E-1   3.651709854602814E-1  
 3.616000000000000E7    -8.527272343635559E-1   3.672709167003632E-1  -1.406962573528290E-1  -3.294196426868439E-1  -1.412099897861481E-1  -3.296231329441071E-1  -8.468467593193054E-1   3.669854104518890E-1  
 3.618000000000000E7    -8.527026772499085E-1   3.684853315353394E-1  -1.406852006912231E-1  -3.283508718013763E-1  -1.406238377094269E-1  -3.283973634243012E-1  -8.466671705245972E-1   3.686594665050507E-1  
 3.620000000000000E7    -8.523150682449341E-1   3.704411387443543E-1  -1.408852338790894E-1  -3.270071744918823E-1  -1.410967707633972E-1  -3.272883296012878E-1  -8.464909791946411E-1   3.699587583541870E-1  
 3.622000000000000E7    -8.519910573959351E-1   3.716353178024292E-1  -1.409470438957214E-1  -3.257676661014557E-1  -1.412274390459061E-1  -3.257402181625366E-1  -8.462635278701782E-1   3.716059029102325E-1  
 3.624000000000000E7    -8.519423007965088E-1   3.733400404453278E-1  -1.410683244466782E-1  -3.246822357177734E-1  -1.411937475204468E-1  -3.246726691722870E-1  -8.460677862167358E-1   3.730939626693726E-1  
 3.626000000000000E7    -8.518705368041992E-1   3.749477863311768E-1  -1.411129236221314E-1  -3.231670260429382E-1  -1.413546651601791E-1  -3.233024775981903E-1  -8.458496332168579E-1   3.745574057102203E-1  
 3.628000000000000E7    -8.513414859771729E-1   3.767214119434357E-1  -1.412485837936401E-1  -3.217257559299469E-1  -1.412245631217957E-1  -3.219303190708160E-1  -8.457285761833191E-1   3.762234151363373E-1  
 3.630000000000000E7    -8.514233231544495E-1   3.780475258827210E-1  -1.412436664104462E-1  -3.207086622714996E-1  -1.414661705493927E-1  -3.205110132694244E-1  -8.454664349555969E-1   3.776489198207855E-1  
 3.632000000000000E7    -8.508772850036621E-1   3.794623613357544E-1  -1.411665678024292E-1  -3.195130527019501E-1  -1.413219571113586E-1  -3.193295001983643E-1  -8.451178073883057E-1   3.793075382709503E-1  
 3.634000000000000E7    -8.507631421089172E-1   3.811345398426056E-1  -1.414189338684082E-1  -3.181839883327484E-1  -1.416899263858795E-1  -3.180707991123200E-1  -8.449209928512573E-1   3.805504441261292E-1  
 3.636000000000000E7    -8.505032062530518E-1   3.826113939285278E-1  -1.415167748928070E-1  -3.170410394668579E-1  -1.416548639535904E-1  -3.168320953845978E-1  -8.446119427680969E-1   3.824996650218964E-1  
 3.638000000000000E7    -8.505412340164185E-1   3.841899633407593E-1  -1.415081471204758E-1  -3.154033422470093E-1  -1.416917145252228E-1  -3.159233927726746E-1  -8.443605303764343E-1   3.838588595390320E-1  
 3.640000000000000E7    -8.500457406044006E-1   3.856961727142334E-1  -1.414926350116730E-1  -3.145845830440521E-1  -1.416920125484467E-1  -3.143369555473328E-1  -8.444118499755859E-1   3.853648304939270E-1  
 3.642000000000000E7    -8.501524329185486E-1   3.869095146656036E-1  -1.416550427675247E-1  -3.131251633167267E-1  -1.416507959365845E-1  -3.132374286651611E-1  -8.438698649406433E-1   3.871327042579651E-1  
 3.644000000000000E7    -8.498905897140503E-1   3.888546228408814E-1  -1.416491121053696E-1  -3.120895326137543E-1  -1.416307687759399E-1  -3.118090331554413E-1  -8.436898589134216E-1   3.885774314403534E-1  
 3.646000000000000E7    -8.496661782264710E-1   3.901107013225555E-1  -1.417644619941711E-1  -3.107313811779022E-1  -1.419745683670044E-1  -3.106353282928467E-1  -8.433522582054138E-1   3.900705277919769E-1  
 3.648000000000000E7    -8.491747379302979E-1   3.918037414550781E-1  -1.417265087366104E-1  -3.097604513168335E-1  -1.419977247714996E-1  -3.094749152660370E-1  -8.431169986724854E-1   3.917725086212158E-1  
 3.650000000000000E7    -8.486292958259583E-1   3.930704295635223E-1  -1.418296992778778E-1  -3.084430098533630E-1  -1.419037878513336E-1  -3.080886602401733E-1  -8.430055379867554E-1   3.932798504829407E-1  
 3.652000000000000E7    -8.484886288642883E-1   3.948614299297333E-1  -1.418944001197815E-1  -3.068755865097046E-1  -1.418669819831848E-1  -3.068796396255493E-1  -8.428693413734436E-1   3.945809006690979E-1  
 3.654000000000000E7    -8.482677936553955E-1   3.967360556125641E-1  -1.420207917690277E-1  -3.057195544242859E-1  -1.422493308782578E-1  -3.055822849273682E-1  -8.424767255783081E-1   3.963012695312500E-1  
 3.656000000000000E7    -8.481075763702393E-1   3.977108299732208E-1  -1.418676078319550E-1  -3.045439124107361E-1  -1.417069435119629E-1  -3.047323226928711E-1  -8.419766426086426E-1   3.977424204349518E-1  
 3.658000000000000E7    -8.477375507354736E-1   3.993262648582459E-1  -1.419795751571655E-1  -3.034345507621765E-1  -1.420736014842987E-1  -3.034311532974243E-1  -8.416110277175903E-1   3.992508649826050E-1  
 3.660000000000000E7    -8.476502299308777E-1   4.011083245277405E-1  -1.417165398597717E-1  -3.020479977130890E-1  -1.421799957752228E-1  -3.022887110710144E-1  -8.411903977394104E-1   4.007743597030640E-1  
 3.662000000000000E7    -8.469390869140625E-1   4.024564325809479E-1  -1.417813599109650E-1  -3.010017275810242E-1  -1.421647369861603E-1  -3.008395135402679E-1  -8.411948084831238E-1   4.021883606910706E-1  
 3.664000000000000E7    -8.470311164855957E-1   4.041062593460083E-1  -1.419238448143005E-1  -2.999469041824341E-1  -1.422195434570313E-1  -2.998826205730438E-1  -8.408194780349731E-1   4.035494327545166E-1  
 3.666000000000000E7    -8.465534448623657E-1   4.055477678775787E-1  -1.419544816017151E-1  -2.988082170486450E-1  -1.418696045875549E-1  -2.984586954116821E-1  -8.407500386238098E-1   4.049606621265411E-1  
 3.668000000000000E7    -8.461973071098328E-1   4.069691598415375E-1  -1.421371400356293E-1  -2.975994050502777E-1  -1.420394927263260E-1  -2.973289489746094E-1  -8.402695059776306E-1   4.065323770046234E-1  
 3.670000000000000E7    -8.461411595344544E-1   4.084911048412323E-1  -1.420606970787048E-1  -2.959514856338501E-1  -1.418996453285217E-1  -2.965442836284638E-1  -8.397949934005737E-1   4.082988798618317E-1  
 3.672000000000000E7    -8.460402488708496E-1   4.101859629154205E-1  -1.420064717531204E-1  -2.950113415718079E-1  -1.420310139656067E-1  -2.950986325740814E-1  -8.397003412246704E-1   4.095506370067596E-1  
 3.674000000000000E7    -8.456393480300903E-1   4.117072522640228E-1  -1.420891582965851E-1  -2.937317788600922E-1  -1.421708166599274E-1  -2.938908636569977E-1  -8.390899896621704E-1   4.110593795776367E-1  
 3.676000000000000E7    -8.448580503463745E-1   4.128633141517639E-1  -1.420761644840241E-1  -2.925147712230682E-1  -1.423045843839645E-1  -2.928088903427124E-1  -8.388038873672485E-1   4.127814173698425E-1  
 3.678000000000000E7    -8.446987867355347E-1   4.146630465984345E-1  -1.420488804578781E-1  -2.915599942207336E-1  -1.421228647232056E-1  -2.917424142360687E-1  -8.387078642845154E-1   4.140736460685730E-1  
 3.680000000000000E7    -8.445215821266174E-1   4.160674512386322E-1  -1.418444216251373E-1  -2.901774048805237E-1  -1.423149108886719E-1  -2.902210652828217E-1  -8.384132981300354E-1   4.152535796165466E-1  
 3.682000000000000E7    -8.444119095802307E-1   4.172912240028381E-1  -1.419841945171356E-1  -2.891621291637421E-1  -1.419231593608856E-1  -2.895130813121796E-1  -8.378004431724548E-1   4.169230163097382E-1  
 3.684000000000000E7    -8.436900973320007E-1   4.188526868820190E-1  -1.419779956340790E-1  -2.879199981689453E-1  -1.419873386621475E-1  -2.880263328552246E-1  -8.376086950302124E-1   4.184600412845612E-1  
 3.686000000000000E7    -8.435228466987610E-1   4.205631613731384E-1  -1.420781612396240E-1  -2.866269350051880E-1  -1.423627138137817E-1  -2.866977751255035E-1  -8.372230529785156E-1   4.198857545852661E-1  
 3.688000000000000E7    -8.434867858886719E-1   4.220041632652283E-1  -1.420395374298096E-1  -2.857083678245544E-1  -1.422134637832642E-1  -2.856211066246033E-1  -8.370472192764282E-1   4.215448796749115E-1  
 3.690000000000000E7    -8.427678346633911E-1   4.234684705734253E-1  -1.418461650609970E-1  -2.842264473438263E-1  -1.421006172895432E-1  -2.844381928443909E-1  -8.368445634841919E-1   4.227856695652008E-1  
 3.692000000000000E7    -8.424708843231201E-1   4.247995615005493E-1  -1.418640911579132E-1  -2.834672629833221E-1  -1.422288715839386E-1  -2.831971943378449E-1  -8.364223241806030E-1   4.244793057441711E-1  
 3.694000000000000E7    -8.420792222023010E-1   4.260859191417694E-1  -1.417981833219528E-1  -2.821269333362579E-1  -1.418629437685013E-1  -2.820858657360077E-1  -8.361475467681885E-1   4.255349338054657E-1  
 3.696000000000000E7    -8.417704701423645E-1   4.278303682804108E-1  -1.418550610542297E-1  -2.808966040611267E-1  -1.419453769922257E-1  -2.810747623443604E-1  -8.359452486038208E-1   4.273799657821655E-1  
 3.698000000000000E7    -8.416294455528259E-1   4.294474422931671E-1  -1.416925638914108E-1  -2.797266542911530E-1  -1.420006453990936E-1  -2.799494266510010E-1  -8.354547619819641E-1   4.285064637660980E-1  
 3.700000000000000E7    -8.411172032356262E-1   4.305886030197144E-1  -1.417372077703476E-1  -2.785595953464508E-1  -1.419995725154877E-1  -2.789158821105957E-1  -8.348594903945923E-1   4.299565255641937E-1  
 3.702000000000000E7    -8.408262133598328E-1   4.321065545082092E-1  -1.416656523942947E-1  -2.775367498397827E-1  -1.417602896690369E-1  -2.775693535804749E-1  -8.347359299659729E-1   4.313187301158905E-1  
 3.704000000000000E7    -8.403913974761963E-1   4.336034059524536E-1  -1.417043954133987E-1  -2.766543626785278E-1  -1.419953405857086E-1  -2.763993740081787E-1  -8.345398902893066E-1   4.329441487789154E-1  
 3.706000000000000E7    -8.405653238296509E-1   4.347308576107025E-1  -1.415345966815949E-1  -2.753846347332001E-1  -1.418054401874542E-1  -2.754020690917969E-1  -8.339913487434387E-1   4.343715906143189E-1  
 3.708000000000000E7    -8.399238586425781E-1   4.363593459129334E-1  -1.415673196315765E-1  -2.740719616413117E-1  -1.418007761240006E-1  -2.741343975067139E-1  -8.335237503051758E-1   4.361260533332825E-1  
 3.710000000000000E7    -8.395881652832031E-1   4.380902349948883E-1  -1.414101719856262E-1  -2.732229232788086E-1  -1.415549665689468E-1  -2.731100916862488E-1  -8.332502841949463E-1   4.370785951614380E-1  
 3.712000000000000E7    -8.387937545776367E-1   4.394168853759766E-1  -1.416418701410294E-1  -2.720119059085846E-1  -1.416734009981155E-1  -2.719855904579163E-1  -8.327816724777222E-1   4.390499591827393E-1  
 3.714000000000000E7    -8.386586904525757E-1   4.408423602581024E-1  -1.413024961948395E-1  -2.709473669528961E-1  -1.415826529264450E-1  -2.706949710845947E-1  -8.325605988502502E-1   4.399256706237793E-1  
 3.716000000000000E7    -8.384147286415100E-1   4.424779713153839E-1  -1.413020640611649E-1  -2.696732878684998E-1  -1.414628326892853E-1  -2.697958648204804E-1  -8.322274088859558E-1   4.414315819740295E-1  
 3.718000000000000E7    -8.377770781517029E-1   4.433993101119995E-1  -1.414933651685715E-1  -2.685600519180298E-1  -1.414364576339722E-1  -2.684588432312012E-1  -8.318566083908081E-1   4.432170689105988E-1  
 3.720000000000000E7    -8.374945521354675E-1   4.449629187583923E-1  -1.410810202360153E-1  -2.674860358238220E-1  -1.414231806993485E-1  -2.673341929912567E-1  -8.313627243041992E-1   4.446229338645935E-1  
 3.722000000000000E7    -8.374147415161133E-1   4.463397562503815E-1  -1.410706937313080E-1  -2.662089169025421E-1  -1.411281526088715E-1  -2.663024365901947E-1  -8.306031823158264E-1   4.457715153694153E-1  
 3.724000000000000E7    -8.366267681121826E-1   4.479547142982483E-1  -1.408772468566895E-1  -2.651605904102325E-1  -1.411675810813904E-1  -2.651821076869965E-1  -8.305284976959229E-1   4.473750889301300E-1  
 3.726000000000000E7    -8.364267349243164E-1   4.493522346019745E-1  -1.409895569086075E-1  -2.639610469341278E-1  -1.412122696638107E-1  -2.641477286815643E-1  -8.300376534461975E-1   4.486077129840851E-1  
 3.728000000000000E7    -8.358708620071411E-1   4.503571987152100E-1  -1.410636752843857E-1  -2.629393935203552E-1  -1.412066370248795E-1  -2.629913389682770E-1  -8.299236297607422E-1   4.502479732036591E-1  
 3.730000000000000E7    -8.354035019874573E-1   4.518920779228210E-1  -1.409571170806885E-1  -2.620227932929993E-1  -1.409132480621338E-1  -2.619751095771790E-1  -8.297067880630493E-1   4.512867331504822E-1  
 3.732000000000000E7    -8.351900577545166E-1   4.533768296241760E-1  -1.407974362373352E-1  -2.607973515987396E-1  -1.408805847167969E-1  -2.608965635299683E-1  -8.290549516677856E-1   4.528979659080505E-1  
 3.734000000000000E7    -8.349601626396179E-1   4.547716975212097E-1  -1.407084167003632E-1  -2.598258852958679E-1  -1.405976563692093E-1  -2.600259184837341E-1  -8.284645676612854E-1   4.543007314205170E-1  
 3.736000000000000E7    -8.344858884811401E-1   4.564461708068848E-1  -1.407711505889893E-1  -2.588180303573608E-1  -1.410726159811020E-1  -2.585689723491669E-1  -8.282600641250610E-1   4.556134045124054E-1  
 3.738000000000000E7    -8.340975046157837E-1   4.574539065361023E-1  -1.402711570262909E-1  -2.575726807117462E-1  -1.404721140861511E-1  -2.576614916324616E-1  -8.280071616172791E-1   4.566846489906311E-1  
 3.740000000000000E7    -8.335350155830383E-1   4.591979980468750E-1  -1.402109563350678E-1  -2.564755976200104E-1  -1.407505273818970E-1  -2.562948167324066E-1  -8.271988630294800E-1   4.581931233406067E-1  
 3.742000000000000E7    -8.333033323287964E-1   4.604110419750214E-1  -1.402937173843384E-1  -2.552407383918762E-1  -1.405701339244843E-1  -2.552584111690521E-1  -8.268777132034302E-1   4.596686661243439E-1  
 3.744000000000000E7    -8.325865268707275E-1   4.621167778968811E-1  -1.401831507682800E-1  -2.543410360813141E-1  -1.404902040958405E-1  -2.542556822299957E-1  -8.264482617378235E-1   4.608984291553497E-1  
 3.746000000000000E7    -8.327657580375671E-1   4.632101058959961E-1  -1.400911659002304E-1  -2.534111738204956E-1  -1.403080075979233E-1  -2.533895969390869E-1  -8.259360790252686E-1   4.626826941967011E-1  
 3.748000000000000E7    -8.317961096763611E-1   4.646065235137940E-1  -1.399367302656174E-1  -2.521090507507324E-1  -1.401307880878449E-1  -2.521065175533295E-1  -8.257681727409363E-1   4.636721014976502E-1  
 3.750000000000000E7    -8.314844965934753E-1   4.659602046012878E-1  -1.397163271903992E-1  -2.509661912918091E-1  -1.401880234479904E-1  -2.509487867355347E-1  -8.252552151679993E-1   4.652979373931885E-1  
 3.752000000000000E7    -8.312386870384216E-1   4.673533439636231E-1  -1.397103965282440E-1  -2.499321550130844E-1  -1.398769319057465E-1  -2.499454319477081E-1  -8.248414993286133E-1   4.664998650550842E-1  
 3.754000000000000E7    -8.307196497917175E-1   4.682008326053619E-1  -1.394838094711304E-1  -2.488809823989868E-1  -1.396437585353851E-1  -2.488250732421875E-1  -8.243102431297302E-1   4.681742787361145E-1  
 3.756000000000000E7    -8.300179243087769E-1   4.698245227336884E-1  -1.394550204277039E-1  -2.477058172225952E-1  -1.395196616649628E-1  -2.475834637880325E-1  -8.237587213516235E-1   4.691631793975830E-1  
 3.758000000000000E7    -8.299143314361572E-1   4.714109003543854E-1  -1.391653865575790E-1  -2.466859966516495E-1  -1.396516859531403E-1  -2.468365132808685E-1  -8.235232830047607E-1   4.706242084503174E-1  
 3.760000000000000E7    -8.295288681983948E-1   4.725502729415894E-1  -1.392680704593658E-1  -2.456640452146530E-1  -1.393546611070633E-1  -2.457988858222961E-1  -8.232093453407288E-1   4.720402359962463E-1  
 3.762000000000000E7    -8.287539482116699E-1   4.741303026676178E-1  -1.390811949968338E-1  -2.445055842399597E-1  -1.394153088331223E-1  -2.446077913045883E-1  -8.223542571067810E-1   4.733933508396149E-1  
 3.764000000000000E7    -8.285138010978699E-1   4.753924012184143E-1  -1.389820724725723E-1  -2.435228824615479E-1  -1.391899585723877E-1  -2.437031865119934E-1  -8.220453858375549E-1   4.746033847332001E-1  
 3.766000000000000E7    -8.281973600387573E-1   4.766588509082794E-1  -1.385705918073654E-1  -2.425823211669922E-1  -1.390890181064606E-1  -2.425904572010040E-1  -8.218617439270020E-1   4.759217798709869E-1  
 3.768000000000000E7    -8.274859786033630E-1   4.782521724700928E-1  -1.386147588491440E-1  -2.414591908454895E-1  -1.388174593448639E-1  -2.412720471620560E-1  -8.214411735534668E-1   4.773342907428742E-1  
 3.770000000000000E7    -8.270993232727051E-1   4.795312881469727E-1  -1.384503394365311E-1  -2.405269294977188E-1  -1.384318917989731E-1  -2.405583560466766E-1  -8.208722472190857E-1   4.785018563270569E-1  
 3.772000000000000E7    -8.269223570823669E-1   4.809760153293610E-1  -1.384036093950272E-1  -2.394018471240997E-1  -1.384986042976379E-1  -2.396039664745331E-1  -8.206792473793030E-1   4.798353910446167E-1  
 3.774000000000000E7    -8.263520002365112E-1   4.818877279758453E-1  -1.381987333297730E-1  -2.384754866361618E-1  -1.382102370262146E-1  -2.384774237871170E-1  -8.202821016311646E-1   4.813105165958405E-1  
 3.776000000000000E7    -8.261323571205139E-1   4.834501147270203E-1  -1.382255256175995E-1  -2.372611463069916E-1  -1.384292989969254E-1  -2.372893244028091E-1  -8.195770978927612E-1   4.825192093849182E-1  
 3.778000000000000E7    -8.254202604293823E-1   4.848449826240540E-1  -1.379710435867310E-1  -2.363845258951187E-1  -1.381603181362152E-1  -2.364960759878159E-1  -8.190978765487671E-1   4.839909672737122E-1  
 3.780000000000000E7    -8.250527977943420E-1   4.861837625503540E-1  -1.377422064542770E-1  -2.353023737668991E-1  -1.378190070390701E-1  -2.350557446479797E-1  -8.186944127082825E-1   4.851692914962769E-1  
 3.782000000000000E7    -8.246662020683289E-1   4.872638583183289E-1  -1.375120878219605E-1  -2.342925071716309E-1  -1.377618014812470E-1  -2.343512326478958E-1  -8.181924819946289E-1   4.865745604038239E-1  
 3.784000000000000E7    -8.238114714622498E-1   4.888276755809784E-1  -1.372745633125305E-1  -2.332383394241333E-1  -1.375298798084259E-1  -2.331206053495407E-1  -8.175871372222900E-1   4.875970184803009E-1  
 3.786000000000000E7    -8.234501481056213E-1   4.901558458805084E-1  -1.374150514602661E-1  -2.321911603212357E-1  -1.376127451658249E-1  -2.321566194295883E-1  -8.172416687011719E-1   4.893952310085297E-1  
 3.788000000000000E7    -8.230841159820557E-1   4.913887977600098E-1  -1.369479447603226E-1  -2.312766909599304E-1  -1.373397111892700E-1  -2.311583161354065E-1  -8.169221282005310E-1   4.903242588043213E-1  
 3.790000000000000E7    -8.223695755004883E-1   4.926826655864716E-1  -1.369301974773407E-1  -2.300003618001938E-1  -1.370303630828857E-1  -2.300975471735001E-1  -8.161510229110718E-1   4.917621314525604E-1  
 3.792000000000000E7    -8.222018480300903E-1   4.937206506729126E-1  -1.368739157915115E-1  -2.290692627429962E-1  -1.369474828243256E-1  -2.293213605880737E-1  -8.157173395156860E-1   4.931313097476959E-1  
 3.794000000000000E7    -8.217062950134277E-1   4.953586757183075E-1  -1.365874409675598E-1  -2.280502617359161E-1  -1.368256956338882E-1  -2.283021956682205E-1  -8.153321743011475E-1   4.944527447223663E-1  
 3.796000000000000E7    -8.210527896881104E-1   4.965589046478272E-1  -1.366062909364700E-1  -2.272815108299255E-1  -1.368990540504456E-1  -2.274118661880493E-1  -8.149149417877197E-1   4.956833422183991E-1  
 3.798000000000000E7    -8.210147619247437E-1   4.983105659484863E-1  -1.363074630498886E-1  -2.263041585683823E-1  -1.367996335029602E-1  -2.264040261507034E-1  -8.144959807395935E-1   4.968597292900085E-1  
 3.800000000000000E7    -8.202235698699951E-1   4.991710186004639E-1  -1.359399855136871E-1  -2.251571416854858E-1  -1.365682631731033E-1  -2.252099364995956E-1  -8.138003349304199E-1   4.981296658515930E-1  
 3.802000000000000E7    -8.198561668395996E-1   5.007606744766235E-1  -1.361747533082962E-1  -2.244161516427994E-1  -1.362568438053131E-1  -2.243703454732895E-1  -8.136153817176819E-1   4.995094239711762E-1  
 3.804000000000000E7    -8.189098834991455E-1   5.018528699874878E-1  -1.359291523694992E-1  -2.230446189641953E-1  -1.363100111484528E-1  -2.230303287506104E-1  -8.129802942276001E-1   5.006958246231079E-1  
 3.806000000000000E7    -8.187624812126160E-1   5.030559301376343E-1  -1.355771422386169E-1  -2.221855521202087E-1  -1.358780264854431E-1  -2.222122848033905E-1  -8.125816583633423E-1   5.018123984336853E-1  
 3.808000000000000E7    -8.184104561805725E-1   5.041183233261108E-1  -1.354851722717285E-1  -2.212335914373398E-1  -1.355679035186768E-1  -2.213325649499893E-1  -8.120375275611877E-1   5.034675598144531E-1  
 3.810000000000000E7    -8.179218769073486E-1   5.055863261222839E-1  -1.352812796831131E-1  -2.204692512750626E-1  -1.352728307247162E-1  -2.203498929738998E-1  -8.115898370742798E-1   5.043516755104065E-1  
 3.812000000000000E7    -8.170140385627747E-1   5.066011548042297E-1  -1.350690275430679E-1  -2.193937748670578E-1  -1.351502835750580E-1  -2.193939387798309E-1  -8.112798333168030E-1   5.057778358459473E-1  
 3.814000000000000E7    -8.166302442550659E-1   5.085366964340210E-1  -1.350623965263367E-1  -2.183437049388886E-1  -1.352631151676178E-1  -2.183502614498138E-1  -8.104938864707947E-1   5.071117877960205E-1  
 3.816000000000000E7    -8.164345622062683E-1   5.095686912536621E-1  -1.346537023782730E-1  -2.173676341772080E-1  -1.349774301052094E-1  -2.173746228218079E-1  -8.098735213279724E-1   5.083139538764954E-1  
 3.818000000000000E7    -8.158242106437683E-1   5.107724070549011E-1  -1.345458328723908E-1  -2.164111584424973E-1  -1.345881223678589E-1  -2.163295149803162E-1  -8.091994524002075E-1   5.097525119781494E-1  
 3.820000000000000E7    -8.154531717300415E-1   5.119810104370117E-1  -1.342093795537949E-1  -2.154861390590668E-1  -1.342731416225433E-1  -2.155258059501648E-1  -8.091885447502136E-1   5.108323693275452E-1  
 3.822000000000000E7    -8.147883415222168E-1   5.133164525032044E-1  -1.342860162258148E-1  -2.143902778625488E-1  -1.344207674264908E-1  -2.142391651868820E-1  -8.084704279899597E-1   5.123928785324097E-1  
 3.824000000000000E7    -8.144055604934692E-1   5.146676301956177E-1  -1.338826566934586E-1  -2.134622633457184E-1  -1.341632306575775E-1  -2.133583575487137E-1  -8.081979155540466E-1   5.136266350746155E-1  
 3.826000000000000E7    -8.135841488838196E-1   5.159800648689270E-1  -1.338889598846436E-1  -2.124023586511612E-1  -1.340673565864563E-1  -2.123984992504120E-1  -8.075991868972778E-1   5.148162841796875E-1  
 3.828000000000000E7    -8.132922649383545E-1   5.170809030532837E-1  -1.335864663124085E-1  -2.116342186927795E-1  -1.340143233537674E-1  -2.115627527236939E-1  -8.070886731147766E-1   5.161128044128418E-1  
 3.830000000000000E7    -8.127771615982056E-1   5.184328556060791E-1  -1.332322955131531E-1  -2.103939503431320E-1  -1.334287524223328E-1  -2.105871140956879E-1  -8.063566088676453E-1   5.171348452568054E-1  
 3.832000000000000E7    -8.123393058776856E-1   5.198991894721985E-1  -1.333282738924027E-1  -2.096218913793564E-1  -1.333795338869095E-1  -2.094999253749847E-1  -8.057708144187927E-1   5.183672904968262E-1  
 3.834000000000000E7    -8.118787407875061E-1   5.213265419006348E-1  -1.328682005405426E-1  -2.088935673236847E-1  -1.331415325403214E-1  -2.089000195264816E-1  -8.060206770896912E-1   5.198290944099426E-1  
 3.836000000000000E7    -8.112614154815674E-1   5.221959352493286E-1  -1.328517198562622E-1  -2.076834589242935E-1  -1.330192536115646E-1  -2.076034247875214E-1  -8.051093220710754E-1   5.211697220802307E-1  
 3.838000000000000E7    -8.105023503303528E-1   5.232077240943909E-1  -1.326313167810440E-1  -2.067524492740631E-1  -1.328846663236618E-1  -2.066579461097717E-1  -8.042653799057007E-1   5.224715471267700E-1  
 3.840000000000000E7    -8.102926611900330E-1   5.248606204986572E-1  -1.323080062866211E-1  -2.059046030044556E-1  -1.326512396335602E-1  -2.058180123567581E-1  -8.039628267288208E-1   5.233162045478821E-1  
 3.842000000000000E7    -8.095791935920715E-1   5.258187055587769E-1  -1.319586336612701E-1  -2.049105316400528E-1  -1.323236823081970E-1  -2.048750072717667E-1  -8.034075498580933E-1   5.245490074157715E-1  
 3.844000000000000E7    -8.091584444046021E-1   5.270999670028687E-1  -1.321241557598114E-1  -2.039863020181656E-1  -1.320715546607971E-1  -2.040764689445496E-1  -8.028970360755920E-1   5.259295701980591E-1  
 3.846000000000000E7    -8.088142871856690E-1   5.284198522567749E-1  -1.316915750503540E-1  -2.028898447751999E-1  -1.320763379335403E-1  -2.028877735137940E-1  -8.022848963737488E-1   5.271359682083130E-1  
 3.848000000000000E7    -8.085128664970398E-1   5.294281840324402E-1  -1.313716769218445E-1  -2.022184133529663E-1  -1.317000240087509E-1  -2.021952271461487E-1  -8.020422458648682E-1   5.280784964561462E-1  
 3.850000000000000E7    -8.076506257057190E-1   5.309949517250061E-1  -1.312413811683655E-1  -2.011495232582092E-1  -1.317425668239594E-1  -2.010584771633148E-1  -8.012830615043640E-1   5.293452143669128E-1  
 3.852000000000000E7    -8.072236180305481E-1   5.317544937133789E-1  -1.310920566320419E-1  -2.001380324363709E-1  -1.311927139759064E-1  -2.003841102123261E-1  -8.007318973541260E-1   5.306743979454041E-1  
 3.854000000000000E7    -8.063188195228577E-1   5.334080457687378E-1  -1.307949274778366E-1  -1.992836445569992E-1  -1.310931742191315E-1  -1.991876959800720E-1  -8.001754879951477E-1   5.321208238601685E-1  
 3.856000000000000E7    -8.057911396026611E-1   5.345717668533325E-1  -1.305337250232697E-1  -1.982438862323761E-1  -1.309148073196411E-1  -1.983270496129990E-1  -7.996278405189514E-1   5.330606698989868E-1  
 3.858000000000000E7    -8.054779171943665E-1   5.356451869010925E-1  -1.303763240575790E-1  -1.973517984151840E-1  -1.305001974105835E-1  -1.974818110466003E-1  -7.992616891860962E-1   5.346585512161255E-1  
 3.860000000000000E7    -8.048855662345886E-1   5.372437238693237E-1  -1.302295923233032E-1  -1.963748335838318E-1  -1.305914819240570E-1  -1.965365409851074E-1  -7.985259294509888E-1   5.357089638710022E-1  
 3.862000000000000E7    -8.041846156120300E-1   5.379050374031067E-1  -1.297996640205383E-1  -1.953886449337006E-1  -1.302471160888672E-1  -1.954163312911987E-1  -7.976459860801697E-1   5.365134477615356E-1  
 3.864000000000000E7    -8.036063909530640E-1   5.389668345451355E-1  -1.295906752347946E-1  -1.945404261350632E-1  -1.299612820148468E-1  -1.945703178644180E-1  -7.974038720130920E-1   5.380167961120606E-1  
 3.866000000000000E7    -8.033605217933655E-1   5.406079292297363E-1  -1.296368092298508E-1  -1.938264966011047E-1  -1.296694874763489E-1  -1.937393993139267E-1  -7.968758344650269E-1   5.391513705253601E-1  
 3.868000000000000E7    -8.027218580245972E-1   5.415667891502380E-1  -1.292068362236023E-1  -1.927491724491119E-1  -1.294090300798416E-1  -1.928182095289230E-1  -7.961289882659912E-1   5.403430461883545E-1  
 3.870000000000000E7    -8.020141124725342E-1   5.430659651756287E-1  -1.290941834449768E-1  -1.918685585260391E-1  -1.293811202049255E-1  -1.918421238660812E-1  -7.958284616470337E-1   5.415357947349548E-1  
 3.872000000000000E7    -8.014290332794190E-1   5.442552566528320E-1  -1.288754343986511E-1  -1.910282522439957E-1  -1.289709806442261E-1  -1.910390257835388E-1  -7.953912019729614E-1   5.426401495933533E-1  
 3.874000000000000E7    -8.012211918830872E-1   5.452405810356140E-1  -1.284845173358917E-1  -1.901020109653473E-1  -1.286966651678085E-1  -1.902056783437729E-1  -7.945100069046021E-1   5.440596342086792E-1  
 3.876000000000000E7    -8.005083203315735E-1   5.465540289878845E-1  -1.283633410930634E-1  -1.892426013946533E-1  -1.285271197557449E-1  -1.891345679759979E-1  -7.941549420356751E-1   5.451261997222900E-1  
 3.878000000000000E7    -7.999579310417175E-1   5.477238297462463E-1  -1.281062364578247E-1  -1.882035881280899E-1  -1.284252405166626E-1  -1.881703287363052E-1  -7.933759093284607E-1   5.467044115066528E-1  
 3.880000000000000E7    -7.992117404937744E-1   5.487926006317139E-1  -1.279086023569107E-1  -1.873899251222611E-1  -1.281830072402954E-1  -1.873771548271179E-1  -7.928532958030701E-1   5.477446317672730E-1  
 3.882000000000000E7    -7.988380193710327E-1   5.503375530242920E-1  -1.275329738855362E-1  -1.867018342018127E-1  -1.278445422649384E-1  -1.865270584821701E-1  -7.925677895545960E-1   5.490611791610718E-1  
 3.884000000000000E7    -7.984001636505127E-1   5.513250827789307E-1  -1.273029893636704E-1  -1.856671571731567E-1  -1.273491531610489E-1  -1.856886893510819E-1  -7.916653752326965E-1   5.501241683959961E-1  
 3.886000000000000E7    -7.976878285408020E-1   5.522975921630859E-1  -1.270628273487091E-1  -1.848747134208679E-1  -1.273480057716370E-1  -1.848116964101791E-1  -7.912830114364624E-1   5.511291623115540E-1  
 3.888000000000000E7    -7.971230149269104E-1   5.535948276519775E-1  -1.268390119075775E-1  -1.839403212070465E-1  -1.270550489425659E-1  -1.839450895786285E-1  -7.907261848449707E-1   5.521237254142761E-1  
 3.890000000000000E7    -7.964820861816406E-1   5.549512505531311E-1  -1.264582276344299E-1  -1.828458905220032E-1  -1.267261207103729E-1  -1.829389780759811E-1  -7.899881005287170E-1   5.532779097557068E-1  
 3.892000000000000E7    -7.959164977073669E-1   5.560966730117798E-1  -1.262489855289459E-1  -1.821198612451553E-1  -1.265769302845001E-1  -1.820727735757828E-1  -7.896217107772827E-1   5.543828606605530E-1  
 3.894000000000000E7    -7.957398891448975E-1   5.570723414421082E-1  -1.261028796434403E-1  -1.814005970954895E-1  -1.262831091880798E-1  -1.812661290168762E-1  -7.889576554298401E-1   5.556066036224365E-1  
 3.896000000000000E7    -7.948290109634399E-1   5.586203336715698E-1  -1.257354468107224E-1  -1.803878247737885E-1  -1.260474175214768E-1  -1.804268658161163E-1  -7.885378599166870E-1   5.567485094070435E-1  
 3.898000000000000E7    -7.943397760391235E-1   5.597628355026245E-1  -1.256359517574310E-1  -1.794190853834152E-1  -1.258766800165176E-1  -1.795709133148193E-1  -7.879551649093628E-1   5.579808354377747E-1  
 3.900000000000000E7    -7.937244772911072E-1   5.608024597167969E-1  -1.252651512622833E-1  -1.788708418607712E-1  -1.255549937486649E-1  -1.787381619215012E-1  -7.875157594680786E-1   5.593083500862122E-1  
 3.902000000000000E7    -7.932034134864807E-1   5.616476535797119E-1  -1.249620020389557E-1  -1.779011338949204E-1  -1.252566874027252E-1  -1.777445524930954E-1  -7.867719531059265E-1   5.603960752487183E-1  
 3.904000000000000E7    -7.925717830657959E-1   5.631202459335327E-1  -1.246236115694046E-1  -1.768215894699097E-1  -1.249004378914833E-1  -1.770816892385483E-1  -7.861632704734802E-1   5.612711906433106E-1  
 3.906000000000000E7    -7.922187447547913E-1   5.642307400703430E-1  -1.245621889829636E-1  -1.762853711843491E-1  -1.248362064361572E-1  -1.762186437845230E-1  -7.854694128036499E-1   5.627220273017883E-1  
 3.908000000000000E7    -7.914276719093323E-1   5.650871992111206E-1  -1.242824494838715E-1  -1.752514392137528E-1  -1.244026944041252E-1  -1.750785112380981E-1  -7.849051952362061E-1   5.635118484497070E-1  
 3.910000000000000E7    -7.907117605209351E-1   5.663333535194397E-1  -1.241174191236496E-1  -1.742502450942993E-1  -1.243119984865189E-1  -1.744371801614761E-1  -7.843251824378967E-1   5.650811195373535E-1  
 3.912000000000000E7    -7.900654077529907E-1   5.673528909683228E-1  -1.237291768193245E-1  -1.735837608575821E-1  -1.238213852047920E-1  -1.734736561775208E-1  -7.842158079147339E-1   5.662387013435364E-1  
 3.914000000000000E7    -7.894685268402100E-1   5.688020586967468E-1  -1.233952566981316E-1  -1.725044548511505E-1  -1.236458569765091E-1  -1.726421713829041E-1  -7.833753228187561E-1   5.673487782478333E-1  
 3.916000000000000E7    -7.889422774314880E-1   5.699332356452942E-1  -1.230561509728432E-1  -1.717048287391663E-1  -1.233817189931870E-1  -1.718544661998749E-1  -7.826413512229919E-1   5.681101679801941E-1  
 3.918000000000000E7    -7.882238030433655E-1   5.711576938629150E-1  -1.229766234755516E-1  -1.711011081933975E-1  -1.230515465140343E-1  -1.709167510271072E-1  -7.819473147392273E-1   5.693228244781494E-1  
 3.920000000000000E7    -7.878058552742004E-1   5.722483396530151E-1  -1.228172630071640E-1  -1.699363440275192E-1  -1.229046806693077E-1  -1.699938923120499E-1  -7.815746068954468E-1   5.705853104591370E-1  
 3.922000000000000E7    -7.871201038360596E-1   5.733260512351990E-1  -1.224550306797028E-1  -1.693655550479889E-1  -1.225127875804901E-1  -1.692330390214920E-1  -7.805665135383606E-1   5.716219544410706E-1  
 3.924000000000000E7    -7.868182063102722E-1   5.745269656181335E-1  -1.222673505544663E-1  -1.686698347330093E-1  -1.224026754498482E-1  -1.685443520545960E-1  -7.801190614700317E-1   5.729708075523377E-1  
 3.926000000000000E7    -7.862241268157959E-1   5.753430724143982E-1  -1.217039376497269E-1  -1.676284670829773E-1  -1.219505146145821E-1  -1.675106734037399E-1  -7.794362902641296E-1   5.739545226097107E-1  
 3.928000000000000E7    -7.853766679763794E-1   5.766690373420715E-1  -1.215744018554688E-1  -1.667109876871109E-1  -1.218049377202988E-1  -1.667588949203491E-1  -7.788693308830261E-1   5.750969052314758E-1  
 3.930000000000000E7    -7.850315570831299E-1   5.774298906326294E-1  -1.211455389857292E-1  -1.659203320741653E-1  -1.213862299919128E-1  -1.659634709358215E-1  -7.781415581703186E-1   5.760108232498169E-1  
 3.932000000000000E7    -7.844172716140747E-1   5.788720250129700E-1  -1.210934817790985E-1  -1.650386452674866E-1  -1.212748587131500E-1  -1.651099175214768E-1  -7.776980400085449E-1   5.771343708038330E-1  
 3.934000000000000E7    -7.837146520614624E-1   5.798823237419128E-1  -1.205039843916893E-1  -1.642381995916367E-1  -1.209138780832291E-1  -1.641732007265091E-1  -7.773525118827820E-1   5.782009363174439E-1  
 3.936000000000000E7    -7.830870151519775E-1   5.810524225234985E-1  -1.205474063754082E-1  -1.635476946830750E-1  -1.207572072744370E-1  -1.634688228368759E-1  -7.766843438148499E-1   5.796608924865723E-1  
 3.938000000000000E7    -7.820264101028442E-1   5.821990370750427E-1  -1.200650334358215E-1  -1.627502292394638E-1  -1.202766075730324E-1  -1.624467819929123E-1  -7.760938405990601E-1   5.807046890258789E-1  
 3.940000000000000E7    -7.819458842277527E-1   5.834174752235413E-1  -1.199289113283157E-1  -1.618400663137436E-1  -1.201289668679237E-1  -1.617004573345184E-1  -7.755158543586731E-1   5.819109082221985E-1  
 3.942000000000000E7    -7.815638780593872E-1   5.844733119010925E-1  -1.196404322981834E-1  -1.610596179962158E-1  -1.198092624545097E-1  -1.610514968633652E-1  -7.752699851989746E-1   5.830247402191162E-1  
 3.944000000000000E7    -7.807791233062744E-1   5.855413079261780E-1  -1.193406358361244E-1  -1.603401601314545E-1  -1.194911673665047E-1  -1.601506620645523E-1  -7.745838761329651E-1   5.842223167419434E-1  
 3.946000000000000E7    -7.800395488739014E-1   5.863736271858215E-1  -1.190051883459091E-1  -1.594132333993912E-1  -1.191422790288925E-1  -1.592290252447128E-1  -7.734053134918213E-1   5.852262377738953E-1  
 3.948000000000000E7    -7.796416282653809E-1   5.878798365592957E-1  -1.188023239374161E-1  -1.586443334817886E-1  -1.190657466650009E-1  -1.587044745683670E-1  -7.731758952140808E-1   5.867198109626770E-1  
 3.950000000000000E7    -7.784457206726074E-1   5.887633562088013E-1  -1.184833645820618E-1  -1.577416509389877E-1  -1.186654344201088E-1  -1.577592194080353E-1  -7.723242044448853E-1   5.875506401062012E-1  
 3.952000000000000E7    -7.781372070312500E-1   5.899196267127991E-1  -1.182799786329269E-1  -1.570156961679459E-1  -1.183406040072441E-1  -1.570173203945160E-1  -7.718838453292847E-1   5.885576009750366E-1  
 3.954000000000000E7    -7.775154709815979E-1   5.909299254417419E-1  -1.178657114505768E-1  -1.561942994594574E-1  -1.180599257349968E-1  -1.562675833702087E-1  -7.710076570510864E-1   5.894631743431091E-1  
 3.956000000000000E7    -7.768524289131165E-1   5.919852852821350E-1  -1.175286993384361E-1  -1.552864909172058E-1  -1.176490709185600E-1  -1.552179157733917E-1  -7.705695033073425E-1   5.906575322151184E-1  
 3.958000000000000E7    -7.761943340301514E-1   5.933051109313965E-1  -1.171905845403671E-1  -1.546962559223175E-1  -1.174069419503212E-1  -1.545271277427673E-1  -7.702926993370056E-1   5.913598537445068E-1  
 3.960000000000000E7    -7.756032943725586E-1   5.943940877914429E-1  -1.170025765895844E-1  -1.538261324167252E-1  -1.170234233140945E-1  -1.537950634956360E-1  -7.693532705307007E-1   5.924225449562073E-1  
 3.962000000000000E7    -7.750244140625000E-1   5.955955982208252E-1  -1.165365129709244E-1  -1.531320512294769E-1  -1.168518215417862E-1  -1.529862731695175E-1  -7.688593864440918E-1   5.937324166297913E-1  
 3.964000000000000E7    -7.744119167327881E-1   5.963201522827148E-1  -1.163029670715332E-1  -1.521465927362442E-1  -1.165336966514587E-1  -1.521325707435608E-1  -7.679035067558289E-1   5.943968892097473E-1  
 3.966000000000000E7    -7.736483216285706E-1   5.976249575614929E-1  -1.160934418439865E-1  -1.512584686279297E-1  -1.163287162780762E-1  -1.513571441173554E-1  -7.672182917594910E-1   5.956627130508423E-1  
 3.968000000000000E7    -7.731469273567200E-1   5.983516573905945E-1  -1.156670153141022E-1  -1.506206393241882E-1  -1.157596781849861E-1  -1.505094617605209E-1  -7.669225335121155E-1   5.969017148017883E-1  
 3.970000000000000E7    -7.727572917938232E-1   5.996305942535400E-1  -1.155091822147369E-1  -1.498888880014420E-1  -1.156662404537201E-1  -1.498227119445801E-1  -7.663074135780335E-1   5.978876948356628E-1  
 3.972000000000000E7    -7.717348337173462E-1   6.006805300712585E-1  -1.150940507650375E-1  -1.490359455347061E-1  -1.152349412441254E-1  -1.490571647882462E-1  -7.653475999832153E-1   5.990664362907410E-1  
 3.974000000000000E7    -7.711946368217468E-1   6.014890074729919E-1  -1.147271171212196E-1  -1.482253521680832E-1  -1.149352714419365E-1  -1.481491178274155E-1  -7.649052143096924E-1   6.000769734382629E-1  
 3.976000000000000E7    -7.706713080406189E-1   6.028257012367249E-1  -1.145336404442787E-1  -1.475166380405426E-1  -1.147591322660446E-1  -1.473545283079147E-1  -7.642111182212830E-1   6.013249754905701E-1  
 3.978000000000000E7    -7.701196074485779E-1   6.039506793022156E-1  -1.141939684748650E-1  -1.467016488313675E-1  -1.143627241253853E-1  -1.467217504978180E-1  -7.635557651519775E-1   6.018294095993042E-1  
 3.980000000000000E7    -7.694614529609680E-1   6.052443385124207E-1  -1.138895601034164E-1  -1.460410207509995E-1  -1.140024736523628E-1  -1.459954679012299E-1  -7.631978988647461E-1   6.032304763793945E-1  
 3.982000000000000E7    -7.689601778984070E-1   6.061598062515259E-1  -1.135513707995415E-1  -1.452739238739014E-1  -1.137588247656822E-1  -1.452184170484543E-1  -7.624453306198120E-1   6.041593551635742E-1  
 3.984000000000000E7    -7.681542038917542E-1   6.073512434959412E-1  -1.134062185883522E-1  -1.444509774446487E-1  -1.134364306926727E-1  -1.442211270332336E-1  -7.616614699363709E-1   6.052713990211487E-1  
 3.986000000000000E7    -7.673760056495667E-1   6.082749962806702E-1  -1.130751073360443E-1  -1.435505747795105E-1  -1.132182702422142E-1  -1.435049325227737E-1  -7.608907818794251E-1   6.061679124832153E-1  
 3.988000000000000E7    -7.668331265449524E-1   6.089080572128296E-1  -1.125891357660294E-1  -1.429129540920258E-1  -1.128711998462677E-1  -1.428577601909638E-1  -7.602782845497131E-1   6.072180867195129E-1  
 3.990000000000000E7    -7.659759521484375E-1   6.105439066886902E-1  -1.123560443520546E-1  -1.420691460371018E-1  -1.125681102275848E-1  -1.419830620288849E-1  -7.598673701286316E-1   6.086344122886658E-1  
 3.992000000000000E7    -7.656651139259338E-1   6.112989783287048E-1  -1.120589002966881E-1  -1.413454860448837E-1  -1.121863573789597E-1  -1.412318944931030E-1  -7.590051293373108E-1   6.094430088996887E-1  
 3.994000000000000E7    -7.652046084403992E-1   6.124228835105896E-1  -1.116977557539940E-1  -1.405756324529648E-1  -1.118934527039528E-1  -1.403806060552597E-1  -7.584716081619263E-1   6.106020212173462E-1  
 3.996000000000000E7    -7.640661001205444E-1   6.132789850234985E-1  -1.112768799066544E-1  -1.399140357971191E-1  -1.115717142820358E-1  -1.398688256740570E-1  -7.579295039176941E-1   6.116349101066589E-1  
 3.998000000000000E7    -7.636682987213135E-1   6.143409013748169E-1  -1.110437586903572E-1  -1.389993876218796E-1  -1.112229749560356E-1  -1.389489322900772E-1  -7.572140097618103E-1   6.123362779617310E-1  
 4.000000000000000E7    -7.626403570175171E-1   6.158775091171265E-1  -1.107927113771439E-1  -1.383245587348938E-1  -1.110008209943771E-1  -1.381905823945999E-1  -7.566758990287781E-1   6.134786009788513E-1  
 4.002000000000000E7    -7.624019980430603E-1   6.165581345558167E-1  -1.104165315628052E-1  -1.376408338546753E-1  -1.105603799223900E-1  -1.374742686748505E-1  -7.560304403305054E-1   6.147531867027283E-1  
 4.004000000000000E7    -7.614409923553467E-1   6.178863644599915E-1  -1.101617589592934E-1  -1.367987543344498E-1  -1.103367805480957E-1  -1.367539912462235E-1  -7.552579641342163E-1   6.156602501869202E-1  
 4.006000000000000E7    -7.609983086585999E-1   6.185830831527710E-1  -1.098635420203209E-1  -1.362047046422958E-1  -1.099636480212212E-1  -1.360095739364624E-1  -7.547093033790588E-1   6.168131232261658E-1  
 4.008000000000000E7    -7.604420185089111E-1   6.197652220726013E-1  -1.096563860774040E-1  -1.354320645332336E-1  -1.096371859312058E-1  -1.353958249092102E-1  -7.539792656898499E-1   6.177155971527100E-1  
 4.010000000000000E7    -7.597934007644653E-1   6.204087734222412E-1  -1.091626584529877E-1  -1.346688121557236E-1  -1.092943102121353E-1  -1.345030814409256E-1  -7.529766559600830E-1   6.187392473220825E-1  
 4.012000000000000E7    -7.594696879386902E-1   6.216881871223450E-1  -1.087413355708122E-1  -1.339049339294434E-1  -1.089876741170883E-1  -1.337601542472839E-1  -7.525724172592163E-1   6.198607683181763E-1  
 4.014000000000000E7    -7.583647370338440E-1   6.225459575653076E-1  -1.083786189556122E-1  -1.331408768892288E-1  -1.086729913949966E-1  -1.329920291900635E-1  -7.517219781875610E-1   6.206223964691162E-1  
 4.016000000000000E7    -7.576860189437866E-1   6.237960457801819E-1  -1.081089526414871E-1  -1.324095129966736E-1  -1.083435788750649E-1  -1.322152465581894E-1  -7.512896060943604E-1   6.215050220489502E-1  
 4.018000000000000E7    -7.566505074501038E-1   6.247344017028809E-1  -1.077730953693390E-1  -1.317190378904343E-1  -1.080413386225700E-1  -1.314563900232315E-1  -7.505395412445068E-1   6.227120161056519E-1  
 4.020000000000000E7    -7.563859224319458E-1   6.260135173797607E-1  -1.075023710727692E-1  -1.311101615428925E-1  -1.077157929539681E-1  -1.309788227081299E-1  -7.503047585487366E-1   6.239151358604431E-1  
 4.022000000000000E7    -7.559902667999268E-1   6.267034411430359E-1  -1.071412861347199E-1  -1.302405297756195E-1  -1.073089092969894E-1  -1.303152590990067E-1  -7.493292093276978E-1   6.249562501907349E-1  
 4.024000000000000E7    -7.551962733268738E-1   6.278351545333862E-1  -1.068154349923134E-1  -1.295366287231445E-1  -1.069486439228058E-1  -1.293517053127289E-1  -7.486714720726013E-1   6.259054541587830E-1  
 4.026000000000000E7    -7.542635202407837E-1   6.287490129470825E-1  -1.065803170204163E-1  -1.286567598581314E-1  -1.066681593656540E-1  -1.286765187978745E-1  -7.478592991828919E-1   6.264714598655701E-1  
 4.028000000000000E7    -7.539872527122498E-1   6.299019455909729E-1  -1.061315611004829E-1  -1.281716823577881E-1  -1.062837615609169E-1  -1.280368417501450E-1  -7.476384639739990E-1   6.274906992912293E-1  
 4.030000000000000E7    -7.531325221061707E-1   6.308896541595459E-1  -1.056736484169960E-1  -1.274525225162506E-1  -1.059254631400108E-1  -1.273017823696137E-1  -7.467484474182129E-1   6.285721659660339E-1  
 4.032000000000000E7    -7.526073455810547E-1   6.316753029823303E-1  -1.055316403508186E-1  -1.267026662826538E-1  -1.054904609918594E-1  -1.266425848007202E-1  -7.460296750068665E-1   6.297450065612793E-1  
 4.034000000000000E7    -7.520597577095032E-1   6.328232288360596E-1  -1.050186678767204E-1  -1.259399205446243E-1  -1.052771359682083E-1  -1.259056478738785E-1  -7.453686594963074E-1   6.301589608192444E-1  
 4.036000000000000E7    -7.514411211013794E-1   6.341576576232910E-1  -1.049475669860840E-1  -1.252110153436661E-1  -1.049275621771812E-1  -1.252030730247498E-1  -7.445107102394104E-1   6.317524909973145E-1  
 4.038000000000000E7    -7.504017949104309E-1   6.348910927772522E-1  -1.044105067849159E-1  -1.244896948337555E-1  -1.045848801732063E-1  -1.244182810187340E-1  -7.440467476844788E-1   6.325405240058899E-1  
 4.040000000000000E7    -7.499757409095764E-1   6.358413100242615E-1  -1.042063161730766E-1  -1.238819211721420E-1  -1.043181717395783E-1  -1.236528605222702E-1  -7.433193922042847E-1   6.336610913276672E-1  
 4.042000000000000E7    -7.490403652191162E-1   6.369498968124390E-1  -1.038253530859947E-1  -1.231862306594849E-1  -1.038355380296707E-1  -1.230226531624794E-1  -7.429121732711792E-1   6.345281004905701E-1  
 4.044000000000000E7    -7.484712600708008E-1   6.380276083946228E-1  -1.033772677183151E-1  -1.223928481340408E-1  -1.036478877067566E-1  -1.223333552479744E-1  -7.417816519737244E-1   6.356123089790344E-1  
 4.046000000000000E7    -7.477110028266907E-1   6.387997865676880E-1  -1.030344441533089E-1  -1.216793656349182E-1  -1.031043380498886E-1  -1.216778680682182E-1  -7.416490316390991E-1   6.367032527923584E-1  
 4.048000000000000E7    -7.473816275596619E-1   6.398138999938965E-1  -1.027909815311432E-1  -1.209787279367447E-1  -1.028906181454659E-1  -1.210145801305771E-1  -7.403512001037598E-1   6.376632452011108E-1  
 4.050000000000000E7    -7.465688586235046E-1   6.406096220016480E-1  -1.024341732263565E-1  -1.202841252088547E-1  -1.024526432156563E-1  -1.201437786221504E-1  -7.398100495338440E-1   6.383486390113831E-1  
 4.052000000000000E7    -7.459723353385925E-1   6.418966054916382E-1  -1.021305993199348E-1  -1.197711676359177E-1  -1.022373810410500E-1  -1.195387840270996E-1  -7.395156025886536E-1   6.395512223243713E-1  
 4.054000000000000E7    -7.450324296951294E-1   6.427229046821594E-1  -1.017488837242127E-1  -1.189846023917198E-1  -1.018217206001282E-1  -1.188958138227463E-1  -7.385321855545044E-1   6.403577327728272E-1  
 4.056000000000000E7    -7.444744706153870E-1   6.436034440994263E-1  -1.011929139494896E-1  -1.182740181684494E-1  -1.014615073800087E-1  -1.181052178144455E-1  -7.378787994384766E-1   6.414853930473328E-1  
 4.058000000000000E7    -7.439032793045044E-1   6.445624232292175E-1  -1.009765341877937E-1  -1.176450327038765E-1  -1.010692566633225E-1  -1.174757778644562E-1  -7.373442649841309E-1   6.427398324012756E-1  
 4.060000000000000E7    -7.431296110153198E-1   6.459617018699646E-1  -1.006332412362099E-1  -1.168722212314606E-1  -1.007464379072189E-1  -1.167548820376396E-1  -7.364498972892761E-1   6.431990861892700E-1  
 4.062000000000000E7    -7.423148751258850E-1   6.464636921882629E-1  -1.003140583634377E-1  -1.161980479955673E-1  -1.004058718681335E-1  -1.160497963428497E-1  -7.360929250717163E-1   6.442905068397522E-1  
 4.064000000000000E7    -7.414033412933350E-1   6.476657390594482E-1  -9.988155215978622E-2  -1.154152676463127E-1  -1.000300571322441E-1  -1.155301406979561E-1  -7.353901863098145E-1   6.450332403182983E-1  
 4.066000000000000E7    -7.410701513290405E-1   6.485944986343384E-1  -9.952045977115631E-2  -1.148735806345940E-1  -9.968338161706924E-2  -1.147526875138283E-1  -7.346674203872681E-1   6.458999514579773E-1  
 4.068000000000000E7    -7.402673959732056E-1   6.495553851127625E-1  -9.921858459711075E-2  -1.141481101512909E-1  -9.935491532087326E-2  -1.140051260590553E-1  -7.339513301849365E-1   6.469809412956238E-1  
 4.070000000000000E7    -7.395485639572144E-1   6.505035758018494E-1  -9.882418066263199E-2  -1.135932505130768E-1  -9.894909709692001E-2  -1.134903356432915E-1  -7.333261370658875E-1   6.479474902153015E-1  
 4.072000000000000E7    -7.391247153282166E-1   6.512534022331238E-1  -9.843679517507553E-2  -1.129104420542717E-1  -9.866999834775925E-2  -1.127054169774056E-1  -7.324060201644898E-1   6.493999361991882E-1  
 4.074000000000000E7    -7.385980486869812E-1   6.522842049598694E-1  -9.811699390411377E-2  -1.122029274702072E-1  -9.827264398336411E-2  -1.121651679277420E-1  -7.319028973579407E-1   6.500828266143799E-1  
 4.076000000000000E7    -7.376722693443298E-1   6.535258889198303E-1  -9.774957597255707E-2  -1.115405634045601E-1  -9.792694449424744E-2  -1.113731786608696E-1  -7.309942245483398E-1   6.506377458572388E-1  
 4.078000000000000E7    -7.369238138198853E-1   6.545273661613464E-1  -9.762176871299744E-2  -1.109071001410484E-1  -9.760883450508118E-2  -1.107117831707001E-1  -7.302641868591309E-1   6.518371701240540E-1  
 4.080000000000000E7    -7.360508441925049E-1   6.551097035408020E-1  -9.714289009571075E-2  -1.101568639278412E-1  -9.717433154582977E-2  -1.100124865770340E-1  -7.299929857254028E-1   6.528981328010559E-1  
 4.082000000000000E7    -7.357778549194336E-1   6.561220884323120E-1  -9.672775864601135E-2  -1.096429228782654E-1  -9.675563871860504E-2  -1.094446107745171E-1  -7.291887998580933E-1   6.536728143692017E-1  
 4.084000000000000E7    -7.348547577857971E-1   6.572929620742798E-1  -9.636826813220978E-2  -1.087713688611984E-1  -9.653206914663315E-2  -1.088193133473396E-1  -7.286011576652527E-1   6.548758149147034E-1  
 4.086000000000000E7    -7.341062426567078E-1   6.580470204353333E-1  -9.601637721061707E-2  -1.081335172057152E-1  -9.619395434856415E-2  -1.080871894955635E-1  -7.275553941726685E-1   6.556714177131653E-1  
 4.088000000000000E7    -7.335238456726074E-1   6.589236855506897E-1  -9.572104364633560E-2  -1.075654700398445E-1  -9.573250263929367E-2  -1.073384732007980E-1  -7.268052697181702E-1   6.562872529029846E-1  
 4.090000000000000E7    -7.327475547790527E-1   6.595152020454407E-1  -9.526603668928146E-2  -1.068918555974960E-1  -9.535262733697891E-2  -1.067610383033752E-1  -7.262192368507385E-1   6.571869850158691E-1  
 4.092000000000000E7    -7.320421934127808E-1   6.608565449714661E-1  -9.496971964836121E-2  -1.062180772423744E-1  -9.515935182571411E-2  -1.060323342680931E-1  -7.254433631896973E-1   6.585606932640076E-1  
 4.094000000000000E7    -7.314017415046692E-1   6.619025468826294E-1  -9.470605105161667E-2  -1.055866181850433E-1  -9.473736584186554E-2  -1.054344922304153E-1  -7.248519659042358E-1   6.594138741493225E-1  
 4.096000000000000E7    -7.306445837020874E-1   6.627661585807800E-1  -9.420064091682434E-2  -1.049621030688286E-1  -9.434280544519424E-2  -1.047166213393211E-1  -7.243241071701050E-1   6.602228879928589E-1  
 4.098000000000000E7    -7.299708724021912E-1   6.638382077217102E-1  -9.392262250185013E-2  -1.042401939630508E-1  -9.400655329227448E-2  -1.042142361402512E-1  -7.234466075897217E-1   6.612879633903503E-1  
 4.100000000000000E7    -7.296252250671387E-1   6.647363901138306E-1  -9.351521730422974E-2  -1.036980599164963E-1  -9.362399578094482E-2  -1.035019233822823E-1  -7.226429581642151E-1   6.621378660202026E-1  
 4.102000000000000E7    -7.285316586494446E-1   6.657125353813171E-1  -9.322160482406616E-2  -1.029666885733604E-1  -9.337352216243744E-2  -1.028794050216675E-1  -7.218489050865173E-1   6.631420254707336E-1  
 4.104000000000000E7    -7.276861667633057E-1   6.666555404663086E-1  -9.280483424663544E-2  -1.022895947098732E-1  -9.283850342035294E-2  -1.022360995411873E-1  -7.215293645858765E-1   6.639968156814575E-1  
 4.106000000000000E7    -7.270238399505615E-1   6.671779155731201E-1  -9.247270226478577E-2  -1.017293781042099E-1  -9.256822615861893E-2  -1.015385612845421E-1  -7.207901477813721E-1   6.647117733955383E-1  
 4.108000000000000E7    -7.264150381088257E-1   6.682584881782532E-1  -9.197248518466950E-2  -1.011088117957115E-1  -9.211992472410202E-2  -1.009291186928749E-1  -7.198037505149841E-1   6.656755805015564E-1  
 4.110000000000000E7    -7.254390120506287E-1   6.692948937416077E-1  -9.177652001380920E-2  -1.004435792565346E-1  -9.180016815662384E-2  -1.002801507711411E-1  -7.192072272300720E-1   6.670051813125610E-1  
 4.112000000000000E7    -7.248711585998535E-1   6.703936457633972E-1  -9.148187935352325E-2  -9.975744038820267E-2  -9.138385206460953E-2  -9.968562424182892E-2  -7.187981605529785E-1   6.678440570831299E-1  
 4.114000000000000E7    -7.239704728126526E-1   6.708797216415405E-1  -9.094858914613724E-2  -9.906969964504242E-2  -9.098431468009949E-2  -9.898613393306732E-2  -7.180417776107788E-1   6.684046387672424E-1  
 4.116000000000000E7    -7.238348722457886E-1   6.719270348548889E-1  -9.064704179763794E-2  -9.856382757425308E-2  -9.063632041215897E-2  -9.840390086174011E-2  -7.172287106513977E-1   6.692821979522705E-1  
 4.118000000000000E7    -7.227531671524048E-1   6.729672551155090E-1  -9.029665589332581E-2  -9.793489426374435E-2  -9.035994857549667E-2  -9.772840142250061E-2  -7.163727879524231E-1   6.706214547157288E-1  
 4.120000000000000E7    -7.220355272293091E-1   6.736678481101990E-1  -8.980181813240051E-2  -9.725932776927948E-2  -8.980706334114075E-2  -9.713847190141678E-2  -7.156723737716675E-1   6.710289120674133E-1  
 4.122000000000000E7    -7.214850783348084E-1   6.748061180114746E-1  -8.950757980346680E-2  -9.671288728713989E-2  -8.947596698999405E-2  -9.665714204311371E-2  -7.152462601661682E-1   6.719369888305664E-1  
 4.124000000000000E7    -7.208411097526550E-1   6.760248541831970E-1  -8.909645676612854E-2  -9.609973430633545E-2  -8.919949829578400E-2  -9.596757590770721E-2  -7.144502401351929E-1   6.726798415184021E-1  
 4.126000000000000E7    -7.198889851570129E-1   6.760785579681397E-1  -8.862930536270142E-2  -9.547617286443710E-2  -8.871799707412720E-2  -9.533503651618958E-2  -7.138577103614807E-1   6.737763881683350E-1  
 4.128000000000000E7    -7.191210985183716E-1   6.774482727050781E-1  -8.838102221488953E-2  -9.484566748142242E-2  -8.847099542617798E-2  -9.463013708591461E-2  -7.131620645523071E-1   6.747490763664246E-1  
 4.130000000000000E7    -7.186962366104126E-1   6.781349778175354E-1  -8.799142390489578E-2  -9.409374743700028E-2  -8.807101845741272E-2  -9.400910139083862E-2  -7.120397686958313E-1   6.759992241859436E-1  
 4.132000000000000E7    -7.178918123245239E-1   6.790876984596252E-1  -8.759064972400665E-2  -9.357732534408569E-2  -8.775068819522858E-2  -9.337113797664642E-2  -7.114214897155762E-1   6.764396429061890E-1  
 4.134000000000000E7    -7.168048620223999E-1   6.800745129585266E-1  -8.720828592777252E-2  -9.295337647199631E-2  -8.733661472797394E-2  -9.279009699821472E-2  -7.108890414237976E-1   6.774657964706421E-1  
 4.136000000000000E7    -7.162195444107056E-1   6.810123324394226E-1  -8.678942173719406E-2  -9.233457595109940E-2  -8.696833252906799E-2  -9.222617000341415E-2  -7.099194526672363E-1   6.783238053321838E-1  
 4.138000000000000E7    -7.156104445457459E-1   6.818495988845825E-1  -8.650001138448715E-2  -9.166495501995087E-2  -8.663171529769898E-2  -9.166199713945389E-2  -7.091332674026489E-1   6.791586875915527E-1  
 4.140000000000000E7    -7.150374054908752E-1   6.827877759933472E-1  -8.608984947204590E-2  -9.116337448358536E-2  -8.611041307449341E-2  -9.101494401693344E-2  -7.085685729980469E-1   6.800608634948731E-1  
 4.142000000000000E7    -7.139514684677124E-1   6.836265921592712E-1  -8.573559671640396E-2  -9.042769670486450E-2  -8.584193140268326E-2  -9.038130939006805E-2  -7.076135277748108E-1   6.808302998542786E-1  
 4.144000000000000E7    -7.134810686111450E-1   6.846374869346619E-1  -8.538326621055603E-2  -8.981935679912567E-2  -8.537720888853073E-2  -8.978270739316940E-2  -7.070345282554627E-1   6.818281412124634E-1  
 4.146000000000000E7    -7.126566767692566E-1   6.853840351104736E-1  -8.493617922067642E-2  -8.928783982992172E-2  -8.505691587924957E-2  -8.916345238685608E-2  -7.064741253852844E-1   6.826733350753784E-1  
 4.148000000000000E7    -7.123911380767822E-1   6.862805485725403E-1  -8.457078784704208E-2  -8.882711827754974E-2  -8.467864990234375E-2  -8.858056366443634E-2  -7.057481408119202E-1   6.836235523223877E-1  
 4.150000000000000E7    -7.116583585739136E-1   6.869066357612610E-1  -8.422377705574036E-2  -8.819826692342758E-2  -8.418983221054077E-2  -8.809363842010498E-2  -7.052139639854431E-1   6.844571828842163E-1  
 4.152000000000000E7    -7.105327248573303E-1   6.878018379211426E-1  -8.381990343332291E-2  -8.750954270362854E-2  -8.386524021625519E-2  -8.739805966615677E-2  -7.042996287345886E-1   6.854839920997620E-1  
 4.154000000000000E7    -7.100988626480103E-1   6.889734268188477E-1  -8.344162255525589E-2  -8.696344494819641E-2  -8.354581147432327E-2  -8.680042624473572E-2  -7.034578919410706E-1   6.861286759376526E-1  
 4.156000000000000E7    -7.092093229293823E-1   6.898403763771057E-1  -8.299947530031204E-2  -8.630714565515518E-2  -8.317829668521881E-2  -8.627187460660934E-2  -7.028528451919556E-1   6.870681643486023E-1  
 4.158000000000000E7    -7.087789177894592E-1   6.905370354652405E-1  -8.264943212270737E-2  -8.580306917428970E-2  -8.274840563535690E-2  -8.562888205051422E-2  -7.020367980003357E-1   6.876804232597351E-1  
 4.160000000000000E7    -7.076738476753235E-1   6.914718151092529E-1  -8.228496462106705E-2  -8.518151193857193E-2  -8.233432471752167E-2  -8.509927242994309E-2  -7.012556195259094E-1   6.887282729148865E-1  
 4.162000000000000E7    -7.070535421371460E-1   6.923244595527649E-1  -8.187619596719742E-2  -8.460885286331177E-2  -8.196143805980682E-2  -8.438897132873535E-2  -7.004410028457642E-1   6.898245811462402E-1  
 4.164000000000000E7    -7.065630555152893E-1   6.931130290031433E-1  -8.149085938930512E-2  -8.413003385066986E-2  -8.154998719692230E-2  -8.382881432771683E-2  -7.002204656600952E-1   6.904594898223877E-1  
 4.166000000000000E7    -7.055301070213318E-1   6.938134431838989E-1  -8.118122071027756E-2  -8.331300318241119E-2  -8.120117336511612E-2  -8.325733244419098E-2  -6.991222500801086E-1   6.914194822311401E-1  
 4.168000000000000E7    -7.051471471786499E-1   6.950438022613525E-1  -8.075311034917831E-2  -8.283643424510956E-2  -8.082200586795807E-2  -8.276927471160889E-2  -6.987308263778687E-1   6.921604871749878E-1  
 4.170000000000000E7    -7.039701342582703E-1   6.961019635200501E-1  -8.039135485887528E-2  -8.222711086273193E-2  -8.044234663248062E-2  -8.219090849161148E-2  -6.981132030487061E-1   6.929682493209839E-1  
 4.172000000000000E7    -7.033595442771912E-1   6.968808770179749E-1  -7.999083399772644E-2  -8.162577450275421E-2  -8.002723008394241E-2  -8.153310418128967E-2  -6.972827315330505E-1   6.938091516494751E-1  
 4.174000000000000E7    -7.024459838867188E-1   6.972054839134216E-1  -7.952360063791275E-2  -8.106867969036102E-2  -7.951594889163971E-2  -8.099280297756195E-2  -6.964205503463745E-1   6.941953301429749E-1  
 4.176000000000000E7    -7.018141150474548E-1   6.982914805412293E-1  -7.920639216899872E-2  -8.051027357578278E-2  -7.925957441329956E-2  -8.043701201677322E-2  -6.956180334091187E-1   6.954434514045715E-1  
 4.178000000000000E7    -7.013559937477112E-1   6.990985870361328E-1  -7.870285212993622E-2  -7.991434633731842E-2  -7.890663295984268E-2  -7.983954995870590E-2  -6.945257782936096E-1   6.964511275291443E-1  
 4.180000000000000E7    -7.001132965087891E-1   7.000029683113098E-1  -7.834386825561523E-2  -7.933123409748077E-2  -7.838353514671326E-2  -7.927592098712921E-2  -6.944168210029602E-1   6.969385147094727E-1  
 4.182000000000000E7    -7.000029683113098E-1   7.009661197662354E-1  -7.807382941246033E-2  -7.885951548814774E-2  -7.807235419750214E-2  -7.867349684238434E-2  -6.936473846435547E-1   6.980074644088745E-1  
 4.184000000000000E7    -6.987949013710022E-1   7.016690373420715E-1  -7.760121673345566E-2  -7.827417552471161E-2  -7.770951837301254E-2  -7.801821082830429E-2  -6.929754018783569E-1   6.988009214401245E-1  
 4.186000000000000E7    -6.982136964797974E-1   7.023799419403076E-1  -7.725188881158829E-2  -7.764402031898499E-2  -7.732720673084259E-2  -7.751394063234329E-2  -6.918400526046753E-1   6.996864080429077E-1  
 4.188000000000000E7    -6.973359584808350E-1   7.030084133148193E-1  -7.678345590829849E-2  -7.712456583976746E-2  -7.682151347398758E-2  -7.699075341224670E-2  -6.913798451423645E-1   7.004286646842957E-1  
 4.190000000000000E7    -6.969477534294128E-1   7.045634984970093E-1  -7.644546777009964E-2  -7.655696570873261E-2  -7.651115953922272E-2  -7.649862766265869E-2  -6.904709339141846E-1   7.011916637420654E-1  
 4.192000000000000E7    -6.961234211921692E-1   7.053343057632446E-1  -7.603292912244797E-2  -7.599122077226639E-2  -7.615400105714798E-2  -7.583907991647720E-2  -6.900627017021179E-1   7.021312117576599E-1  
 4.194000000000000E7    -6.950058937072754E-1   7.058047652244568E-1  -7.566326856613159E-2  -7.544632256031036E-2  -7.569798082113266E-2  -7.529585063457489E-2  -6.890441179275513E-1   7.029586434364319E-1  
 4.196000000000000E7    -6.945475339889526E-1   7.064483165740967E-1  -7.524915039539337E-2  -7.487387210130692E-2  -7.530943304300308E-2  -7.483389973640442E-2  -6.885949373245239E-1   7.038859128952026E-1  
 4.198000000000000E7    -6.939327716827393E-1   7.074244618415833E-1  -7.482873648405075E-2  -7.447196543216705E-2  -7.488543540239334E-2  -7.424336671829224E-2  -6.877694129943848E-1   7.044485807418823E-1  
 4.200000000000000E7    -6.930267810821533E-1   7.083828449249268E-1  -7.449502497911453E-2  -7.380028814077377E-2  -7.456267625093460E-2  -7.367658615112305E-2  -6.867834925651550E-1   7.054694294929504E-1  
 4.202000000000000E7    -6.922057867050171E-1   7.092065811157227E-1  -7.412432879209518E-2  -7.324438542127609E-2  -7.423639297485352E-2  -7.320920377969742E-2  -6.862773299217224E-1   7.063034772872925E-1  
 4.204000000000000E7    -6.913588047027588E-1   7.097141146659851E-1  -7.367221266031265E-2  -7.271254807710648E-2  -7.375097274780273E-2  -7.258831709623337E-2  -6.854418516159058E-1   7.070667147636414E-1  
 4.206000000000000E7    -6.906746029853821E-1   7.105990648269653E-1  -7.331831753253937E-2  -7.208170741796494E-2  -7.326231896877289E-2  -7.198700308799744E-2  -6.844811439514160E-1   7.075352072715759E-1  
 4.208000000000000E7    -6.901338696479797E-1   7.114568352699280E-1  -7.276532799005508E-2  -7.154354453086853E-2  -7.290263473987579E-2  -7.149231433868408E-2  -6.840752363204956E-1   7.082386016845703E-1  
 4.210000000000000E7    -6.895928978919983E-1   7.125722169876099E-1  -7.253369688987732E-2  -7.108443975448608E-2  -7.252462208271027E-2  -7.096710801124573E-2  -6.833426356315613E-1   7.094118595123291E-1  
 4.212000000000000E7    -6.888779997825623E-1   7.131879925727844E-1  -7.203853130340576E-2  -7.052307575941086E-2  -7.216368615627289E-2  -7.046917825937271E-2  -6.824615597724915E-1   7.102588415145874E-1  
 4.214000000000000E7    -6.875988245010376E-1   7.139649987220764E-1  -7.173550128936768E-2  -6.991423666477203E-2  -7.175227999687195E-2  -6.981840729713440E-2  -6.815903186798096E-1   7.111238241195679E-1  
 4.216000000000000E7    -6.871864199638367E-1   7.147279977798462E-1  -7.126156985759735E-2  -6.951748579740524E-2  -7.133593410253525E-2  -6.926009058952332E-2  -6.811356544494629E-1   7.118947505950928E-1  
 4.218000000000000E7    -6.862250566482544E-1   7.156370282173157E-1  -7.090386003255844E-2  -6.885364651679993E-2  -7.096768915653229E-2  -6.873787939548492E-2  -6.801347136497498E-1   7.127988338470459E-1  
 4.220000000000000E7    -6.857545971870422E-1   7.165912985801697E-1  -7.048330456018448E-2  -6.836949288845062E-2  -7.054860889911652E-2  -6.819405406713486E-2  -6.792449355125427E-1   7.134181857109070E-1  
 4.222000000000000E7    -6.846236586570740E-1   7.175228595733643E-1  -7.012227922677994E-2  -6.773293763399124E-2  -7.019442319869995E-2  -6.762653589248657E-2  -6.783730983734131E-1   7.140833139419556E-1  
 4.224000000000000E7    -6.844276189804077E-1   7.180445194244385E-1  -6.970104575157166E-2  -6.727309525012970E-2  -6.974164396524429E-2  -6.715223193168640E-2  -6.776948571205139E-1   7.149253487586975E-1  
 4.226000000000000E7    -6.833595037460327E-1   7.191308736801148E-1  -6.934528797864914E-2  -6.678680330514908E-2  -6.928898394107819E-2  -6.662324815988541E-2  -6.770989894866943E-1   7.155774831771851E-1  
 4.228000000000000E7    -6.826803684234619E-1   7.197373509407044E-1  -6.885755807161331E-2  -6.623969972133637E-2  -6.890525668859482E-2  -6.613804399967194E-2  -6.764944195747376E-1   7.164375185966492E-1  
 4.230000000000000E7    -6.817538142204285E-1   7.207136750221252E-1  -6.855200231075287E-2  -6.570497900247574E-2  -6.863496452569962E-2  -6.564174592494965E-2  -6.758092641830444E-1   7.175046801567078E-1  
 4.232000000000000E7    -6.809487342834473E-1   7.213031649589539E-1  -6.809588521718979E-2  -6.518990546464920E-2  -6.807325780391693E-2  -6.503147631883621E-2  -6.745613217353821E-1   7.180345058441162E-1  
 4.234000000000000E7    -6.802396178245544E-1   7.221321463584900E-1  -6.768447160720825E-2  -6.468070298433304E-2  -6.772966682910919E-2  -6.450258940458298E-2  -6.742861866950989E-1   7.189346551895142E-1  
 4.236000000000000E7    -6.795844435691834E-1   7.231884598731995E-1  -6.730042397975922E-2  -6.414671242237091E-2  -6.733040511608124E-2  -6.399811804294586E-2  -6.735646128654480E-1   7.196916937828064E-1  
 4.238000000000000E7    -6.787561178207398E-1   7.234995961189270E-1  -6.689853221178055E-2  -6.360033154487610E-2  -6.690415740013123E-2  -6.352373212575913E-2  -6.725772023200989E-1   7.207863330841065E-1  
 4.240000000000000E7    -6.777564883232117E-1   7.246056795120239E-1  -6.653746217489243E-2  -6.318157911300659E-2  -6.648144125938416E-2  -6.297942996025085E-2  -6.720319390296936E-1   7.209325432777405E-1  
 4.242000000000000E7    -6.770026683807373E-1   7.250121235847473E-1  -6.609065830707550E-2  -6.260029971599579E-2  -6.603473424911499E-2  -6.244799122214317E-2  -6.712364554405212E-1   7.223250865936279E-1  
 4.244000000000000E7    -6.762353777885437E-1   7.258969545364380E-1  -6.563266366720200E-2  -6.209671497344971E-2  -6.568405032157898E-2  -6.200945749878883E-2  -6.707497835159302E-1   7.227433323860169E-1  
 4.246000000000000E7    -6.754805445671082E-1   7.268584966659546E-1  -6.527814269065857E-2  -6.153782457113266E-2  -6.534830480813980E-2  -6.142684817314148E-2  -6.696657538414002E-1   7.233411073684692E-1  
 4.248000000000000E7    -6.751894354820252E-1   7.275524735450745E-1  -6.483326107263565E-2  -6.107539311051369E-2  -6.484861671924591E-2  -6.091266870498657E-2  -6.691182851791382E-1   7.240327596664429E-1  
 4.250000000000000E7    -6.744705438613892E-1   7.284360527992249E-1  -6.447955965995789E-2  -6.051633134484291E-2  -6.448958814144135E-2  -6.047748774290085E-2  -6.679962873458862E-1   7.249401211738586E-1  
 4.252000000000000E7    -6.735430359840393E-1   7.296116948127747E-1  -6.411871314048767E-2  -6.001161783933640E-2  -6.412404775619507E-2  -5.999289453029633E-2  -6.677889227867127E-1   7.261053323745728E-1  
 4.254000000000000E7    -6.727469563484192E-1   7.300115823745728E-1  -6.363229453563690E-2  -5.939988046884537E-2  -6.368620693683624E-2  -5.939594283699989E-2  -6.664550304412842E-1   7.266333699226379E-1  
 4.256000000000000E7    -6.716545820236206E-1   7.305247783660889E-1  -6.317700445652008E-2  -5.896469205617905E-2  -6.326426565647125E-2  -5.886917561292648E-2  -6.660993695259094E-1   7.272311449050903E-1  
 4.258000000000000E7    -6.710566282272339E-1   7.313068509101868E-1  -6.279297918081284E-2  -5.844454839825630E-2  -6.279267370700836E-2  -5.836931243538857E-2  -6.650390028953552E-1   7.281553745269775E-1  
 4.260000000000000E7    -6.703933477401733E-1   7.322549223899841E-1  -6.241877749562264E-2  -5.798586457967758E-2  -6.240089982748032E-2  -5.788882821798325E-2  -6.643962264060974E-1   7.287515401840210E-1  
 4.262000000000000E7    -6.698313355445862E-1   7.331438064575195E-1  -6.201276928186417E-2  -5.752808600664139E-2  -6.203151866793633E-2  -5.742299184203148E-2  -6.638984084129334E-1   7.297066450119019E-1  
 4.264000000000000E7    -6.688876152038574E-1   7.339076399803162E-1  -6.158696115016937E-2  -5.703468248248100E-2  -6.157881394028664E-2  -5.687232688069344E-2  -6.629803180694580E-1   7.306127548217773E-1  
 4.266000000000000E7    -6.680969595909119E-1   7.347621321678162E-1  -6.123708933591843E-2  -5.650939792394638E-2  -6.126050651073456E-2  -5.644316971302033E-2  -6.622572541236877E-1   7.312346696853638E-1  
 4.268000000000000E7    -6.674841046333313E-1   7.351494431495667E-1  -6.075763702392578E-2  -5.603419244289398E-2  -6.072459369897842E-2  -5.590099468827248E-2  -6.617136597633362E-1   7.319758534431458E-1  
 4.270000000000000E7    -6.667135357856751E-1   7.357187867164612E-1  -6.038215756416321E-2  -5.550598353147507E-2  -6.030385941267014E-2  -5.537806078791618E-2  -6.603965759277344E-1   7.327322363853455E-1  
 4.272000000000000E7    -6.657467484474182E-1   7.369368076324463E-1  -5.997478216886520E-2  -5.507745966315270E-2  -5.993795022368431E-2  -5.487766116857529E-2  -6.599702835083008E-1   7.336695194244385E-1  
 4.274000000000000E7    -6.651942133903503E-1   7.379678487777710E-1  -5.958708748221397E-2  -5.452215671539307E-2  -5.954985693097115E-2  -5.444536730647087E-2  -6.588783860206604E-1   7.340927720069885E-1  
 4.276000000000000E7    -6.644561886787415E-1   7.382841706275940E-1  -5.916162580251694E-2  -5.406639352440834E-2  -5.913228169083595E-2  -5.388208106160164E-2  -6.582866311073303E-1   7.353361845016480E-1  
 4.278000000000000E7    -6.635231375694275E-1   7.393226027488709E-1  -5.873340740799904E-2  -5.355395749211311E-2  -5.883224681019783E-2  -5.342680588364601E-2  -6.575682759284973E-1   7.359907031059265E-1  
 4.280000000000000E7    -6.625122427940369E-1   7.397935986518860E-1  -5.833217501640320E-2  -5.305265635251999E-2  -5.830978602170944E-2  -5.295707657933235E-2  -6.569211483001709E-1   7.365936636924744E-1  
 4.282000000000000E7    -6.622466444969177E-1   7.405735850334168E-1  -5.787580460309982E-2  -5.258800089359283E-2  -5.788599699735642E-2  -5.245095491409302E-2  -6.557121276855469E-1   7.372463941574097E-1  
 4.284000000000000E7    -6.613219976425171E-1   7.414751052856445E-1  -5.750786140561104E-2  -5.216141790151596E-2  -5.746782198548317E-2  -5.202467739582062E-2  -6.554319858551025E-1   7.378623485565186E-1  
 4.286000000000000E7    -6.606180667877197E-1   7.420698404312134E-1  -5.702137947082520E-2  -5.166991055011749E-2  -5.708095058798790E-2  -5.152771249413490E-2  -6.546333432197571E-1   7.387673258781433E-1  
 4.288000000000000E7    -6.595844030380249E-1   7.428415417671204E-1  -5.662754178047180E-2  -5.117872357368469E-2  -5.667684227228165E-2  -5.106325820088387E-2  -6.537976861000061E-1   7.393721938133240E-1  
 4.290000000000000E7    -6.589881777763367E-1   7.437472343444824E-1  -5.626753717660904E-2  -5.063714459538460E-2  -5.630073323845863E-2  -5.056861415505409E-2  -6.530964374542236E-1   7.400588989257813E-1  
 4.292000000000000E7    -6.580363512039185E-1   7.444859743118286E-1  -5.580947920680046E-2  -5.013953521847725E-2  -5.588637664914131E-2  -5.007667094469070E-2  -6.522965431213379E-1   7.408512234687805E-1  
 4.294000000000000E7    -6.574851274490356E-1   7.452306747436523E-1  -5.542109161615372E-2  -4.978843033313751E-2  -5.541135743260384E-2  -4.967484623193741E-2  -6.516878604888916E-1   7.417582273483276E-1  
 4.296000000000000E7    -6.565526127815247E-1   7.456117868423462E-1  -5.500491708517075E-2  -4.923036321997643E-2  -5.498864501714706E-2  -4.913076385855675E-2  -6.510467529296875E-1   7.424275875091553E-1  
 4.298000000000000E7    -6.558263301849365E-1   7.464118599891663E-1  -5.455412343144417E-2  -4.876932874321938E-2  -5.455391854047775E-2  -4.868003726005554E-2  -6.501219868659973E-1   7.431138753890991E-1  
 4.300000000000000E7    -6.546317338943481E-1   7.468792796134949E-1  -5.417850613594055E-2  -4.829399287700653E-2  -5.415225774049759E-2  -4.818942770361900E-2  -6.492380499839783E-1   7.436760663986206E-1  
 4.302000000000000E7    -6.544855237007141E-1   7.482644319534302E-1  -5.380369722843170E-2  -4.777473956346512E-2  -5.372287705540657E-2  -4.779680073261261E-2  -6.486931443214417E-1   7.442317605018616E-1  
 4.304000000000000E7    -6.535753011703491E-1   7.487514019012451E-1  -5.331355705857277E-2  -4.737876355648041E-2  -5.330512300133705E-2  -4.726825654506683E-2  -6.475347280502319E-1   7.450798749923706E-1  
 4.306000000000000E7    -6.527521014213562E-1   7.496498227119446E-1  -5.288262292742729E-2  -4.689181596040726E-2  -5.292153730988503E-2  -4.676160216331482E-2  -6.471667885780335E-1   7.457828521728516E-1  
 4.308000000000000E7    -6.519713401794434E-1   7.502779960632324E-1  -5.250037834048271E-2  -4.640911146998406E-2  -5.251895636320114E-2  -4.632406309247017E-2  -6.463097929954529E-1   7.465677261352539E-1  
 4.310000000000000E7    -6.510908603668213E-1   7.512685060501099E-1  -5.211037769913673E-2  -4.598736017942429E-2  -5.214499682188034E-2  -4.586953297257423E-2  -6.456248760223389E-1   7.473404407501221E-1  
 4.312000000000000E7    -6.504404544830322E-1   7.517483830451965E-1  -5.168099328875542E-2  -4.546308889985085E-2  -5.166460573673248E-2  -4.538861289620400E-2  -6.444051861763001E-1   7.480625510215759E-1  
 4.314000000000000E7    -6.495447754859924E-1   7.523131966590881E-1  -5.125347524881363E-2  -4.508157819509506E-2  -5.122566968202591E-2  -4.497891291975975E-2  -6.440947055816650E-1   7.487292289733887E-1  
 4.316000000000000E7    -6.488596796989441E-1   7.531118392944336E-1  -5.077439174056053E-2  -4.459308460354805E-2  -5.080438777804375E-2  -4.445597156882286E-2  -6.430644989013672E-1   7.491228580474854E-1  
 4.318000000000000E7    -6.481263041496277E-1   7.539268136024475E-1  -5.045083165168762E-2  -4.412238299846649E-2  -5.038452893495560E-2  -4.406936839222908E-2  -6.423166990280151E-1   7.498917579650879E-1  
 4.320000000000000E7    -6.473528742790222E-1   7.548203468322754E-1  -5.001267045736313E-2  -4.368256777524948E-2  -5.000389367341995E-2  -4.361430555582047E-2  -6.416304707527161E-1   7.509356737136841E-1  
 4.322000000000000E7    -6.463203430175781E-1   7.554500699043274E-1  -4.955942556262016E-2  -4.321670532226563E-2  -4.953223839402199E-2  -4.314440488815308E-2  -6.409776806831360E-1   7.512173056602478E-1  
 4.324000000000000E7    -6.454817056655884E-1   7.560983896255493E-1  -4.919324442744255E-2  -4.278735071420670E-2  -4.916111007332802E-2  -4.269691929221153E-2  -6.402046084403992E-1   7.523948550224304E-1  
 4.326000000000000E7    -6.449913978576660E-1   7.566484808921814E-1  -4.875763133168221E-2  -4.230313375592232E-2  -4.873836785554886E-2  -4.224542900919914E-2  -6.392022371292114E-1   7.527087330818176E-1  
 4.328000000000000E7    -6.440280079841614E-1   7.570894360542297E-1  -4.831187427043915E-2  -4.182890057563782E-2  -4.829451069235802E-2  -4.174599051475525E-2  -6.380874514579773E-1   7.537361383438110E-1  
 4.330000000000000E7    -6.437335610389710E-1   7.580904364585877E-1  -4.788538441061974E-2  -4.146375134587288E-2  -4.787346720695496E-2  -4.135384783148766E-2  -6.376484036445618E-1   7.543643712997437E-1  
 4.332000000000000E7    -6.425309777259827E-1   7.587692737579346E-1  -4.749864712357521E-2  -4.099706932902336E-2  -4.745339974761009E-2  -4.093312844634056E-2  -6.371036767959595E-1   7.551624178886414E-1  
 4.334000000000000E7    -6.419531106948853E-1   7.593381404876709E-1  -4.707191139459610E-2  -4.055040329694748E-2  -4.699008539319038E-2  -4.047936946153641E-2  -6.361892819404602E-1   7.555639743804932E-1  
 4.336000000000000E7    -6.411562561988831E-1   7.600728869438171E-1  -4.662230983376503E-2  -4.004663228988648E-2  -4.661195725202560E-2  -4.000912606716156E-2  -6.349716782569885E-1   7.564509510993958E-1  
 4.338000000000000E7    -6.400491595268250E-1   7.608232498168945E-1  -4.622815921902657E-2  -3.965486586093903E-2  -4.622329398989677E-2  -3.952683508396149E-2  -6.343305706977844E-1   7.570130825042725E-1  
 4.340000000000000E7    -6.392369866371155E-1   7.615084052085877E-1  -4.579345881938934E-2  -3.920806944370270E-2  -4.579820483922958E-2  -3.910188376903534E-2  -6.338794827461243E-1   7.578667998313904E-1  
 4.342000000000000E7    -6.386717557907105E-1   7.622614502906799E-1  -4.535155743360519E-2  -3.875314071774483E-2  -4.532427340745926E-2  -3.872206807136536E-2  -6.329663991928101E-1   7.584819197654724E-1  
 4.344000000000000E7    -6.379037499427795E-1   7.631120681762695E-1  -4.496573656797409E-2  -3.835265710949898E-2  -4.493004456162453E-2  -3.828340396285057E-2  -6.323490738868713E-1   7.594541311264038E-1  
 4.346000000000000E7    -6.370016336441040E-1   7.636809349060059E-1  -4.453593492507935E-2  -3.791685402393341E-2  -4.449223354458809E-2  -3.779883310198784E-2  -6.315338611602783E-1   7.596111893653870E-1  
 4.348000000000000E7    -6.365480422973633E-1   7.645152807235718E-1  -4.408318549394608E-2  -3.746365755796433E-2  -4.405632242560387E-2  -3.739775717258453E-2  -6.309565901756287E-1   7.605118751525879E-1  
 4.350000000000000E7    -6.355997323989868E-1   7.651125788688660E-1  -4.363782331347466E-2  -3.703757748007774E-2  -4.362193867564201E-2  -3.698947280645371E-2  -6.302365064620972E-1   7.610329389572144E-1  
 4.352000000000000E7    -6.346564888954163E-1   7.661010622978210E-1  -4.328639805316925E-2  -3.664779663085938E-2  -4.324835538864136E-2  -3.656147792935371E-2  -6.294388771057129E-1   7.621747255325317E-1  
 4.354000000000000E7    -6.338686347007752E-1   7.660871148109436E-1  -4.284073412418366E-2  -3.617394343018532E-2  -4.280660301446915E-2  -3.610895574092865E-2  -6.282588243484497E-1   7.625541090965271E-1  
 4.356000000000000E7    -6.333803534507752E-1   7.673926949501038E-1  -4.242916777729988E-2  -3.577743470668793E-2  -4.241657629609108E-2  -3.569258749485016E-2  -6.277461051940918E-1   7.633601427078247E-1  
 4.358000000000000E7    -6.324908137321472E-1   7.675434350967407E-1  -4.197229072451592E-2  -3.536240756511688E-2  -4.192961752414703E-2  -3.530688956379890E-2  -6.272004842758179E-1   7.635569572448731E-1  
 4.360000000000000E7    -6.316882371902466E-1   7.684316635131836E-1  -4.150983691215515E-2  -3.491795435547829E-2  -4.151703044772148E-2  -3.483916074037552E-2  -6.257742047309876E-1   7.642909288406372E-1  
 4.362000000000000E7    -6.309221982955933E-1   7.693933248519898E-1  -4.113443568348885E-2  -3.449109941720963E-2  -4.110790789127350E-2  -3.437610715627670E-2  -6.250783205032349E-1   7.650045156478882E-1  
 4.364000000000000E7    -6.300470232963562E-1   7.694669961929321E-1  -4.068649560213089E-2  -3.405193239450455E-2  -4.066796228289604E-2  -3.401356190443039E-2  -6.245556473731995E-1   7.659379243850708E-1  
 4.366000000000000E7    -6.292956471443176E-1   7.701171636581421E-1  -4.028878733515739E-2  -3.367827087640762E-2  -4.023851454257965E-2  -3.356773406267166E-2  -6.236174106597900E-1   7.668538689613342E-1  
 4.368000000000000E7    -6.286368966102600E-1   7.710627913475037E-1  -3.982555121183395E-2  -3.320788964629173E-2  -3.981300815939903E-2  -3.316520527005196E-2  -6.228101849555969E-1   7.670912742614746E-1  
 4.370000000000000E7    -6.273874044418335E-1   7.712286114692688E-1  -3.940511867403984E-2  -3.276905044913292E-2  -3.938795626163483E-2  -3.271853178739548E-2  -6.219655275344849E-1   7.678852081298828E-1  
 4.372000000000000E7    -6.266348361968994E-1   7.723649144172669E-1  -3.895221650600433E-2  -3.239617869257927E-2  -3.891506418585777E-2  -3.229373320937157E-2  -6.216050982475281E-1   7.683274745941162E-1  
 4.374000000000000E7    -6.260343194007874E-1   7.730786800384522E-1  -3.858528286218643E-2  -3.199111670255661E-2  -3.854164108633995E-2  -3.192104399204254E-2  -6.207141876220703E-1   7.692413330078125E-1  
 4.376000000000000E7    -6.255765557289124E-1   7.739949822425842E-1  -3.814692795276642E-2  -3.158481419086456E-2  -3.813672810792923E-2  -3.150700032711029E-2  -6.200919151306152E-1   7.701804041862488E-1  
 4.378000000000000E7    -6.244983673095703E-1   7.745562195777893E-1  -3.769481927156448E-2  -3.116320818662643E-2  -3.768974915146828E-2  -3.107073344290257E-2  -6.189929842948914E-1   7.706559300422669E-1  
 4.380000000000000E7    -6.234570145606995E-1   7.752509117126465E-1  -3.729404136538506E-2  -3.075883165001869E-2  -3.725497424602509E-2  -3.067246638238430E-2  -6.183197498321533E-1   7.713646888732910E-1  
 4.382000000000000E7    -6.230959892272949E-1   7.755011320114136E-1  -3.685850277543068E-2  -3.038735501468182E-2  -3.684015199542046E-2  -3.027856722474098E-2  -6.176013350486755E-1   7.717535495758057E-1  
 4.384000000000000E7    -6.221119165420532E-1   7.762831449508667E-1  -3.644578531384468E-2  -2.995331026613712E-2  -3.640058636665344E-2  -2.985983528196812E-2  -6.168398857116699E-1   7.727253437042236E-1  
 4.386000000000000E7    -6.216260194778442E-1   7.768933773040772E-1  -3.595912456512451E-2  -2.954528667032719E-2  -3.595812618732452E-2  -2.946808189153671E-2  -6.159173250198364E-1   7.732701301574707E-1  
 4.388000000000000E7    -6.205652356147766E-1   7.773004770278931E-1  -3.556774556636810E-2  -2.914057299494743E-2  -3.552197292447090E-2  -2.903410047292709E-2  -6.152302026748657E-1   7.739021182060242E-1  
 4.390000000000000E7    -6.195894479751587E-1   7.783775329589844E-1  -3.515762835741043E-2  -2.869677357375622E-2  -3.513839840888977E-2  -2.865308150649071E-2  -6.144663691520691E-1   7.747399806976318E-1  
 4.392000000000000E7    -6.190752387046814E-1   7.790976166725159E-1  -3.470061719417572E-2  -2.832643501460552E-2  -3.466256707906723E-2  -2.825858816504479E-2  -6.134317517280579E-1   7.747363448143005E-1  
 4.394000000000000E7    -6.179178357124329E-1   7.796565294265747E-1  -3.430673852562904E-2  -2.789851091802120E-2  -3.426770120859146E-2  -2.786854095757008E-2  -6.129429936408997E-1   7.754688858985901E-1  
 4.396000000000000E7    -6.172014474868774E-1   7.803418040275574E-1  -3.382724151015282E-2  -2.752840891480446E-2  -3.381839767098427E-2  -2.743661776185036E-2  -6.118266582489014E-1   7.763479351997376E-1  
 4.398000000000000E7    -6.162248253822327E-1   7.808988094329834E-1  -3.340971469879150E-2  -2.710951492190361E-2  -3.342657163739204E-2  -2.706802636384964E-2  -6.112768054008484E-1   7.772777080535889E-1  
 4.400000000000000E7    -6.153768301010132E-1   7.817040085792542E-1  -3.299830853939056E-2  -2.669704332947731E-2  -3.296183794736862E-2  -2.665775083005428E-2  -6.105901002883911E-1   7.774058580398560E-1  
 4.402000000000000E7    -6.148037910461426E-1   7.821607589721680E-1  -3.254905715584755E-2  -2.633240818977356E-2  -3.256496787071228E-2  -2.628871053457260E-2  -6.096759438514710E-1   7.785595655441284E-1  
 4.404000000000000E7    -6.143205165863037E-1   7.831509709358215E-1  -3.215017542243004E-2  -2.593417279422283E-2  -3.212965279817581E-2  -2.590479142963886E-2  -6.089781522750855E-1   7.789900302886963E-1  
 4.406000000000000E7    -6.132720112800598E-1   7.834574580192566E-1  -3.167801722884178E-2  -2.557974494993687E-2  -3.168512508273125E-2  -2.548645436763763E-2  -6.083114147186279E-1   7.795248031616211E-1  
 4.408000000000000E7    -6.126105785369873E-1   7.842556238174439E-1  -3.128465265035629E-2  -2.516469918191433E-2  -3.125225380063057E-2  -2.512276731431484E-2  -6.073861718177795E-1   7.800297141075134E-1  
 4.410000000000000E7    -6.120061874389648E-1   7.851377129554749E-1  -3.084803558886051E-2  -2.478353865444660E-2  -3.082067146897316E-2  -2.474983595311642E-2  -6.068204045295715E-1   7.806378602981567E-1  
 4.412000000000000E7    -6.110893487930298E-1   7.855775356292725E-1  -3.043298423290253E-2  -2.440503239631653E-2  -3.039906919002533E-2  -2.435967698693276E-2  -6.060448288917542E-1   7.813244462013245E-1  
 4.414000000000000E7    -6.102285385131836E-1   7.860157489776611E-1  -2.996269986033440E-2  -2.396508865058422E-2  -2.995491772890091E-2  -2.393655851483345E-2  -6.047337651252747E-1   7.816738486289978E-1  
 4.416000000000000E7    -6.092008352279663E-1   7.863049507141113E-1  -2.952634356915951E-2  -2.359901368618012E-2  -2.948381565511227E-2  -2.353101596236229E-2  -6.040798425674439E-1   7.824351191520691E-1  
 4.418000000000000E7    -6.081767082214356E-1   7.870463728904724E-1  -2.908680215477943E-2  -2.321519330143929E-2  -2.908840775489807E-2  -2.316880039870739E-2  -6.035329103469849E-1   7.833458185195923E-1  
 4.420000000000000E7    -6.078510880470276E-1   7.878763079643250E-1  -2.866886183619499E-2  -2.284263819456101E-2  -2.862313948571682E-2  -2.277768962085247E-2  -6.025470495223999E-1   7.837182283401489E-1  
 4.422000000000000E7    -6.071860790252686E-1   7.885791659355164E-1  -2.826115302741528E-2  -2.246961928904057E-2  -2.823401056230068E-2  -2.244355715811253E-2  -6.019319295883179E-1   7.847160696983337E-1  
 4.424000000000000E7    -6.065072417259216E-1   7.893790602684021E-1  -2.782040834426880E-2  -2.211644873023033E-2  -2.778735198080540E-2  -2.205640636384487E-2  -6.011528372764587E-1   7.852509021759033E-1  
 4.426000000000000E7    -6.054930686950684E-1   7.895469069480896E-1  -2.736297436058521E-2  -2.172105014324188E-2  -2.734556049108505E-2  -2.165069244801998E-2  -6.002690792083740E-1   7.859521508216858E-1  
 4.428000000000000E7    -6.045284867286682E-1   7.904206514358521E-1  -2.696193754673004E-2  -2.133292891085148E-2  -2.691311761736870E-2  -2.129558101296425E-2  -5.995259284973145E-1   7.863465547561646E-1  
 4.430000000000000E7    -6.037700772285461E-1   7.908591032028198E-1  -2.650202251970768E-2  -2.099661901593208E-2  -2.647851966321468E-2  -2.091121673583984E-2  -5.989596843719482E-1   7.870393991470337E-1  
 4.432000000000000E7    -6.028449535369873E-1   7.917953729629517E-1  -2.610383927822113E-2  -2.058577165007591E-2  -2.610189095139504E-2  -2.051470428705216E-2  -5.978686213493347E-1   7.878317236900330E-1  
 4.434000000000000E7    -6.018750667572022E-1   7.923363447189331E-1  -2.568428963422775E-2  -2.021512389183044E-2  -2.564306929707527E-2  -2.019098587334156E-2  -5.972517132759094E-1   7.881957888603210E-1  
 4.436000000000000E7    -6.013901829719544E-1   7.931627631187439E-1  -2.523404546082020E-2  -1.983207650482655E-2  -2.521425113081932E-2  -1.978907920420170E-2  -5.962844491004944E-1   7.887341976165772E-1  
 4.438000000000000E7    -6.003189682960510E-1   7.935595512390137E-1  -2.480436861515045E-2  -1.948049291968346E-2  -2.474800683557987E-2  -1.945452764630318E-2  -5.956330299377441E-1   7.894989848136902E-1  
 4.440000000000000E7    -5.999062061309815E-1   7.940472960472107E-1  -2.434791810810566E-2  -1.912027224898338E-2  -2.431164495646954E-2  -1.907824352383614E-2  -5.947037935256958E-1   7.896649837493897E-1  
 4.442000000000000E7    -5.987294316291809E-1   7.948034405708313E-1  -2.393339015543461E-2  -1.872633770108223E-2  -2.389870770275593E-2  -1.867979206144810E-2  -5.938178300857544E-1   7.905062437057495E-1  
 4.444000000000000E7    -5.977939367294312E-1   7.954961061477661E-1  -2.350223995745182E-2  -1.838167384266853E-2  -2.346734702587128E-2  -1.834277063608170E-2  -5.932025909423828E-1   7.911476492881775E-1  
 4.446000000000000E7    -5.974429845809937E-1   7.960765361785889E-1  -2.304566651582718E-2  -1.801224797964096E-2  -2.302999049425125E-2  -1.797879673540592E-2  -5.925235748291016E-1   7.919751405715942E-1  
 4.448000000000000E7    -5.966293811798096E-1   7.967987060546875E-1  -2.265271171927452E-2  -1.764935441315174E-2  -2.261113747954369E-2  -1.760426908731461E-2  -5.914208889007568E-1   7.929626703262329E-1  
 4.450000000000000E7    -5.960019230842590E-1   7.972866892814636E-1  -2.220051176846027E-2  -1.732159405946732E-2  -2.218632027506828E-2  -1.726623997092247E-2  -5.909397602081299E-1   7.933982014656067E-1  
 4.452000000000000E7    -5.947452187538147E-1   7.978154420852661E-1  -2.175285108387470E-2  -1.691105961799622E-2  -2.172663062810898E-2  -1.689406484365463E-2  -5.900674462318420E-1   7.940442562103272E-1  
 4.454000000000000E7    -5.945776104927063E-1   7.984485626220703E-1  -2.132831886410713E-2  -1.658444479107857E-2  -2.130829729139805E-2  -1.656656339764595E-2  -5.893007516860962E-1   7.945504784584045E-1  
 4.456000000000000E7    -5.929899215698242E-1   7.989376783370972E-1  -2.086264267563820E-2  -1.618090271949768E-2  -2.085747383534908E-2  -1.617075316607952E-2  -5.882296562194824E-1   7.948977947235107E-1  
 4.458000000000000E7    -5.925982594490051E-1   7.996798753738403E-1  -2.043777331709862E-2  -1.584333553910255E-2  -2.043746970593929E-2  -1.581027917563915E-2  -5.876865983009338E-1   7.957012057304382E-1  
 4.460000000000000E7    -5.919623374938965E-1   8.004577159881592E-1  -2.003102004528046E-2  -1.553076133131981E-2  -2.000865526497364E-2  -1.548553071916103E-2  -5.868557095527649E-1   7.960270047187805E-1  
 4.462000000000000E7    -5.909408330917358E-1   8.011444211006165E-1  -1.960017904639244E-2  -1.514282077550888E-2  -1.957079581916332E-2  -1.511841546744108E-2  -5.863157510757446E-1   7.967115044593811E-1  
 4.464000000000000E7    -5.900804400444031E-1   8.017539381980896E-1  -1.916097849607468E-2  -1.479524001479149E-2  -1.913643814623356E-2  -1.476578414440155E-2  -5.850061774253845E-1   7.973018288612366E-1  
 4.466000000000000E7    -5.892556309700012E-1   8.018062710762024E-1  -1.867592148482800E-2  -1.445685513317585E-2  -1.869969442486763E-2  -1.440800447016954E-2  -5.844519734382629E-1   7.978914976119995E-1  
 4.468000000000000E7    -5.885742902755737E-1   8.027652502059937E-1  -1.828212849795818E-2  -1.410672627389431E-2  -1.826301030814648E-2  -1.405537780374289E-2  -5.835778713226318E-1   7.986862659454346E-1  
 4.470000000000000E7    -5.876927375793457E-1   8.030701875686646E-1  -1.782477274537087E-2  -1.373991649597883E-2  -1.780277863144875E-2  -1.371515914797783E-2  -5.827304124832153E-1   7.988501787185669E-1  
 4.472000000000000E7    -5.868710875511169E-1   8.040235638618469E-1  -1.740650273859501E-2  -1.341282948851585E-2  -1.740142889320850E-2  -1.337903179228306E-2  -5.822414159774780E-1   7.998003363609314E-1  
 4.474000000000000E7    -5.863190889358521E-1   8.042482137680054E-1  -1.698513329029083E-2  -1.305767334997654E-2  -1.695055328309536E-2  -1.304436661303043E-2  -5.813798904418945E-1   8.005201816558838E-1  
 4.476000000000000E7    -5.853844285011292E-1   8.047851920127869E-1  -1.653450727462769E-2  -1.271514315158129E-2  -1.651135273277760E-2  -1.266786083579063E-2  -5.806540250778198E-1   8.008141517639160E-1  
 4.478000000000000E7    -5.845782756805420E-1   8.056021928787231E-1  -1.606442034244537E-2  -1.234219875186682E-2  -1.606308668851852E-2  -1.234429236501455E-2  -5.799068212509155E-1   8.011111021041870E-1  
 4.480000000000000E7    -5.837359428405762E-1   8.061025142669678E-1  -1.566569134593010E-2  -1.203403249382973E-2  -1.564880646765232E-2  -1.200150884687901E-2  -5.789254903793335E-1   8.025982379913330E-1  
 4.482000000000000E7    -5.829755067825317E-1   8.067074418067932E-1  -1.522633899003267E-2  -1.169462315738201E-2  -1.522234454751015E-2  -1.167769730091095E-2  -5.781782269477844E-1   8.027433156967163E-1  
 4.484000000000000E7    -5.818699598312378E-1   8.075633049011231E-1  -1.479789707809687E-2  -1.134727336466312E-2  -1.477017253637314E-2  -1.131867524236441E-2  -5.775527358055115E-1   8.032053709030151E-1  
 4.486000000000000E7    -5.815100073814392E-1   8.079776763916016E-1  -1.435220800340176E-2  -1.101119164377451E-2  -1.433779019862413E-2  -1.098258979618549E-2  -5.767052173614502E-1   8.037081360816956E-1  
 4.488000000000000E7    -5.808136463165283E-1   8.083903789520264E-1  -1.391755323857069E-2  -1.069051865488291E-2  -1.389416214078665E-2  -1.064500212669373E-2  -5.759283900260925E-1   8.043611645698547E-1  
 4.490000000000000E7    -5.795850753784180E-1   8.091627359390259E-1  -1.348191499710083E-2  -1.035430002957583E-2  -1.346119493246079E-2  -1.031656656414270E-2  -5.751652121543884E-1   8.046450614929199E-1  
 4.492000000000000E7    -5.789772272109985E-1   8.094938993453980E-1  -1.302651781588793E-2  -9.999477304518223E-3  -1.303826179355383E-2  -9.984584525227547E-3  -5.740953683853149E-1   8.054652810096741E-1  
 4.494000000000000E7    -5.779502391815186E-1   8.102391958236694E-1  -1.260085403919220E-2  -9.678351692855358E-3  -1.260220538824797E-2  -9.660514071583748E-3  -5.732790231704712E-1   8.065212368965149E-1  
 4.496000000000000E7    -5.775274634361267E-1   8.104640245437622E-1  -1.215124130249023E-2  -9.337374009191990E-3  -1.214042771607637E-2  -9.310012683272362E-3  -5.724086761474609E-1   8.066966533660889E-1  
 4.498000000000000E7    -5.766121149063110E-1   8.112441897392273E-1  -1.173410378396511E-2  -9.025099687278271E-3  -1.169300545006990E-2  -9.003493003547192E-3  -5.715773701667786E-1   8.070064783096314E-1  
 4.500000000000000E7    -5.753611326217651E-1   8.117995858192444E-1  -1.129163987934589E-2  -8.684488944709301E-3  -1.128426939249039E-2  -8.658063597977161E-3  -5.709477663040161E-1   8.077059388160706E-1  
 4.502000000000000E7    -5.749700069427490E-1   8.126683831214905E-1  -1.085396669805050E-2  -8.358459919691086E-3  -1.084548607468605E-2  -8.342101238667965E-3  -5.700708031654358E-1   8.084439635276794E-1  
 4.504000000000000E7    -5.739978551864624E-1   8.129733204841614E-1  -1.041492540389299E-2  -8.036075159907341E-3  -1.038641203194857E-2  -7.996118627488613E-3  -5.695439577102661E-1   8.086338043212891E-1  
 4.506000000000000E7    -5.735057592391968E-1   8.137007355690002E-1  -9.983927011489868E-3  -7.718035019934177E-3  -9.974705986678600E-3  -7.679820060729981E-3  -5.686140060424805E-1   8.096195459365845E-1  
 4.508000000000000E7    -5.724342465400696E-1   8.140704035758972E-1  -9.543212130665779E-3  -7.375065237283707E-3  -9.519275277853012E-3  -7.377821020781994E-3  -5.678612589836121E-1   8.101717829704285E-1  
 4.510000000000000E7    -5.714439153671265E-1   8.145707845687866E-1  -9.112553671002388E-3  -7.063332479447126E-3  -9.086619131267071E-3  -7.043581921607256E-3  -5.672878026962280E-1   8.106458783149719E-1  
 4.512000000000000E7    -5.709695219993591E-1   8.150949478149414E-1  -8.661773987114430E-3  -6.739856209605932E-3  -8.650249801576138E-3  -6.727532949298620E-3  -5.663686990737915E-1   8.116419315338135E-1  
 4.514000000000000E7    -5.700231790542603E-1   8.160685896873474E-1  -8.221309632062912E-3  -6.441995501518250E-3  -8.221146650612354E-3  -6.396206095814705E-3  -5.654811263084412E-1   8.116950988769531E-1  
 4.516000000000000E7    -5.688019990921021E-1   8.167856931686401E-1  -7.786932867020369E-3  -6.080241873860359E-3  -7.799957413226366E-3  -6.081819068640471E-3  -5.643348097801209E-1   8.122853636741638E-1  
 4.518000000000000E7    -5.683377981185913E-1   8.170408010482788E-1  -7.359054405242205E-3  -5.779739934951067E-3  -7.338235154747963E-3  -5.773611366748810E-3  -5.638755559921265E-1   8.128675818443298E-1  
 4.520000000000000E7    -5.673983693122864E-1   8.174591660499573E-1  -6.909061688929796E-3  -5.459965672343969E-3  -6.904796231538057E-3  -5.453450139611960E-3  -5.631545782089233E-1   8.131818175315857E-1  
 4.522000000000000E7    -5.668118596076965E-1   8.183593153953552E-1  -6.461919751018286E-3  -5.149004515260458E-3  -6.467059720307589E-3  -5.143102258443832E-3  -5.622737407684326E-1   8.140213489532471E-1  
 4.524000000000000E7    -5.659403800964356E-1   8.185573816299439E-1  -6.018324755132198E-3  -4.835869185626507E-3  -6.038386374711990E-3  -4.833333659917116E-3  -5.617394447326660E-1   8.146832585334778E-1  
 4.526000000000000E7    -5.650513768196106E-1   8.196375370025635E-1  -5.599688272923231E-3  -4.534050356596708E-3  -5.584545433521271E-3  -4.517862107604742E-3  -5.607293248176575E-1   8.149397373199463E-1  
 4.528000000000000E7    -5.641734600067139E-1   8.199735283851624E-1  -5.159935448318720E-3  -4.216006491333246E-3  -5.132169928401709E-3  -4.212314262986183E-3  -5.599508285522461E-1   8.154024481773377E-1  
 4.530000000000000E7    -5.632044076919556E-1   8.206151127815247E-1  -4.708859138190746E-3  -3.910598810762167E-3  -4.733125679194927E-3  -3.892241045832634E-3  -5.593598484992981E-1   8.162636160850525E-1  
 4.532000000000000E7    -5.624324083328247E-1   8.211873173713684E-1  -4.285282455384731E-3  -3.605848876759410E-3  -4.279419779777527E-3  -3.582134610041976E-3  -5.583725571632385E-1   8.167939186096191E-1  
 4.534000000000000E7    -5.616434812545776E-1   8.215064406394959E-1  -3.848468884825707E-3  -3.279737895354629E-3  -3.841377096250653E-3  -3.282479243353009E-3  -5.574541687965393E-1   8.172009587287903E-1  
 4.536000000000000E7    -5.606483817100525E-1   8.219687938690186E-1  -3.402416128665209E-3  -2.989822067320347E-3  -3.395695937797427E-3  -2.984645310789347E-3  -5.568593144416809E-1   8.177275657653809E-1  
 4.538000000000000E7    -5.602458715438843E-1   8.224558830261231E-1  -2.967051696032286E-3  -2.687277738004923E-3  -2.973100636154413E-3  -2.664813073351979E-3  -5.558264255523682E-1   8.180347084999085E-1  
 4.540000000000000E7    -5.595626235008240E-1   8.228752613067627E-1  -2.520348876714706E-3  -2.375554060563445E-3  -2.511827507987618E-3  -2.375335199758411E-3  -5.549848675727844E-1   8.190140128135681E-1  
 4.542000000000000E7    -5.586659312248230E-1   8.231641650199890E-1  -2.077061217278242E-3  -2.071026246994734E-3  -2.077177632600069E-3  -2.071068622171879E-3  -5.544648170471191E-1   8.193749785423279E-1  
 4.544000000000000E7    -5.575683712959290E-1   8.237633109092712E-1  -1.652755658142269E-3  -1.773373805917800E-3  -1.643673167563975E-3  -1.771537470631301E-3  -5.534302592277527E-1   8.198094964027405E-1  
 4.546000000000000E7    -5.568780899047852E-1   8.249286413192749E-1  -1.204430707730353E-3  -1.481572166085243E-3  -1.215181080624461E-3  -1.463882508687675E-3  -5.528634190559387E-1   8.204283714294434E-1  
 4.548000000000000E7    -5.561140179634094E-1   8.252350687980652E-1  -7.596891373395920E-4  -1.171259093098342E-3  -7.632863125763834E-4  -1.163864508271217E-3  -5.520071983337402E-1   8.209118843078613E-1  
 4.550000000000000E7    -5.554689764976502E-1   8.257851004600525E-1  -3.123126807622612E-4  -8.776482427492738E-4  -3.194259479641914E-4  -8.711104164831340E-4  -5.508912205696106E-1   8.216087818145752E-1  
 4.552000000000000E7    -5.544959902763367E-1   8.261314630508423E-1   1.265177415916696E-4  -5.642750766128302E-4   1.125105191022158E-4  -5.664556520059705E-4  -5.502945780754089E-1   8.221606016159058E-1  
 4.554000000000000E7    -5.538607239723206E-1   8.265593051910400E-1   5.446256836876273E-4  -2.738674229476601E-4   5.517691024579108E-4  -2.765514946077019E-4  -5.492497682571411E-1   8.226714134216309E-1  
 4.556000000000000E7    -5.528086423873901E-1   8.271165490150452E-1   9.737677173689008E-4   1.717594204819761E-5   1.000878750346601E-3   1.074217379937181E-5  -5.485985279083252E-1   8.232800960540772E-1  
 4.558000000000000E7    -5.522544980049133E-1   8.276465535163879E-1   1.441294210962951E-3   3.046299098059535E-4   1.424108515493572E-3   3.023916215170175E-4  -5.479011535644531E-1   8.236231803894043E-1  
 4.560000000000000E7    -5.512840151786804E-1   8.282404541969299E-1   1.879110466688871E-3   6.141189369373024E-4   1.864408259280026E-3   5.936517845839262E-4  -5.470988750457764E-1   8.241299986839294E-1  
 4.562000000000000E7    -5.505588650703430E-1   8.289440274238586E-1   2.325638430193067E-3   8.878592634573579E-4   2.301484346389771E-3   9.082611068151891E-4  -5.465590953826904E-1   8.245844841003418E-1  
 4.564000000000000E7    -5.493935346603394E-1   8.294410109519959E-1   2.764698816463351E-3   1.187290181405842E-3   2.739036455750465E-3   1.178493490442634E-3  -5.454113483428955E-1   8.249923586845398E-1  
 4.566000000000000E7    -5.487670302391052E-1   8.299357891082764E-1   3.194221062585712E-3   1.457110163755715E-3   3.201900515705347E-3   1.456765225157142E-3  -5.445415973663330E-1   8.256437778472900E-1  
 4.568000000000000E7    -5.479834675788879E-1   8.306639194488525E-1   3.652655286714435E-3   1.746217603795230E-3   3.619484836235642E-3   1.736020436510444E-3  -5.438154339790344E-1   8.263414502143860E-1  
 4.570000000000000E7    -5.472002625465393E-1   8.312215209007263E-1   4.082934465259314E-3   2.050018403679133E-3   4.064971115440130E-3   2.048571361228824E-3  -5.432429909706116E-1   8.265845775604248E-1  
 4.572000000000000E7    -5.468656420707703E-1   8.314851522445679E-1   4.517839290201664E-3   2.333142794668675E-3   4.501717165112495E-3   2.328512957319617E-3  -5.421613454818726E-1   8.271813988685608E-1  
 4.574000000000000E7    -5.456551313400269E-1   8.317679166793823E-1   4.941666498780251E-3   2.608015667647123E-3   4.947119858115912E-3   2.603426808491349E-3  -5.413810014724731E-1   8.274331092834473E-1  
 4.576000000000000E7    -5.449290871620178E-1   8.330244421958923E-1   5.397036205977202E-3   2.894290257245302E-3   5.397884175181389E-3   2.883349545300007E-3  -5.405759215354919E-1   8.284176588058472E-1  
 4.578000000000000E7    -5.441183447837830E-1   8.327185511589050E-1   5.828353576362133E-3   3.165601519867778E-3   5.818864330649376E-3   3.164796391502023E-3  -5.400060415267944E-1   8.285456895828247E-1  
 4.580000000000000E7    -5.434018969535828E-1   8.333304524421692E-1   6.274839397519827E-3   3.452854230999947E-3   6.252931896597147E-3   3.449780866503716E-3  -5.387858152389526E-1   8.289498090744019E-1  
 4.582000000000000E7    -5.422018766403198E-1   8.340010643005371E-1   6.704837549477816E-3   3.737427759915590E-3   6.707926280796528E-3   3.720253240317106E-3  -5.381684899330139E-1   8.296746611595154E-1  
 4.584000000000000E7    -5.417468547821045E-1   8.342379927635193E-1   7.147412747144699E-3   4.009806551039219E-3   7.150603923946619E-3   4.004746675491333E-3  -5.375242829322815E-1   8.302510380744934E-1  
 4.586000000000000E7    -5.404784679412842E-1   8.349421620368958E-1   7.608998566865921E-3   4.277767147868872E-3   7.574632763862610E-3   4.274847451597452E-3  -5.366406440734863E-1   8.305701017379761E-1  
 4.588000000000000E7    -5.399089455604553E-1   8.355170488357544E-1   8.034393191337585E-3   4.566061776131392E-3   8.021816611289978E-3   4.554789513349533E-3  -5.359550714492798E-1   8.309721350669861E-1  
 4.590000000000000E7    -5.389723777770996E-1   8.360023498535156E-1   8.472259156405926E-3   4.834405612200499E-3   8.463194593787193E-3   4.818424582481384E-3  -5.350522994995117E-1   8.315874934196472E-1  
 4.592000000000000E7    -5.379279255867004E-1   8.364003300666809E-1   8.923096582293510E-3   5.104016978293657E-3   8.913388475775719E-3   5.109806079417467E-3  -5.345624089241028E-1   8.324841856956482E-1  
 4.594000000000000E7    -5.373532772064209E-1   8.370000720024109E-1   9.378626942634583E-3   5.380514077842236E-3   9.347556158900261E-3   5.384349729865789E-3  -5.339197516441345E-1   8.328315019607544E-1  
 4.596000000000000E7    -5.366864800453186E-1   8.376202583312988E-1   9.806169196963310E-3   5.649392958730459E-3   9.783385321497917E-3   5.639055743813515E-3  -5.323824882507324E-1   8.334885835647583E-1  
 4.598000000000000E7    -5.358253717422485E-1   8.379233479499817E-1   1.024318858981133E-2   5.935968831181526E-3   1.023311633616686E-2   5.917410366237164E-3  -5.316205620765686E-1   8.336331844329834E-1  
 4.600000000000000E7    -5.351645350456238E-1   8.381068706512451E-1   1.068986300379038E-2   6.210871506482363E-3   1.065470743924379E-2   6.194670684635639E-3  -5.311314463615418E-1   8.343946933746338E-1  
 4.602000000000000E7    -5.341641902923584E-1   8.387249112129211E-1   1.111852843314409E-2   6.443315651267767E-3   1.109346374869347E-2   6.451013498008251E-3  -5.304816961288452E-1   8.347305059432983E-1  
 4.604000000000000E7    -5.333560109138489E-1   8.392513990402222E-1   1.154991146177054E-2   6.723303813487291E-3   1.155155245214701E-2   6.709259934723377E-3  -5.297148227691650E-1   8.354310989379883E-1  
 4.606000000000000E7    -5.323054790496826E-1   8.398171663284302E-1   1.200579386204481E-2   7.002207450568676E-3   1.198897324502468E-2   6.976439617574215E-3  -5.284818410873413E-1   8.354870676994324E-1  
 4.608000000000000E7    -5.318650603294373E-1   8.403635621070862E-1   1.246059034019709E-2   7.252207957208157E-3   1.243841368705034E-2   7.241771090775728E-3  -5.279243588447571E-1   8.364997506141663E-1  
 4.610000000000000E7    -5.310469865798950E-1   8.410484790802002E-1   1.287398207932711E-2   7.535295095294714E-3   1.286450028419495E-2   7.517486810684204E-3  -5.272687077522278E-1   8.367238044738770E-1  
 4.612000000000000E7    -5.302374362945557E-1   8.415167927742004E-1   1.334148645401001E-2   7.773463614284992E-3   1.329870522022247E-2   7.762127090245485E-3  -5.262401103973389E-1   8.375264406204224E-1  
 4.614000000000000E7    -5.292772650718689E-1   8.420746326446533E-1   1.375700905919075E-2   8.048494346439838E-3   1.375599298626185E-2   8.022304624319077E-3  -5.254116058349609E-1   8.376022577285767E-1  
 4.616000000000000E7    -5.282918810844421E-1   8.424421548843384E-1   1.420928165316582E-2   8.288647048175335E-3   1.419535838067532E-2   8.290884084999561E-3  -5.245276093482971E-1   8.380395770072937E-1  
 4.618000000000000E7    -5.272158980369568E-1   8.425064682960510E-1   1.465527061372995E-2   8.556866087019444E-3   1.462983153760433E-2   8.540595881640911E-3  -5.239104628562927E-1   8.385397195816040E-1  
 4.620000000000000E7    -5.266826152801514E-1   8.436852693557739E-1   1.508250460028648E-2   8.812457323074341E-3   1.507141161710024E-2   8.801380172371864E-3  -5.228679776191711E-1   8.390923738479614E-1  
 4.622000000000000E7    -5.258363485336304E-1   8.440281152725220E-1   1.554585248231888E-2   9.087291546165943E-3   1.551545783877373E-2   9.048920124769211E-3  -5.225585699081421E-1   8.397886753082275E-1  
 4.624000000000000E7    -5.250843167304993E-1   8.441036343574524E-1   1.596532389521599E-2   9.301930665969849E-3   1.593432761728764E-2   9.308286011219025E-3  -5.213746428489685E-1   8.403283357620239E-1  
 4.626000000000000E7    -5.241346955299377E-1   8.448848128318787E-1   1.640622504055500E-2   9.585035964846611E-3   1.639565825462341E-2   9.569285437464714E-3  -5.208991765975952E-1   8.407886624336243E-1  
 4.628000000000000E7    -5.234779715538025E-1   8.452239632606506E-1   1.685477420687676E-2   9.832649491727352E-3   1.684263534843922E-2   9.805447421967983E-3  -5.198620557785034E-1   8.412138819694519E-1  
 4.630000000000000E7    -5.225507616996765E-1   8.456716537475586E-1   1.727818325161934E-2   1.006500888615847E-2   1.728489249944687E-2   1.005621720105410E-2  -5.189084410667419E-1   8.417845964431763E-1  
 4.632000000000000E7    -5.219437479972839E-1   8.463001251220703E-1   1.773536205291748E-2   1.033223979175091E-2   1.773241721093655E-2   1.030835229903460E-2  -5.182297825813294E-1   8.419949412345886E-1  
 4.634000000000000E7    -5.213313102722168E-1   8.466378450393677E-1   1.818072050809860E-2   1.058586314320564E-2   1.815449818968773E-2   1.056520733982325E-2  -5.174009799957275E-1   8.424308896064758E-1  
 4.636000000000000E7    -5.202484130859375E-1   8.471062183380127E-1   1.861742883920670E-2   1.082863286137581E-2   1.858880184590817E-2   1.080846972763538E-2  -5.166721940040588E-1   8.430653810501099E-1  
 4.638000000000000E7    -5.195429921150208E-1   8.475970029830933E-1   1.905103772878647E-2   1.106435060501099E-2   1.901734620332718E-2   1.105938665568829E-2  -5.159202814102173E-1   8.436190485954285E-1  
 4.640000000000000E7    -5.186135172843933E-1   8.480374217033386E-1   1.949535496532917E-2   1.131239440292120E-2   1.947303675115109E-2   1.129308249801397E-2  -5.148845314979553E-1   8.442140221595764E-1  
 4.642000000000000E7    -5.179365277290344E-1   8.486780524253845E-1   1.994074322283268E-2   1.156672928482294E-2   1.993388496339321E-2   1.154143083840609E-2  -5.138522982597351E-1   8.447048068046570E-1  
 4.644000000000000E7    -5.170551538467407E-1   8.490686416625977E-1   2.037380076944828E-2   1.180769130587578E-2   2.037684246897697E-2   1.180460769683123E-2  -5.133613348007202E-1   8.448495268821716E-1  
 4.646000000000000E7    -5.161001086235046E-1   8.493762016296387E-1   2.082178927958012E-2   1.205703429877758E-2   2.079639956355095E-2   1.203372422605753E-2  -5.126060247421265E-1   8.451296687126160E-1  
 4.648000000000000E7    -5.151176452636719E-1   8.501299023628235E-1   2.127871848642826E-2   1.229979656636715E-2   2.123284339904785E-2   1.227849069982767E-2  -5.118466019630432E-1   8.457096815109253E-1  
 4.650000000000000E7    -5.146849751472473E-1   8.507145047187805E-1   2.171735465526581E-2   1.254328154027462E-2   2.168742381036282E-2   1.251608226448298E-2  -5.108500123023987E-1   8.464106321334839E-1  
 4.652000000000000E7    -5.133951306343079E-1   8.509475588798523E-1   2.215281501412392E-2   1.276569999754429E-2   2.211492881178856E-2   1.274565141648054E-2  -5.101786851882935E-1   8.466287255287170E-1  
 4.654000000000000E7    -5.126030445098877E-1   8.515287041664124E-1   2.259453572332859E-2   1.299779210239649E-2   2.256457321345806E-2   1.298975571990013E-2  -5.092428922653198E-1   8.472314476966858E-1  
 4.656000000000000E7    -5.119692087173462E-1   8.518519401550293E-1   2.303607203066349E-2   1.323740184307098E-2   2.300243265926838E-2   1.324233226478100E-2  -5.085995197296143E-1   8.475426435470581E-1  
 4.658000000000000E7    -5.112255811691284E-1   8.520957827568054E-1   2.347244694828987E-2   1.347240060567856E-2   2.345093339681625E-2   1.346225943416357E-2  -5.077742338180542E-1   8.482979536056519E-1  
 4.660000000000000E7    -5.100536346435547E-1   8.527905344963074E-1   2.390681765973568E-2   1.369214430451393E-2   2.388042025268078E-2   1.367746666073799E-2  -5.064076185226440E-1   8.486210107803345E-1  
 4.662000000000000E7    -5.097070336341858E-1   8.531926870346069E-1   2.436074241995812E-2   1.396873220801354E-2   2.432232350111008E-2   1.393801253288984E-2  -5.062683224678040E-1   8.494547009468079E-1  
 4.664000000000000E7    -5.085515975952148E-1   8.536060452461243E-1   2.479149028658867E-2   1.417659595608711E-2   2.477159909904003E-2   1.415712572634220E-2  -5.053868293762207E-1   8.493983745574951E-1  
 4.666000000000000E7    -5.078594088554382E-1   8.537067770957947E-1   2.521252632141113E-2   1.441311649978161E-2   2.520637959241867E-2   1.437941752374172E-2  -5.043619871139526E-1   8.501493334770203E-1  
 4.668000000000000E7    -5.071775913238525E-1   8.547849059104919E-1   2.566273324191570E-2   1.465828344225884E-2   2.565725147724152E-2   1.465316955000162E-2  -5.037496089935303E-1   8.505358695983887E-1  
 4.670000000000000E7    -5.063751935958862E-1   8.550072312355042E-1   2.612313628196716E-2   1.487289834767580E-2   2.607938647270203E-2   1.486866921186447E-2  -5.027124881744385E-1   8.505899906158447E-1  
 4.672000000000000E7    -5.056712627410889E-1   8.552433848381043E-1   2.653504535555840E-2   1.513127330690622E-2   2.651377581059933E-2   1.508731767535210E-2  -5.021090507507324E-1   8.516405224800110E-1  
 4.674000000000000E7    -5.046707391738892E-1   8.555703759193420E-1   2.700498886406422E-2   1.534608192741871E-2   2.697078697383404E-2   1.530286949127913E-2  -5.013176798820496E-1   8.517378568649292E-1  
 4.676000000000000E7    -5.039099454879761E-1   8.561679124832153E-1   2.744484692811966E-2   1.557799335569143E-2   2.740707620978355E-2   1.554179564118385E-2  -5.005464553833008E-1   8.523272275924683E-1  
 4.678000000000000E7    -5.030970573425293E-1   8.569209575653076E-1   2.788576669991016E-2   1.578646712005138E-2   2.785218134522438E-2   1.578340679407120E-2  -4.994969367980957E-1   8.530202507972717E-1  
 4.680000000000000E7    -5.023897886276245E-1   8.571034073829651E-1   2.832929231226444E-2   1.600923947989941E-2   2.828948572278023E-2   1.597911678254604E-2  -4.987908005714417E-1   8.533936142921448E-1  
 4.682000000000000E7    -5.012736320495606E-1   8.576431870460510E-1   2.875299751758575E-2   1.620890758931637E-2   2.875090949237347E-2   1.619337871670723E-2  -4.978354573249817E-1   8.537390232086182E-1  
 4.684000000000000E7    -5.005127191543579E-1   8.583354949951172E-1   2.921947278082371E-2   1.646298542618752E-2   2.918137982487679E-2   1.642802357673645E-2  -4.970555901527405E-1   8.542125821113586E-1  
 4.686000000000000E7    -4.999596476554871E-1   8.588140010833740E-1   2.967302128672600E-2   1.670499332249165E-2   2.962139621376991E-2   1.665108092129231E-2  -4.964812099933624E-1   8.546240925788879E-1  
 4.688000000000000E7    -4.987507462501526E-1   8.588687181472778E-1   3.006744384765625E-2   1.690529100596905E-2   3.002594225108624E-2   1.687996834516525E-2  -4.959588348865509E-1   8.546525835990906E-1  
 4.690000000000000E7    -4.983448684215546E-1   8.593003749847412E-1   3.050002083182335E-2   1.710363477468491E-2   3.048630058765411E-2   1.708226464688778E-2  -4.945202469825745E-1   8.553981781005859E-1  
 4.692000000000000E7    -4.971191585063934E-1   8.598798513412476E-1   3.095484152436256E-2   1.735056191682816E-2   3.090149350464344E-2   1.731891185045242E-2  -4.937840104103088E-1   8.557301163673401E-1  
 4.694000000000000E7    -4.969000220298767E-1   8.604345321655273E-1   3.142201155424118E-2   1.759691908955574E-2   3.138817101716995E-2   1.752660796046257E-2  -4.933852851390839E-1   8.565675020217896E-1  
 4.696000000000000E7    -4.955372810363770E-1   8.607742190361023E-1   3.184060007333756E-2   1.776983030140400E-2   3.180865198373795E-2   1.776479370892048E-2  -4.925215244293213E-1   8.563268780708313E-1  
 4.698000000000000E7    -4.949305653572083E-1   8.610290884971619E-1   3.227867931127548E-2   1.798242889344692E-2   3.222016245126724E-2   1.796629838645458E-2  -4.912235140800476E-1   8.565623164176941E-1  
 4.700000000000000E7    -4.937595129013062E-1   8.616198897361755E-1   3.273559361696243E-2   1.817886158823967E-2   3.267720714211464E-2   1.816029660403729E-2  -4.906592071056366E-1   8.575917482376099E-1  
 4.702000000000000E7    -4.931363165378571E-1   8.617953658103943E-1   3.317568078637123E-2   1.838407106697559E-2   3.310274332761765E-2   1.841459423303604E-2  -4.898360967636108E-1   8.578156232833862E-1  
 4.704000000000000E7    -4.926333427429199E-1   8.626989722251892E-1   3.361171856522560E-2   1.865386962890625E-2   3.355405852198601E-2   1.864281482994556E-2  -4.892380833625794E-1   8.583731651306152E-1  
 4.706000000000000E7    -4.915698468685150E-1   8.629215955734253E-1   3.402673453092575E-2   1.884272880852222E-2   3.400260582566261E-2   1.882051303982735E-2  -4.885240495204926E-1   8.587414622306824E-1  
 4.708000000000000E7    -4.909056425094605E-1   8.634273409843445E-1   3.447618708014488E-2   1.906523108482361E-2   3.445436805486679E-2   1.900315657258034E-2  -4.874073266983032E-1   8.594769239425659E-1  
 4.710000000000000E7    -4.899704754352570E-1   8.639994859695435E-1   3.492523729801178E-2   1.925040036439896E-2   3.490777313709259E-2   1.924110949039459E-2  -4.867255985736847E-1   8.597972393035889E-1  
 4.712000000000000E7    -4.891883134841919E-1   8.643754720687866E-1   3.535959124565125E-2   1.945218816399574E-2   3.531929105520248E-2   1.944920420646668E-2  -4.860782027244568E-1   8.599067330360413E-1  
 4.714000000000000E7    -4.884249567985535E-1   8.644750118255615E-1   3.580259531736374E-2   1.965682953596115E-2   3.576333075761795E-2   1.966472715139389E-2  -4.850980937480927E-1   8.605707287788391E-1  
 4.716000000000000E7    -4.875000715255737E-1   8.650838732719421E-1   3.624428063631058E-2   1.990585960447788E-2   3.618871048092842E-2   1.987818442285061E-2  -4.844143092632294E-1   8.608667254447937E-1  
 4.718000000000000E7    -4.866621196269989E-1   8.655790686607361E-1   3.669559583067894E-2   2.007454819977284E-2   3.662979975342751E-2   2.005214430391789E-2  -4.835270643234253E-1   8.611885309219360E-1  
 4.720000000000000E7    -4.858787655830383E-1   8.657687902450562E-1   3.712674602866173E-2   2.028327807784081E-2   3.704257681965828E-2   2.028210647404194E-2  -4.831216335296631E-1   8.617884516716003E-1  
 4.722000000000000E7    -4.850387275218964E-1   8.660390973091126E-1   3.754200786352158E-2   2.049037069082260E-2   3.751855716109276E-2   2.045451290905476E-2  -4.820590019226074E-1   8.621022105216980E-1  
 4.724000000000000E7    -4.838698506355286E-1   8.666542172431946E-1   3.799996525049210E-2   2.068506740033627E-2   3.793433308601379E-2   2.066481299698353E-2  -4.814140498638153E-1   8.624622225761414E-1  
 4.726000000000000E7    -4.834978878498077E-1   8.673064112663269E-1   3.843776881694794E-2   2.090047858655453E-2   3.841122612357140E-2   2.084171772003174E-2  -4.802829623222351E-1   8.628242611885071E-1  
 4.728000000000000E7    -4.824821054935455E-1   8.673711419105530E-1   3.888138383626938E-2   2.110597863793373E-2   3.883431106805801E-2   2.108133956789970E-2  -4.795906543731690E-1   8.633522391319275E-1  
 4.730000000000000E7    -4.818874895572662E-1   8.678058981895447E-1   3.931929543614388E-2   2.130708843469620E-2   3.925785049796104E-2   2.125489339232445E-2  -4.786475300788879E-1   8.637717366218567E-1  
 4.732000000000000E7    -4.805119037628174E-1   8.679433465003967E-1   3.971480950713158E-2   2.147153578698635E-2   3.968249261379242E-2   2.146534249186516E-2  -4.780291318893433E-1   8.641921877861023E-1  
 4.734000000000000E7    -4.803892374038696E-1   8.682768344879150E-1   4.020934551954269E-2   2.166874334216118E-2   4.016694799065590E-2   2.168016880750656E-2  -4.772474765777588E-1   8.649843335151672E-1  
 4.736000000000000E7    -4.792160093784332E-1   8.690252900123596E-1   4.064622893929482E-2   2.187655493617058E-2   4.057697579264641E-2   2.187191136181355E-2  -4.763062000274658E-1   8.649941682815552E-1  
 4.738000000000000E7    -4.787318110466003E-1   8.694108128547669E-1   4.107795655727387E-2   2.207776159048080E-2   4.104344174265862E-2   2.202855795621872E-2  -4.757227897644043E-1   8.657731413841248E-1  
 4.740000000000000E7    -4.774441421031952E-1   8.703120350837708E-1   4.155673086643219E-2   2.229416184127331E-2   4.152007400989533E-2   2.220753394067287E-2  -4.745517969131470E-1   8.661224246025085E-1  
 4.742000000000000E7    -4.768369197845459E-1   8.703432083129883E-1   4.194973036646843E-2   2.245908416807652E-2   4.191062971949577E-2   2.244520746171475E-2  -4.736704826354981E-1   8.665190935134888E-1  
 4.744000000000000E7    -4.759516417980194E-1   8.709990978240967E-1   4.243111237883568E-2   2.264275774359703E-2   4.236727952957153E-2   2.264395728707314E-2  -4.730586707592011E-1   8.669240474700928E-1  
 4.746000000000000E7    -4.754153788089752E-1   8.713524341583252E-1   4.282727837562561E-2   2.285765297710896E-2   4.276508092880249E-2   2.284420467913151E-2  -4.724011421203613E-1   8.673267364501953E-1  
 4.748000000000000E7    -4.743673503398895E-1   8.714246749877930E-1   4.330221936106682E-2   2.305155247449875E-2   4.319499433040619E-2   2.299848012626171E-2  -4.715029895305634E-1   8.674201965332031E-1  
 4.750000000000000E7    -4.737408161163330E-1   8.721143603324890E-1   4.376701265573502E-2   2.321613207459450E-2   4.369916766881943E-2   2.319945581257343E-2  -4.703383743762970E-1   8.678814768791199E-1  
 4.752000000000000E7    -4.729848504066467E-1   8.723233342170715E-1   4.416053369641304E-2   2.340729907155037E-2   4.410201311111450E-2   2.340294606983662E-2  -4.695835113525391E-1   8.685464859008789E-1  
 4.754000000000000E7    -4.716915786266327E-1   8.729194998741150E-1   4.460597038269043E-2   2.358908206224442E-2   4.455505311489105E-2   2.355450764298439E-2  -4.689061641693115E-1   8.688244819641113E-1  
 4.756000000000000E7    -4.712495803833008E-1   8.734875917434692E-1   4.500548914074898E-2   2.377311140298843E-2   4.500640928745270E-2   2.376385219395161E-2  -4.682891964912415E-1   8.689186573028565E-1  
 4.758000000000000E7    -4.703023433685303E-1   8.734006881713867E-1   4.547652229666710E-2   2.393489144742489E-2   4.540614411234856E-2   2.394465357065201E-2  -4.671858847141266E-1   8.695960640907288E-1  
 4.760000000000000E7    -4.694182574748993E-1   8.740770220756531E-1   4.593112319707871E-2   2.415202558040619E-2   4.585172235965729E-2   2.412947639822960E-2  -4.666120111942291E-1   8.699072003364563E-1  
 4.762000000000000E7    -4.691117405891419E-1   8.745068907737732E-1   4.634664952754974E-2   2.437395229935646E-2   4.632204398512840E-2   2.430146187543869E-2  -4.658053517341614E-1   8.701834678649902E-1  
 4.764000000000000E7    -4.677396416664124E-1   8.746264576911926E-1   4.677581787109375E-2   2.450423687696457E-2   4.672184213995934E-2   2.447629347443581E-2  -4.648107886314392E-1   8.707610368728638E-1  
 4.766000000000000E7    -4.668563306331635E-1   8.752811551094055E-1   4.725956916809082E-2   2.466686069965363E-2   4.720559716224670E-2   2.466112002730370E-2  -4.641666114330292E-1   8.713882565498352E-1  
 4.768000000000000E7    -4.658923447132111E-1   8.754888772964478E-1   4.769989475607872E-2   2.485386654734612E-2   4.762727767229080E-2   2.487655542790890E-2  -4.635047614574432E-1   8.716667890548706E-1  
 4.770000000000000E7    -4.655266702175140E-1   8.760468363761902E-1   4.810918122529984E-2   2.504361607134342E-2   4.805631935596466E-2   2.501487359404564E-2  -4.628143906593323E-1   8.718720078468323E-1  
 4.772000000000000E7    -4.644462466239929E-1   8.759322762489319E-1   4.848733544349670E-2   2.519888058304787E-2   4.848642647266388E-2   2.518327534198761E-2  -4.616755545139313E-1   8.718297481536865E-1  
 4.774000000000000E7    -4.636235833168030E-1   8.767871260643005E-1   4.899735376238823E-2   2.541150152683258E-2   4.894527420401573E-2   2.539520151913166E-2  -4.611527025699616E-1   8.726464509963989E-1  
 4.776000000000000E7    -4.627861380577087E-1   8.771883249282837E-1   4.941194877028465E-2   2.558397687971592E-2   4.937223717570305E-2   2.551848068833351E-2  -4.599909484386444E-1   8.729665875434876E-1  
 4.778000000000000E7    -4.617492258548737E-1   8.775798082351685E-1   4.986815899610519E-2   2.576352842152119E-2   4.980662837624550E-2   2.569616585969925E-2  -4.591729044914246E-1   8.733940720558167E-1  
 4.780000000000000E7    -4.610632061958313E-1   8.779590129852295E-1   5.032246932387352E-2   2.595691569149494E-2   5.023949593305588E-2   2.590265683829784E-2  -4.587785601615906E-1   8.737823367118835E-1  
 4.782000000000000E7    -4.604261517524719E-1   8.780056238174439E-1   5.075814202427864E-2   2.612725459039211E-2   5.062341690063477E-2   2.609012275934219E-2  -4.580604732036591E-1   8.741644024848938E-1  
 4.784000000000000E7    -4.596674442291260E-1   8.785042762756348E-1   5.120536684989929E-2   2.629709616303444E-2   5.111544579267502E-2   2.626059204339981E-2  -4.569053351879120E-1   8.748596310615540E-1  
 4.786000000000000E7    -4.589458405971527E-1   8.792365193367004E-1   5.162352323532105E-2   2.644686028361321E-2   5.154570937156677E-2   2.643587626516819E-2  -4.562445282936096E-1   8.750401139259338E-1  
 4.788000000000000E7    -4.576218426227570E-1   8.793531060218811E-1   5.204688385128975E-2   2.660525217652321E-2   5.202732980251312E-2   2.656921371817589E-2  -4.549988210201263E-1   8.754416704177856E-1  
 4.790000000000000E7    -4.568771421909332E-1   8.799064159393311E-1   5.251406133174896E-2   2.678032964468002E-2   5.241896957159042E-2   2.672430872917175E-2  -4.541271924972534E-1   8.759639859199524E-1  
 4.792000000000000E7    -4.563105702400208E-1   8.803831338882446E-1   5.293600261211395E-2   2.696703374385834E-2   5.290760099887848E-2   2.697283402085304E-2  -4.540337026119232E-1   8.765025734901428E-1  
 4.794000000000000E7    -4.557102620601654E-1   8.806466460227966E-1   5.342088639736176E-2   2.709786593914032E-2   5.337192490696907E-2   2.708346396684647E-2  -4.525875747203827E-1   8.769031763076782E-1  
 4.796000000000000E7    -4.547072350978851E-1   8.809320926666260E-1   5.382763966917992E-2   2.729672752320766E-2   5.375735461711884E-2   2.727381139993668E-2  -4.521493613719940E-1   8.771660923957825E-1  
 4.798000000000000E7    -4.538990259170532E-1   8.815844655036926E-1   5.427638813853264E-2   2.746798470616341E-2   5.419007316231728E-2   2.741650678217411E-2  -4.513051807880402E-1   8.773132562637329E-1  
 4.800000000000000E7    -4.533312618732452E-1   8.815460205078125E-1   5.469424650073052E-2   2.764076180756092E-2   5.464103817939758E-2   2.762431278824806E-2  -4.504107534885407E-1   8.780331611633301E-1  
 4.802000000000000E7    -4.522754251956940E-1   8.821316361427307E-1   5.514286831021309E-2   2.782814577221870E-2   5.510202422738075E-2   2.775126695632935E-2  -4.497450888156891E-1   8.781937956809998E-1  
 4.804000000000000E7    -4.515036940574646E-1   8.821703195571899E-1   5.557115748524666E-2   2.794892899692059E-2   5.551656335592270E-2   2.791140973567963E-2  -4.488246142864227E-1   8.787078261375427E-1  
 4.806000000000000E7    -4.505817592144013E-1   8.830640912055969E-1   5.600275099277496E-2   2.809575386345387E-2   5.594238266348839E-2   2.810963243246079E-2  -4.479283988475800E-1   8.788028955459595E-1  
 4.808000000000000E7    -4.496738016605377E-1   8.829754590988159E-1   5.647185444831848E-2   2.823878638446331E-2   5.639072880148888E-2   2.823238819837570E-2  -4.471307396888733E-1   8.797004818916321E-1  
 4.810000000000000E7    -4.492339193820953E-1   8.832777738571167E-1   5.687309056520462E-2   2.845285087823868E-2   5.683446303009987E-2   2.840116433799267E-2  -4.460678398609161E-1   8.799844384193420E-1  
 4.812000000000000E7    -4.482519626617432E-1   8.840989470481873E-1   5.735507979989052E-2   2.858494035899639E-2   5.727547407150269E-2   2.856855653226376E-2  -4.454118311405182E-1   8.802667260169983E-1  
 4.814000000000000E7    -4.473107755184174E-1   8.844389915466309E-1   5.771270766854286E-2   2.876339480280876E-2   5.773249641060829E-2   2.873186022043228E-2  -4.447262287139893E-1   8.802400231361389E-1  
 4.816000000000000E7    -4.466185569763184E-1   8.845639228820801E-1   5.819319933652878E-2   2.889748290181160E-2   5.817285552620888E-2   2.889490872621536E-2  -4.440792202949524E-1   8.807779550552368E-1  
 4.818000000000000E7    -4.459278285503388E-1   8.850196599960327E-1   5.860174447298050E-2   2.912245132029057E-2   5.855530500411987E-2   2.904206514358521E-2  -4.433687627315521E-1   8.813878893852234E-1  
 4.820000000000000E7    -4.449904263019562E-1   8.851349949836731E-1   5.905695259571075E-2   2.921832352876663E-2   5.898926779627800E-2   2.922771126031876E-2  -4.422549009323120E-1   8.813480138778687E-1  
 4.822000000000000E7    -4.440347552299500E-1   8.859157562255859E-1   5.948575586080551E-2   2.941120974719524E-2   5.943343788385391E-2   2.934587933123112E-2  -4.416563212871552E-1   8.818401694297791E-1  
 4.824000000000000E7    -4.432017207145691E-1   8.858873844146729E-1   5.997210741043091E-2   2.951972931623459E-2   5.983686074614525E-2   2.950870431959629E-2  -4.407828450202942E-1   8.823295235633850E-1  
 4.826000000000000E7    -4.423587620258331E-1   8.860642313957214E-1   6.030296161770821E-2   2.966609038412571E-2   6.024129688739777E-2   2.963484823703766E-2  -4.395780265331268E-1   8.824324011802673E-1  
 4.828000000000000E7    -4.417980611324310E-1   8.867196440696716E-1   6.081548333168030E-2   2.981475181877613E-2   6.075476482510567E-2   2.982996776700020E-2  -4.389065504074097E-1   8.831137418746948E-1  
 4.830000000000000E7    -4.404301345348358E-1   8.871865868568420E-1   6.125129386782646E-2   2.992764860391617E-2   6.121646985411644E-2   2.991527318954468E-2  -4.378346204757690E-1   8.835345506668091E-1  
 4.832000000000000E7    -4.399212598800659E-1   8.871227502822876E-1   6.164396554231644E-2   3.011094219982624E-2   6.159073486924171E-2   3.008937649428845E-2  -4.375010132789612E-1   8.835845589637756E-1  
 4.834000000000000E7    -4.391835629940033E-1   8.879648447036743E-1   6.210485845804215E-2   3.030724823474884E-2   6.206165999174118E-2   3.027472272515297E-2  -4.365319013595581E-1   8.841268420219421E-1  
 4.836000000000000E7    -4.380502402782440E-1   8.884598016738892E-1   6.258372962474823E-2   3.040150552988052E-2   6.248383224010468E-2   3.039814904332161E-2  -4.358268976211548E-1   8.844049572944641E-1  
 4.838000000000000E7    -4.374908506870270E-1   8.884603977203369E-1   6.302840262651444E-2   3.060128912329674E-2   6.291383504867554E-2   3.056394495069981E-2  -4.353580474853516E-1   8.849902153015137E-1  
 4.840000000000000E7    -4.370565414428711E-1   8.886851668357849E-1   6.342127174139023E-2   3.070653229951859E-2   6.336237490177155E-2   3.072750754654408E-2  -4.340559542179108E-1   8.853904008865356E-1  
 4.842000000000000E7    -4.355802536010742E-1   8.892899155616760E-1   6.391646713018417E-2   3.083391115069389E-2   6.378640979528427E-2   3.076888248324394E-2  -4.331198334693909E-1   8.854639530181885E-1  
 4.844000000000000E7    -4.351605772972107E-1   8.894366025924683E-1   6.428498774766922E-2   3.101578913629055E-2   6.423743814229965E-2   3.094873204827309E-2  -4.322639107704163E-1   8.858745694160461E-1  
 4.846000000000000E7    -4.340571761131287E-1   8.895371556282044E-1   6.473308801651001E-2   3.115859627723694E-2   6.466855853796005E-2   3.111306205391884E-2  -4.319341480731964E-1   8.861947655677795E-1  
 4.848000000000000E7    -4.336661994457245E-1   8.902215361595154E-1   6.517468392848969E-2   3.126921877264977E-2   6.509675830602646E-2   3.128850087523460E-2  -4.308724105358124E-1   8.865419626235962E-1  
 4.850000000000000E7    -4.324153959751129E-1   8.907052874565125E-1   6.564239412546158E-2   3.143650665879250E-2   6.560397893190384E-2   3.137249499559403E-2  -4.302943646907806E-1   8.869931101799011E-1  
 4.852000000000000E7    -4.317629635334015E-1   8.910895586013794E-1   6.605293601751328E-2   3.157211467623711E-2   6.597191095352173E-2   3.152661398053169E-2  -4.292800724506378E-1   8.872138857841492E-1  
 4.854000000000000E7    -4.309551417827606E-1   8.916245698928833E-1   6.647976487874985E-2   3.168695047497749E-2   6.643371284008026E-2   3.169572353363037E-2  -4.283214807510376E-1   8.875722885131836E-1  
 4.856000000000000E7    -4.304673969745636E-1   8.913937807083130E-1   6.690894067287445E-2   3.190012276172638E-2   6.689020991325378E-2   3.184032067656517E-2  -4.276404082775116E-1   8.882363438606262E-1  
 4.858000000000000E7    -4.297158420085907E-1   8.918293118476868E-1   6.737475842237473E-2   3.203284740447998E-2   6.731690466403961E-2   3.202018514275551E-2  -4.272671937942505E-1   8.886576890945435E-1  
 4.860000000000000E7    -4.285935759544373E-1   8.923164010047913E-1   6.781439483165741E-2   3.213545307517052E-2   6.771937012672424E-2   3.212996944785118E-2  -4.261314868927002E-1   8.887163400650024E-1  
 4.862000000000000E7    -4.278165400028229E-1   8.926237821578980E-1   6.821346282958984E-2   3.230199590325356E-2   6.812287122011185E-2   3.228955343365669E-2  -4.258001446723938E-1   8.889254331588745E-1  
 4.864000000000000E7    -4.268340766429901E-1   8.932030797004700E-1   6.863973289728165E-2   3.238556161522865E-2   6.860652565956116E-2   3.233791515231133E-2  -4.243375360965729E-1   8.891679644584656E-1  
 4.866000000000000E7    -4.262467026710510E-1   8.936398029327393E-1   6.908755749464035E-2   3.257323801517487E-2   6.905183196067810E-2   3.252984210848808E-2  -4.238663315773010E-1   8.897665143013001E-1  
 4.868000000000000E7    -4.255250692367554E-1   8.937458395957947E-1   6.952356547117233E-2   3.270352631807327E-2   6.946322321891785E-2   3.267181664705277E-2  -4.230595827102661E-1   8.902558088302612E-1  
 4.870000000000000E7    -4.245176911354065E-1   8.939525485038757E-1   6.995423138141632E-2   3.279738500714302E-2   6.987531483173370E-2   3.277800604701042E-2  -4.217389822006226E-1   8.902627825737000E-1  
 4.872000000000000E7    -4.238068461418152E-1   8.943005800247192E-1   7.035355269908905E-2   3.292132541537285E-2   7.031434029340744E-2   3.294027969241142E-2  -4.215384423732758E-1   8.906995058059692E-1  
 4.874000000000000E7    -4.232871532440186E-1   8.944705724716187E-1   7.080825418233872E-2   3.305394202470779E-2   7.069968432188034E-2   3.305687010288239E-2  -4.203901290893555E-1   8.907208442687988E-1  
 4.876000000000000E7    -4.219763875007629E-1   8.951790928840637E-1   7.126215845346451E-2   3.322326019406319E-2   7.115449756383896E-2   3.318498283624649E-2  -4.196922779083252E-1   8.912384510040283E-1  
 4.878000000000000E7    -4.210827946662903E-1   8.957231044769287E-1   7.172475755214691E-2   3.336879611015320E-2   7.165629416704178E-2   3.327687829732895E-2  -4.192042946815491E-1   8.917567133903503E-1  
 4.880000000000000E7    -4.205474853515625E-1   8.954525589942932E-1   7.213096320629120E-2   3.342646732926369E-2   7.206825911998749E-2   3.345037996768951E-2  -4.180469512939453E-1   8.920275568962097E-1  
 4.882000000000000E7    -4.194467067718506E-1   8.958853483200073E-1   7.251836359500885E-2   3.354874253273010E-2   7.244520634412766E-2   3.356356173753738E-2  -4.172621071338654E-1   8.924243450164795E-1  
 4.884000000000000E7    -4.191710352897644E-1   8.963283896446228E-1   7.301165163516998E-2   3.375299274921417E-2   7.293382287025452E-2   3.377415239810944E-2  -4.166649281978607E-1   8.928328752517700E-1  
 4.886000000000000E7    -4.181384444236755E-1   8.963406682014465E-1   7.341043651103973E-2   3.383819386363030E-2   7.332426309585571E-2   3.376811742782593E-2  -4.155941009521484E-1   8.928754925727844E-1  
 4.888000000000000E7    -4.171927571296692E-1   8.972963094711304E-1   7.384414225816727E-2   3.397079929709435E-2   7.385042309761047E-2   3.397367894649506E-2  -4.149762690067291E-1   8.933482170104981E-1  
 4.890000000000000E7    -4.163512289524078E-1   8.971670866012573E-1   7.431294769048691E-2   3.410559147596359E-2   7.424268126487732E-2   3.408286720514298E-2  -4.143936634063721E-1   8.939823508262634E-1  
 4.892000000000000E7    -4.150528013706207E-1   8.978378772735596E-1   7.481641322374344E-2   3.415643423795700E-2   7.468677312135696E-2   3.415229544043541E-2  -4.133468568325043E-1   8.940634131431580E-1  
 4.894000000000000E7    -4.147094488143921E-1   8.978623747825623E-1   7.519887387752533E-2   3.433429077267647E-2   7.509261369705200E-2   3.431984409689903E-2  -4.125936627388001E-1   8.944398164749146E-1  
 4.896000000000000E7    -4.136458635330200E-1   8.979918360710144E-1   7.560770213603973E-2   3.439455479383469E-2   7.558863610029221E-2   3.439398109912872E-2  -4.114272594451904E-1   8.950983881950378E-1  
 4.898000000000000E7    -4.131927490234375E-1   8.983763456344605E-1   7.600043714046478E-2   3.455977886915207E-2   7.596506178379059E-2   3.455930203199387E-2  -4.108047783374786E-1   8.949152827262878E-1  
 4.900000000000000E7    -4.126454293727875E-1   8.990794420242310E-1   7.642354071140289E-2   3.470972552895546E-2   7.638792693614960E-2   3.467497229576111E-2  -4.099205732345581E-1   8.951071500778198E-1  
 4.902000000000000E7    -4.118517339229584E-1   8.990551233291626E-1   7.690954208374023E-2   3.485615924000740E-2   7.683225721120834E-2   3.480165451765060E-2  -4.093976318836212E-1   8.958269953727722E-1  
 4.904000000000000E7    -4.107082486152649E-1   8.993971943855286E-1   7.730707526206970E-2   3.492891415953636E-2   7.725664228200913E-2   3.492877259850502E-2  -4.082274734973908E-1   8.959053754806519E-1  
 4.906000000000000E7    -4.096383750438690E-1   8.999233841896057E-1   7.780068367719650E-2   3.500944748520851E-2   7.776727527379990E-2   3.498183563351631E-2  -4.073483943939209E-1   8.967115283012390E-1  
 4.908000000000000E7    -4.091941118240356E-1   9.003792405128479E-1   7.820177078247070E-2   3.515178710222244E-2   7.814440131187439E-2   3.510390594601631E-2  -4.065592885017395E-1   8.966997861862183E-1  
 4.910000000000000E7    -4.077784419059753E-1   9.005160927772522E-1   7.865753769874573E-2   3.523554652929306E-2   7.857298851013184E-2   3.521022945642471E-2  -4.057340621948242E-1   8.970794677734375E-1  
 4.912000000000000E7    -4.073698222637177E-1   9.010821580886841E-1   7.915584743022919E-2   3.540784120559692E-2   7.898012548685074E-2   3.533757477998734E-2  -4.052045643329620E-1   8.974617123603821E-1  
 4.914000000000000E7    -4.065457880496979E-1   9.007834196090698E-1   7.947111129760742E-2   3.550061210989952E-2   7.935645431280136E-2   3.543597459793091E-2  -4.042033553123474E-1   8.976017832756043E-1  
 4.916000000000000E7    -4.054869115352631E-1   9.013633131980896E-1   7.993968576192856E-2   3.559938818216324E-2   7.990949600934982E-2   3.555706143379211E-2  -4.033927321434021E-1   8.982574343681335E-1  
 4.918000000000000E7    -4.050494730472565E-1   9.015865921974182E-1   8.042742311954498E-2   3.573984280228615E-2   8.034382760524750E-2   3.575619682669640E-2  -4.028936326503754E-1   8.984969258308411E-1  
 4.920000000000000E7    -4.040670990943909E-1   9.020046591758728E-1   8.079341053962708E-2   3.576640039682388E-2   8.072446286678314E-2   3.577271848917007E-2  -4.016451537609100E-1   8.986129760742188E-1  
 4.922000000000000E7    -4.031618535518646E-1   9.022698402404785E-1   8.120996505022049E-2   3.596545383334160E-2   8.120186626911163E-2   3.587803617119789E-2  -4.008624553680420E-1   8.989933133125305E-1  
 4.924000000000000E7    -4.025005102157593E-1   9.030392169952393E-1   8.164231479167938E-2   3.604736551642418E-2   8.161725103855133E-2   3.598069399595261E-2  -3.999743461608887E-1   8.991686701774597E-1  
 4.926000000000000E7    -4.018164873123169E-1   9.031561017036438E-1   8.205309510231018E-2   3.615627065300942E-2   8.208872377872467E-2   3.612183779478073E-2  -3.992677330970764E-1   8.997706174850464E-1  
 4.928000000000000E7    -4.007675349712372E-1   9.032935500144959E-1   8.254923671483994E-2   3.626612573862076E-2   8.242038637399674E-2   3.623497113585472E-2  -3.987605273723602E-1   9.000492691993713E-1  
 4.930000000000000E7    -4.000961780548096E-1   9.035120010375977E-1   8.291970193386078E-2   3.640897572040558E-2   8.291523158550263E-2   3.637072443962097E-2  -3.976581692695618E-1   9.000552296638489E-1  
 4.932000000000000E7    -3.993229568004608E-1   9.039279818534851E-1   8.341744542121887E-2   3.654443100094795E-2   8.333497494459152E-2   3.646340593695641E-2  -3.970251679420471E-1   9.005928635597229E-1  
 4.934000000000000E7    -3.984191715717316E-1   9.039678573608398E-1   8.376716822385788E-2   3.658087924122810E-2   8.374148607254028E-2   3.657603636384010E-2  -3.963917791843414E-1   9.008970260620117E-1  
 4.936000000000000E7    -3.975345194339752E-1   9.048565626144409E-1   8.431511372327805E-2   3.663348779082298E-2   8.425392210483551E-2   3.668425232172012E-2  -3.953584432601929E-1   9.011142849922180E-1  
 4.938000000000000E7    -3.968091011047363E-1   9.049623012542725E-1   8.471789956092835E-2   3.675220906734467E-2   8.456282317638397E-2   3.672605007886887E-2  -3.945193588733673E-1   9.013174772262573E-1  
 4.940000000000000E7    -3.961966931819916E-1   9.051731228828430E-1   8.514970541000366E-2   3.693395107984543E-2   8.503032475709915E-2   3.684613108634949E-2  -3.939743340015411E-1   9.018403291702271E-1  
 4.942000000000000E7    -3.953864276409149E-1   9.056411385536194E-1   8.551141619682312E-2   3.700610250234604E-2   8.549244701862335E-2   3.697258234024048E-2  -3.928799033164978E-1   9.020488858222961E-1  
 4.944000000000000E7    -3.945119082927704E-1   9.055187106132507E-1   8.599926531314850E-2   3.706680610775948E-2   8.599387854337692E-2   3.706522285938263E-2  -3.921821415424347E-1   9.023680090904236E-1  
 4.946000000000000E7    -3.935525417327881E-1   9.056960940361023E-1   8.638672530651093E-2   3.717410564422607E-2   8.631873875856400E-2   3.717689216136932E-2  -3.915493786334992E-1   9.026554822921753E-1  
 4.948000000000000E7    -3.927496373653412E-1   9.061989188194275E-1   8.691041171550751E-2   3.728885948657990E-2   8.678609877824783E-2   3.732535988092423E-2  -3.906847536563873E-1   9.030404090881348E-1  
 4.950000000000000E7    -3.922301232814789E-1   9.063248634338379E-1   8.726595342159271E-2   3.742659091949463E-2   8.715921640396118E-2   3.740346431732178E-2  -3.897056877613068E-1   9.032464623451233E-1  
 4.952000000000000E7    -3.910675942897797E-1   9.069967269897461E-1   8.771024644374847E-2   3.745508939027786E-2   8.767839521169663E-2   3.749506920576096E-2  -3.888268768787384E-1   9.036573171615601E-1  
 4.954000000000000E7    -3.903038799762726E-1   9.072491526603699E-1   8.815658837556839E-2   3.753307089209557E-2   8.808918297290802E-2   3.754348680377007E-2  -3.877935707569122E-1   9.037907719612122E-1  
 4.956000000000000E7    -3.895590901374817E-1   9.074683785438538E-1   8.856917172670364E-2   3.770483657717705E-2   8.849439769983292E-2   3.767323493957520E-2  -3.876223266124725E-1   9.040670990943909E-1  
 4.958000000000000E7    -3.884297013282776E-1   9.074910283088684E-1   8.899818360805512E-2   3.779987990856171E-2   8.888261020183563E-2   3.769016638398171E-2  -3.863265812397003E-1   9.044462442398071E-1  
 4.960000000000000E7    -3.876567482948303E-1   9.079388976097107E-1   8.936141431331635E-2   3.786742687225342E-2   8.929075300693512E-2   3.780871629714966E-2  -3.856797516345978E-1   9.040958285331726E-1  
 4.962000000000000E7    -3.873397409915924E-1   9.083068370819092E-1   8.977470546960831E-2   3.802132979035378E-2   8.979216217994690E-2   3.799670562148094E-2  -3.849682807922363E-1   9.048687219619751E-1  
 4.964000000000000E7    -3.863101899623871E-1   9.083836078643799E-1   9.023198485374451E-2   3.797376900911331E-2   9.018683433532715E-2   3.803879395127296E-2  -3.838166594505310E-1   9.049704670906067E-1  
 4.966000000000000E7    -3.854640126228333E-1   9.089227318763733E-1   9.073243290185928E-2   3.814098611474037E-2   9.062623232603073E-2   3.810295835137367E-2  -3.830779492855072E-1   9.056956768035889E-1  
 4.968000000000000E7    -3.846963644027710E-1   9.089263081550598E-1   9.110961109399796E-2   3.820776566863060E-2   9.105663746595383E-2   3.821705654263496E-2  -3.821868896484375E-1   9.060060977935791E-1  
 4.970000000000000E7    -3.840974569320679E-1   9.093435406684876E-1   9.156951308250427E-2   3.831542283296585E-2   9.148842841386795E-2   3.829318657517433E-2  -3.814263045787811E-1   9.060276746749878E-1  
 4.972000000000000E7    -3.829265832901001E-1   9.097611904144287E-1   9.200075268745422E-2   3.838805854320526E-2   9.193291515111923E-2   3.838286548852921E-2  -3.808049559593201E-1   9.062064290046692E-1  
 4.974000000000000E7    -3.820258975028992E-1   9.100930094718933E-1   9.240316599607468E-2   3.844819590449333E-2   9.237968921661377E-2   3.851796314120293E-2  -3.799841403961182E-1   9.066797494888306E-1  
 4.976000000000000E7    -3.815685212612152E-1   9.102362394332886E-1   9.287599474191666E-2   3.858419507741928E-2   9.276042133569717E-2   3.864795714616776E-2  -3.792241811752319E-1   9.072070121765137E-1  
 4.978000000000000E7    -3.808568120002747E-1   9.109090566635132E-1   9.332155436277390E-2   3.870137035846710E-2   9.323624521493912E-2   3.866139799356461E-2  -3.783692717552185E-1   9.074984192848206E-1  
 4.980000000000000E7    -3.794921338558197E-1   9.106674194335938E-1   9.363981336355209E-2   3.870448470115662E-2   9.356252104043961E-2   3.873584792017937E-2  -3.773915767669678E-1   9.076058864593506E-1  
 4.982000000000000E7    -3.785432875156403E-1   9.109967947006226E-1   9.411632269620895E-2   3.880618885159493E-2   9.409084171056747E-2   3.880867362022400E-2  -3.767029941082001E-1   9.076983332633972E-1  
 4.984000000000000E7    -3.782539665699005E-1   9.115844964981079E-1   9.454356133937836E-2   3.892685100436211E-2   9.451003372669220E-2   3.899663314223290E-2  -3.760710656642914E-1   9.079408049583435E-1  
 4.986000000000000E7    -3.776323497295380E-1   9.115090370178223E-1   9.501874446868897E-2   3.908741101622582E-2   9.489519894123077E-2   3.904648497700691E-2  -3.753015398979187E-1   9.084667563438416E-1  
 4.988000000000000E7    -3.764298856258392E-1   9.118471145629883E-1   9.540258347988129E-2   3.913550451397896E-2   9.535636007785797E-2   3.908078372478485E-2  -3.745871186256409E-1   9.086943268775940E-1  
 4.990000000000000E7    -3.754127621650696E-1   9.123741388320923E-1   9.582595527172089E-2   3.916447982192040E-2   9.576159715652466E-2   3.917401656508446E-2  -3.736165463924408E-1   9.088142514228821E-1  
 4.992000000000000E7    -3.746356070041657E-1   9.125816822052002E-1   9.635719656944275E-2   3.923571109771729E-2   9.621144086122513E-2   3.921310976147652E-2  -3.727997839450836E-1   9.093804359436035E-1  
 4.994000000000000E7    -3.741904199123383E-1   9.131688475608826E-1   9.672068059444428E-2   3.939799964427948E-2   9.666176140308380E-2   3.931808471679688E-2  -3.720340132713318E-1   9.096481800079346E-1  
 4.996000000000000E7    -3.730473518371582E-1   9.131679534912109E-1   9.718945622444153E-2   3.932211175560951E-2   9.709250181913376E-2   3.940941393375397E-2  -3.711016476154327E-1   9.098644852638245E-1  
 4.998000000000000E7    -3.724893629550934E-1   9.132996797561646E-1   9.750835597515106E-2   3.952239826321602E-2   9.743066132068634E-2   3.953604772686958E-2  -3.703191578388214E-1   9.099745154380798E-1  
 5.000000000000000E7    -3.717542886734009E-1   9.132974743843079E-1   9.798015654087067E-2   3.961081057786942E-2   9.794376045465469E-2   3.950776532292366E-2  -3.691768646240234E-1   9.104173779487610E-1  
 5.002000000000000E7    -3.707560300827026E-1   9.139500856399536E-1   9.843711555004120E-2   3.965609520673752E-2   9.839106351137161E-2   3.967063874006271E-2  -3.687162101268768E-1   9.108751416206360E-1  
 5.004000000000000E7    -3.701516389846802E-1   9.143477082252502E-1   9.881753474473953E-2   3.971800953149796E-2   9.876697510480881E-2   3.977449610829353E-2  -3.680985569953919E-1   9.108968377113342E-1  
 5.006000000000000E7    -3.687775731086731E-1   9.147114753723145E-1   9.931911528110504E-2   3.976223990321159E-2   9.920087456703186E-2   3.973507508635521E-2  -3.667039275169373E-1   9.115540385246277E-1  
 5.008000000000000E7    -3.682281970977783E-1   9.150274991989136E-1   9.972691535949707E-2   3.981005772948265E-2   9.964387863874435E-2   3.988375142216682E-2  -3.663144409656525E-1   9.113027453422546E-1  
 5.010000000000000E7    -3.675922453403473E-1   9.151728749275208E-1   1.001790910959244E-1   3.996712341904640E-2   1.001209095120430E-1   3.997274488210678E-2  -3.654990196228027E-1   9.118583798408508E-1  
 5.012000000000000E7    -3.670580387115479E-1   9.152485132217407E-1   1.005403921008110E-1   4.002293944358826E-2   1.004215776920319E-1   4.009275510907173E-2  -3.645190000534058E-1   9.119601845741272E-1  
 5.014000000000000E7    -3.656095266342163E-1   9.152653813362122E-1   1.008830145001411E-1   4.009078070521355E-2   1.008748412132263E-1   4.010415077209473E-2  -3.641056418418884E-1   9.122290015220642E-1  
 5.016000000000000E7    -3.652984499931335E-1   9.160225391387940E-1   1.013438925147057E-1   4.015015438199043E-2   1.013367921113968E-1   4.011449962854385E-2  -3.628251850605011E-1   9.123407006263733E-1  
 5.018000000000000E7    -3.640505969524384E-1   9.163702130317688E-1   1.018497347831726E-1   4.024412855505943E-2   1.017126664519310E-1   4.018257930874825E-2  -3.620956242084503E-1   9.127887487411499E-1  
 5.020000000000000E7    -3.637432157993317E-1   9.162966609001160E-1   1.022453084588051E-1   4.027719050645828E-2   1.022045239806175E-1   4.030554369091988E-2  -3.613275587558746E-1   9.130361080169678E-1  
 5.022000000000000E7    -3.626244366168976E-1   9.162966012954712E-1   1.026560962200165E-1   4.041353240609169E-2   1.025548502802849E-1   4.030878096818924E-2  -3.605918288230896E-1   9.136759042739868E-1  
 5.024000000000000E7    -3.618519008159638E-1   9.169290065765381E-1   1.030902862548828E-1   4.046396911144257E-2   1.030052006244659E-1   4.038360342383385E-2  -3.597661852836609E-1   9.134698510169983E-1  
 5.026000000000000E7    -3.606806695461273E-1   9.170907139778137E-1   1.035322323441505E-1   4.049762710928917E-2   1.034512296319008E-1   4.054433852434158E-2  -3.590087592601776E-1   9.140721559524536E-1  
 5.028000000000000E7    -3.604037463665009E-1   9.172681570053101E-1   1.040014550089836E-1   4.059801623225212E-2   1.038809642195702E-1   4.061722010374069E-2  -3.580118119716644E-1   9.143523573875427E-1  
 5.030000000000000E7    -3.592656850814819E-1   9.175985455513001E-1   1.043917164206505E-1   4.071072489023209E-2   1.043017804622650E-1   4.062605649232864E-2  -3.575389981269836E-1   9.146755337715149E-1  
 5.032000000000000E7    -3.584500551223755E-1   9.177290201187134E-1   1.048268601298332E-1   4.069961979985237E-2   1.047386229038239E-1   4.068205878138542E-2  -3.567559421062470E-1   9.150011539459229E-1  
 5.034000000000000E7    -3.578389585018158E-1   9.180321693420410E-1   1.052610948681831E-1   4.075498878955841E-2   1.051500290632248E-1   4.079660400748253E-2  -3.559595048427582E-1   9.152831435203552E-1  
 5.036000000000000E7    -3.567446172237396E-1   9.180850982666016E-1   1.056218594312668E-1   4.085756093263626E-2   1.055345833301544E-1   4.083257913589478E-2  -3.550609052181244E-1   9.151341915130615E-1  
 5.038000000000000E7    -3.562831878662109E-1   9.185914397239685E-1   1.060622408986092E-1   4.094575718045235E-2   1.059902012348175E-1   4.088595509529114E-2  -3.542174696922302E-1   9.152898788452148E-1  
 5.040000000000000E7    -3.553461134433746E-1   9.186674356460571E-1   1.064988821744919E-1   4.095534980297089E-2   1.064096465706825E-1   4.092153906822205E-2  -3.530337214469910E-1   9.157655835151672E-1  
 5.042000000000000E7    -3.547395467758179E-1   9.192836284637451E-1   1.069397926330566E-1   4.095152020454407E-2   1.068174466490746E-1   4.102405160665512E-2  -3.527218401432037E-1   9.158643484115601E-1  
 5.044000000000000E7    -3.535490036010742E-1   9.193631410598755E-1   1.073656678199768E-1   4.106327891349793E-2   1.072900146245956E-1   4.095234349370003E-2  -3.516333401203156E-1   9.162424206733704E-1  
 5.046000000000000E7    -3.530121445655823E-1   9.196649789810181E-1   1.078052520751953E-1   4.111914336681366E-2   1.077971383929253E-1   4.116591811180115E-2  -3.513391911983490E-1   9.164615869522095E-1  
 5.048000000000000E7    -3.520795106887817E-1   9.199540615081787E-1   1.082585901021957E-1   4.114318639039993E-2   1.082128137350082E-1   4.110815003514290E-2  -3.500745594501495E-1   9.167066812515259E-1  
 5.050000000000000E7    -3.511519134044647E-1   9.199677705764771E-1   1.086495667695999E-1   4.119221866130829E-2   1.084857210516930E-1   4.120301827788353E-2  -3.495554029941559E-1   9.168445467948914E-1  
 5.052000000000000E7    -3.505012094974518E-1   9.202810525894165E-1   1.089808493852615E-1   4.125282540917397E-2   1.089704334735870E-1   4.137362912297249E-2  -3.485538661479950E-1   9.169182181358337E-1  
 5.054000000000000E7    -3.494963049888611E-1   9.208273887634277E-1   1.095178201794624E-1   4.131215065717697E-2   1.094058081507683E-1   4.130524769425392E-2  -3.477360308170319E-1   9.175025224685669E-1  
 5.056000000000000E7    -3.487597405910492E-1   9.209703803062439E-1   1.099422946572304E-1   4.140568152070046E-2   1.097753271460533E-1   4.136046394705772E-2  -3.469190895557404E-1   9.177825450897217E-1  
 5.058000000000000E7    -3.482323884963989E-1   9.210563302040100E-1   1.103282421827316E-1   4.150310531258583E-2   1.102044954895973E-1   4.152840003371239E-2  -3.462364971637726E-1   9.179223775863648E-1  
 5.060000000000000E7    -3.472883701324463E-1   9.216176867485046E-1   1.107883453369141E-1   4.151188582181931E-2   1.107146441936493E-1   4.148500040173531E-2  -3.451812863349915E-1   9.183540940284729E-1  
 5.062000000000000E7    -3.465268909931183E-1   9.217014908790588E-1   1.111704707145691E-1   4.159571602940559E-2   1.110889241099358E-1   4.160988703370094E-2  -3.443827033042908E-1   9.184374809265137E-1  
 5.064000000000000E7    -3.454964160919190E-1   9.217362403869629E-1   1.115759462118149E-1   4.163606464862824E-2   1.114994809031487E-1   4.165264964103699E-2  -3.436471223831177E-1   9.185616970062256E-1  
 5.066000000000000E7    -3.447669446468353E-1   9.220977425575256E-1   1.120815649628639E-1   4.167624935507774E-2   1.119850501418114E-1   4.161957651376724E-2  -3.425858020782471E-1   9.190974235534668E-1  
 5.068000000000000E7    -3.442473709583283E-1   9.223911166191101E-1   1.124687418341637E-1   4.177765548229218E-2   1.124128103256226E-1   4.174858331680298E-2  -3.420480787754059E-1   9.192498922348023E-1  
 5.070000000000000E7    -3.431710004806519E-1   9.224170446395874E-1   1.128293201327324E-1   4.180994257330895E-2   1.127666756510735E-1   4.174847528338432E-2  -3.412837684154511E-1   9.192104935646057E-1  
 5.072000000000000E7    -3.422045111656189E-1   9.228776097297669E-1   1.133132800459862E-1   4.189775139093399E-2   1.132131814956665E-1   4.181937873363495E-2  -3.404983580112457E-1   9.198281764984131E-1  
 5.074000000000000E7    -3.414120972156525E-1   9.231846928596497E-1   1.137318834662437E-1   4.185316711664200E-2   1.136085614562035E-1   4.186107963323593E-2  -3.398784995079041E-1   9.197248816490173E-1  
 5.076000000000000E7    -3.407783508300781E-1   9.232533574104309E-1   1.142117008566856E-1   4.200386628508568E-2   1.141356378793716E-1   4.187933728098869E-2  -3.390450775623322E-1   9.204850196838379E-1  
 5.078000000000000E7    -3.403382003307343E-1   9.235392808914185E-1   1.145082414150238E-1   4.202355071902275E-2   1.144784912467003E-1   4.209482297301292E-2  -3.381763994693756E-1   9.203292131423950E-1  
 5.080000000000000E7    -3.393014371395111E-1   9.234029054641724E-1   1.149184033274651E-1   4.210881143808365E-2   1.148628294467926E-1   4.211885482072830E-2  -3.374556303024292E-1   9.205896854400635E-1  
 5.082000000000000E7    -3.382550776004791E-1   9.238629937171936E-1   1.153480708599091E-1   4.211885482072830E-2   1.153606995940208E-1   4.204186052083969E-2  -3.366040885448456E-1   9.209344983100891E-1  
 5.084000000000000E7    -3.372341394424439E-1   9.241243600845337E-1   1.158559024333954E-1   4.208732768893242E-2   1.158037558197975E-1   4.210277646780014E-2  -3.359483778476715E-1   9.215152859687805E-1  
 5.086000000000000E7    -3.366976082324982E-1   9.242854118347168E-1   1.161695569753647E-1   4.214068129658699E-2   1.161574497818947E-1   4.209366440773010E-2  -3.348414897918701E-1   9.216564297676086E-1  
 5.088000000000000E7    -3.359885513782501E-1   9.247987270355225E-1   1.166505664587021E-1   4.218477755784988E-2   1.165546476840973E-1   4.218301549553871E-2  -3.340359628200531E-1   9.214320778846741E-1  
 5.090000000000000E7    -3.354807198047638E-1   9.247786402702332E-1   1.170522794127464E-1   4.223012179136276E-2   1.169862002134323E-1   4.222312197089195E-2  -3.330824375152588E-1   9.217691421508789E-1  
 5.092000000000000E7    -3.342697024345398E-1   9.251063466072083E-1   1.175485476851463E-1   4.226799681782723E-2   1.174155920743942E-1   4.236651957035065E-2  -3.323740959167481E-1   9.221166372299194E-1  
 5.094000000000000E7    -3.336264193058014E-1   9.254525899887085E-1   1.179593279957771E-1   4.234384745359421E-2   1.179167926311493E-1   4.236899688839912E-2  -3.317005038261414E-1   9.226376414299011E-1  
 5.096000000000000E7    -3.326893746852875E-1   9.253370165824890E-1   1.183033883571625E-1   4.244278743863106E-2   1.182853206992149E-1   4.233807325363159E-2  -3.307913541793823E-1   9.228851199150085E-1  
 5.098000000000000E7    -3.320129811763763E-1   9.259683489799500E-1   1.188321039080620E-1   4.241831973195076E-2   1.187408193945885E-1   4.246241971850395E-2  -3.297016322612763E-1   9.230413436889648E-1  
 5.100000000000000E7    -3.307286798954010E-1   9.259256124496460E-1   1.191827729344368E-1   4.243564978241921E-2   1.191703528165817E-1   4.243969544768333E-2  -3.290831148624420E-1   9.231991767883301E-1  
 5.102000000000000E7    -3.302960991859436E-1   9.260915517807007E-1   1.195749193429947E-1   4.255035892128944E-2   1.194442138075829E-1   4.249795153737068E-2  -3.284881412982941E-1   9.232347011566162E-1  
 5.104000000000000E7    -3.294079899787903E-1   9.267000555992127E-1   1.200023591518402E-1   4.255748167634010E-2   1.200056225061417E-1   4.254011437296867E-2  -3.275724053382874E-1   9.233989119529724E-1  
 5.106000000000000E7    -3.281531035900116E-1   9.267280101776123E-1   1.205124855041504E-1   4.246788099408150E-2   1.203898712992668E-1   4.238718748092651E-2  -3.263612985610962E-1   9.237217307090759E-1  
 5.108000000000000E7    -3.276422023773193E-1   9.269106984138489E-1   1.208784356713295E-1   4.254110902547836E-2   1.208078935742378E-1   4.255466535687447E-2  -3.258442580699921E-1   9.240851402282715E-1  
 5.110000000000000E7    -3.268692791461945E-1   9.273024201393127E-1   1.213973313570023E-1   4.250421747565270E-2   1.212689280509949E-1   4.262618348002434E-2  -3.247799873352051E-1   9.245138168334961E-1  
 5.112000000000000E7    -3.261694312095642E-1   9.272019267082214E-1   1.216498091816902E-1   4.262782633304596E-2   1.216711401939392E-1   4.266558960080147E-2  -3.243345022201538E-1   9.242452979087830E-1  
 5.114000000000000E7    -3.254646062850952E-1   9.278354644775391E-1   1.222051978111267E-1   4.274800047278404E-2   1.220564097166061E-1   4.271389544010162E-2  -3.234387636184692E-1   9.247192144393921E-1  
 5.116000000000000E7    -3.247679471969605E-1   9.278581142425537E-1   1.226168125867844E-1   4.269649088382721E-2   1.224899068474770E-1   4.278094321489334E-2  -3.226335942745209E-1   9.250482916831970E-1  
 5.118000000000000E7    -3.240238726139069E-1   9.276558756828308E-1   1.229372024536133E-1   4.277952015399933E-2   1.228583455085754E-1   4.272320866584778E-2  -3.217877149581909E-1   9.252326488494873E-1  
 5.120000000000000E7    -3.230484426021576E-1   9.283100962638855E-1   1.234749108552933E-1   4.278488084673882E-2   1.233163326978684E-1   4.274726659059525E-2  -3.211160302162170E-1   9.251981973648071E-1  
 5.122000000000000E7    -3.224078714847565E-1   9.285101294517517E-1   1.238034889101982E-1   4.288457706570625E-2   1.236866787075996E-1   4.285405576229096E-2  -3.204933106899262E-1   9.252610206604004E-1  
 5.124000000000000E7    -3.213984668254852E-1   9.283993840217590E-1   1.242267787456513E-1   4.282277449965477E-2   1.241706758737564E-1   4.280975833535194E-2  -3.193220496177673E-1   9.259093999862671E-1  
 5.126000000000000E7    -3.201158940792084E-1   9.288985729217529E-1   1.246819198131561E-1   4.280493780970573E-2   1.245162338018417E-1   4.280694574117661E-2  -3.185392618179321E-1   9.258539080619812E-1  
 5.128000000000000E7    -3.201124966144562E-1   9.292698502540588E-1   1.251130998134613E-1   4.290422424674034E-2   1.250151097774506E-1   4.293665662407875E-2  -3.179087340831757E-1   9.263315796852112E-1  
 5.130000000000000E7    -3.191210329532623E-1   9.296544194221497E-1   1.255505383014679E-1   4.280595853924751E-2   1.254791915416718E-1   4.293456301093102E-2  -3.165360987186432E-1   9.266256690025330E-1  
 5.132000000000000E7    -3.183697462081909E-1   9.297414422035217E-1   1.259579509496689E-1   4.294585809111595E-2   1.258583664894104E-1   4.292339459061623E-2  -3.160595297813416E-1   9.266030192375183E-1  
 5.134000000000000E7    -3.175061941146851E-1   9.296172857284546E-1   1.262761056423187E-1   4.305115714669228E-2   1.262078732252121E-1   4.303177446126938E-2  -3.156678378582001E-1   9.270314574241638E-1  
 5.136000000000000E7    -3.164391517639160E-1   9.299851059913635E-1   1.267627328634262E-1   4.303077980875969E-2   1.268290579319000E-1   4.307418689131737E-2  -3.149767518043518E-1   9.272899627685547E-1  
 5.138000000000000E7    -3.157499134540558E-1   9.303590059280396E-1   1.271768063306809E-1   4.309117048978806E-2   1.271137595176697E-1   4.299965128302574E-2  -3.139421939849854E-1   9.276751875877380E-1  
 5.140000000000000E7    -3.148228228092194E-1   9.303503036499023E-1   1.275614649057388E-1   4.318980500102043E-2   1.275626569986343E-1   4.303114488720894E-2  -3.133054971694946E-1   9.276247024536133E-1  
 5.142000000000000E7    -3.145179748535156E-1   9.308663010597229E-1   1.280540078878403E-1   4.316416755318642E-2   1.279043704271317E-1   4.306023940443993E-2  -3.120944499969482E-1   9.277368187904358E-1  
 5.144000000000000E7    -3.133372664451599E-1   9.307566881179810E-1   1.284030079841614E-1   4.313130304217339E-2   1.283317208290100E-1   4.313284531235695E-2  -3.116161525249481E-1   9.278810024261475E-1  
 5.146000000000000E7    -3.123186528682709E-1   9.308466315269470E-1   1.288138180971146E-1   4.312271624803543E-2   1.286677420139313E-1   4.313984140753746E-2  -3.109647333621979E-1   9.281263351440430E-1  
 5.148000000000000E7    -3.115708529949188E-1   9.309660196304321E-1   1.292329877614975E-1   4.311137273907661E-2   1.291139721870422E-1   4.308347404003143E-2  -3.100869655609131E-1   9.282348155975342E-1  
 5.150000000000000E7    -3.111473023891449E-1   9.316858053207398E-1   1.296685487031937E-1   4.330462217330933E-2   1.295925825834274E-1   4.326263442635536E-2  -3.094710409641266E-1   9.287070035934448E-1  
 5.152000000000000E7    -3.103209733963013E-1   9.316795468330383E-1   1.301411837339401E-1   4.324499145150185E-2   1.300293952226639E-1   4.325615614652634E-2  -3.083003163337708E-1   9.292788505554199E-1  
 5.154000000000000E7    -3.097222447395325E-1   9.317890405654907E-1   1.304629594087601E-1   4.320181161165237E-2   1.304966062307358E-1   4.325864464044571E-2  -3.074897229671478E-1   9.288859963417053E-1  
 5.156000000000000E7    -3.089734911918640E-1   9.323390722274780E-1   1.309030801057816E-1   4.328364133834839E-2   1.308817863464356E-1   4.335107281804085E-2  -3.065690696239471E-1   9.289649128913879E-1  
 5.158000000000000E7    -3.078063428401947E-1   9.323174357414246E-1   1.313585638999939E-1   4.323293268680573E-2   1.312374472618103E-1   4.332365840673447E-2  -3.057676255702972E-1   9.293653368949890E-1  
 5.160000000000000E7    -3.070698976516724E-1   9.324593544006348E-1   1.317634880542755E-1   4.329346492886543E-2   1.316189020872116E-1   4.322757571935654E-2  -3.049256801605225E-1   9.298352599143982E-1  
 5.162000000000000E7    -3.062670826911926E-1   9.325346946716309E-1   1.321983933448792E-1   4.334910586476326E-2   1.321305632591248E-1   4.335374385118485E-2  -3.043656945228577E-1   9.299354553222656E-1  
 5.164000000000000E7    -3.052012622356415E-1   9.329731464385986E-1   1.326044499874115E-1   4.326379671692848E-2   1.324653476476669E-1   4.336017742753029E-2  -3.034550249576569E-1   9.298897385597229E-1  
 5.166000000000000E7    -3.047844171524048E-1   9.328762888908386E-1   1.329874396324158E-1   4.334035888314247E-2   1.328659057617188E-1   4.341318830847740E-2  -3.027126789093018E-1   9.302403926849365E-1  
 5.168000000000000E7    -3.034586012363434E-1   9.334971308708191E-1   1.334185451269150E-1   4.324853047728539E-2   1.334092319011688E-1   4.331478476524353E-2  -3.017679154872894E-1   9.304056167602539E-1  
 5.170000000000000E7    -3.030691742897034E-1   9.335238933563232E-1   1.338218003511429E-1   4.341699182987213E-2   1.337327361106873E-1   4.337177425622940E-2  -3.010664582252502E-1   9.304517507553101E-1  
 5.172000000000000E7    -3.019504845142365E-1   9.335611462593079E-1   1.342450529336929E-1   4.333474487066269E-2   1.341103017330170E-1   4.335869103670120E-2  -3.004128932952881E-1   9.307586550712585E-1  
 5.174000000000000E7    -3.013774752616882E-1   9.342526793479919E-1   1.345903724431992E-1   4.340035468339920E-2   1.345776319503784E-1   4.330058395862579E-2  -2.991749346256256E-1   9.309167265892029E-1  
 5.176000000000000E7    -3.004735708236694E-1   9.343319535255432E-1   1.350363045930862E-1   4.346769303083420E-2   1.349924504756928E-1   4.345025122165680E-2  -2.987321019172669E-1   9.311962723731995E-1  
 5.178000000000000E7    -2.998354136943817E-1   9.341802000999451E-1   1.354769915342331E-1   4.337371513247490E-2   1.353437602519989E-1   4.344574362039566E-2  -2.976785898208618E-1   9.312701821327210E-1  
 5.180000000000000E7    -2.989612817764282E-1   9.343832731246948E-1   1.358135044574738E-1   4.342885315418243E-2   1.358124464750290E-1   4.340445250272751E-2  -2.969412803649902E-1   9.315667748451233E-1  
 5.182000000000000E7    -2.981153428554535E-1   9.344295859336853E-1   1.363527774810791E-1   4.335375502705574E-2   1.362180560827255E-1   4.349184781312943E-2  -2.963739335536957E-1   9.321891069412231E-1  
 5.184000000000000E7    -2.972009181976318E-1   9.349105954170227E-1   1.367394924163818E-1   4.331108927726746E-2   1.365970522165299E-1   4.342761263251305E-2  -2.953341603279114E-1   9.317755103111267E-1  
 5.186000000000000E7    -2.965114414691925E-1   9.350734353065491E-1   1.372048556804657E-1   4.334879666566849E-2   1.370696276426315E-1   4.336103051900864E-2  -2.943895161151886E-1   9.320233464241028E-1  
 5.188000000000000E7    -2.957589924335480E-1   9.350858926773071E-1   1.375484913587570E-1   4.336975514888763E-2   1.374760121107101E-1   4.337778687477112E-2  -2.935792505741119E-1   9.325568079948425E-1  
 5.190000000000000E7    -2.947906851768494E-1   9.353895187377930E-1   1.380164027214050E-1   4.333914443850517E-2   1.379380524158478E-1   4.336386919021606E-2  -2.928514182567596E-1   9.329986572265625E-1  
 5.192000000000000E7    -2.942055761814117E-1   9.357215166091919E-1   1.384006142616272E-1   4.342954978346825E-2   1.383437067270279E-1   4.340422526001930E-2  -2.923227250576019E-1   9.328892827033997E-1  
 5.194000000000000E7    -2.929747402667999E-1   9.355642795562744E-1   1.386622637510300E-1   4.340188205242157E-2   1.386637836694717E-1   4.342149570584297E-2  -2.914151549339294E-1   9.328210949897766E-1  
 5.196000000000000E7    -2.926681935787201E-1   9.360420107841492E-1   1.393029242753983E-1   4.356359690427780E-2   1.391629576683044E-1   4.346995055675507E-2  -2.906729876995087E-1   9.331423044204712E-1  
 5.198000000000000E7    -2.915761172771454E-1   9.361025691032410E-1   1.395958364009857E-1   4.353734105825424E-2   1.396373361349106E-1   4.355336353182793E-2  -2.899642288684845E-1   9.338619709014893E-1  
 5.200000000000000E7    -2.908442616462708E-1   9.362457990646362E-1   1.400932967662811E-1   4.350874200463295E-2   1.399100571870804E-1   4.347592964768410E-2  -2.890072166919708E-1   9.335100054740906E-1  
 5.202000000000000E7    -2.900263965129852E-1   9.362981915473938E-1   1.403651088476181E-1   4.342257604002953E-2   1.403201371431351E-1   4.342730343341827E-2  -2.880527079105377E-1   9.337034225463867E-1  
 5.204000000000000E7    -2.890702784061432E-1   9.369486570358276E-1   1.408529132604599E-1   4.354278743267059E-2   1.408185660839081E-1   4.347063601016998E-2  -2.874648272991180E-1   9.339030981063843E-1  
 5.206000000000000E7    -2.885070741176605E-1   9.370168447494507E-1   1.412349790334702E-1   4.345735162496567E-2   1.411642432212830E-1   4.352261871099472E-2  -2.867275774478912E-1   9.340495467185974E-1  
 5.208000000000000E7    -2.879543602466583E-1   9.371926784515381E-1   1.416385024785996E-1   4.344273358583450E-2   1.416152268648148E-1   4.345010221004486E-2  -2.853991985321045E-1   9.341659545898438E-1  
 5.210000000000000E7    -2.869859933853149E-1   9.374892115592957E-1   1.421878784894943E-1   4.345693439245224E-2   1.420361846685410E-1   4.337503761053085E-2  -2.848955392837524E-1   9.348106980323792E-1  
 5.212000000000000E7    -2.863031923770905E-1   9.372491240501404E-1   1.425606012344360E-1   4.346270114183426E-2   1.424793750047684E-1   4.343461990356445E-2  -2.838690578937531E-1   9.350973963737488E-1  
 5.214000000000000E7    -2.849057614803314E-1   9.374263882637024E-1   1.429531872272492E-1   4.342468455433846E-2   1.428219228982925E-1   4.334727674722672E-2  -2.833207249641419E-1   9.351130127906799E-1  
 5.216000000000000E7    -2.845866680145264E-1   9.378772377967835E-1   1.433230340480804E-1   4.359184950590134E-2   1.432555466890335E-1   4.348235577344894E-2  -2.827818393707275E-1   9.348281025886536E-1  
 5.218000000000000E7    -2.838622331619263E-1   9.379104375839233E-1   1.437538564205170E-1   4.352365806698799E-2   1.436970531940460E-1   4.349654912948608E-2  -2.818443179130554E-1   9.351596236228943E-1  
 5.220000000000000E7    -2.830399572849274E-1   9.379881024360657E-1   1.441397815942764E-1   4.349766671657562E-2   1.441032886505127E-1   4.347531124949455E-2  -2.811135351657867E-1   9.353724122047424E-1  
 5.222000000000000E7    -2.821113765239716E-1   9.384247064590454E-1   1.445754468441010E-1   4.344800114631653E-2   1.445033699274063E-1   4.332392662763596E-2  -2.798993885517120E-1   9.354261755943298E-1  
 5.224000000000000E7    -2.815112471580505E-1   9.389225840568543E-1   1.450752615928650E-1   4.351776838302612E-2   1.450094878673554E-1   4.355511441826820E-2  -2.795495986938477E-1   9.358447194099426E-1  
 5.226000000000000E7    -2.804076373577118E-1   9.386706352233887E-1   1.453930437564850E-1   4.335812479257584E-2   1.452812105417252E-1   4.336107894778252E-2  -2.782284915447235E-1   9.357533454895020E-1  
 5.228000000000000E7    -2.798106372356415E-1   9.388434290885925E-1   1.457708925008774E-1   4.340134561061859E-2   1.456968039274216E-1   4.353263601660729E-2  -2.778135538101196E-1   9.358282089233398E-1  
 5.230000000000000E7    -2.790406346321106E-1   9.392548799514771E-1   1.461637765169144E-1   4.342187196016312E-2   1.460983306169510E-1   4.347179830074310E-2  -2.769527137279511E-1   9.361577630043030E-1  
 5.232000000000000E7    -2.778236269950867E-1   9.388605952262878E-1   1.465478241443634E-1   4.337801784276962E-2   1.465462446212769E-1   4.327208548784256E-2  -2.762410938739777E-1   9.363790154457092E-1  
 5.234000000000000E7    -2.772512137889862E-1   9.391235709190369E-1   1.469799280166626E-1   4.340900853276253E-2   1.469009071588516E-1   4.335821419954300E-2  -2.752283811569214E-1   9.365773200988770E-1  
 5.236000000000000E7    -2.764992117881775E-1   9.398583173751831E-1   1.474738121032715E-1   4.333079233765602E-2   1.474282145500183E-1   4.339995235204697E-2  -2.744460999965668E-1   9.368088245391846E-1  
 5.238000000000000E7    -2.756799161434174E-1   9.396557211875916E-1   1.479237228631973E-1   4.337389394640923E-2   1.478155553340912E-1   4.335014522075653E-2  -2.734813094139099E-1   9.369784593582153E-1  
 5.240000000000000E7    -2.752737402915955E-1   9.395273923873901E-1   1.482483446598053E-1   4.346312209963799E-2   1.481761783361435E-1   4.337553679943085E-2  -2.730439603328705E-1   9.373704791069031E-1  
 5.242000000000000E7    -2.737910449504852E-1   9.398996233940125E-1   1.486508697271347E-1   4.329973086714745E-2   1.485270857810974E-1   4.330740123987198E-2  -2.720750570297241E-1   9.372296929359436E-1  
 5.244000000000000E7    -2.734427452087402E-1   9.401009082794190E-1   1.490533053874970E-1   4.335062950849533E-2   1.489340960979462E-1   4.335975274443626E-2  -2.714883387088776E-1   9.372715353965759E-1  
 5.246000000000000E7    -2.724201083183289E-1   9.403614997863770E-1   1.494020223617554E-1   4.328062385320664E-2   1.493843048810959E-1   4.327882453799248E-2  -2.704488337039948E-1   9.375377297401428E-1  
 5.248000000000000E7    -2.714853584766388E-1   9.403188824653626E-1   1.499582082033157E-1   4.319479316473007E-2   1.498324275016785E-1   4.323167353868485E-2  -2.694023251533508E-1   9.380828142166138E-1  
 5.250000000000000E7    -2.708962261676788E-1   9.407762289047241E-1   1.502386629581451E-1   4.325061291456223E-2   1.502994745969772E-1   4.331146553158760E-2  -2.688523530960083E-1   9.377119541168213E-1  
 5.252000000000000E7    -2.699898779392242E-1   9.408852458000183E-1   1.506049036979675E-1   4.330781847238541E-2   1.506028771400452E-1   4.336313158273697E-2  -2.683165967464447E-1   9.382125735282898E-1  
 5.254000000000000E7    -2.693613767623901E-1   9.411506056785584E-1   1.511719673871994E-1   4.327613860368729E-2   1.512226313352585E-1   4.317523166537285E-2  -2.671920061111450E-1   9.387216567993164E-1  
 5.256000000000000E7    -2.682376503944397E-1   9.413314461708069E-1   1.515631973743439E-1   4.320757091045380E-2   1.515137553215027E-1   4.320599511265755E-2  -2.663720846176148E-1   9.387953281402588E-1  
 5.258000000000000E7    -2.677836120128632E-1   9.412595629692078E-1   1.519461572170258E-1   4.326232895255089E-2   1.518270820379257E-1   4.331589862704277E-2  -2.659666240215302E-1   9.384698867797852E-1  
 5.260000000000000E7    -2.671135067939758E-1   9.411596655845642E-1   1.522310972213745E-1   4.325722903013229E-2   1.522549986839294E-1   4.320817440748215E-2  -2.653723955154419E-1   9.389351010322571E-1  
 5.262000000000000E7    -2.661891877651215E-1   9.415296912193298E-1   1.527300626039505E-1   4.329238831996918E-2   1.527091115713120E-1   4.323387518525124E-2  -2.643794417381287E-1   9.391433596611023E-1  
 5.264000000000000E7    -2.654500603675842E-1   9.418144822120667E-1   1.531240344047546E-1   4.313829541206360E-2   1.530891209840775E-1   4.314418509602547E-2  -2.630596458911896E-1   9.392488598823547E-1  
 5.266000000000000E7    -2.647310793399811E-1   9.418112039566040E-1   1.534723639488220E-1   4.315528646111488E-2   1.534378975629807E-1   4.311148449778557E-2  -2.624226808547974E-1   9.391767382621765E-1  
 5.268000000000000E7    -2.638157308101654E-1   9.421400427818298E-1   1.539321243762970E-1   4.319464415311813E-2   1.539700031280518E-1   4.314867779612541E-2  -2.619743049144745E-1   9.395681619644165E-1  
 5.270000000000000E7    -2.628495097160339E-1   9.424775242805481E-1   1.544343680143356E-1   4.317627474665642E-2   1.542546302080154E-1   4.313567653298378E-2  -2.608921825885773E-1   9.394862651824951E-1  
 5.272000000000000E7    -2.620848715305328E-1   9.424227476119995E-1   1.547667384147644E-1   4.306570440530777E-2   1.546058356761932E-1   4.310689121484757E-2  -2.599994242191315E-1   9.395886659622192E-1  
 5.274000000000000E7    -2.615298926830292E-1   9.425137042999268E-1   1.551356762647629E-1   4.307174682617188E-2   1.551120281219482E-1   4.317653924226761E-2  -2.592396736145020E-1   9.398362636566162E-1  
 5.276000000000000E7    -2.605565786361694E-1   9.427160024642944E-1   1.555872559547424E-1   4.302784800529480E-2   1.554288715124130E-1   4.301992431282997E-2  -2.585398852825165E-1   9.402635693550110E-1  
 5.278000000000000E7    -2.596361637115479E-1   9.427869319915772E-1   1.560257077217102E-1   4.299533739686012E-2   1.558788269758225E-1   4.304821044206619E-2  -2.580767869949341E-1   9.405650496482849E-1  
 5.280000000000000E7    -2.591840624809265E-1   9.434284567832947E-1   1.565255820751190E-1   4.295048117637634E-2   1.565258055925369E-1   4.305254295468330E-2  -2.568519711494446E-1   9.404916167259216E-1  
 5.282000000000000E7    -2.582661807537079E-1   9.433113932609558E-1   1.567566841840744E-1   4.296799749135971E-2   1.568086147308350E-1   4.304550588130951E-2  -2.561191022396088E-1   9.408025741577148E-1  
 5.284000000000000E7    -2.573808133602142E-1   9.436854720115662E-1   1.571845561265945E-1   4.285401105880737E-2   1.571656167507172E-1   4.309507459402084E-2  -2.554356157779694E-1   9.408524632453919E-1  
 5.286000000000000E7    -2.568272650241852E-1   9.438179135322571E-1   1.575451493263245E-1   4.305483400821686E-2   1.575190573930740E-1   4.290564358234406E-2  -2.546886503696442E-1   9.407904148101807E-1  
 5.288000000000000E7    -2.556120157241821E-1   9.437788128852844E-1   1.581430435180664E-1   4.286102950572968E-2   1.579945236444473E-1   4.284186288714409E-2  -2.535270452499390E-1   9.410725831985474E-1  
 5.290000000000000E7    -2.548694312572479E-1   9.437974691390991E-1   1.583871096372604E-1   4.299419745802879E-2   1.584212929010391E-1   4.284528642892838E-2  -2.528097629547119E-1   9.413667321205139E-1  
 5.292000000000000E7    -2.542181015014648E-1   9.440037012100220E-1   1.587577760219574E-1   4.291815683245659E-2   1.589049696922302E-1   4.292423278093338E-2  -2.523261010646820E-1   9.415017962455750E-1  
 5.294000000000000E7    -2.534843683242798E-1   9.443833827972412E-1   1.593113094568253E-1   4.288638755679131E-2   1.592465192079544E-1   4.284637048840523E-2  -2.514661550521851E-1   9.413686394691467E-1  
 5.296000000000000E7    -2.528626918792725E-1   9.443258047103882E-1   1.597212404012680E-1   4.283387213945389E-2   1.595083475112915E-1   4.283313453197479E-2  -2.504537701606751E-1   9.416148066520691E-1  
 5.298000000000000E7    -2.518983781337738E-1   9.445834755897522E-1   1.601261794567108E-1   4.274037852883339E-2   1.599683165550232E-1   4.262643307447434E-2  -2.495533078908920E-1   9.415981769561768E-1  
 5.300000000000000E7    -2.511374950408936E-1   9.445791244506836E-1   1.604329645633698E-1   4.268104210495949E-2   1.604529917240143E-1   4.273546487092972E-2  -2.489931732416153E-1   9.419762492179871E-1  
 5.302000000000000E7    -2.500112056732178E-1   9.451153278350830E-1   1.608185470104218E-1   4.248626530170441E-2   1.608180403709412E-1   4.256992042064667E-2  -2.479807585477829E-1   9.419958591461182E-1  
 5.304000000000000E7    -2.496178746223450E-1   9.447949528694153E-1   1.612259000539780E-1   4.268076270818710E-2   1.611521393060684E-1   4.266106709837914E-2  -2.472436875104904E-1   9.420453310012817E-1  
 5.306000000000000E7    -2.488153576850891E-1   9.451072812080383E-1   1.616034954786301E-1   4.266357049345970E-2   1.616215556859970E-1   4.271851480007172E-2  -2.469573467969894E-1   9.421567320823669E-1  
 5.308000000000000E7    -2.478082329034805E-1   9.449130892753601E-1   1.618868559598923E-1   4.275286570191383E-2   1.619265824556351E-1   4.272232949733734E-2  -2.461436837911606E-1   9.423937797546387E-1  
 5.310000000000000E7    -2.470351755619049E-1   9.454737901687622E-1   1.624846160411835E-1   4.258165508508682E-2   1.624159514904022E-1   4.254182800650597E-2  -2.450892776250839E-1   9.427511096000671E-1  
 5.312000000000000E7    -2.459820806980133E-1   9.455103874206543E-1   1.629464626312256E-1   4.250375926494598E-2   1.628649085760117E-1   4.249466955661774E-2  -2.446351498365402E-1   9.430327415466309E-1  
 5.314000000000000E7    -2.453844398260117E-1   9.452062249183655E-1   1.633013486862183E-1   4.247174039483070E-2   1.631589531898499E-1   4.252783954143524E-2  -2.435282915830612E-1   9.429212808609009E-1  
 5.316000000000000E7    -2.447134107351303E-1   9.455190896987915E-1   1.636324524879456E-1   4.248946160078049E-2   1.635394096374512E-1   4.257223010063171E-2  -2.426019906997681E-1   9.432421922683716E-1  
 5.318000000000000E7    -2.437527179718018E-1   9.459295272827148E-1   1.641251295804977E-1   4.237475991249085E-2   1.641669124364853E-1   4.239570721983910E-2  -2.416919022798538E-1   9.434537291526794E-1  
 5.320000000000000E7    -2.427878081798554E-1   9.458775520324707E-1   1.644025146961212E-1   4.237468540668488E-2   1.644013375043869E-1   4.224174097180367E-2  -2.412239611148834E-1   9.432826042175293E-1  
 5.322000000000000E7    -2.420949786901474E-1   9.460168480873108E-1   1.648094952106476E-1   4.222997650504112E-2   1.648176461458206E-1   4.232350736856461E-2  -2.403493970632553E-1   9.435499310493469E-1  
 5.324000000000000E7    -2.415951341390610E-1   9.463129043579102E-1   1.652401685714722E-1   4.226373508572578E-2   1.652180701494217E-1   4.222910851240158E-2  -2.396104931831360E-1   9.434362053871155E-1  
 5.326000000000000E7    -2.407870739698410E-1   9.468232393264771E-1   1.655901819467545E-1   4.216191172599793E-2   1.655997037887573E-1   4.233514517545700E-2  -2.386749833822250E-1   9.436048269271851E-1  
 5.328000000000000E7    -2.400333732366562E-1   9.466973543167114E-1   1.661795079708099E-1   4.216129332780838E-2   1.660356670618057E-1   4.223795980215073E-2  -2.377785593271256E-1   9.440602064132690E-1  
 5.330000000000000E7    -2.390901595354080E-1   9.469223022460938E-1   1.665914654731751E-1   4.219517111778259E-2   1.665172576904297E-1   4.213138669729233E-2  -2.371071577072144E-1   9.445011019706726E-1  
 5.332000000000000E7    -2.383511811494827E-1   9.467777013778687E-1   1.667819768190384E-1   4.211690649390221E-2   1.668630391359329E-1   4.212923720479012E-2  -2.361007928848267E-1   9.443351030349731E-1  
 5.334000000000000E7    -2.373264431953430E-1   9.470918178558350E-1   1.671680957078934E-1   4.216050356626511E-2   1.672368794679642E-1   4.209007322788239E-2  -2.355399876832962E-1   9.443311095237732E-1  
 5.336000000000000E7    -2.366042286157608E-1   9.470193386077881E-1   1.676543056964874E-1   4.203705489635468E-2   1.675331145524979E-1   4.201012104749680E-2  -2.347332686185837E-1   9.442532062530518E-1  
 5.338000000000000E7    -2.357939928770065E-1   9.470859766006470E-1   1.681478172540665E-1   4.203276336193085E-2   1.680008769035339E-1   4.196597263216972E-2  -2.338891178369522E-1   9.446147680282593E-1  
 5.340000000000000E7    -2.353398799896240E-1   9.473404288291931E-1   1.684071570634842E-1   4.202798008918762E-2   1.684638261795044E-1   4.199867695569992E-2  -2.331147193908691E-1   9.448359012603760E-1  
 5.342000000000000E7    -2.342971116304398E-1   9.475208520889282E-1   1.688287407159805E-1   4.180600121617317E-2   1.688384562730789E-1   4.190597310662270E-2  -2.322001010179520E-1   9.447761178016663E-1  
 5.344000000000000E7    -2.335802912712097E-1   9.475466609001160E-1   1.691467314958572E-1   4.181861877441406E-2   1.692276149988174E-1   4.187821596860886E-2  -2.312093526124954E-1   9.449690580368042E-1  
 5.346000000000000E7    -2.329295873641968E-1   9.476568102836609E-1   1.696360260248184E-1   4.176136478781700E-2   1.695170551538467E-1   4.178990796208382E-2  -2.303301393985748E-1   9.449775218963623E-1  
 5.348000000000000E7    -2.319042831659317E-1   9.481065273284912E-1   1.701007336378098E-1   4.186632484197617E-2   1.701531857252121E-1   4.182171821594238E-2  -2.298199087381363E-1   9.452815651893616E-1  
 5.350000000000000E7    -2.314996719360352E-1   9.476980566978455E-1   1.705627590417862E-1   4.184080660343170E-2   1.703276336193085E-1   4.177699983119965E-2  -2.291913628578186E-1   9.455754756927490E-1  
 5.352000000000000E7    -2.305140793323517E-1   9.482033252716065E-1   1.709393411874771E-1   4.172987118363380E-2   1.708000153303146E-1   4.164440184831619E-2  -2.281875908374786E-1   9.453240036964417E-1  
 5.354000000000000E7    -2.296644002199173E-1   9.482432603836060E-1   1.712268441915512E-1   4.157093167304993E-2   1.711100935935974E-1   4.163011908531189E-2  -2.271333038806915E-1   9.454026818275452E-1  
 5.356000000000000E7    -2.288137823343277E-1   9.483864903450012E-1   1.716038882732391E-1   4.151271656155586E-2   1.715671420097351E-1   4.160597547888756E-2  -2.268102467060089E-1   9.454708695411682E-1  
 5.358000000000000E7    -2.281374931335449E-1   9.484089016914368E-1   1.721378415822983E-1   4.152905941009522E-2   1.720370650291443E-1   4.154957830905914E-2  -2.259899377822876E-1   9.461699724197388E-1  
 5.360000000000000E7    -2.273186445236206E-1   9.486115574836731E-1   1.724735051393509E-1   4.145307838916779E-2   1.722941249608994E-1   4.153420776128769E-2  -2.252528220415115E-1   9.458033442497253E-1  
 5.362000000000000E7    -2.263208180665970E-1   9.485463500022888E-1   1.729338169097900E-1   4.135315120220184E-2   1.727184057235718E-1   4.136895388364792E-2  -2.241511791944504E-1   9.462019801139832E-1  
 5.364000000000000E7    -2.254573702812195E-1   9.491301774978638E-1   1.731974035501480E-1   4.133063182234764E-2   1.732402145862579E-1   4.129450768232346E-2  -2.235086858272553E-1   9.457173943519592E-1  
 5.366000000000000E7    -2.246748208999634E-1   9.487487077713013E-1   1.737265735864639E-1   4.126190021634102E-2   1.736285537481308E-1   4.122059047222138E-2  -2.227114886045456E-1   9.464779496192932E-1  
 5.368000000000000E7    -2.241258770227432E-1   9.494965076446533E-1   1.740875691175461E-1   4.130808264017105E-2   1.741409450769424E-1   4.125637933611870E-2  -2.218201607465744E-1   9.466257691383362E-1  
 5.370000000000000E7    -2.230554819107056E-1   9.488513469696045E-1   1.743810325860977E-1   4.111747071146965E-2   1.743784546852112E-1   4.124748706817627E-2  -2.209375947713852E-1   9.465258717536926E-1  
 5.372000000000000E7    -2.223516851663590E-1   9.491215348243713E-1   1.749286502599716E-1   4.106186330318451E-2   1.746773868799210E-1   4.113078117370606E-2  -2.202823460102081E-1   9.465233683586121E-1  
 5.374000000000000E7    -2.216304987668991E-1   9.490402340888977E-1   1.753148287534714E-1   4.110745340585709E-2   1.750033646821976E-1   4.115679115056992E-2  -2.196169346570969E-1   9.466019272804260E-1  
 5.376000000000000E7    -2.208116799592972E-1   9.496415853500366E-1   1.756922602653503E-1   4.111067950725555E-2   1.756844073534012E-1   4.097949713468552E-2  -2.186564952135086E-1   9.467802643775940E-1  
 5.378000000000000E7    -2.200451195240021E-1   9.496201872825623E-1   1.760953664779663E-1   4.102835804224014E-2   1.759313195943832E-1   4.101409763097763E-2  -2.177351713180542E-1   9.470103979110718E-1  
 5.380000000000000E7    -2.191947251558304E-1   9.499330520629883E-1   1.764538586139679E-1   4.093345627188683E-2   1.764060556888580E-1   4.089941829442978E-2  -2.169947028160095E-1   9.468931555747986E-1  
 5.382000000000000E7    -2.182335853576660E-1   9.498072266578674E-1   1.768396496772766E-1   4.095331579446793E-2   1.767344176769257E-1   4.092671722173691E-2  -2.167262583971024E-1   9.471379518508911E-1  
 5.384000000000000E7    -2.177221328020096E-1   9.501159191131592E-1   1.772752255201340E-1   4.087062180042267E-2   1.772333979606628E-1   4.086701571941376E-2  -2.158978134393692E-1   9.475136399269104E-1  
 5.386000000000000E7    -2.170245349407196E-1   9.499616026878357E-1   1.776268184185028E-1   4.078342020511627E-2   1.776339262723923E-1   4.084575548768044E-2  -2.148654758930206E-1   9.480919241905212E-1  
 5.388000000000000E7    -2.159852534532547E-1   9.504015445709229E-1   1.780827939510346E-1   4.082551971077919E-2   1.781155616044998E-1   4.060944542288780E-2  -2.139766663312912E-1   9.480558633804321E-1  
 5.390000000000000E7    -2.151932120323181E-1   9.507094025611877E-1   1.783881634473801E-1   4.074351489543915E-2   1.783931255340576E-1   4.071114212274551E-2  -2.136419564485550E-1   9.476546645164490E-1  
 5.392000000000000E7    -2.140032202005386E-1   9.506627321243286E-1   1.788541078567505E-1   4.064086824655533E-2   1.788204610347748E-1   4.049291461706162E-2  -2.125565707683563E-1   9.479149580001831E-1  
 5.394000000000000E7    -2.136724293231964E-1   9.504133462905884E-1   1.792088150978088E-1   4.051040858030319E-2   1.790822744369507E-1   4.052603989839554E-2  -2.117035835981369E-1   9.478889703750610E-1  
 5.396000000000000E7    -2.128539532423019E-1   9.507820606231690E-1   1.797350943088532E-1   4.050999134778976E-2   1.796131730079651E-1   4.046778380870819E-2  -2.108774185180664E-1   9.485078454017639E-1  
 5.398000000000000E7    -2.121675759553909E-1   9.507663846015930E-1   1.799649745225906E-1   4.041111469268799E-2   1.799522042274475E-1   4.040034115314484E-2  -2.099100947380066E-1   9.479938149452210E-1  
 5.400000000000000E7    -2.115554362535477E-1   9.506385326385498E-1   1.803936362266541E-1   4.040461778640747E-2   1.802872121334076E-1   4.030038043856621E-2  -2.091985940933228E-1   9.482051134109497E-1  
 5.402000000000000E7    -2.102048993110657E-1   9.511197209358215E-1   1.806870251893997E-1   4.024029895663261E-2   1.806234419345856E-1   4.016704857349396E-2  -2.085199058055878E-1   9.477934837341309E-1  
 5.404000000000000E7    -2.096449583768845E-1   9.509122967720032E-1   1.811558008193970E-1   4.011107236146927E-2   1.811229288578033E-1   4.019249603152275E-2  -2.074334323406220E-1   9.485052227973938E-1  
 5.406000000000000E7    -2.092869430780411E-1   9.513489007949829E-1   1.816205978393555E-1   4.016017913818359E-2   1.815325915813446E-1   4.011292755603790E-2  -2.067645043134689E-1   9.487416148185730E-1  
 5.408000000000000E7    -2.081392407417297E-1   9.514088630676270E-1   1.819312572479248E-1   4.005664214491844E-2   1.818372011184692E-1   3.998501971364021E-2  -2.060621380805969E-1   9.487973451614380E-1  
 5.410000000000000E7    -2.073545306921005E-1   9.516367912292481E-1   1.824989616870880E-1   3.994939476251602E-2   1.822611838579178E-1   4.001855850219727E-2  -2.051908075809479E-1   9.490660429000855E-1  
 5.412000000000000E7    -2.065395861864090E-1   9.510406255722046E-1   1.826970279216766E-1   3.992582857608795E-2   1.826247274875641E-1   3.995503112673760E-2  -2.046589255332947E-1   9.492109417915344E-1  
 5.414000000000000E7    -2.057772874832153E-1   9.516565203666687E-1   1.831949353218079E-1   3.982220962643623E-2   1.830188333988190E-1   3.983204811811447E-2  -2.035964727401733E-1   9.490131139755249E-1  
 5.416000000000000E7    -2.047726362943649E-1   9.514908790588379E-1   1.834062933921814E-1   3.978460282087326E-2   1.833921074867249E-1   3.977148979902268E-2  -2.028450518846512E-1   9.490188360214233E-1  
 5.418000000000000E7    -2.043109536170960E-1   9.513691067695618E-1   1.839043945074081E-1   3.972265869379044E-2   1.837206482887268E-1   3.973420709371567E-2  -2.018600702285767E-1   9.489889144897461E-1  
 5.420000000000000E7    -2.033709734678268E-1   9.518932700157166E-1   1.843923628330231E-1   3.954970836639404E-2   1.843005865812302E-1   3.978962451219559E-2  -2.010930925607681E-1   9.496973752975464E-1  
 5.422000000000000E7    -2.026288360357285E-1   9.519069790840149E-1   1.847828328609467E-1   3.958448022603989E-2   1.846715807914734E-1   3.955703973770142E-2  -2.008345872163773E-1   9.497557282447815E-1  
 5.424000000000000E7    -2.015948891639710E-1   9.519250988960266E-1   1.850996762514114E-1   3.945970535278320E-2   1.849467009305954E-1   3.945279866456986E-2  -1.998589038848877E-1   9.494787454605103E-1  
 5.426000000000000E7    -2.009685337543488E-1   9.521173238754273E-1   1.854847222566605E-1   3.935930132865906E-2   1.853546053171158E-1   3.945869207382202E-2  -1.989216059446335E-1   9.495579004287720E-1  
 5.428000000000000E7    -2.001345306634903E-1   9.522781372070313E-1   1.859188079833984E-1   3.932469338178635E-2   1.858896613121033E-1   3.930607065558434E-2  -1.978510618209839E-1   9.498833417892456E-1  
 5.430000000000000E7    -1.995092481374741E-1   9.525352716445923E-1   1.863745301961899E-1   3.933369740843773E-2   1.861271858215332E-1   3.931910544633865E-2  -1.974537670612335E-1   9.497044682502747E-1  
 5.432000000000000E7    -1.985074132680893E-1   9.524542093276978E-1   1.866064220666885E-1   3.919653967022896E-2   1.866702437400818E-1   3.915537148714066E-2  -1.965528577566147E-1   9.499821662902832E-1  
 5.434000000000000E7    -1.981070488691330E-1   9.526663422584534E-1   1.869808733463287E-1   3.932204097509384E-2   1.871314644813538E-1   3.918563202023506E-2  -1.958723664283752E-1   9.501371979713440E-1  
 5.436000000000000E7    -1.969475299119949E-1   9.524341225624085E-1   1.872885823249817E-1   3.923385962843895E-2   1.872989833354950E-1   3.902092576026917E-2  -1.952446997165680E-1   9.500082731246948E-1  
 5.438000000000000E7    -1.962547153234482E-1   9.524619579315186E-1   1.878199875354767E-1   3.891239687800407E-2   1.877134144306183E-1   3.899237886071205E-2  -1.942820250988007E-1   9.503566622734070E-1  
 5.440000000000000E7    -1.951562762260437E-1   9.528029561042786E-1   1.882232576608658E-1   3.874526917934418E-2   1.881612092256546E-1   3.883803263306618E-2  -1.931447684764862E-1   9.505618214607239E-1  
 5.442000000000000E7    -1.946272253990173E-1   9.525954723358154E-1   1.884723156690598E-1   3.885924071073532E-2   1.885243654251099E-1   3.900538384914398E-2  -1.931158155202866E-1   9.503856301307678E-1  
 5.444000000000000E7    -1.937516033649445E-1   9.526919126510620E-1   1.889192461967468E-1   3.871070221066475E-2   1.889099776744843E-1   3.875939920544624E-2  -1.918039619922638E-1   9.504702687263489E-1  
 5.446000000000000E7    -1.931166052818298E-1   9.530106186866760E-1   1.893056333065033E-1   3.873117268085480E-2   1.891303211450577E-1   3.879261016845703E-2  -1.912521272897720E-1   9.506173729896545E-1  
 5.448000000000000E7    -1.921999305486679E-1   9.529882669448853E-1   1.897050142288208E-1   3.868756443262100E-2   1.896624863147736E-1   3.861607611179352E-2  -1.904937177896500E-1   9.506485462188721E-1  
 5.450000000000000E7    -1.911917924880981E-1   9.532091021537781E-1   1.902247965335846E-1   3.834014385938644E-2   1.900393515825272E-1   3.855603188276291E-2  -1.895664483308792E-1   9.508787989616394E-1  
 5.452000000000000E7    -1.906955540180206E-1   9.533547163009644E-1   1.906042993068695E-1   3.828871250152588E-2   1.905514895915985E-1   3.855640813708305E-2  -1.884824633598328E-1   9.508834481239319E-1  
 5.454000000000000E7    -1.901524215936661E-1   9.532066583633423E-1   1.908787786960602E-1   3.830409049987793E-2   1.908306777477264E-1   3.832201659679413E-2  -1.877764165401459E-1   9.512359499931335E-1  
 5.456000000000000E7    -1.894898414611816E-1   9.536859393119812E-1   1.913573443889618E-1   3.830012306571007E-2   1.913491934537888E-1   3.829862549901009E-2  -1.869874298572540E-1   9.509238600730896E-1  
 5.458000000000000E7    -1.883387416601181E-1   9.538031816482544E-1   1.918109059333801E-1   3.809542208909988E-2   1.917456984519959E-1   3.812295570969582E-2  -1.863361448049545E-1   9.513357877731323E-1  
 5.460000000000000E7    -1.876115351915360E-1   9.534044861793518E-1   1.919942349195480E-1   3.813553601503372E-2   1.920646727085114E-1   3.803128376603127E-2  -1.857211738824844E-1   9.512769579887390E-1  
 5.462000000000000E7    -1.867615431547165E-1   9.536342620849609E-1   1.924986988306046E-1   3.792631998658180E-2   1.924793571233749E-1   3.811596333980560E-2  -1.847662031650543E-1   9.511242508888245E-1  
 5.464000000000000E7    -1.861480325460434E-1   9.540297389030457E-1   1.931016594171524E-1   3.787855058908463E-2   1.928483247756958E-1   3.793457895517349E-2  -1.835405975580216E-1   9.514103531837463E-1  
 5.466000000000000E7    -1.854370385408402E-1   9.538831114768982E-1   1.932860165834427E-1   3.791933506727219E-2   1.932308971881867E-1   3.798215836286545E-2  -1.833135783672333E-1   9.512315392494202E-1  
 5.468000000000000E7    -1.842905431985855E-1   9.538106918334961E-1   1.936976164579392E-1   3.773300722241402E-2   1.934897005558014E-1   3.784422576427460E-2  -1.820068508386612E-1   9.514222741127014E-1  
 5.470000000000000E7    -1.837296783924103E-1   9.543545842170715E-1   1.940034627914429E-1   3.776146471500397E-2   1.941529959440231E-1   3.771131113171578E-2  -1.816357225179672E-1   9.516889452934265E-1  
 5.472000000000000E7    -1.827681064605713E-1   9.542393088340759E-1   1.942452490329742E-1   3.771195560693741E-2   1.944018602371216E-1   3.755679726600647E-2  -1.809449344873428E-1   9.515226483345032E-1  
 5.474000000000000E7    -1.822786182165146E-1   9.542195200920105E-1   1.947669684886932E-1   3.753038495779038E-2   1.947258710861206E-1   3.750660270452499E-2  -1.797332018613815E-1   9.516707062721252E-1  
 5.476000000000000E7    -1.813492178916931E-1   9.544301033020020E-1   1.952515393495560E-1   3.736657276749611E-2   1.950362920761108E-1   3.741447627544403E-2  -1.789883226156235E-1   9.514290094375610E-1  
 5.478000000000000E7    -1.803380101919174E-1   9.539402127265930E-1   1.955202668905258E-1   3.733841702342033E-2   1.956030428409576E-1   3.743149340152741E-2  -1.785622835159302E-1   9.520376920700073E-1  
 5.480000000000000E7    -1.795600801706314E-1   9.543901085853577E-1   1.960785835981369E-1   3.713785856962204E-2   1.958663314580917E-1   3.714819997549057E-2  -1.772136390209198E-1   9.521263837814331E-1  
 5.482000000000000E7    -1.789827793836594E-1   9.545367956161499E-1   1.963032484054565E-1   3.721494972705841E-2   1.962701380252838E-1   3.731895610690117E-2  -1.770963370800018E-1   9.520627856254578E-1  
 5.484000000000000E7    -1.781295388936997E-1   9.548418521881104E-1   1.966935694217682E-1   3.704056888818741E-2   1.965738385915756E-1   3.693826869130135E-2  -1.758845299482346E-1   9.520174860954285E-1  
 5.486000000000000E7    -1.775262653827667E-1   9.546263813972473E-1   1.971565186977387E-1   3.694245219230652E-2   1.969850510358810E-1   3.692874312400818E-2  -1.751087754964829E-1   9.521745443344116E-1  
 5.488000000000000E7    -1.766807585954666E-1   9.546917080879211E-1   1.975119709968567E-1   3.684324771165848E-2   1.973719894886017E-1   3.681994229555130E-2  -1.743709146976471E-1   9.525369405746460E-1  
 5.490000000000000E7    -1.759684830904007E-1   9.547223448753357E-1   1.979175806045532E-1   3.668716549873352E-2   1.977587640285492E-1   3.678809106349945E-2  -1.736685335636139E-1   9.521204233169556E-1  
 5.492000000000000E7    -1.751203835010529E-1   9.552720785140991E-1   1.983226686716080E-1   3.673556447029114E-2   1.983238905668259E-1   3.674636036157608E-2  -1.731243431568146E-1   9.526140093803406E-1  
 5.494000000000000E7    -1.747711300849915E-1   9.547020196914673E-1   1.986150443553925E-1   3.666247054934502E-2   1.986102610826492E-1   3.674486279487610E-2  -1.721426397562027E-1   9.527745842933655E-1  
 5.496000000000000E7    -1.735117137432098E-1   9.547758698463440E-1   1.990369856357575E-1   3.645219653844833E-2   1.989459693431854E-1   3.649691119790077E-2  -1.711836010217667E-1   9.529819488525391E-1  
 5.498000000000000E7    -1.732185482978821E-1   9.549337625503540E-1   1.994976103305817E-1   3.662826493382454E-2   1.992452293634415E-1   3.663067892193794E-2  -1.707446277141571E-1   9.527496099472046E-1  
 5.500000000000000E7    -1.716199517250061E-1   9.552417993545532E-1   1.998368203639984E-1   3.613131865859032E-2   1.997453272342682E-1   3.632608056068420E-2  -1.698405146598816E-1   9.526273012161255E-1  
 5.502000000000000E7    -1.710298806428909E-1   9.555516242980957E-1   2.003111541271210E-1   3.631211072206497E-2   2.001816034317017E-1   3.632126748561859E-2  -1.690536290407181E-1   9.530199170112610E-1  
 5.504000000000000E7    -1.701753586530685E-1   9.552513957023621E-1   2.005324810743332E-1   3.617185354232788E-2   2.006016373634338E-1   3.606081753969193E-2  -1.682323217391968E-1   9.529594779014587E-1  
 5.506000000000000E7    -1.692671328783035E-1   9.553574323654175E-1   2.010050415992737E-1   3.607694059610367E-2   2.009086608886719E-1   3.593085706233978E-2  -1.674498617649078E-1   9.531210064888001E-1  
 5.508000000000000E7    -1.687694489955902E-1   9.554952383041382E-1   2.014892995357513E-1   3.602398186922073E-2   2.013512253761292E-1   3.603284806013107E-2  -1.667329519987106E-1   9.530524611473084E-1  
 5.510000000000000E7    -1.679953932762146E-1   9.551041126251221E-1   2.017048299312592E-1   3.587932884693146E-2   2.015483975410461E-1   3.578462824225426E-2  -1.659070402383804E-1   9.532307982444763E-1  
 5.512000000000000E7    -1.671271771192551E-1   9.557510614395142E-1   2.021606415510178E-1   3.584048897027969E-2   2.021614462137222E-1   3.563763573765755E-2  -1.651390641927719E-1   9.534632563591003E-1  
 5.514000000000000E7    -1.665965914726257E-1   9.558184742927551E-1   2.025755792856216E-1   3.579822182655335E-2   2.026149928569794E-1   3.576591610908508E-2  -1.644554883241653E-1   9.534992575645447E-1  
 5.516000000000000E7    -1.655471473932266E-1   9.558872580528259E-1   2.029973864555359E-1   3.564744815230370E-2   2.028525173664093E-1   3.563084453344345E-2  -1.637592464685440E-1   9.535754919052124E-1  
 5.518000000000000E7    -1.650967299938202E-1   9.557626247406006E-1   2.032832056283951E-1   3.547149151563644E-2   2.030105739831924E-1   3.550247102975845E-2  -1.628081351518631E-1   9.530091285705566E-1  
 5.520000000000000E7    -1.642324328422546E-1   9.561416506767273E-1   2.037531435489655E-1   3.531451523303986E-2   2.036810666322708E-1   3.521633893251419E-2  -1.617983579635620E-1   9.535107016563416E-1  
 5.522000000000000E7    -1.633898168802261E-1   9.563007354736328E-1   2.041374593973160E-1   3.521764278411865E-2   2.041285634040833E-1   3.529387712478638E-2  -1.610407382249832E-1   9.534707069396973E-1  
 5.524000000000000E7    -1.623930186033249E-1   9.560507535934448E-1   2.043206989765167E-1   3.528494760394096E-2   2.044371217489243E-1   3.515725582838059E-2  -1.607004553079605E-1   9.535775184631348E-1  
 5.526000000000000E7    -1.619677692651749E-1   9.558506608009338E-1   2.047157734632492E-1   3.519339114427567E-2   2.045868784189224E-1   3.502363711595535E-2  -1.593987345695496E-1   9.534925818443298E-1  
 5.528000000000000E7    -1.608787328004837E-1   9.562730789184570E-1   2.051913738250732E-1   3.485960513353348E-2   2.051204741001129E-1   3.492197394371033E-2  -1.587906628847122E-1   9.537258744239807E-1  
 5.530000000000000E7    -1.600361019372940E-1   9.561555385589600E-1   2.055297493934631E-1   3.503467515110970E-2   2.055150866508484E-1   3.488674387335777E-2  -1.580777466297150E-1   9.538342952728272E-1  
 5.532000000000000E7    -1.593367457389832E-1   9.561450481414795E-1   2.059493064880371E-1   3.468752652406693E-2   2.059479355812073E-1   3.474129736423492E-2  -1.572255045175552E-1   9.541552066802979E-1  
 5.534000000000000E7    -1.585767269134522E-1   9.566994905471802E-1   2.064392417669296E-1   3.460580855607987E-2   2.064504325389862E-1   3.477801382541657E-2  -1.562832891941071E-1   9.539740085601807E-1  
 5.536000000000000E7    -1.577954441308975E-1   9.565096497535706E-1   2.067450731992722E-1   3.443600609898567E-2   2.066974639892578E-1   3.448387980461121E-2  -1.557187438011169E-1   9.539533257484436E-1  
 5.538000000000000E7    -1.569734513759613E-1   9.565094113349915E-1   2.070344239473343E-1   3.440156579017639E-2   2.069958448410034E-1   3.464630246162415E-2  -1.549817025661469E-1   9.540413618087769E-1  
 5.540000000000000E7    -1.561776995658875E-1   9.567752480506897E-1   2.076278179883957E-1   3.428211063146591E-2   2.074995636940002E-1   3.431957960128784E-2  -1.540653258562088E-1   9.543053507804871E-1  
 5.542000000000000E7    -1.556008011102676E-1   9.565879702568054E-1   2.079433798789978E-1   3.432007879018784E-2   2.078200429677963E-1   3.426264226436615E-2  -1.532361507415772E-1   9.541735053062439E-1  
 5.544000000000000E7    -1.542866230010986E-1   9.569281339645386E-1   2.083690315485001E-1   3.395495563745499E-2   2.082314193248749E-1   3.396715968847275E-2  -1.525676995515823E-1   9.540782570838928E-1  
 5.546000000000000E7    -1.540639698505402E-1   9.568062424659729E-1   2.086250036954880E-1   3.395223617553711E-2   2.085248976945877E-1   3.393112868070602E-2  -1.515500098466873E-1   9.540517926216126E-1  
 5.548000000000000E7    -1.530016064643860E-1   9.572570323944092E-1   2.091166526079178E-1   3.389297798275948E-2   2.089860886335373E-1   3.373166546225548E-2  -1.511829644441605E-1   9.542129039764404E-1  
 5.550000000000000E7    -1.525262892246246E-1   9.566798210144043E-1   2.092655748128891E-1   3.384968265891075E-2   2.092585265636444E-1   3.380765020847321E-2  -1.502398848533630E-1   9.544517993927002E-1  
 5.552000000000000E7    -1.512460559606552E-1   9.567400813102722E-1   2.097105085849762E-1   3.359172493219376E-2   2.096268981695175E-1   3.359252214431763E-2  -1.492147594690323E-1   9.546614885330200E-1  
 5.554000000000000E7    -1.505225151777268E-1   9.569488763809204E-1   2.101759016513825E-1   3.347032517194748E-2   2.100624591112137E-1   3.344207257032394E-2  -1.485253274440765E-1   9.548053741455078E-1  
 5.556000000000000E7    -1.499045640230179E-1   9.567825198173523E-1   2.105101346969605E-1   3.334110230207443E-2   2.104012370109558E-1   3.344981744885445E-2  -1.476719081401825E-1   9.546957015991211E-1  
 5.558000000000000E7    -1.487717479467392E-1   9.570096731185913E-1   2.109343409538269E-1   3.322115540504456E-2   2.109230756759644E-1   3.327836841344833E-2  -1.467900127172470E-1   9.549201726913452E-1  
 5.560000000000000E7    -1.484096795320511E-1   9.572546482086182E-1   2.114804387092590E-1   3.324997052550316E-2   2.112760841846466E-1   3.325694054365158E-2  -1.463581621646881E-1   9.546731114387512E-1  
 5.562000000000000E7    -1.477599442005158E-1   9.572506546974182E-1   2.116444259881973E-1   3.300012275576592E-2   2.115995883941650E-1   3.320658951997757E-2  -1.454088538885117E-1   9.547225236892700E-1  
 5.564000000000000E7    -1.468119770288467E-1   9.569969773292542E-1   2.121019810438156E-1   3.303648903965950E-2   2.119402438402176E-1   3.296976909041405E-2  -1.442403346300125E-1   9.548027515411377E-1  
 5.566000000000000E7    -1.461732387542725E-1   9.571368098258972E-1   2.123612463474274E-1   3.289799019694328E-2   2.121237218379974E-1   3.297454118728638E-2  -1.440556645393372E-1   9.546687602996826E-1  
 5.568000000000000E7    -1.452353149652481E-1   9.572489261627197E-1   2.126421779394150E-1   3.266164660453796E-2   2.124978005886078E-1   3.276564925909042E-2  -1.431985199451447E-1   9.546423554420471E-1  
 5.570000000000000E7    -1.446154564619064E-1   9.574779868125916E-1   2.131899297237396E-1   3.278706595301628E-2   2.130959779024124E-1   3.267497941851616E-2  -1.422694474458695E-1   9.549593925476074E-1  
 5.572000000000000E7    -1.435054391622543E-1   9.574694633483887E-1   2.135080993175507E-1   3.254088386893272E-2   2.134592384099960E-1   3.257744014263153E-2  -1.415850371122360E-1   9.547789096832275E-1  
 5.574000000000000E7    -1.429027765989304E-1   9.571856260299683E-1   2.137792706489563E-1   3.241423517465591E-2   2.138043195009232E-1   3.244519233703613E-2  -1.408184319734573E-1   9.548366665840149E-1  
 5.576000000000000E7    -1.421030312776566E-1   9.573333859443665E-1   2.144987434148789E-1   3.226706013083458E-2   2.143088132143021E-1   3.227941319346428E-2  -1.402270346879959E-1   9.553241133689880E-1  
 5.578000000000000E7    -1.415103077888489E-1   9.576202034950256E-1   2.147006839513779E-1   3.204540908336639E-2   2.145471721887589E-1   3.212219476699829E-2  -1.390468776226044E-1   9.554268121719360E-1  
 5.580000000000000E7    -1.404176205396652E-1   9.574264883995056E-1   2.149142324924469E-1   3.199224546551704E-2   2.149023711681366E-1   3.206120803952217E-2  -1.382049322128296E-1   9.551780819892883E-1  
 5.582000000000000E7    -1.398207545280457E-1   9.572860002517700E-1   2.153319418430328E-1   3.187621757388115E-2   2.151951938867569E-1   3.187554329633713E-2  -1.379542052745819E-1   9.547708630561829E-1  
 5.584000000000000E7    -1.392140239477158E-1   9.576386809349060E-1   2.157676368951798E-1   3.190370649099350E-2   2.157791405916214E-1   3.188880532979965E-2  -1.370264142751694E-1   9.551193714141846E-1  
 5.586000000000000E7    -1.380794495344162E-1   9.578860402107239E-1   2.164144665002823E-1   3.171819821000099E-2   2.162801325321198E-1   3.164975345134735E-2  -1.360339224338532E-1   9.551156163215637E-1  
 5.588000000000000E7    -1.371291130781174E-1   9.573955535888672E-1   2.164208143949509E-1   3.152982890605927E-2   2.165044248104096E-1   3.165850788354874E-2  -1.356161534786224E-1   9.551429748535156E-1  
 5.590000000000000E7    -1.367357820272446E-1   9.575564861297607E-1   2.167862951755524E-1   3.143045306205750E-2   2.167969644069672E-1   3.148268535733223E-2  -1.346787959337235E-1   9.551210403442383E-1  
 5.592000000000000E7    -1.359474062919617E-1   9.577384591102600E-1   2.172487527132034E-1   3.140262141823769E-2   2.170053422451019E-1   3.139560669660568E-2  -1.337385475635529E-1   9.551836252212524E-1  
 5.594000000000000E7    -1.351693868637085E-1   9.579878449440002E-1   2.177992463111877E-1   3.128504008054733E-2   2.176135927438736E-1   3.105558827519417E-2  -1.326617598533630E-1   9.551488161087036E-1  
 5.596000000000000E7    -1.343425214290619E-1   9.580197334289551E-1   2.179283797740936E-1   3.116276673972607E-2   2.180542796850205E-1   3.112119995057583E-2  -1.323968172073364E-1   9.553334116935730E-1  
 5.598000000000000E7    -1.334141790866852E-1   9.581054449081421E-1   2.185042500495911E-1   3.075521625578404E-2   2.185759693384171E-1   3.095660358667374E-2  -1.309009939432144E-1   9.556996822357178E-1  
 5.600000000000000E7    -1.328831017017365E-1   9.576110243797302E-1   2.187263518571854E-1   3.092201240360737E-2   2.186566293239594E-1   3.082321956753731E-2  -1.305886507034302E-1   9.557467103004456E-1  
 5.602000000000000E7    -1.317189931869507E-1   9.575951695442200E-1   2.190240174531937E-1   3.070802055299282E-2   2.190508693456650E-1   3.059007413685322E-2  -1.299148648977280E-1   9.554135203361511E-1  
 5.604000000000000E7    -1.309755146503449E-1   9.576477408409119E-1   2.193193733692169E-1   3.058061003684998E-2   2.194971442222595E-1   3.045546449720860E-2  -1.289439201354981E-1   9.556062221527100E-1  
 5.606000000000000E7    -1.303002536296845E-1   9.579872488975525E-1   2.198503762483597E-1   3.042516298592091E-2   2.197305560112000E-1   3.044240921735764E-2  -1.282661557197571E-1   9.557058215141296E-1  
 5.608000000000000E7    -1.295911073684692E-1   9.579395055770874E-1   2.203036993741989E-1   3.019206598401070E-2   2.201429754495621E-1   3.044271469116211E-2  -1.274731308221817E-1   9.555559158325195E-1  
 5.610000000000000E7    -1.287249922752380E-1   9.579687714576721E-1   2.207486033439636E-1   3.025818057358265E-2   2.206130027770996E-1   3.025528416037560E-2  -1.266284286975861E-1   9.557594656944275E-1  
 5.612000000000000E7    -1.280266642570496E-1   9.578374624252319E-1   2.208342552185059E-1   3.001796640455723E-2   2.208884507417679E-1   3.020751103758812E-2  -1.260460317134857E-1   9.554428458213806E-1  
 5.614000000000000E7    -1.276617497205734E-1   9.583269357681274E-1   2.213258147239685E-1   2.981658466160297E-2   2.213905453681946E-1   2.997006475925446E-2  -1.249189749360085E-1   9.556609988212585E-1  
 5.616000000000000E7    -1.265018135309219E-1   9.579934477806091E-1   2.215223014354706E-1   2.970603667199612E-2   2.214795351028442E-1   2.980468422174454E-2  -1.245240569114685E-1   9.553481340408325E-1  
 5.618000000000000E7    -1.255668848752976E-1   9.577654600143433E-1   2.221462428569794E-1   2.972561493515968E-2   2.219552099704742E-1   2.958655543625355E-2  -1.235093548893929E-1   9.557411074638367E-1  
 5.620000000000000E7    -1.249468550086021E-1   9.584434032440186E-1   2.224429845809937E-1   2.957640588283539E-2   2.223830968141556E-1   2.987887151539326E-2  -1.232126355171204E-1   9.558808207511902E-1  
 5.622000000000000E7    -1.243204921483994E-1   9.583125114440918E-1   2.229391932487488E-1   2.943725138902664E-2   2.228573858737946E-1   2.943244390189648E-2  -1.218037456274033E-1   9.557520747184753E-1  
 5.624000000000000E7    -1.232223063707352E-1   9.583038091659546E-1   2.230910509824753E-1   2.906772494316101E-2   2.231594920158386E-1   2.918989583849907E-2  -1.211969405412674E-1   9.555098414421082E-1  
 5.626000000000000E7    -1.224667578935623E-1   9.585173726081848E-1   2.234356850385666E-1   2.914986573159695E-2   2.233835458755493E-1   2.924038097262383E-2  -1.207131296396256E-1   9.555157423019409E-1  
 5.628000000000000E7    -1.218657195568085E-1   9.580892920494080E-1   2.239403873682022E-1   2.924503199756146E-2   2.238115668296814E-1   2.904818952083588E-2  -1.195386499166489E-1   9.559846520423889E-1  
 5.630000000000000E7    -1.210395321249962E-1   9.578227996826172E-1   2.241501808166504E-1   2.884359471499920E-2   2.240515500307083E-1   2.879435196518898E-2  -1.187745928764343E-1   9.558265805244446E-1  
 5.632000000000000E7    -1.201706975698471E-1   9.585455656051636E-1   2.247696965932846E-1   2.879445441067219E-2   2.246683537960053E-1   2.886772528290749E-2  -1.179569959640503E-1   9.557913541793823E-1  
 5.634000000000000E7    -1.195926442742348E-1   9.584596753120422E-1   2.249319106340408E-1   2.866340242326260E-2   2.248903065919876E-1   2.872615307569504E-2  -1.174993216991425E-1   9.556813836097717E-1  
 5.636000000000000E7    -1.188573315739632E-1   9.584431648254395E-1   2.253774106502533E-1   2.864171378314495E-2   2.253796756267548E-1   2.849694527685642E-2  -1.166602298617363E-1   9.561091661453247E-1  
 5.638000000000000E7    -1.180081665515900E-1   9.584140181541443E-1   2.257019281387329E-1   2.838635444641113E-2   2.256606072187424E-1   2.836105599999428E-2  -1.157852262258530E-1   9.560204148292542E-1  
 5.640000000000000E7    -1.173189058899880E-1   9.582939147949219E-1   2.260970920324326E-1   2.828307822346687E-2   2.260350286960602E-1   2.812702581286430E-2  -1.150756627321243E-1   9.558367133140564E-1  
 5.642000000000000E7    -1.165008246898651E-1   9.584108591079712E-1   2.265750020742416E-1   2.813997678458691E-2   2.263626754283905E-1   2.807431481778622E-2  -1.144861578941345E-1   9.562713503837585E-1  
 5.644000000000000E7    -1.154548227787018E-1   9.581738710403442E-1   2.267631143331528E-1   2.783645689487457E-2   2.266824096441269E-1   2.798667922616005E-2  -1.138174682855606E-1   9.558222889900208E-1  
 5.646000000000000E7    -1.147093400359154E-1   9.583433866500855E-1   2.270714640617371E-1   2.784519828855991E-2   2.271115034818649E-1   2.770406194031239E-2  -1.128654181957245E-1   9.558888077735901E-1  
 5.648000000000000E7    -1.138971149921417E-1   9.585358500480652E-1   2.276122868061066E-1   2.757706493139267E-2   2.276459038257599E-1   2.759984135627747E-2  -1.119266822934151E-1   9.563336372375488E-1  
 5.650000000000000E7    -1.134216934442520E-1   9.583230018615723E-1   2.279756516218185E-1   2.754534967243671E-2   2.278851717710495E-1   2.748513035476208E-2  -1.111471578478813E-1   9.560151696205139E-1  
 5.652000000000000E7    -1.118676215410233E-1   9.583563804626465E-1   2.282862812280655E-1   2.740982733666897E-2   2.281797230243683E-1   2.714142575860024E-2  -1.101558506488800E-1   9.559724926948547E-1  
 5.654000000000000E7    -1.117162257432938E-1   9.587930440902710E-1   2.287168800830841E-1   2.745043858885765E-2   2.287453413009644E-1   2.740292996168137E-2  -1.098946854472160E-1   9.561464190483093E-1  
 5.656000000000000E7    -1.110484898090363E-1   9.585231542587280E-1   2.290165424346924E-1   2.701364085078239E-2   2.289363145828247E-1   2.711468748748303E-2  -1.084540709853172E-1   9.561374783515930E-1  
 5.658000000000000E7    -1.102553978562355E-1   9.584756493568420E-1   2.291575968265533E-1   2.689770981669426E-2   2.292781472206116E-1   2.705392241477966E-2  -1.078678816556931E-1   9.556324481964111E-1  
 5.660000000000000E7    -1.092862784862518E-1   9.587017297744751E-1   2.297079712152481E-1   2.673370018601418E-2   2.296544164419174E-1   2.692284248769283E-2  -1.074549853801727E-1   9.557470083236694E-1  
 5.662000000000000E7    -1.087718605995178E-1   9.585783481597900E-1   2.302041351795197E-1   2.656931430101395E-2   2.300910949707031E-1   2.656083367764950E-2  -1.063281968235970E-1   9.562900066375732E-1  
 5.664000000000000E7    -1.081526726484299E-1   9.579600095748901E-1   2.304359674453735E-1   2.643335610628128E-2   2.302991598844528E-1   2.658394537866116E-2  -1.058218777179718E-1   9.562809467315674E-1  
 5.666000000000000E7    -1.072959080338478E-1   9.584583640098572E-1   2.309418618679047E-1   2.630479447543621E-2   2.307202070951462E-1   2.648060210049152E-2  -1.050440892577171E-1   9.562653899192810E-1  
 5.668000000000000E7    -1.063918024301529E-1   9.585829973220825E-1   2.314276248216629E-1   2.630751579999924E-2   2.309780567884445E-1   2.636330574750900E-2  -1.043023467063904E-1   9.562069177627564E-1  
 5.670000000000000E7    -1.059059649705887E-1   9.586635828018189E-1   2.315142154693604E-1   2.619113214313984E-2   2.314676195383072E-1   2.611420303583145E-2  -1.034021750092506E-1   9.564225077629089E-1  
 5.672000000000000E7    -1.049349159002304E-1   9.585117101669312E-1   2.320156097412109E-1   2.593040652573109E-2   2.318957448005676E-1   2.586294151842594E-2  -1.024885699152947E-1   9.562358260154724E-1  
 5.674000000000000E7    -1.040151640772820E-1   9.586604237556458E-1   2.322967052459717E-1   2.581831440329552E-2   2.324470877647400E-1   2.569662779569626E-2  -1.016881316900253E-1   9.560958147048950E-1  
 5.676000000000000E7    -1.030349284410477E-1   9.584704637527466E-1   2.326694130897522E-1   2.561252936720848E-2   2.326159924268723E-1   2.569171227514744E-2  -1.010503098368645E-1   9.563633799552918E-1  
 5.678000000000000E7    -1.026258468627930E-1   9.586307406425476E-1   2.328841239213944E-1   2.545823901891708E-2   2.329991459846497E-1   2.559368498623371E-2  -1.002330332994461E-1   9.561637639999390E-1  
 5.680000000000000E7    -1.017503887414932E-1   9.581691622734070E-1   2.333563864231110E-1   2.526342868804932E-2   2.332203686237335E-1   2.529339306056500E-2  -9.958881139755249E-2   9.563530087471008E-1  
 5.682000000000000E7    -1.010988056659699E-1   9.585829377174377E-1   2.337241619825363E-1   2.528263628482819E-2   2.336876392364502E-1   2.526312135159969E-2  -9.886282682418823E-2   9.563967585563660E-1  
 5.684000000000000E7    -1.000015586614609E-1   9.587754011154175E-1   2.342025935649872E-1   2.501069568097591E-2   2.340127378702164E-1   2.502914890646935E-2  -9.802077710628510E-2   9.561374783515930E-1  
 5.686000000000000E7    -9.922771155834198E-2   9.582658410072327E-1   2.345961481332779E-1   2.492477744817734E-2   2.343936413526535E-1   2.492972649633884E-2  -9.727088361978531E-2   9.563975930213928E-1  
 5.688000000000000E7    -9.869930148124695E-2   9.589298367500305E-1   2.349532991647720E-1   2.469846978783608E-2   2.347754538059235E-1   2.480052225291729E-2  -9.628416597843170E-2   9.560995697975159E-1  
 5.690000000000000E7    -9.761644899845123E-2   9.587408900260925E-1   2.353263348340988E-1   2.464387193322182E-2   2.353478819131851E-1   2.451925165951252E-2  -9.527201205492020E-2   9.564064741134644E-1  
 5.692000000000000E7    -9.710916131734848E-2   9.586795568466187E-1   2.355211377143860E-1   2.452887594699860E-2   2.355022430419922E-1   2.452228963375092E-2  -9.512309730052948E-2   9.562290310859680E-1  
 5.694000000000000E7    -9.620558470487595E-2   9.586248993873596E-1   2.360332012176514E-1   2.437887527048588E-2   2.359025925397873E-1   2.426173351705074E-2  -9.439609199762344E-2   9.561846256256104E-1  
 5.696000000000000E7    -9.561744332313538E-2   9.587295651435852E-1   2.363874763250351E-1   2.412266656756401E-2   2.361642122268677E-1   2.427849359810352E-2  -9.315464645624161E-2   9.562995433807373E-1  
 5.698000000000000E7    -9.462443739175797E-2   9.585211873054504E-1   2.365961670875549E-1   2.408855408430100E-2   2.366176396608353E-1   2.413284778594971E-2  -9.265220165252686E-2   9.559823870658875E-1  
 5.700000000000000E7    -9.386083483695984E-2   9.584724903106690E-1   2.368902564048767E-1   2.393834292888641E-2   2.369116693735123E-1   2.381586469709873E-2  -9.178770333528519E-2   9.560122489929199E-1  
 5.702000000000000E7    -9.333866834640503E-2   9.585704803466797E-1   2.373142391443253E-1   2.380130998790264E-2   2.373026460409164E-1   2.369246259331703E-2  -9.127773344516754E-2   9.559009075164795E-1  
 5.704000000000000E7    -9.233289211988449E-2   9.585545063018799E-1   2.376985698938370E-1   2.349194884300232E-2   2.375444173812866E-1   2.358927391469479E-2  -9.044751524925232E-2   9.559894204139710E-1  
 5.706000000000000E7    -9.166753292083740E-2   9.587108492851257E-1   2.380987107753754E-1   2.332168072462082E-2   2.381030917167664E-1   2.315296977758408E-2  -8.896583318710327E-2   9.559514522552490E-1  
 5.708000000000000E7    -9.089385718107224E-2   9.586311578750610E-1   2.383319288492203E-1   2.340552024543285E-2   2.383158802986145E-1   2.336679026484489E-2  -8.883240818977356E-2   9.561636447906494E-1  
 5.710000000000000E7    -9.015219658613205E-2   9.585235714912415E-1   2.387674450874329E-1   2.298847958445549E-2   2.388800829648972E-1   2.316795475780964E-2  -8.796053379774094E-2   9.563537836074829E-1  
 5.712000000000000E7    -8.973161876201630E-2   9.586593508720398E-1   2.391744852066040E-1   2.294632792472839E-2   2.390948981046677E-1   2.302599884569645E-2  -8.693318814039230E-2   9.558362960815430E-1  
 5.714000000000000E7    -8.871176093816757E-2   9.586424231529236E-1   2.395585328340530E-1   2.281738817691803E-2   2.395248711109161E-1   2.286157198250294E-2  -8.650103211402893E-2   9.562914967536926E-1  
 5.716000000000000E7    -8.782580494880676E-2   9.585238695144653E-1   2.397025972604752E-1   2.266903407871723E-2   2.397895604372025E-1   2.258359454572201E-2  -8.549144864082336E-2   9.559252262115479E-1  
 5.718000000000000E7    -8.697431534528732E-2   9.589575529098511E-1   2.401903122663498E-1   2.221080847084522E-2   2.401815354824066E-1   2.236634679138660E-2  -8.458935469388962E-2   9.559568166732788E-1  
 5.720000000000000E7    -8.637744933366776E-2   9.587543606758118E-1   2.405860424041748E-1   2.227869629859924E-2   2.405778914690018E-1   2.235968224704266E-2  -8.420052379369736E-2   9.561378359794617E-1  
 5.722000000000000E7    -8.525427430868149E-2   9.587020277976990E-1   2.408849596977234E-1   2.199960872530937E-2   2.409481704235077E-1   2.206432446837425E-2  -8.325978368520737E-2   9.563146233558655E-1  
 5.724000000000000E7    -8.497837930917740E-2   9.583978056907654E-1   2.412928938865662E-1   2.202458493411541E-2   2.413177490234375E-1   2.198907360434532E-2  -8.242618292570114E-2   9.561080336570740E-1  
 5.726000000000000E7    -8.398555219173431E-2   9.586672186851502E-1   2.415960133075714E-1   2.185224369168282E-2   2.416511178016663E-1   2.183485031127930E-2  -8.139955252408981E-2   9.562751650810242E-1  
 5.728000000000000E7    -8.307415246963501E-2   9.586247205734253E-1   2.420799434185028E-1   2.163484320044518E-2   2.417974621057510E-1   2.177101559937000E-2  -8.099689334630966E-2   9.561727643013001E-1  
 5.730000000000000E7    -8.225045353174210E-2   9.587293863296509E-1   2.424956560134888E-1   2.140334993600845E-2   2.422820627689362E-1   2.153608761727810E-2  -8.028426021337509E-2   9.560918211936951E-1  
 5.732000000000000E7    -8.130787312984467E-2   9.582972526550293E-1   2.428570389747620E-1   2.119655348360539E-2   2.425121068954468E-1   2.119750156998634E-2  -7.933603227138519E-2   9.563484191894531E-1  
 5.734000000000000E7    -8.058947324752808E-2   9.584225416183472E-1   2.431684881448746E-1   2.108160592615604E-2   2.430856376886368E-1   2.109646424651146E-2  -7.850299775600433E-2   9.559839963912964E-1  
 5.736000000000000E7    -8.026471734046936E-2   9.584619998931885E-1   2.434069812297821E-1   2.095173299312592E-2   2.434769272804260E-1   2.107880823314190E-2  -7.780060172080994E-2   9.562205672264099E-1  
 5.738000000000000E7    -7.911392301321030E-2   9.585753679275513E-1   2.437507659196854E-1   2.080808579921722E-2   2.437015175819397E-1   2.091068774461746E-2  -7.690252363681793E-2   9.558329582214356E-1  
 5.740000000000000E7    -7.890319824218750E-2   9.584211707115173E-1   2.440903782844544E-1   2.073457837104797E-2   2.440068125724793E-1   2.053193375468254E-2  -7.609608024358749E-2   9.558718204498291E-1  
 5.742000000000000E7    -7.767488807439804E-2   9.586763381958008E-1   2.444895803928375E-1   2.056032419204712E-2   2.443336844444275E-1   2.063436247408390E-2  -7.562793046236038E-2   9.558182358741760E-1  
 5.744000000000000E7    -7.697923481464386E-2   9.580464363098145E-1   2.447304725646973E-1   2.045106515288353E-2   2.448310256004334E-1   2.028173767030239E-2  -7.458738982677460E-2   9.557926654815674E-1  
 5.746000000000000E7    -7.602974772453308E-2   9.582610726356506E-1   2.451385408639908E-1   2.030785754323006E-2   2.451427429914475E-1   2.016169764101505E-2  -7.406885176897049E-2   9.557502269744873E-1  
 5.748000000000000E7    -7.542446255683899E-2   9.584146738052368E-1   2.456509619951248E-1   1.978862844407558E-2   2.456528395414352E-1   1.982098445296288E-2  -7.285218685865402E-2   9.560964107513428E-1  
 5.750000000000000E7    -7.469243556261063E-2   9.579771161079407E-1   2.458308488130570E-1   2.002776786684990E-2   2.458141893148422E-1   1.995647139847279E-2  -7.225093990564346E-2   9.560028314590454E-1  
 5.752000000000000E7    -7.395414263010025E-2   9.581642746925354E-1   2.462936341762543E-1   1.961972750723362E-2   2.461473345756531E-1   1.963100396096706E-2  -7.135628908872604E-2   9.559763669967651E-1  
 5.754000000000000E7    -7.316558808088303E-2   9.582049250602722E-1   2.464843541383743E-1   1.948386803269386E-2   2.464572191238403E-1   1.967944204807282E-2  -7.096186280250549E-2   9.554017186164856E-1  
 5.756000000000000E7    -7.207053899765015E-2   9.584393501281738E-1   2.469960600137711E-1   1.924120448529720E-2   2.468474060297012E-1   1.915178261697292E-2  -7.007311284542084E-2   9.558588266372681E-1  
 5.758000000000000E7    -7.164728641510010E-2   9.583938121795654E-1   2.473648935556412E-1   1.922349259257317E-2   2.470994591712952E-1   1.921934448182583E-2  -6.954374909400940E-2   9.559962153434753E-1  
 5.760000000000000E7    -7.071390002965927E-2   9.585120081901550E-1   2.477320134639740E-1   1.900611817836762E-2   2.476110458374023E-1   1.900522038340569E-2  -6.879831105470657E-2   9.557504057884216E-1  
 5.762000000000000E7    -7.028602063655853E-2   9.583678245544434E-1   2.480790168046951E-1   1.899149268865585E-2   2.480096220970154E-1   1.903187111020088E-2  -6.807857006788254E-2   9.557948708534241E-1  
 5.764000000000000E7    -6.961912661790848E-2   9.583784937858582E-1   2.483949959278107E-1   1.871934905648232E-2   2.484296858310700E-1   1.869270391762257E-2  -6.713517755270004E-2   9.554526805877686E-1  
 5.766000000000000E7    -6.864160299301148E-2   9.583402872085571E-1   2.488232851028442E-1   1.846470497548580E-2   2.486404031515122E-1   1.848244480788708E-2  -6.616132706403732E-2   9.556293487548828E-1  
 5.768000000000000E7    -6.764867901802063E-2   9.581423401832581E-1   2.492332011461258E-1   1.838571764528751E-2   2.488508075475693E-1   1.832541078329086E-2  -6.586647778749466E-2   9.555854201316834E-1  
 5.770000000000000E7    -6.684172898530960E-2   9.583249092102051E-1   2.494258582592011E-1   1.808262430131435E-2   2.493234574794769E-1   1.812787540256977E-2  -6.463284045457840E-2   9.556894898414612E-1  
 5.772000000000000E7    -6.617429107427597E-2   9.578274488449097E-1   2.497553080320358E-1   1.816749013960362E-2   2.496207058429718E-1   1.794105581939220E-2  -6.435821205377579E-2   9.555091857910156E-1  
 5.774000000000000E7    -6.539522856473923E-2   9.581161737442017E-1   2.502827048301697E-1   1.794485002756119E-2   2.500210404396057E-1   1.759557425975800E-2  -6.324097514152527E-2   9.556130766868591E-1  
 5.776000000000000E7    -6.454049050807953E-2   9.581941366195679E-1   2.504299879074097E-1   1.753463782370091E-2   2.505153119564056E-1   1.758241280913353E-2  -6.260283291339874E-2   9.554441571235657E-1  
 5.778000000000000E7    -6.430243700742722E-2   9.580824375152588E-1   2.507628798484802E-1   1.745589450001717E-2   2.506060898303986E-1   1.744616217911243E-2  -6.167855486273766E-2   9.552465081214905E-1  
 5.780000000000000E7    -6.341158598661423E-2   9.579036831855774E-1   2.512979805469513E-1   1.724781654775143E-2   2.510862350463867E-1   1.742823608219624E-2  -6.114087253808975E-2   9.553605318069458E-1  
 5.782000000000000E7    -6.255844235420227E-2   9.582142829895020E-1   2.515821158885956E-1   1.717019826173782E-2   2.516518235206604E-1   1.710889860987663E-2  -6.001522019505501E-2   9.553644061088562E-1  
 5.784000000000000E7    -6.182579323649406E-2   9.578857421875000E-1   2.518991827964783E-1   1.709132269024849E-2   2.517861127853394E-1   1.713703572750092E-2  -5.953456088900566E-2   9.553489685058594E-1  
 5.786000000000000E7    -6.076869368553162E-2   9.580807089805603E-1   2.524461150169373E-1   1.681722886860371E-2   2.521985471248627E-1   1.681760326027870E-2  -5.923009291291237E-2   9.560328722000122E-1  
 5.788000000000000E7    -6.039926037192345E-2   9.578145742416382E-1   2.525200545787811E-1   1.662101596593857E-2   2.526034712791443E-1   1.659822650253773E-2  -5.769402161240578E-2   9.552815556526184E-1  
 5.790000000000000E7    -5.954961106181145E-2   9.577002525329590E-1   2.528589069843292E-1   1.641230471432209E-2   2.528571486473084E-1   1.654235459864140E-2  -5.711733549833298E-2   9.555092453956604E-1  
 5.792000000000000E7    -5.860162898898125E-2   9.578568935394287E-1   2.532881796360016E-1   1.625348441302776E-2   2.531520128250122E-1   1.621034927666187E-2  -5.660085007548332E-2   9.553606510162354E-1  
 5.794000000000000E7    -5.792419612407684E-2   9.577851295471191E-1   2.535724639892578E-1   1.610992103815079E-2   2.536523342132568E-1   1.613663323223591E-2  -5.554384738206863E-2   9.552590250968933E-1  
 5.796000000000000E7    -5.740015581250191E-2   9.577620029449463E-1   2.538380622863770E-1   1.591198891401291E-2   2.536619603633881E-1   1.592848636209965E-2  -5.485503748059273E-2   9.552989602088928E-1  
 5.798000000000000E7    -5.638447031378746E-2   9.577552676200867E-1   2.543471753597260E-1   1.551974937319756E-2   2.541746497154236E-1   1.567746140062809E-2  -5.407658964395523E-2   9.551055431365967E-1  
 5.800000000000000E7    -5.555021390318871E-2   9.575048089027405E-1   2.545863389968872E-1   1.556421630084515E-2   2.545506060123444E-1   1.558974757790566E-2  -5.341544002294540E-2   9.551692008972168E-1  
 5.802000000000000E7    -5.460148677229881E-2   9.580282568931580E-1   2.548823654651642E-1   1.528714783489704E-2   2.549979090690613E-1   1.542073674499989E-2  -5.259294807910919E-2   9.549606442451477E-1  
 5.804000000000000E7    -5.401628464460373E-2   9.577191472053528E-1   2.550549805164337E-1   1.511454023420811E-2   2.553352117538452E-1   1.512579806149006E-2  -5.158546566963196E-2   9.550069570541382E-1  
 5.806000000000000E7    -5.328427627682686E-2   9.573706984519959E-1   2.556127309799194E-1   1.502149738371372E-2   2.556139230728149E-1   1.494374871253967E-2  -5.147442221641541E-2   9.550501704216003E-1  
 5.808000000000000E7    -5.242187157273293E-2   9.576313495635986E-1   2.559934258460999E-1   1.475490815937519E-2   2.561446726322174E-1   1.484172977507114E-2  -5.024432763457298E-2   9.548130035400391E-1  
 5.810000000000000E7    -5.161313340067864E-2   9.575083255767822E-1   2.562925815582275E-1   1.453026384115219E-2   2.562252879142761E-1   1.472506672143936E-2  -4.957151785492897E-2   9.546433091163635E-1  
 5.812000000000000E7    -5.096492916345596E-2   9.570112228393555E-1   2.567439377307892E-1   1.458010636270046E-2   2.565999031066895E-1   1.457568258047104E-2  -4.914459213614464E-2   9.550499320030212E-1  
 5.814000000000000E7    -4.988181591033936E-2   9.573701620101929E-1   2.570163011550903E-1   1.427526399493218E-2   2.569339275360107E-1   1.427034847438335E-2  -4.805849492549896E-2   9.546217918395996E-1  
 5.816000000000000E7    -4.937219619750977E-2   9.573335051536560E-1   2.574969530105591E-1   1.405481062829495E-2   2.573046684265137E-1   1.417023316025734E-2  -4.724824056029320E-2   9.549834132194519E-1  
 5.818000000000000E7    -4.882694780826569E-2   9.573740959167481E-1   2.577703595161438E-1   1.393282413482666E-2   2.574371397495270E-1   1.395592465996742E-2  -4.673704877495766E-2   9.550837278366089E-1  
 5.820000000000000E7    -4.805346205830574E-2   9.573925733566284E-1   2.582055330276489E-1   1.371414773166180E-2   2.581696510314941E-1   1.358965411782265E-2  -4.566140472888947E-2   9.548691511154175E-1  
 5.822000000000000E7    -4.736087098717690E-2   9.571182131767273E-1   2.584286928176880E-1   1.365960016846657E-2   2.583310306072235E-1   1.351874135434628E-2  -4.506879672408104E-2   9.548097252845764E-1  
 5.824000000000000E7    -4.668495431542397E-2   9.571415185928345E-1   2.586558461189270E-1   1.352180540561676E-2   2.584969997406006E-1   1.328834332525730E-2  -4.428432881832123E-2   9.545772671699524E-1  
 5.826000000000000E7    -4.538677632808685E-2   9.573686122894287E-1   2.591096162796021E-1   1.321999728679657E-2   2.591599225997925E-1   1.327537000179291E-2  -4.390915483236313E-2   9.543579816818237E-1  
 5.828000000000000E7    -4.472782090306282E-2   9.569817185401917E-1   2.594460546970367E-1   1.275942474603653E-2   2.594912350177765E-1   1.289032772183418E-2  -4.255044460296631E-2   9.548454284667969E-1  
 5.830000000000000E7    -4.389432817697525E-2   9.571092128753662E-1   2.597638070583344E-1   1.266031339764595E-2   2.595783770084381E-1   1.275582611560822E-2  -4.210941866040230E-2   9.544986486434937E-1  
 5.832000000000000E7    -4.333659261465073E-2   9.572314620018005E-1   2.601182758808136E-1   1.260739378631115E-2   2.600148618221283E-1   1.256013847887516E-2  -4.145845770835877E-2   9.542574882507324E-1  
 5.834000000000000E7    -4.260859265923500E-2   9.569090008735657E-1   2.602421045303345E-1   1.251039095222950E-2   2.603560388088226E-1   1.235147379338741E-2  -4.065655544400215E-2   9.542010426521301E-1  
 5.836000000000000E7    -4.195113852620125E-2   9.568417668342590E-1   2.606007754802704E-1   1.243043318390846E-2   2.606870234012604E-1   1.227911934256554E-2  -3.945530951023102E-2   9.541078209877014E-1  
 5.838000000000000E7    -4.120499268174171E-2   9.567968845367432E-1   2.610994279384613E-1   1.188577152788639E-2   2.610553801059723E-1   1.212857477366924E-2  -3.880649432539940E-2   9.542547464370728E-1  
 5.840000000000000E7    -4.047321900725365E-2   9.570118188858032E-1   2.615263462066650E-1   1.191246137022972E-2   2.613338530063629E-1   1.182797364890575E-2  -3.828537464141846E-2   9.542203545570374E-1  
 5.842000000000000E7    -3.984043747186661E-2   9.566974043846130E-1   2.618800997734070E-1   1.166855730116367E-2   2.615500390529633E-1   1.188828423619270E-2  -3.712782263755798E-2   9.541583657264710E-1  
 5.844000000000000E7    -3.886597603559494E-2   9.566428661346436E-1   2.621001601219177E-1   1.141892001032829E-2   2.620509266853333E-1   1.146708615124226E-2  -3.691622242331505E-2   9.539983868598938E-1  
 5.846000000000000E7    -3.813097625970841E-2   9.566483497619629E-1   2.624779343605042E-1   1.121501810848713E-2   2.623506486415863E-1   1.108629070222378E-2  -3.584469482302666E-2   9.541432857513428E-1  
 5.848000000000000E7    -3.706984594464302E-2   9.567315578460693E-1   2.628839612007141E-1   1.098931580781937E-2   2.628720700740814E-1   1.096555031836033E-2  -3.512405976653099E-2   9.542742371559143E-1  
 5.850000000000000E7    -3.650422766804695E-2   9.564732909202576E-1   2.631945013999939E-1   1.092013716697693E-2   2.630441784858704E-1   1.077952608466148E-2  -3.419111296534538E-2   9.538997411727905E-1  
 5.852000000000000E7    -3.610796481370926E-2   9.563518762588501E-1   2.633806467056274E-1   1.071212999522686E-2   2.633752226829529E-1   1.084147021174431E-2  -3.338804468512535E-2   9.539298415184021E-1  
 5.854000000000000E7    -3.497541323304176E-2   9.563663601875305E-1   2.637585699558258E-1   1.057571545243263E-2   2.636150717735291E-1   1.075598970055580E-2  -3.308813273906708E-2   9.535496830940247E-1  
 5.856000000000000E7    -3.445290401577950E-2   9.565060734748840E-1   2.643943727016449E-1   1.037649251520634E-2   2.639839649200440E-1   1.037423312664032E-2  -3.227028995752335E-2   9.537563323974609E-1  
 5.858000000000000E7    -3.369929641485214E-2   9.563483595848084E-1   2.645073533058167E-1   9.977160021662712E-3   2.646045088768005E-1   1.001875475049019E-2  -3.091389685869217E-2   9.538999199867249E-1  
 5.860000000000000E7    -3.261325135827065E-2   9.564367532730103E-1   2.648082375526428E-1   9.656509384512901E-3   2.649187445640564E-1   9.862530976533890E-3  -3.044999577105045E-2   9.534060359001160E-1  
 5.862000000000000E7    -3.236279636621475E-2   9.565050005912781E-1   2.651925086975098E-1   9.740654379129410E-3   2.650786936283112E-1   9.812090545892716E-3  -2.961910329759121E-2   9.534858465194702E-1  
 5.864000000000000E7    -3.142674639821053E-2   9.562532305717468E-1   2.655046284198761E-1   9.589824825525284E-3   2.653549015522003E-1   9.585026651620865E-3  -2.912038564682007E-2   9.535316228866577E-1  
 5.866000000000000E7    -3.054681234061718E-2   9.560934901237488E-1   2.658543586730957E-1   9.388513863086700E-3   2.656945586204529E-1   9.256308898329735E-3  -2.845443040132523E-2   9.534031748771668E-1  
 5.868000000000000E7    -2.969900704920292E-2   9.563019275665283E-1   2.662307322025299E-1   8.994618430733681E-3   2.663045823574066E-1   9.051324799656868E-3  -2.715543285012245E-2   9.533615112304688E-1  
 5.870000000000000E7    -2.900667488574982E-2   9.560468792915344E-1   2.666333913803101E-1   8.917711675167084E-3   2.666617333889008E-1   9.143140166997910E-3  -2.650047466158867E-2   9.535698890686035E-1  
 5.872000000000000E7    -2.844084054231644E-2   9.559687376022339E-1   2.667562961578369E-1   8.837042376399040E-3   2.667702138423920E-1   8.688179776072502E-3  -2.593048848211765E-2   9.532104730606079E-1  
 5.874000000000000E7    -2.770216390490532E-2   9.556851983070374E-1   2.672415673732758E-1   8.539112284779549E-3   2.670402228832245E-1   8.720088750123978E-3  -2.533778548240662E-2   9.535596370697022E-1  
 5.876000000000000E7    -2.698317542672157E-2   9.558217525482178E-1   2.675752937793732E-1   8.198529481887817E-3   2.676450610160828E-1   8.231773972511292E-3  -2.447172068059444E-2   9.532138705253601E-1  
 5.878000000000000E7    -2.596740424633026E-2   9.558810591697693E-1   2.679471373558044E-1   8.201984688639641E-3   2.678725123405457E-1   8.104639127850533E-3  -2.346437051892281E-2   9.527727365493774E-1  
 5.880000000000000E7    -2.524808049201965E-2   9.554960131645203E-1   2.682505846023560E-1   7.927611470222473E-3   2.680666148662567E-1   8.101917803287506E-3  -2.328130416572094E-2   9.532464146614075E-1  
 5.882000000000000E7    -2.519673854112625E-2   9.557204842567444E-1   2.684039175510407E-1   7.668020203709602E-3   2.685695588588715E-1   7.890762761235237E-3  -2.202585339546204E-2   9.528903961181641E-1  
 5.884000000000000E7    -2.369812875986099E-2   9.558389186859131E-1   2.689267098903656E-1   7.525030523538590E-3   2.686582207679749E-1   7.331335917115212E-3  -2.126047387719154E-2   9.528598189353943E-1  
 5.886000000000000E7    -2.277918905019760E-2   9.555690288543701E-1   2.693657279014587E-1   7.228830829262734E-3   2.692105472087860E-1   7.390350103378296E-3  -2.098942920565605E-2   9.529081583023071E-1  
 5.888000000000000E7    -2.241368032991886E-2   9.553086161613464E-1   2.695612013339996E-1   7.186168804764748E-3   2.695050835609436E-1   7.178099825978279E-3  -1.996469870209694E-2   9.527323842048645E-1  
 5.890000000000000E7    -2.159303613007069E-2   9.552626609802246E-1   2.699626386165619E-1   7.149288430809975E-3   2.696636915206909E-1   6.866760551929474E-3  -1.904419623315334E-2   9.528977870941162E-1  
 5.892000000000000E7    -2.105300873517990E-2   9.553789496421814E-1   2.699126601219177E-1   6.837029010057449E-3   2.699574828147888E-1   6.723681464791298E-3  -1.824584975838661E-2   9.523771405220032E-1  
 5.894000000000000E7    -1.992565393447876E-2   9.552713036537170E-1   2.705076634883881E-1   6.343116983771324E-3   2.704176008701325E-1   6.405936554074287E-3  -1.773377135396004E-2   9.527306556701660E-1  
 5.896000000000000E7    -1.910885982215405E-2   9.550597071647644E-1   2.708310782909393E-1   6.290622055530548E-3   2.708660960197449E-1   6.190380081534386E-3  -1.718549802899361E-2   9.522301554679871E-1  
 5.898000000000000E7    -1.845153048634529E-2   9.553528428077698E-1   2.711735069751740E-1   6.119379773736000E-3   2.709051966667175E-1   6.145860999822617E-3  -1.620341837406158E-2   9.523584246635437E-1  
 5.900000000000000E7    -1.750271767377853E-2   9.552174210548401E-1   2.714688479900360E-1   5.850544199347496E-3   2.713157534599304E-1   5.911596119403839E-3  -1.570815220475197E-2   9.527161121368408E-1  
 5.902000000000000E7    -1.704594120383263E-2   9.547988772392273E-1   2.718181312084198E-1   5.488617345690727E-3   2.719340622425079E-1   5.608800798654556E-3  -1.441139075905085E-2   9.526258707046509E-1  
 5.904000000000000E7    -1.649247482419014E-2   9.547777175903320E-1   2.722419500350952E-1   5.441348999738693E-3   2.721055150032044E-1   5.566149950027466E-3  -1.394002512097359E-2   9.524088501930237E-1  
 5.906000000000000E7    -1.543886028230190E-2   9.549945592880249E-1   2.726390957832336E-1   5.070520564913750E-3   2.723045647144318E-1   5.179025232791901E-3  -1.298769935965538E-2   9.521262645721436E-1  
 5.908000000000000E7    -1.478944998234510E-2   9.548016190528870E-1   2.729070484638214E-1   5.295831710100174E-3   2.728257477283478E-1   5.127631127834320E-3  -1.267386320978403E-2   9.522624611854553E-1  
 5.910000000000000E7    -1.391060091555119E-2   9.547917842864990E-1   2.730625867843628E-1   4.978192970156670E-3   2.729976177215576E-1   4.843624308705330E-3  -1.168070454150438E-2   9.515281319618225E-1  
 5.912000000000000E7    -1.346462313085794E-2   9.544367194175720E-1   2.737400531768799E-1   4.740558564662933E-3   2.735155820846558E-1   4.757240414619446E-3  -1.095072366297245E-2   9.521464705467224E-1  
 5.914000000000000E7    -1.235201396048069E-2   9.546735882759094E-1   2.739284932613373E-1   4.521647468209267E-3   2.737666070461273E-1   4.454368725419045E-3  -1.022662222385407E-2   9.519319534301758E-1  
 5.916000000000000E7    -1.186203490942717E-2   9.542524218559265E-1   2.741329371929169E-1   4.487365484237671E-3   2.741372883319855E-1   4.243314266204834E-3  -9.599237702786923E-3   9.519842863082886E-1  
 5.918000000000000E7    -1.080197189003229E-2   9.543256163597107E-1   2.745577096939087E-1   3.832479938864708E-3   2.744946777820587E-1   3.916352987289429E-3  -8.692868053913117E-3   9.520377516746521E-1  
 5.920000000000000E7    -1.014950592070818E-2   9.538960456848145E-1   2.746978104114533E-1   3.707464784383774E-3   2.746629118919373E-1   3.860225901007652E-3  -8.019882254302502E-3   9.515035152435303E-1  
 5.922000000000000E7    -9.452161379158497E-3   9.541203975677490E-1   2.751741111278534E-1   3.424694761633873E-3   2.752412259578705E-1   3.549469634890556E-3  -7.294244132936001E-3   9.517259597778320E-1  
 5.924000000000000E7    -8.490254171192646E-3   9.540464878082275E-1   2.754026353359222E-1   3.637354820966721E-3   2.753774225711823E-1   3.478743135929108E-3  -6.822556257247925E-3   9.513792991638184E-1  
 5.926000000000000E7    -8.254093118011951E-3   9.540761709213257E-1   2.759112417697907E-1   3.368241712450981E-3   2.757103443145752E-1   3.299169242382050E-3  -5.791277624666691E-3   9.516139626502991E-1  
 5.928000000000000E7    -7.203564979135990E-3   9.536284208297730E-1   2.759979963302612E-1   2.820219844579697E-3   2.761047780513763E-1   3.036303445696831E-3  -4.790442995727062E-3   9.512396454811096E-1  
 5.930000000000000E7    -6.418680772185326E-3   9.539461135864258E-1   2.765734791755676E-1   2.758653834462166E-3   2.763701975345612E-1   2.854386344552040E-3  -4.075963050127029E-3   9.514654278755188E-1  
 5.932000000000000E7    -5.842629820108414E-3   9.535883069038391E-1   2.767776548862457E-1   2.483919262886047E-3   2.765736281871796E-1   2.465344965457916E-3  -3.560560755431652E-3   9.513152241706848E-1  
 5.934000000000000E7    -4.974217154085636E-3   9.534521102905273E-1   2.769559621810913E-1   2.130383625626564E-3   2.770189046859741E-1   2.356315031647682E-3  -2.549258992075920E-3   9.509702324867249E-1  
 5.936000000000000E7    -4.204885102808476E-3   9.533662796020508E-1   2.773428857326508E-1   2.176642417907715E-3   2.770782709121704E-1   2.353591844439507E-3  -2.354663796722889E-3   9.509409070014954E-1  
 5.938000000000000E7    -3.411483019590378E-3   9.534122943878174E-1   2.776492536067963E-1   1.931177452206612E-3   2.775245010852814E-1   1.924166455864906E-3  -1.434480771422386E-3   9.508544206619263E-1  
 5.940000000000000E7    -2.888799645006657E-3   9.533077478408814E-1   2.780868709087372E-1   1.563420519232750E-3   2.781430184841156E-1   1.796439290046692E-3  -5.353381857275963E-4   9.508767127990723E-1  
 5.942000000000000E7    -2.232008613646030E-3   9.530978202819824E-1   2.784318327903748E-1   1.562355086207390E-3   2.782287597656250E-1   1.527952030301094E-3   3.012847155332565E-4   9.508579373359680E-1  
 5.944000000000000E7    -1.404935494065285E-3   9.536443948745728E-1   2.786672115325928E-1   1.287946477532387E-3   2.787168622016907E-1   1.291600987315178E-3   9.575225412845612E-4   9.505854249000549E-1  
 5.946000000000000E7    -6.152931600809097E-4   9.531244039535523E-1   2.790492177009583E-1   1.192053779959679E-3   2.788494527339935E-1   1.049496233463287E-3   1.832336187362671E-3   9.503911733627319E-1  
 5.948000000000000E7    -1.643113791942596E-4   9.532020092010498E-1   2.795893251895905E-1   7.740668952465057E-4   2.792550623416901E-1   1.040346920490265E-3   2.526259981095791E-3   9.507749676704407E-1  
 5.950000000000000E7     8.906014263629913E-4   9.529432654380798E-1   2.796200215816498E-1   5.876403301954269E-4   2.795251905918121E-1   6.282236427068710E-4   3.084461204707623E-3   9.504617452621460E-1  
 5.952000000000000E7     1.351596787571907E-3   9.531502723693848E-1   2.801547944545746E-1   5.350876599550247E-4   2.797589600086212E-1   4.690084606409073E-4   3.915247507393360E-3   9.499878883361816E-1  
 5.954000000000000E7     2.305334433913231E-3   9.528185129165649E-1   2.803853750228882E-1   9.866617619991303E-5   2.802818715572357E-1   3.949180245399475E-4   4.573990590870380E-3   9.499793052673340E-1  
 5.956000000000000E7     3.169410862028599E-3   9.526377320289612E-1   2.805503308773041E-1  -1.056157052516937E-4   2.806856036186218E-1  -1.212954521179199E-4   5.450253374874592E-3   9.500037431716919E-1  
 5.958000000000000E7     3.830502741038799E-3   9.526998400688171E-1   2.810132205486298E-1  -4.434660077095032E-4   2.809225320816040E-1  -3.629662096500397E-4   6.420154124498367E-3   9.499730467796326E-1  
 5.960000000000000E7     4.762404598295689E-3   9.526352882385254E-1   2.812991440296173E-1  -5.837958306074143E-4   2.811412215232849E-1  -4.655048251152039E-4   7.064276374876499E-3   9.495232701301575E-1  
 5.962000000000000E7     5.639712326228619E-3   9.524374008178711E-1   2.816430330276489E-1  -7.507223635911942E-4   2.815489470958710E-1  -7.160976529121399E-4   7.708118297159672E-3   9.496439099311829E-1  
 5.964000000000000E7     6.106640212237835E-3   9.522350430488586E-1   2.819175422191620E-1  -8.555855602025986E-4   2.817828059196472E-1  -9.237155318260193E-4   8.455419912934303E-3   9.497919678688049E-1  
 5.966000000000000E7     6.860299035906792E-3   9.522566795349121E-1   2.821746766567230E-1  -1.292230561375618E-3   2.821971476078033E-1  -9.794030338525772E-4   9.147854521870613E-3   9.496200084686279E-1  
 5.968000000000000E7     7.809232920408249E-3   9.519264101982117E-1   2.826989591121674E-1  -1.427641138434410E-3   2.824496924877167E-1  -1.446140930056572E-3   1.007259078323841E-2   9.495567083358765E-1  
 5.970000000000000E7     8.556045591831207E-3   9.518315196037293E-1   2.828830480575562E-1  -1.671895384788513E-3   2.827697098255158E-1  -1.720212399959564E-3   1.060876995325089E-2   9.493440985679627E-1  
 5.972000000000000E7     9.369605220854282E-3   9.518344402313232E-1   2.833161652088165E-1  -1.871412619948387E-3   2.832122743129730E-1  -1.834142953157425E-3   1.128964032977819E-2   9.492695331573486E-1  
 5.974000000000000E7     9.946919046342373E-3   9.516547322273254E-1   2.834938764572144E-1  -1.990431919693947E-3   2.833949625492096E-1  -1.971311867237091E-3   1.171128451824188E-2   9.496936202049255E-1  
 5.976000000000000E7     1.089753396809101E-2   9.518314599990845E-1   2.838383913040161E-1  -2.561502158641815E-3   2.838892042636871E-1  -2.274380996823311E-3   1.292984466999769E-2   9.491820335388184E-1  
 5.978000000000000E7     1.157338917255402E-2   9.518432021141052E-1   2.840995192527771E-1  -2.546729519963265E-3   2.839993834495544E-1  -2.488110214471817E-3   1.355188619345427E-2   9.488055706024170E-1  
 5.980000000000000E7     1.198074501007795E-2   9.514703750610352E-1   2.847612798213959E-1  -2.612706273794174E-3   2.844662368297577E-1  -2.690963447093964E-3   1.445889845490456E-2   9.492688775062561E-1  
 5.982000000000000E7     1.272464822977781E-2   9.515230059623718E-1   2.847319245338440E-1  -2.920867875218391E-3   2.847299277782440E-1  -2.891283482313156E-3   1.506177894771099E-2   9.487711191177368E-1  
 5.984000000000000E7     1.348305679857731E-2   9.516048431396484E-1   2.852393090724945E-1  -3.284871578216553E-3   2.850492596626282E-1  -3.122331574559212E-3   1.612430810928345E-2   9.486082792282105E-1  
 5.986000000000000E7     1.365437079221010E-2   9.513676166534424E-1   2.854881882667542E-1  -3.266319632530212E-3   2.853514850139618E-1  -3.228323534131050E-3   1.670215278863907E-2   9.486443996429443E-1  
 5.988000000000000E7     1.478158589452505E-2   9.514259696006775E-1   2.858157157897949E-1  -3.520630300045013E-3   2.858626842498779E-1  -3.493402153253555E-3   1.762344129383564E-2   9.487232565879822E-1  
 5.990000000000000E7     1.563032530248165E-2   9.511429667472839E-1   2.860150933265686E-1  -3.843676298856735E-3   2.860545516014099E-1  -3.981370478868485E-3   1.878134906291962E-2   9.482676982879639E-1  
 5.992000000000000E7     1.652287691831589E-2   9.508210420608521E-1   2.863462865352631E-1  -4.255704581737518E-3   2.863278090953827E-1  -4.204899072647095E-3   1.934642344713211E-2   9.483273625373840E-1  
 5.994000000000000E7     1.741803810000420E-2   9.509577155113220E-1   2.867496907711029E-1  -4.301959648728371E-3   2.867516875267029E-1  -4.341427236795425E-3   1.952334493398666E-2   9.482929706573486E-1  
 5.996000000000000E7     1.794110238552094E-2   9.505853652954102E-1   2.870426774024963E-1  -4.664434120059013E-3   2.868116497993469E-1  -4.534250125288963E-3   2.046870812773705E-2   9.481870532035828E-1  
 5.998000000000000E7     1.859951019287109E-2   9.509553909301758E-1   2.873885631561279E-1  -4.629844799637795E-3   2.872458398342133E-1  -4.497040063142777E-3   2.067433297634125E-2   9.478591084480286E-1  
 6.000000000000000E7     1.984802819788456E-2   9.505950212478638E-1   2.878160476684570E-1  -5.024209618568420E-3   2.875147163867950E-1  -5.224412307143211E-3   2.208465524017811E-2   9.478376507759094E-1  
 6.002000000000000E7     2.021184004843235E-2   9.505187273025513E-1   2.879459261894226E-1  -5.279228091239929E-3   2.877582013607025E-1  -5.396325141191483E-3   2.266077511012554E-2   9.478625655174255E-1  
 6.004000000000000E7     2.094248123466969E-2   9.502772688865662E-1   2.882958054542542E-1  -5.266470834612846E-3   2.881441712379456E-1  -5.242355167865753E-3   2.359645813703537E-2   9.478946924209595E-1  
 6.006000000000000E7     2.165288478136063E-2   9.502651095390320E-1   2.886536419391632E-1  -5.785582587122917E-3   2.884710729122162E-1  -5.764873698353767E-3   2.429357543587685E-2   9.476791024208069E-1  
 6.008000000000000E7     2.285019308328629E-2   9.501427412033081E-1   2.890380620956421E-1  -6.053049117326737E-3   2.887535393238068E-1  -6.089191883802414E-3   2.507398277521133E-2   9.475190639495850E-1  
 6.010000000000000E7     2.310648560523987E-2   9.504157304763794E-1   2.893329262733460E-1  -6.337942555546761E-3   2.893778085708618E-1  -6.087772548198700E-3   2.592640556395054E-2   9.473024606704712E-1  
 6.012000000000000E7     2.389487996697426E-2   9.498656392097473E-1   2.895441651344299E-1  -6.400475278496742E-3   2.893519699573517E-1  -6.300842389464378E-3   2.639229781925678E-2   9.471890330314636E-1  
 6.014000000000000E7     2.483551762998104E-2   9.498502612113953E-1   2.898786067962647E-1  -6.757322698831558E-3   2.895884811878204E-1  -6.794223561882973E-3   2.718381583690643E-2   9.472911953926086E-1  
 6.016000000000000E7     2.548779360949993E-2   9.497032761573792E-1   2.902249693870544E-1  -6.886150687932968E-3   2.899698317050934E-1  -6.904834881424904E-3   2.765081822872162E-2   9.471536278724670E-1  
 6.018000000000000E7     2.623480930924416E-2   9.497887492179871E-1   2.904674410820007E-1  -7.295764982700348E-3   2.902938425540924E-1  -7.074736058712006E-3   2.867182716727257E-2   9.470151662826538E-1  
 6.020000000000000E7     2.701454982161522E-2   9.494382143020630E-1   2.906526923179627E-1  -7.501680403947830E-3   2.906115651130676E-1  -7.382024079561234E-3   2.955160290002823E-2   9.467947483062744E-1  
 6.022000000000000E7     2.773813717067242E-2   9.493392705917358E-1   2.911656498908997E-1  -7.790919393301010E-3   2.910546064376831E-1  -7.446076720952988E-3   3.001691401004791E-2   9.467135667800903E-1  
 6.024000000000000E7     2.832568064332008E-2   9.495020508766174E-1   2.914744913578033E-1  -7.963899523019791E-3   2.912018299102783E-1  -7.911819964647293E-3   3.102231770753861E-2   9.467343091964722E-1  
 6.026000000000000E7     2.923063002526760E-2   9.492241144180298E-1   2.917173802852631E-1  -7.862057536840439E-3   2.918177843093872E-1  -7.940549403429031E-3   3.138579428195953E-2   9.466984272003174E-1  
 6.028000000000000E7     2.988997101783752E-2   9.491687417030335E-1   2.919396758079529E-1  -8.141616359353066E-3   2.919450700283051E-1  -8.163550868630409E-3   3.230212628841400E-2   9.463785886764526E-1  
 6.030000000000000E7     3.071984834969044E-2   9.490005970001221E-1   2.924234271049500E-1  -8.343441411852837E-3   2.922770082950592E-1  -8.499044924974442E-3   3.300115838646889E-2   9.463610053062439E-1  
 6.032000000000000E7     3.135972470045090E-2   9.485163092613220E-1   2.926368415355682E-1  -8.540138602256775E-3   2.926320731639862E-1  -8.679203689098358E-3   3.376717865467072E-2   9.463238716125488E-1  
 6.034000000000000E7     3.197674080729485E-2   9.489010572433472E-1   2.929020822048187E-1  -9.025685489177704E-3   2.930113673210144E-1  -8.982559666037560E-3   3.462138026952744E-2   9.460400938987732E-1  
 6.036000000000000E7     3.270284086465836E-2   9.484048485755920E-1   2.933092117309570E-1  -9.109737351536751E-3   2.930824160575867E-1  -9.172808378934860E-3   3.499199450016022E-2   9.461795091629028E-1  
 6.038000000000000E7     3.364297375082970E-2   9.486222863197327E-1   2.937034964561462E-1  -9.445048868656158E-3   2.933575510978699E-1  -9.391531348228455E-3   3.570124506950378E-2   9.459796547889710E-1  
 6.040000000000000E7     3.430755436420441E-2   9.481055736541748E-1   2.939107120037079E-1  -9.772369638085365E-3   2.936656475067139E-1  -9.695919230580330E-3   3.656586632132530E-2   9.456481933593750E-1  
 6.042000000000000E7     3.519256412982941E-2   9.484062790870667E-1   2.942940294742584E-1  -9.883824735879898E-3   2.941192984580994E-1  -1.005200296640396E-2   3.750072047114372E-2   9.455335140228272E-1  
 6.044000000000000E7     3.569105267524719E-2   9.479103088378906E-1   2.944566309452057E-1  -1.023270748555660E-2   2.945137619972229E-1  -1.016181334853172E-2   3.822170943021774E-2   9.454768300056458E-1  
 6.046000000000000E7     3.644583374261856E-2   9.479399323463440E-1   2.948919832706451E-1  -1.032343320548534E-2   2.948174774646759E-1  -1.043157465755940E-2   3.881110250949860E-2   9.458114504814148E-1  
 6.048000000000000E7     3.697104752063751E-2   9.478569030761719E-1   2.952271401882172E-1  -1.070633903145790E-2   2.950563132762909E-1  -1.053811237215996E-2   3.970642760396004E-2   9.452675580978394E-1  
 6.050000000000000E7     3.779386729001999E-2   9.477549195289612E-1   2.954261898994446E-1  -1.095098629593849E-2   2.955457270145416E-1  -1.094803214073181E-2   4.066693782806397E-2   9.454162120819092E-1  
 6.052000000000000E7     3.879739716649056E-2   9.479303359985352E-1   2.958614528179169E-1  -1.110805757343769E-2   2.956972718238831E-1  -1.119162701070309E-2   4.116976261138916E-2   9.451220631599426E-1  
 6.054000000000000E7     3.913054987788200E-2   9.475902915000916E-1   2.961138188838959E-1  -1.138242147862911E-2   2.959659695625305E-1  -1.134840585291386E-2   4.177633672952652E-2   9.447640776634216E-1  
 6.056000000000000E7     4.023873805999756E-2   9.471750855445862E-1   2.961243093013763E-1  -1.185222528874874E-2   2.959693670272827E-1  -1.187637262046337E-2   4.280639439821243E-2   9.445663690567017E-1  
 6.058000000000000E7     4.083534330129623E-2   9.473636746406555E-1   2.965873479843140E-1  -1.178579032421112E-2   2.964149415493012E-1  -1.180167123675346E-2   4.342383518815041E-2   9.446908235549927E-1  
 6.060000000000000E7     4.147715121507645E-2   9.471312761306763E-1   2.968358099460602E-1  -1.210219040513039E-2   2.967529296875000E-1  -1.204556226730347E-2   4.399740323424339E-2   9.444786906242371E-1  
 6.062000000000000E7     4.213365167379379E-2   9.467920064926148E-1   2.974338233470917E-1  -1.229202002286911E-2   2.968139648437500E-1  -1.215864159166813E-2   4.459222033619881E-2   9.444650411605835E-1  
 6.064000000000000E7     4.264153167605400E-2   9.469282031059265E-1   2.978385984897614E-1  -1.249303109943867E-2   2.975124716758728E-1  -1.256124861538410E-2   4.558844119310379E-2   9.444268941879273E-1  
 6.066000000000000E7     4.368010163307190E-2   9.468082785606384E-1   2.979214191436768E-1  -1.268687844276428E-2   2.977242469787598E-1  -1.262683421373367E-2   4.592487588524818E-2   9.443635344505310E-1  
 6.068000000000000E7     4.455768316984177E-2   9.467567801475525E-1   2.981245219707489E-1  -1.310293376445770E-2   2.981800436973572E-1  -1.304603740572929E-2   4.676575958728790E-2   9.440746307373047E-1  
 6.070000000000000E7     4.542214423418045E-2   9.466384053230286E-1   2.984287142753601E-1  -1.332655176520348E-2   2.982905507087708E-1  -1.331306062638760E-2   4.762280732393265E-2   9.435774087905884E-1  
 6.072000000000000E7     4.589440673589706E-2   9.466728568077087E-1   2.989751696586609E-1  -1.355898752808571E-2   2.988753914833069E-1  -1.361588016152382E-2   4.828497394919395E-2   9.438232779502869E-1  
 6.074000000000000E7     4.679061472415924E-2   9.465067982673645E-1   2.990215420722961E-1  -1.390637271106243E-2   2.989872097969055E-1  -1.367141678929329E-2   4.928836598992348E-2   9.434429407119751E-1  
 6.076000000000000E7     4.734583199024200E-2   9.463033080101013E-1   2.994073629379273E-1  -1.412176154553890E-2   2.991290688514710E-1  -1.428537257015705E-2   4.983978345990181E-2   9.430445432662964E-1  
 6.078000000000000E7     4.799871891736984E-2   9.460160732269287E-1   2.998058795928955E-1  -1.449820585548878E-2   2.994208931922913E-1  -1.438334956765175E-2   5.070629715919495E-2   9.431093931198120E-1  
 6.080000000000000E7     4.932881146669388E-2   9.458107948303223E-1   2.999947667121887E-1  -1.454928517341614E-2   2.996978461742401E-1  -1.483076997101307E-2   5.137372761964798E-2   9.429422020912170E-1  
 6.082000000000000E7     4.975817725062370E-2   9.461174011230469E-1   3.003896474838257E-1  -1.466889679431915E-2   3.003281056880951E-1  -1.486694812774658E-2   5.181325972080231E-2   9.429723620414734E-1  
 6.084000000000000E7     5.022698268294334E-2   9.458562731742859E-1   3.005833029747009E-1  -1.514939218759537E-2   3.005870580673218E-1  -1.508944854140282E-2   5.298857763409615E-2   9.429128170013428E-1  
 6.086000000000000E7     5.116861313581467E-2   9.456871151924133E-1   3.007242381572723E-1  -1.540258713066578E-2   3.008623421192169E-1  -1.534624584019184E-2   5.350852757692337E-2   9.426848292350769E-1  
 6.088000000000000E7     5.161393806338310E-2   9.455123543739319E-1   3.013163506984711E-1  -1.566584035754204E-2   3.010922670364380E-1  -1.559410616755486E-2   5.451216921210289E-2   9.423555731773377E-1  
 6.090000000000000E7     5.249607190489769E-2   9.452543854713440E-1   3.017329573631287E-1  -1.596630737185478E-2   3.014912307262421E-1  -1.608301140367985E-2   5.510079115629196E-2   9.427850842475891E-1  
 6.092000000000000E7     5.328717827796936E-2   9.451831579208374E-1   3.017520308494568E-1  -1.621171087026596E-2   3.016996383666992E-1  -1.601688377559185E-2   5.596561357378960E-2   9.421321153640747E-1  
 6.094000000000000E7     5.414439365267754E-2   9.449027180671692E-1   3.020454347133637E-1  -1.644235663115978E-2   3.021192550659180E-1  -1.628587022423744E-2   5.658256262540817E-2   9.422662854194641E-1  
 6.096000000000000E7     5.512969568371773E-2   9.447163939476013E-1   3.023481965065002E-1  -1.682205498218536E-2   3.023065924644470E-1  -1.666504144668579E-2   5.755764245986939E-2   9.418804049491882E-1  
 6.098000000000000E7     5.552107840776444E-2   9.445439577102661E-1   3.027324080467224E-1  -1.700296066701412E-2   3.025268912315369E-1  -1.690244302153587E-2   5.793659389019013E-2   9.421688914299011E-1  
 6.100000000000000E7     5.643721297383308E-2   9.440929293632507E-1   3.029692471027374E-1  -1.715216040611267E-2   3.027390241622925E-1  -1.709054224193096E-2   5.876804888248444E-2   9.417284131050110E-1  
 6.102000000000000E7     5.695725977420807E-2   9.444774389266968E-1   3.032001256942749E-1  -1.734304800629616E-2   3.031836450099945E-1  -1.750816777348518E-2   5.954277515411377E-2   9.416440725326538E-1  
 6.104000000000000E7     5.777610465884209E-2   9.442737102508545E-1   3.035494983196259E-1  -1.778528653085232E-2   3.035709261894226E-1  -1.754768565297127E-2   5.991089716553688E-2   9.414539933204651E-1  
 6.106000000000000E7     5.827084556221962E-2   9.443266987800598E-1   3.038657009601593E-1  -1.776828058063984E-2   3.037065863609314E-1  -1.790721900761128E-2   6.081900000572205E-2   9.413070678710938E-1  
 6.108000000000000E7     5.905350670218468E-2   9.439650774002075E-1   3.041231036186218E-1  -1.820714958012104E-2   3.040320873260498E-1  -1.802531257271767E-2   6.164973974227905E-2   9.410024881362915E-1  
 6.110000000000000E7     5.986608564853668E-2   9.436495304107666E-1   3.043351769447327E-1  -1.829087361693382E-2   3.043117225170136E-1  -1.826681382954121E-2   6.206609308719635E-2   9.410271644592285E-1  
 6.112000000000000E7     6.059016287326813E-2   9.437837004661560E-1   3.051154911518097E-1  -1.843477599322796E-2   3.048068583011627E-1  -1.861253939568996E-2   6.326658278703690E-2   9.411462545394898E-1  
 6.114000000000000E7     6.141935288906097E-2   9.434565901756287E-1   3.048073351383209E-1  -1.895025745034218E-2   3.049781620502472E-1  -1.899564638733864E-2   6.384465098381043E-2   9.406999945640564E-1  
 6.116000000000000E7     6.248831748962402E-2   9.433311820030212E-1   3.052917122840881E-1  -1.934660039842129E-2   3.051250874996185E-1  -1.929748803377152E-2   6.453721225261688E-2   9.408034682273865E-1  
 6.118000000000000E7     6.284026801586151E-2   9.433277249336243E-1   3.055753409862518E-1  -1.924653537571430E-2   3.054238855838776E-1  -1.951046288013458E-2   6.495881080627441E-2   9.401629567146301E-1  
 6.120000000000000E7     6.334990262985230E-2   9.431380033493042E-1   3.060415685176849E-1  -1.972964964807034E-2   3.059977293014526E-1  -1.978021860122681E-2   6.625509262084961E-2   9.404357671737671E-1  
 6.122000000000000E7     6.411885470151901E-2   9.431539177894592E-1   3.061180710792542E-1  -1.998225972056389E-2   3.059709370136261E-1  -1.972230523824692E-2   6.660218536853790E-2   9.403120279312134E-1  
 6.124000000000000E7     6.502463668584824E-2   9.428507089614868E-1   3.064558804035187E-1  -2.014680951833725E-2   3.063369989395142E-1  -2.008755318820477E-2   6.777657568454742E-2   9.401175975799561E-1  
 6.126000000000000E7     6.571895629167557E-2   9.429315924644470E-1   3.066881000995636E-1  -2.050933428108692E-2   3.067552745342255E-1  -2.037515677511692E-2   6.789728999137878E-2   9.397714138031006E-1  
 6.128000000000000E7     6.675174832344055E-2   9.423940181732178E-1   3.072672784328461E-1  -2.078391611576080E-2   3.069827258586884E-1  -2.071200124919415E-2   6.866176426410675E-2   9.397810697555542E-1  
 6.130000000000000E7     6.702274084091187E-2   9.424561262130737E-1   3.072931170463562E-1  -2.089837938547134E-2   3.071941435337067E-1  -2.086850628256798E-2   6.976564973592758E-2   9.395570158958435E-1  
 6.132000000000000E7     6.797603517770767E-2   9.423568844795227E-1   3.077147305011749E-1  -2.123598940670490E-2   3.075350224971771E-1  -2.147262170910835E-2   7.025884836912155E-2   9.394721388816834E-1  
 6.134000000000000E7     6.878991425037384E-2   9.419769644737244E-1   3.079504072666168E-1  -2.161066047847271E-2   3.081157505512238E-1  -2.139310911297798E-2   7.086712121963501E-2   9.395240545272827E-1  
 6.136000000000000E7     6.934981048107147E-2   9.422302842140198E-1   3.081766068935394E-1  -2.163159847259522E-2   3.080475330352783E-1  -2.159704640507698E-2   7.174266874790192E-2   9.389064311981201E-1  
 6.138000000000000E7     7.013839483261108E-2   9.418054819107056E-1   3.085993230342865E-1  -2.212312631309032E-2   3.085628747940064E-1  -2.196082659065723E-2   7.272342592477799E-2   9.390308856964111E-1  
 6.140000000000000E7     7.100980728864670E-2   9.418489933013916E-1   3.086059093475342E-1  -2.231568470597267E-2   3.087711632251740E-1  -2.223654091358185E-2   7.310624420642853E-2   9.387630820274353E-1  
 6.142000000000000E7     7.166855782270432E-2   9.413232207298279E-1   3.091731369495392E-1  -2.273128554224968E-2   3.088088631629944E-1  -2.261986769735813E-2   7.365394383668900E-2   9.386388659477234E-1  
 6.144000000000000E7     7.235457003116608E-2   9.415755271911621E-1   3.093687593936920E-1  -2.291866764426231E-2   3.093215823173523E-1  -2.283032052218914E-2   7.471313327550888E-2   9.386550188064575E-1  
 6.146000000000000E7     7.295611500740051E-2   9.411234855651856E-1   3.096001446247101E-1  -2.311790175735951E-2   3.096318840980530E-1  -2.312488295137882E-2   7.541838288307190E-2   9.382847547531128E-1  
 6.148000000000000E7     7.383168488740921E-2   9.411748051643372E-1   3.100177645683289E-1  -2.345174178481102E-2   3.099156022071838E-1  -2.335074357688427E-2   7.583618164062500E-2   9.382352232933044E-1  
 6.150000000000000E7     7.428245246410370E-2   9.408791661262512E-1   3.103419840335846E-1  -2.332331240177155E-2   3.102713525295258E-1  -2.350581809878349E-2   7.646577805280685E-2   9.381744265556335E-1  
 6.152000000000000E7     7.504462450742722E-2   9.407833218574524E-1   3.104726672172546E-1  -2.380322851240635E-2   3.102346956729889E-1  -2.385695837438107E-2   7.737188786268234E-2   9.376561641693115E-1  
 6.154000000000000E7     7.566189765930176E-2   9.407020211219788E-1   3.109194636344910E-1  -2.412463724613190E-2   3.108806312084198E-1  -2.407480031251907E-2   7.824543863534927E-2   9.380071759223938E-1  
 6.156000000000000E7     7.639030367136002E-2   9.407402276992798E-1   3.110548555850983E-1  -2.449075691401959E-2   3.111244440078735E-1  -2.430009655654430E-2   7.912623137235642E-2   9.377233386039734E-1  
 6.158000000000000E7     7.730370014905930E-2   9.401542544364929E-1   3.115164935588837E-1  -2.469457313418388E-2   3.115264773368835E-1  -2.473171986639500E-2   7.975921034812927E-2   9.374287724494934E-1  
 6.160000000000000E7     7.781070470809937E-2   9.401502609252930E-1   3.117930889129639E-1  -2.485619299113751E-2   3.115120530128479E-1  -2.499966137111187E-2   8.017970621585846E-2   9.374841451644898E-1  
 6.162000000000000E7     7.864845544099808E-2   9.400227665901184E-1   3.118835389614105E-1  -2.518960647284985E-2   3.120183646678925E-1  -2.492676116526127E-2   8.111260831356049E-2   9.372702836990356E-1  
 6.164000000000000E7     7.938949018716812E-2   9.399218559265137E-1   3.121440112590790E-1  -2.554007433354855E-2   3.122942745685577E-1  -2.550552226603031E-2   8.172209560871124E-2   9.371036887168884E-1  
 6.166000000000000E7     7.991145551204681E-2   9.397658109664917E-1   3.125864863395691E-1  -2.544255368411541E-2   3.123271167278290E-1  -2.531485632061958E-2   8.234476298093796E-2   9.368068575859070E-1  
 6.168000000000000E7     8.088149130344391E-2   9.394048452377319E-1   3.127938508987427E-1  -2.581824176013470E-2   3.128130137920380E-1  -2.594424411654472E-2   8.301129192113876E-2   9.364689588546753E-1  
 6.170000000000000E7     8.158720284700394E-2   9.392493963241577E-1   3.131543397903442E-1  -2.617768011987209E-2   3.129286468029022E-1  -2.616860903799534E-2   8.378811925649643E-2   9.363636374473572E-1  
 6.172000000000000E7     8.242425322532654E-2   9.394831657409668E-1   3.136477768421173E-1  -2.660687081515789E-2   3.134994506835938E-1  -2.648244425654411E-2   8.466622978448868E-2   9.364258050918579E-1  
 6.174000000000000E7     8.287154138088226E-2   9.389432668685913E-1   3.137769103050232E-1  -2.666880562901497E-2   3.136042952537537E-1  -2.662727236747742E-2   8.525107055902481E-2   9.360502958297730E-1  
 6.176000000000000E7     8.350764960050583E-2   9.388970136642456E-1   3.139259219169617E-1  -2.697191014885902E-2   3.137839138507843E-1  -2.694085240364075E-2   8.613592386245728E-2   9.360166788101196E-1  
 6.178000000000000E7     8.433919399976730E-2   9.384330511093140E-1   3.144184052944183E-1  -2.728905156254768E-2   3.143309950828552E-1  -2.738245576620102E-2   8.707476407289505E-2   9.359887242317200E-1  
 6.180000000000000E7     8.477283269166946E-2   9.389137029647827E-1   3.145771026611328E-1  -2.760990709066391E-2   3.144757151603699E-1  -2.751942723989487E-2   8.772756159305573E-2   9.355518221855164E-1  
 6.182000000000000E7     8.578597754240036E-2   9.385816454887390E-1   3.149554729461670E-1  -2.767418324947357E-2   3.147992491722107E-1  -2.782560884952545E-2   8.833184093236923E-2   9.356321692466736E-1  
 6.184000000000000E7     8.650486171245575E-2   9.384474158287048E-1   3.150402307510376E-1  -2.817087061703205E-2   3.149094581604004E-1  -2.794246189296246E-2   8.895549178123474E-2   9.352715611457825E-1  
 6.186000000000000E7     8.755115419626236E-2   9.381723999977112E-1   3.154379129409790E-1  -2.805409580469132E-2   3.151072859764099E-1  -2.843265235424042E-2   8.961286395788193E-2   9.352918267250061E-1  
 6.188000000000000E7     8.822046220302582E-2   9.381580948829651E-1   3.157285451889038E-1  -2.871220372617245E-2   3.157047927379608E-1  -2.870912477374077E-2   9.067203849554062E-2   9.351119399070740E-1  
 6.190000000000000E7     8.857855945825577E-2   9.373168349266052E-1   3.159996569156647E-1  -2.898845076560974E-2   3.159592151641846E-1  -2.895093150436878E-2   9.119455516338348E-2   9.352188706398010E-1  
 6.192000000000000E7     8.929859846830368E-2   9.375019669532776E-1   3.162825703620911E-1  -2.911963872611523E-2   3.161992430686951E-1  -2.903342433273792E-2   9.183853119611740E-2   9.349721670150757E-1  
 6.194000000000000E7     9.010449796915054E-2   9.373074173927307E-1   3.166743814945221E-1  -2.952441014349461E-2   3.163521587848663E-1  -2.954561263322830E-2   9.256189316511154E-2   9.345746636390686E-1  
 6.196000000000000E7     9.116410464048386E-2   9.372691512107849E-1   3.168572783470154E-1  -2.988332509994507E-2   3.167281150817871E-1  -3.002410009503365E-2   9.338628500699997E-2   9.344338178634644E-1  
 6.198000000000000E7     9.166008234024048E-2   9.371454715728760E-1   3.173225224018097E-1  -3.029803931713104E-2   3.170602321624756E-1  -3.020289354026318E-2   9.397155791521072E-2   9.344376921653748E-1  
 6.200000000000000E7     9.239964187145233E-2   9.369027614593506E-1   3.172829449176788E-1  -3.051282465457916E-2   3.173497617244721E-1  -3.033550083637238E-2   9.473621100187302E-2   9.339590668678284E-1  
 6.202000000000000E7     9.321353584527969E-2   9.366840720176697E-1   3.178130090236664E-1  -3.085083141922951E-2   3.173903226852417E-1  -3.040698729455471E-2   9.559015184640884E-2   9.339912533760071E-1  
 6.204000000000000E7     9.343311190605164E-2   9.366756081581116E-1   3.181627392768860E-1  -3.062283806502819E-2   3.177605569362640E-1  -3.074783273041248E-2   9.627499431371689E-2   9.337623715400696E-1  
 6.206000000000000E7     9.487375617027283E-2   9.364320039749146E-1   3.184887170791626E-1  -3.133994713425636E-2   3.181340992450714E-1  -3.129205107688904E-2   9.686502814292908E-2   9.338068962097168E-1  
 6.208000000000000E7     9.517755359411240E-2   9.360337257385254E-1   3.186426162719727E-1  -3.152541443705559E-2   3.185684978961945E-1  -3.141685575246811E-2   9.758396446704865E-2   9.338435530662537E-1  
 6.210000000000000E7     9.553458541631699E-2   9.358728528022766E-1   3.188593983650208E-1  -3.175928816199303E-2   3.187445700168610E-1  -3.142065927386284E-2   9.843778610229492E-2   9.335794448852539E-1  
 6.212000000000000E7     9.670907258987427E-2   9.358992576599121E-1   3.189859390258789E-1  -3.211308270692825E-2   3.186497688293457E-1  -3.199158608913422E-2   9.900279343128204E-2   9.330479502677918E-1  
 6.214000000000000E7     9.735169261693955E-2   9.356030225753784E-1   3.192765414714813E-1  -3.223116695880890E-2   3.192062675952911E-1  -3.214619308710098E-2   9.972475469112396E-2   9.329017400741577E-1  
 6.216000000000000E7     9.776355326175690E-2   9.358115196228027E-1   3.194555044174194E-1  -3.257696703076363E-2   3.194014132022858E-1  -3.238621354103088E-2   1.003143042325974E-1   9.329463243484497E-1  
 6.218000000000000E7     9.850686043500900E-2   9.353045821189880E-1   3.199163079261780E-1  -3.280556574463844E-2   3.198883235454559E-1  -3.278441354632378E-2   1.011182144284248E-1   9.327275753021240E-1  
 6.220000000000000E7     9.926669299602509E-2   9.350830316543579E-1   3.202699422836304E-1  -3.300448879599571E-2   3.201694786548615E-1  -3.291616588830948E-2   1.016297191381455E-1   9.328308105468750E-1  
 6.222000000000000E7     9.990049153566361E-2   9.349212646484375E-1   3.203801810741425E-1  -3.356878459453583E-2   3.202079534530640E-1  -3.338775038719177E-2   1.027652993798256E-1   9.324001073837280E-1  
 6.224000000000000E7     1.007921099662781E-1   9.345239996910095E-1   3.206914663314819E-1  -3.386433422565460E-2   3.203849792480469E-1  -3.349530324339867E-2   1.036392450332642E-1   9.325901269912720E-1  
 6.226000000000000E7     1.016176566481590E-1   9.346720576286316E-1   3.209444284439087E-1  -3.410690277814865E-2   3.210385739803314E-1  -3.412894904613495E-2   1.044760644435883E-1   9.319693446159363E-1  
 6.228000000000000E7     1.020496636629105E-1   9.346440434455872E-1   3.212661445140839E-1  -3.410358354449272E-2   3.212346136569977E-1  -3.402239084243774E-2   1.048239693045616E-1   9.317973256111145E-1  
 6.230000000000000E7     1.027917489409447E-1   9.340791106224060E-1   3.214682042598724E-1  -3.458148241043091E-2   3.213182985782623E-1  -3.447872027754784E-2   1.058773100376129E-1   9.316606521606445E-1  
 6.232000000000000E7     1.036704778671265E-1   9.339612722396851E-1   3.218632638454437E-1  -3.485927358269692E-2   3.218804895877838E-1  -3.467808663845062E-2   1.062296926975250E-1   9.316646456718445E-1  
 6.234000000000000E7     1.043183282017708E-1   9.340890049934387E-1   3.222148716449738E-1  -3.504542261362076E-2   3.218626677989960E-1  -3.510030359029770E-2   1.067433506250382E-1   9.311605691909790E-1  
 6.236000000000000E7     1.049933955073357E-1   9.336503744125366E-1   3.223287761211395E-1  -3.528407216072083E-2   3.222060203552246E-1  -3.532868623733521E-2   1.076431050896645E-1   9.310462474822998E-1  
 6.238000000000000E7     1.059116125106812E-1   9.335768818855286E-1   3.227285444736481E-1  -3.562291339039803E-2   3.226029276847839E-1  -3.568959981203079E-2   1.082652211189270E-1   9.310725927352905E-1  
 6.240000000000000E7     1.064473986625671E-1   9.335749745368958E-1   3.226957619190216E-1  -3.571154549717903E-2   3.229152560234070E-1  -3.579359501600266E-2   1.087521240115166E-1   9.305785298347473E-1  
 6.242000000000000E7     1.071701273322105E-1   9.328962564468384E-1   3.230488300323486E-1  -3.603246062994003E-2   3.228288888931274E-1  -3.630536794662476E-2   1.092366427183151E-1   9.305897355079651E-1  
 6.244000000000000E7     1.077582910656929E-1   9.330142736434937E-1   3.235023021697998E-1  -3.637796267867088E-2   3.232496976852417E-1  -3.648518025875092E-2   1.103646531701088E-1   9.301275014877319E-1  
 6.246000000000000E7     1.085648983716965E-1   9.330902099609375E-1   3.238459825515747E-1  -3.677872568368912E-2   3.237023949623108E-1  -3.679057955741882E-2   1.111817955970764E-1   9.301349520683289E-1  
 6.248000000000000E7     1.092455536127091E-1   9.328185319900513E-1   3.240202367305756E-1  -3.719931095838547E-2   3.238778114318848E-1  -3.675786405801773E-2   1.117428541183472E-1   9.296401739120483E-1  
 6.250000000000000E7     1.100816130638123E-1   9.323821067810059E-1   3.242487311363220E-1  -3.722775727510452E-2   3.239990770816803E-1  -3.736662119626999E-2   1.122540906071663E-1   9.295687675476074E-1  
 6.252000000000000E7     1.107191890478134E-1   9.322104454040527E-1   3.244429826736450E-1  -3.772006928920746E-2   3.242499828338623E-1  -3.761633113026619E-2   1.130844056606293E-1   9.294001460075378E-1  
 6.254000000000000E7     1.111583188176155E-1   9.321269392967224E-1   3.248182833194733E-1  -3.772030398249626E-2   3.245353996753693E-1  -3.783480077981949E-2   1.137052476406097E-1   9.292704463005066E-1  
 6.256000000000000E7     1.124064922332764E-1   9.320598244667053E-1   3.250296711921692E-1  -3.839153796434403E-2   3.249740898609161E-1  -3.821941837668419E-2   1.145540252327919E-1   9.292043447494507E-1  
 6.258000000000000E7     1.131620481610298E-1   9.319609403610230E-1   3.255327939987183E-1  -3.868650272488594E-2   3.252806663513184E-1  -3.851439803838730E-2   1.151798814535141E-1   9.291177988052368E-1  
 6.260000000000000E7     1.131500750780106E-1   9.316986203193665E-1   3.257589340209961E-1  -3.875981643795967E-2   3.253830373287201E-1  -3.869214653968811E-2   1.161721423268318E-1   9.291498661041260E-1  
 6.262000000000000E7     1.141968071460724E-1   9.314934015274048E-1   3.257586956024170E-1  -3.897435963153839E-2   3.258260190486908E-1  -3.888781368732452E-2   1.166715323925018E-1   9.284787178039551E-1  
 6.264000000000000E7     1.147735044360161E-1   9.312818050384522E-1   3.260631561279297E-1  -3.961765393614769E-2   3.261801004409790E-1  -3.935313969850540E-2   1.171889156103134E-1   9.279927015304565E-1  
 6.266000000000000E7     1.155330166220665E-1   9.309852719306946E-1   3.263717293739319E-1  -3.963201493024826E-2   3.261973261833191E-1  -3.950554132461548E-2   1.180483698844910E-1   9.282527565956116E-1  
 6.268000000000000E7     1.162225902080536E-1   9.308109879493713E-1   3.268809020519257E-1  -3.970205411314964E-2   3.266487121582031E-1  -3.983499854803085E-2   1.186036095023155E-1   9.279118776321411E-1  
 6.270000000000000E7     1.171630173921585E-1   9.307183027267456E-1   3.270809054374695E-1  -4.029424116015434E-2   3.270787000656128E-1  -4.037478193640709E-2   1.196215823292732E-1   9.277473688125610E-1  
 6.272000000000000E7     1.176793277263641E-1   9.303801655769348E-1   3.271898925304413E-1  -4.042121767997742E-2   3.269489705562592E-1  -4.052454605698586E-2   1.197853311896324E-1   9.277582168579102E-1  
 6.274000000000000E7     1.184792295098305E-1   9.301104545593262E-1   3.273429870605469E-1  -4.069301486015320E-2   3.270784020423889E-1  -4.073722660541534E-2   1.208653524518013E-1   9.275211691856384E-1  
 6.276000000000000E7     1.192749217152596E-1   9.304390549659729E-1   3.279593884944916E-1  -4.092400521039963E-2   3.277572989463806E-1  -4.093648120760918E-2   1.212739050388336E-1   9.271027445793152E-1  
 6.278000000000000E7     1.194913685321808E-1   9.295455813407898E-1   3.279958665370941E-1  -4.139560461044312E-2   3.278886079788208E-1  -4.131288081407547E-2   1.225008293986321E-1   9.270410537719727E-1  
 6.280000000000000E7     1.205076947808266E-1   9.296694397926331E-1   3.283577561378479E-1  -4.182086884975433E-2   3.281063139438629E-1  -4.161092638969421E-2   1.231006458401680E-1   9.267663955688477E-1  
 6.282000000000000E7     1.212105900049210E-1   9.293276667594910E-1   3.286780118942261E-1  -4.197779297828674E-2   3.283744454383850E-1  -4.178003594279289E-2   1.237640380859375E-1   9.266916513442993E-1  
 6.284000000000000E7     1.218035519123077E-1   9.292281866073608E-1   3.285304605960846E-1  -4.212033003568649E-2   3.286626338958740E-1  -4.226659238338471E-2   1.246174275875092E-1   9.262116551399231E-1  
 6.286000000000000E7     1.226484179496765E-1   9.293634295463562E-1   3.289974927902222E-1  -4.238323122262955E-2   3.289622664451599E-1  -4.248994588851929E-2   1.248353198170662E-1   9.261773228645325E-1  
 6.288000000000000E7     1.229233741760254E-1   9.293216466903687E-1   3.294990956783295E-1  -4.283442348241806E-2   3.292784094810486E-1  -4.260875657200813E-2   1.255903989076614E-1   9.259644150733948E-1  
 6.290000000000000E7     1.238660216331482E-1   9.287230968475342E-1   3.295322358608246E-1  -4.313686862587929E-2   3.296607434749603E-1  -4.316342249512672E-2   1.263449490070343E-1   9.254295825958252E-1  
 6.292000000000000E7     1.247279047966003E-1   9.285162091255188E-1   3.300956189632416E-1  -4.327690973877907E-2   3.298810422420502E-1  -4.335292801260948E-2   1.270473450422287E-1   9.258624911308289E-1  
 6.294000000000000E7     1.249532923102379E-1   9.285151958465576E-1   3.303445577621460E-1  -4.353101924061775E-2   3.302468359470367E-1  -4.343025758862495E-2   1.278083920478821E-1   9.255163073539734E-1  
 6.296000000000000E7     1.262339651584625E-1   9.283416271209717E-1   3.305347859859467E-1  -4.393235966563225E-2   3.302339911460877E-1  -4.402104392647743E-2   1.284240782260895E-1   9.252241253852844E-1  
 6.298000000000000E7     1.267788708209992E-1   9.281494617462158E-1   3.305995762348175E-1  -4.418592900037766E-2   3.306778371334076E-1  -4.409763589501381E-2   1.292938888072968E-1   9.249203801155090E-1  
 6.300000000000000E7     1.275476068258286E-1   9.280232787132263E-1   3.310291171073914E-1  -4.460004717111588E-2   3.309960663318634E-1  -4.427872225642204E-2   1.296599358320236E-1   9.250558614730835E-1  
 6.302000000000000E7     1.286230683326721E-1   9.277567267417908E-1   3.312389850616455E-1  -4.481751471757889E-2   3.311879038810730E-1  -4.518022015690804E-2   1.305570453405380E-1   9.245228171348572E-1  
 6.304000000000000E7     1.289904415607452E-1   9.274027943611145E-1   3.313916325569153E-1  -4.540492594242096E-2   3.312998414039612E-1  -4.517265409231186E-2   1.311867535114288E-1   9.242366552352905E-1  
 6.306000000000000E7     1.296913772821426E-1   9.271485805511475E-1   3.316310346126556E-1  -4.538084566593170E-2   3.314291834831238E-1  -4.549163579940796E-2   1.318702846765518E-1   9.239397644996643E-1  
 6.308000000000000E7     1.305931806564331E-1   9.268576502799988E-1   3.319173753261566E-1  -4.588118195533752E-2   3.318804204463959E-1  -4.586357995867729E-2   1.328511387109757E-1   9.241857528686523E-1  
 6.310000000000000E7     1.310330927371979E-1   9.270014762878418E-1   3.323763310909271E-1  -4.616292938590050E-2   3.321631848812103E-1  -4.591482505202293E-2   1.331783235073090E-1   9.238079190254211E-1  
 6.312000000000000E7     1.317403465509415E-1   9.264181852340698E-1   3.326087594032288E-1  -4.637851193547249E-2   3.322499096393585E-1  -4.630558192729950E-2   1.340115815401077E-1   9.237575531005859E-1  
 6.314000000000000E7     1.323235481977463E-1   9.265224337577820E-1   3.327004015445709E-1  -4.676008597016335E-2   3.326651751995087E-1  -4.636226594448090E-2   1.347246021032333E-1   9.234697818756104E-1  
 6.316000000000000E7     1.330123394727707E-1   9.259965419769287E-1   3.329353332519531E-1  -4.688753187656403E-2   3.327926993370056E-1  -4.682677611708641E-2   1.354751437902451E-1   9.230855703353882E-1  
 6.318000000000000E7     1.340711861848831E-1   9.258579611778259E-1   3.336083889007568E-1  -4.723569750785828E-2   3.331978023052216E-1  -4.729489237070084E-2   1.363700181245804E-1   9.231097698211670E-1  
 6.320000000000000E7     1.344062685966492E-1   9.255573749542236E-1   3.335295319557190E-1  -4.763497039675713E-2   3.335255980491638E-1  -4.744248837232590E-2   1.370173841714859E-1   9.227960109710693E-1  
 6.322000000000000E7     1.351137608289719E-1   9.257302880287170E-1   3.339370191097260E-1  -4.787223413586617E-2   3.336679041385651E-1  -4.775751009583473E-2   1.376207768917084E-1   9.227110743522644E-1  
 6.324000000000000E7     1.359641104936600E-1   9.253913164138794E-1   3.339894711971283E-1  -4.812882095575333E-2   3.338892757892609E-1  -4.802411794662476E-2   1.384231001138687E-1   9.225792884826660E-1  
 6.326000000000000E7     1.364193707704544E-1   9.252180457115173E-1   3.340626060962677E-1  -4.845144599676132E-2   3.338737487792969E-1  -4.834394901990891E-2   1.387620717287064E-1   9.221319556236267E-1  
 6.328000000000000E7     1.370313763618469E-1   9.247744083404541E-1   3.344511389732361E-1  -4.864523932337761E-2   3.341239392757416E-1  -4.846896231174469E-2   1.396581232547760E-1   9.219687581062317E-1  
 6.330000000000000E7     1.379850059747696E-1   9.248426556587219E-1   3.346363008022308E-1  -4.918243736028671E-2   3.346373736858368E-1  -4.899254441261292E-2   1.400121450424194E-1   9.220080375671387E-1  
 6.332000000000000E7     1.384722590446472E-1   9.245467185974121E-1   3.350536525249481E-1  -4.942156374454498E-2   3.350522518157959E-1  -4.913645610213280E-2   1.408125758171082E-1   9.219722747802734E-1  
 6.334000000000000E7     1.393782943487167E-1   9.241720438003540E-1   3.353846371173859E-1  -4.947097599506378E-2   3.349529802799225E-1  -4.968104884028435E-2   1.417292505502701E-1   9.213558435440064E-1  
 6.336000000000000E7     1.401129066944122E-1   9.239485263824463E-1   3.354073166847229E-1  -5.005114898085594E-2   3.352747857570648E-1  -4.990637302398682E-2   1.425078660249710E-1   9.210029840469360E-1  
 6.338000000000000E7     1.406614184379578E-1   9.239852428436279E-1   3.355535566806793E-1  -5.007686838507652E-2   3.355559110641480E-1  -5.004680901765823E-2   1.431539952754974E-1   9.208311438560486E-1  
 6.340000000000000E7     1.414813399314880E-1   9.239119887351990E-1   3.359886109828949E-1  -5.067136883735657E-2   3.361642360687256E-1  -5.058290809392929E-2   1.435812413692474E-1   9.210879802703857E-1  
 6.342000000000000E7     1.420708745718002E-1   9.234324693679810E-1   3.362571001052856E-1  -5.099326372146606E-2   3.361557126045227E-1  -5.072580277919769E-2   1.444534361362457E-1   9.205940961837769E-1  
 6.344000000000000E7     1.425005942583084E-1   9.234114289283752E-1   3.363317251205444E-1  -5.129386857151985E-2   3.363720476627350E-1  -5.126253888010979E-2   1.450390070676804E-1   9.202362298965454E-1  
 6.346000000000000E7     1.436540037393570E-1   9.229158759117127E-1   3.370867967605591E-1  -5.161362886428833E-2   3.368045687675476E-1  -5.136988684535027E-2   1.461274027824402E-1   9.202392697334290E-1  
 6.348000000000000E7     1.440587639808655E-1   9.228253960609436E-1   3.370290100574493E-1  -5.165968090295792E-2   3.368495106697083E-1  -5.162488669157028E-2   1.466975659132004E-1   9.197547435760498E-1  
 6.350000000000000E7     1.447052806615830E-1   9.227301478385925E-1   3.373568654060364E-1  -5.198700726032257E-2   3.372082412242889E-1  -5.189143866300583E-2   1.470956206321716E-1   9.200517535209656E-1  
 6.352000000000000E7     1.457239687442780E-1   9.224938154220581E-1   3.373236358165741E-1  -5.252301692962647E-2   3.374208509922028E-1  -5.243752151727676E-2   1.479184329509735E-1   9.192300438880920E-1  
 6.354000000000000E7     1.463540792465210E-1   9.220926761627197E-1   3.376428484916687E-1  -5.286934226751328E-2   3.376530408859253E-1  -5.245608091354370E-2   1.488113701343536E-1   9.192992448806763E-1  
 6.356000000000000E7     1.468541026115418E-1   9.220407009124756E-1   3.380267024040222E-1  -5.332632735371590E-2   3.378106951713562E-1  -5.289497226476669E-2   1.493227332830429E-1   9.192135334014893E-1  
 6.358000000000000E7     1.474442034959793E-1   9.218078255653381E-1   3.379956185817719E-1  -5.354764312505722E-2   3.378987908363342E-1  -5.306042730808258E-2   1.501402407884598E-1   9.187232255935669E-1  
 6.360000000000000E7     1.478163152933121E-1   9.215045571327210E-1   3.384300768375397E-1  -5.368018522858620E-2   3.383086621761322E-1  -5.368390679359436E-2   1.509030610322952E-1   9.187365770339966E-1  
 6.362000000000000E7     1.487163752317429E-1   9.215888977050781E-1   3.387633562088013E-1  -5.388566479086876E-2   3.388319909572601E-1  -5.379252880811691E-2   1.514547467231751E-1   9.184775352478027E-1  
 6.364000000000000E7     1.495087742805481E-1   9.210402369499207E-1   3.389001488685608E-1  -5.444596335291863E-2   3.386640548706055E-1  -5.407647043466568E-2   1.522426307201386E-1   9.182702302932739E-1  
 6.366000000000000E7     1.504718214273453E-1   9.211984872817993E-1   3.393854796886444E-1  -5.445534735918045E-2   3.393341302871704E-1  -5.450625717639923E-2   1.524992883205414E-1   9.179636836051941E-1  
 6.368000000000000E7     1.513143181800842E-1   9.207063913345337E-1   3.392929434776306E-1  -5.495898053050041E-2   3.394423723220825E-1  -5.475081875920296E-2   1.535073816776276E-1   9.176974296569824E-1  
 6.370000000000000E7     1.519023329019547E-1   9.205937385559082E-1   3.399484157562256E-1  -5.534403398633003E-2   3.395874500274658E-1  -5.521421879529953E-2   1.542338877916336E-1   9.176890254020691E-1  
 6.372000000000000E7     1.524633914232254E-1   9.199320077896118E-1   3.401059210300446E-1  -5.551519989967346E-2   3.398625254631043E-1  -5.546171218156815E-2   1.550377160310745E-1   9.174790382385254E-1  
 6.374000000000000E7     1.531750708818436E-1   9.204568266868591E-1   3.404997587203980E-1  -5.565642192959786E-2   3.402624130249023E-1  -5.570347607135773E-2   1.553324162960053E-1   9.170378446578980E-1  
 6.376000000000000E7     1.537134200334549E-1   9.196923971176148E-1   3.404857516288757E-1  -5.602925270795822E-2   3.403353989124298E-1  -5.591310188174248E-2   1.562660783529282E-1   9.170878529548645E-1  
 6.378000000000000E7     1.544256210327148E-1   9.195386767387390E-1   3.409720659255981E-1  -5.682883411645889E-2   3.408253192901611E-1  -5.669441074132919E-2   1.566755324602127E-1   9.167451262474060E-1  
 6.380000000000000E7     1.552782207727432E-1   9.193804860115051E-1   3.409520387649536E-1  -5.685713142156601E-2   3.409535586833954E-1  -5.669687688350678E-2   1.575769782066345E-1   9.164503812789917E-1  
 6.382000000000000E7     1.556459814310074E-1   9.191765785217285E-1   3.411081433296204E-1  -5.715297162532806E-2   3.412720859050751E-1  -5.703364685177803E-2   1.585028618574143E-1   9.164130091667175E-1  
 6.384000000000000E7     1.564972400665283E-1   9.187469482421875E-1   3.413245677947998E-1  -5.768813937902451E-2   3.412828743457794E-1  -5.719076469540596E-2   1.591785997152329E-1   9.158989191055298E-1  
 6.386000000000000E7     1.571759730577469E-1   9.185127615928650E-1   3.415661752223969E-1  -5.765065550804138E-2   3.415868580341339E-1  -5.761423334479332E-2   1.597666889429092E-1   9.159999489784241E-1  
 6.388000000000000E7     1.579311490058899E-1   9.184516072273254E-1   3.419576585292816E-1  -5.836090072989464E-2   3.418947458267212E-1  -5.802682787179947E-2   1.602791696786881E-1   9.156931638717651E-1  
 6.390000000000000E7     1.588696986436844E-1   9.180495142936707E-1   3.423013985157013E-1  -5.827093496918678E-2   3.421900868415833E-1  -5.815300717949867E-2   1.609402894973755E-1   9.156600236892700E-1  
 6.392000000000000E7     1.592947244644165E-1   9.181590676307678E-1   3.422749042510986E-1  -5.857192724943161E-2   3.425160050392151E-1  -5.888218060135841E-2   1.618208736181259E-1   9.148845672607422E-1  
 6.394000000000000E7     1.599941551685333E-1   9.177284836769104E-1   3.424322903156281E-1  -5.910272523760796E-2   3.426291346549988E-1  -5.902038514614105E-2   1.622230857610703E-1   9.148792028427124E-1  
 6.396000000000000E7     1.606373935937882E-1   9.177439212799072E-1   3.427256941795349E-1  -5.932154506444931E-2   3.427836298942566E-1  -5.921707674860954E-2   1.628811061382294E-1   9.145284891128540E-1  
 6.398000000000000E7     1.611236184835434E-1   9.171973466873169E-1   3.430505096912384E-1  -5.963194742798805E-2   3.429431319236755E-1  -5.940314382314682E-2   1.635752469301224E-1   9.144886136054993E-1  
 6.400000000000000E7     1.621104329824448E-1   9.171152114868164E-1   3.435485959053040E-1  -5.988989025354385E-2   3.431510031223297E-1  -6.003636121749878E-2   1.642905920743942E-1   9.142308831214905E-1  
 6.402000000000000E7     1.626075804233551E-1   9.167479872703552E-1   3.435224592685700E-1  -6.000842899084091E-2   3.435344994068146E-1  -6.002246588468552E-2   1.647071689367294E-1   9.139944911003113E-1  
 6.404000000000000E7     1.633482873439789E-1   9.168606400489807E-1   3.438118696212769E-1  -6.043850630521774E-2   3.435508310794830E-1  -6.039069220423698E-2   1.656207591295242E-1   9.140927791595459E-1  
 6.406000000000000E7     1.638750135898590E-1   9.164431691169739E-1   3.441807031631470E-1  -6.073935702443123E-2   3.438444137573242E-1  -6.064420938491821E-2   1.663766950368881E-1   9.134557843208313E-1  
 6.408000000000000E7     1.649960726499558E-1   9.161031246185303E-1   3.443717658519745E-1  -6.115703657269478E-2   3.441786766052246E-1  -6.133554503321648E-2   1.671974211931229E-1   9.130976200103760E-1  
 6.410000000000000E7     1.652848720550537E-1   9.158500432968140E-1   3.446623980998993E-1  -6.165675446391106E-2   3.444358706474304E-1  -6.140417605638504E-2   1.679910868406296E-1   9.130571484565735E-1  
 6.412000000000000E7     1.662669777870178E-1   9.159427881240845E-1   3.447628915309906E-1  -6.196886301040649E-2   3.447298109531403E-1  -6.176495924592018E-2   1.682211756706238E-1   9.127339720726013E-1  
 6.414000000000000E7     1.666296422481537E-1   9.155213236808777E-1   3.452152311801910E-1  -6.224542856216431E-2   3.451470434665680E-1  -6.208011507987976E-2   1.695881634950638E-1   9.125278592109680E-1  
 6.416000000000000E7     1.675308495759964E-1   9.153816103935242E-1   3.452976942062378E-1  -6.236286461353302E-2   3.451166749000549E-1  -6.217122077941895E-2   1.699295341968536E-1   9.125367999076843E-1  
 6.418000000000000E7     1.681226938962936E-1   9.151354432106018E-1   3.454514145851135E-1  -6.270676106214523E-2   3.454009890556335E-1  -6.254773586988449E-2   1.703084409236908E-1   9.121056199073792E-1  
 6.420000000000000E7     1.687916666269302E-1   9.147806167602539E-1   3.458878099918366E-1  -6.300865113735199E-2   3.456841111183167E-1  -6.296388804912567E-2   1.711936444044113E-1   9.119573831558228E-1  
 6.422000000000000E7     1.693366020917893E-1   9.148196578025818E-1   3.459707498550415E-1  -6.346696615219116E-2   3.460435867309570E-1  -6.339398026466370E-2   1.715105623006821E-1   9.113876819610596E-1  
 6.424000000000000E7     1.698247641324997E-1   9.141903519630432E-1   3.461029827594757E-1  -6.345805525779724E-2   3.459641039371491E-1  -6.359224021434784E-2   1.722501367330551E-1   9.114229083061218E-1  
 6.426000000000000E7     1.705187857151032E-1   9.137920141220093E-1   3.463425934314728E-1  -6.391486525535584E-2   3.463048636913300E-1  -6.375347077846527E-2   1.731839627027512E-1   9.112400412559509E-1  
 6.428000000000000E7     1.714006662368774E-1   9.139002561569214E-1   3.464108705520630E-1  -6.461610645055771E-2   3.466256856918335E-1  -6.419067829847336E-2   1.738505512475967E-1   9.109079837799072E-1  
 6.430000000000000E7     1.721381992101669E-1   9.137213826179504E-1   3.469113707542419E-1  -6.472899019718170E-2   3.466637134552002E-1  -6.480858474969864E-2   1.748157292604446E-1   9.109029769897461E-1  
 6.432000000000000E7     1.726006865501404E-1   9.133704304695129E-1   3.472163975238800E-1  -6.510064005851746E-2   3.468723297119141E-1  -6.492289900779724E-2   1.751408129930496E-1   9.101401567459106E-1  
 6.434000000000000E7     1.733345538377762E-1   9.126755595207214E-1   3.471782505512238E-1  -6.523204594850540E-2   3.470996916294098E-1  -6.527135521173477E-2   1.757844090461731E-1   9.099987745285034E-1  
 6.436000000000000E7     1.741742342710495E-1   9.130379557609558E-1   3.477109968662262E-1  -6.547472625970841E-2   3.476108610630035E-1  -6.555305421352387E-2   1.763020008802414E-1   9.099146127700806E-1  
 6.438000000000000E7     1.748166084289551E-1   9.124612212181091E-1   3.477127552032471E-1  -6.592541188001633E-2   3.474692702293396E-1  -6.595159322023392E-2   1.771503984928131E-1   9.097963571548462E-1  
 6.440000000000000E7     1.753416359424591E-1   9.122978448867798E-1   3.481090068817139E-1  -6.635922193527222E-2   3.481706678867340E-1  -6.619834899902344E-2   1.780283302068710E-1   9.095163345336914E-1  
 6.442000000000000E7     1.764164268970490E-1   9.123444557189941E-1   3.484840989112854E-1  -6.652039289474487E-2   3.484443724155426E-1  -6.657775491476059E-2   1.782079041004181E-1   9.093013405799866E-1  
 6.444000000000000E7     1.768751591444016E-1   9.117796421051025E-1   3.484377562999725E-1  -6.688439846038818E-2   3.483822047710419E-1  -6.691095232963562E-2   1.793420910835266E-1   9.089162349700928E-1  
 6.446000000000000E7     1.776066273450851E-1   9.115481376647949E-1   3.490062952041626E-1  -6.728193163871765E-2   3.486649990081787E-1  -6.726620346307755E-2   1.798085421323776E-1   9.088360667228699E-1  
 6.448000000000000E7     1.782585084438324E-1   9.116293191909790E-1   3.490043580532074E-1  -6.745133548974991E-2   3.487346768379211E-1  -6.734287738800049E-2   1.805015653371811E-1   9.082276225090027E-1  
 6.450000000000000E7     1.786784231662750E-1   9.110501408576965E-1   3.491714000701904E-1  -6.775698810815811E-2   3.491370379924774E-1  -6.761252880096436E-2   1.809056103229523E-1   9.082200527191162E-1  
 6.452000000000000E7     1.793769299983978E-1   9.106186628341675E-1   3.493308126926422E-1  -6.794527173042297E-2   3.491843044757843E-1  -6.795561313629150E-2   1.819119155406952E-1   9.078871607780457E-1  
 6.454000000000000E7     1.803086251020432E-1   9.108656644821167E-1   3.497744202613831E-1  -6.845991313457489E-2   3.496384918689728E-1  -6.832599639892578E-2   1.822690963745117E-1   9.077021479606628E-1  
 6.456000000000000E7     1.812449842691422E-1   9.104063510894775E-1   3.496506214141846E-1  -6.906226277351379E-2   3.497788906097412E-1  -6.895827502012253E-2   1.831632405519486E-1   9.073700904846191E-1  
 6.458000000000000E7     1.819399148225784E-1   9.103831648826599E-1   3.502020835876465E-1  -6.923726201057434E-2   3.500566482543945E-1  -6.932666152715683E-2   1.841362714767456E-1   9.070495367050171E-1  
 6.460000000000000E7     1.822050511837006E-1   9.102362990379334E-1   3.502568304538727E-1  -6.941736489534378E-2   3.504470288753510E-1  -6.940280646085739E-2   1.844772100448608E-1   9.071438312530518E-1  
 6.462000000000000E7     1.831237822771072E-1   9.095368981361389E-1   3.507716655731201E-1  -6.984715163707733E-2   3.506803810596466E-1  -6.975322961807251E-2   1.852407902479172E-1   9.069831371307373E-1  
 6.464000000000000E7     1.836344450712204E-1   9.094898104667664E-1   3.507773280143738E-1  -7.027929276227951E-2   3.507562279701233E-1  -7.017064839601517E-2   1.860079020261765E-1   9.066407680511475E-1  
 6.466000000000000E7     1.843200922012329E-1   9.089815616607666E-1   3.511167764663696E-1  -7.057181745767593E-2   3.507411181926727E-1  -7.050137221813202E-2   1.870569735765457E-1   9.063238501548767E-1  
 6.468000000000000E7     1.852725297212601E-1   9.088544249534607E-1   3.512172400951386E-1  -7.101632654666901E-2   3.512974977493286E-1  -7.086686789989471E-2   1.875388771295548E-1   9.063560962677002E-1  
 6.470000000000000E7     1.856820434331894E-1   9.089726209640503E-1   3.515800237655640E-1  -7.123164087533951E-2   3.515794277191162E-1  -7.115017622709274E-2   1.877949088811874E-1   9.059532880783081E-1  
 6.472000000000000E7     1.865301132202148E-1   9.086830019950867E-1   3.517222106456757E-1  -7.125028967857361E-2   3.516615033149719E-1  -7.140003889799118E-2   1.887684464454651E-1   9.054595828056335E-1  
 6.474000000000000E7     1.866047233343124E-1   9.082931280136108E-1   3.520966470241547E-1  -7.180862128734589E-2   3.519518375396729E-1  -7.163286209106445E-2   1.896383911371231E-1   9.054143428802490E-1  
 6.476000000000000E7     1.877291202545166E-1   9.084011316299439E-1   3.522842526435852E-1  -7.191865146160126E-2   3.520711064338684E-1  -7.198452949523926E-2   1.899383068084717E-1   9.054175019264221E-1  
 6.478000000000000E7     1.882348209619522E-1   9.080378413200378E-1   3.525303304195404E-1  -7.242333143949509E-2   3.524475097656250E-1  -7.217466086149216E-2   1.908449530601502E-1   9.048546552658081E-1  
 6.480000000000000E7     1.892112493515015E-1   9.075173139572144E-1   3.525525629520416E-1  -7.287430763244629E-2   3.525038957595825E-1  -7.276050001382828E-2   1.913688033819199E-1   9.045571684837341E-1  
 6.482000000000000E7     1.893633157014847E-1   9.074952602386475E-1   3.529492020606995E-1  -7.345114648342133E-2   3.529422283172607E-1  -7.326414436101914E-2   1.924532055854797E-1   9.041938185691834E-1  
 6.484000000000000E7     1.902725696563721E-1   9.072790741920471E-1   3.531733453273773E-1  -7.356422394514084E-2   3.526853322982788E-1  -7.355523109436035E-2   1.927300542593002E-1   9.043675065040588E-1  
 6.486000000000000E7     1.911426037549973E-1   9.066340923309326E-1   3.534989356994629E-1  -7.383215427398682E-2   3.531385958194733E-1  -7.374312728643417E-2   1.930528730154038E-1   9.042461514472961E-1  
 6.488000000000000E7     1.916811615228653E-1   9.064612984657288E-1   3.536472320556641E-1  -7.414368540048599E-2   3.534673750400543E-1  -7.393848896026611E-2   1.942182779312134E-1   9.038088917732239E-1  
 6.490000000000000E7     1.922145783901215E-1   9.064400792121887E-1   3.535533249378204E-1  -7.443149387836456E-2   3.538760840892792E-1  -7.457733154296875E-2   1.945152878761292E-1   9.031404852867127E-1  
 6.492000000000000E7     1.928182244300842E-1   9.058669209480286E-1   3.539152741432190E-1  -7.478305697441101E-2   3.536187410354614E-1  -7.482736557722092E-2   1.953584998846054E-1   9.033012390136719E-1  
 6.494000000000000E7     1.937378197908402E-1   9.057746529579163E-1   3.543483614921570E-1  -7.490588724613190E-2   3.540062606334686E-1  -7.497069239616394E-2   1.960484832525253E-1   9.031521677970886E-1  
 6.496000000000000E7     1.942873299121857E-1   9.057823419570923E-1   3.542885780334473E-1  -7.530371844768524E-2   3.543846905231476E-1  -7.521807402372360E-2   1.967335939407349E-1   9.027239084243774E-1  
 6.498000000000000E7     1.949228942394257E-1   9.054609537124634E-1   3.549013137817383E-1  -7.587975263595581E-2   3.546682298183441E-1  -7.557640969753265E-2   1.974281668663025E-1   9.026070833206177E-1  
 6.500000000000000E7     1.956080198287964E-1   9.049966335296631E-1   3.545849323272705E-1  -7.614257931709290E-2   3.545638322830200E-1  -7.597222924232483E-2   1.980911493301392E-1   9.020802378654480E-1  
 6.502000000000000E7     1.961221545934677E-1   9.049504399299622E-1   3.552570343017578E-1  -7.628969103097916E-2   3.550333976745606E-1  -7.608010619878769E-2   1.987529993057251E-1   9.019549489021301E-1  
 6.504000000000000E7     1.968678534030914E-1   9.048296213150024E-1   3.552526831626892E-1  -7.661415636539459E-2   3.554237782955170E-1  -7.653450220823288E-2   1.992678195238113E-1   9.016311168670654E-1  
 6.506000000000000E7     1.972810029983521E-1   9.044415354728699E-1   3.554672002792358E-1  -7.700258493423462E-2   3.554082214832306E-1  -7.704486697912216E-2   1.998838782310486E-1   9.015084505081177E-1  
 6.508000000000000E7     1.979226171970367E-1   9.042039513587952E-1   3.558241128921509E-1  -7.755801081657410E-2   3.556661307811737E-1  -7.734207808971405E-2   2.008386999368668E-1   9.009423851966858E-1  
 6.510000000000000E7     1.990001350641251E-1   9.038451910018921E-1   3.561758100986481E-1  -7.781880348920822E-2   3.558931946754456E-1  -7.735012471675873E-2   2.008847445249558E-1   9.008550643920898E-1  
 6.512000000000000E7     1.997687369585037E-1   9.035310149192810E-1   3.560338914394379E-1  -7.827444374561310E-2   3.560112714767456E-1  -7.792379707098007E-2   2.020562291145325E-1   9.006798267364502E-1  
 6.514000000000000E7     2.004578411579132E-1   9.032876491546631E-1   3.565922677516937E-1  -7.822819054126740E-2   3.563277721405029E-1  -7.830343395471573E-2   2.025194019079208E-1   9.001698493957520E-1  
 6.516000000000000E7     2.008098065853119E-1   9.031753540039063E-1   3.566185235977173E-1  -7.876066863536835E-2   3.567388951778412E-1  -7.890052348375320E-2   2.033675760030747E-1   8.998734951019287E-1  
 6.518000000000000E7     2.015876471996307E-1   9.029322862625122E-1   3.568477332592011E-1  -7.903040200471878E-2   3.566415905952454E-1  -7.880267500877380E-2   2.037637829780579E-1   8.996745347976685E-1  
 6.520000000000000E7     2.026833593845367E-1   9.026801586151123E-1   3.571409583091736E-1  -7.948170602321625E-2   3.570825159549713E-1  -7.960985600948334E-2   2.048182487487793E-1   8.997713327407837E-1  
 6.522000000000000E7     2.028227746486664E-1   9.022137522697449E-1   3.572872877120972E-1  -7.988913357257843E-2   3.571268916130066E-1  -7.966189086437225E-2   2.051020860671997E-1   8.994274139404297E-1  
 6.524000000000000E7     2.038852274417877E-1   9.020386338233948E-1   3.575434684753418E-1  -8.003232628107071E-2   3.574109375476837E-1  -8.024170994758606E-2   2.062564194202423E-1   8.993950486183167E-1  
 6.526000000000000E7     2.042991071939468E-1   9.018217325210571E-1   3.575251996517181E-1  -8.060002326965332E-2   3.577665388584137E-1  -8.055101335048676E-2   2.068245559930801E-1   8.986905217170715E-1  
 6.528000000000000E7     2.048766016960144E-1   9.017189145088196E-1   3.576835691928864E-1  -8.073304593563080E-2   3.574952185153961E-1  -8.073353022336960E-2   2.068652063608170E-1   8.983690738677979E-1  
 6.530000000000000E7     2.052380293607712E-1   9.012336134910584E-1   3.580572605133057E-1  -8.117636293172836E-2   3.579325675964356E-1  -8.122405409812927E-2   2.079492807388306E-1   8.982683420181274E-1  
 6.532000000000000E7     2.058783918619156E-1   9.009700417518616E-1   3.581930398941040E-1  -8.137725293636322E-2   3.584004044532776E-1  -8.105224370956421E-2   2.084970176219940E-1   8.977380990982056E-1  
 6.534000000000000E7     2.065550088882446E-1   9.004623293876648E-1   3.583914339542389E-1  -8.216170221567154E-2   3.584743440151215E-1  -8.170671761035919E-2   2.092232108116150E-1   8.977023363113403E-1  
 6.536000000000000E7     2.074371576309204E-1   9.010418653488159E-1   3.585624694824219E-1  -8.195974677801132E-2   3.588849604129791E-1  -8.214524388313294E-2   2.098276317119598E-1   8.973919749259949E-1  
 6.538000000000000E7     2.080985605716705E-1   9.000009894371033E-1   3.590469062328339E-1  -8.250385522842407E-2   3.589449822902679E-1  -8.244574069976807E-2   2.106061577796936E-1   8.971417546272278E-1  
 6.540000000000000E7     2.090890407562256E-1   8.996024131774902E-1   3.593862652778626E-1  -8.284746110439301E-2   3.589240312576294E-1  -8.267559111118317E-2   2.111703306436539E-1   8.968941569328308E-1  
 6.542000000000000E7     2.090234607458115E-1   8.995465636253357E-1   3.595075905323029E-1  -8.311524242162705E-2   3.595264256000519E-1  -8.290821313858032E-2   2.118051797151566E-1   8.969212770462036E-1  
 6.544000000000000E7     2.102667987346649E-1   8.994189500808716E-1   3.594943284988403E-1  -8.344440162181854E-2   3.594095408916473E-1  -8.319741487503052E-2   2.122315913438797E-1   8.963711857795715E-1  
 6.546000000000000E7     2.107918411493301E-1   8.991380333900452E-1   3.598824739456177E-1  -8.386313915252686E-2   3.597857654094696E-1  -8.371383696794510E-2   2.131580263376236E-1   8.960519433021545E-1  
 6.548000000000000E7     2.113228589296341E-1   8.991565108299255E-1   3.601973056793213E-1  -8.408069610595703E-2   3.601832091808319E-1  -8.380995690822601E-2   2.137872874736786E-1   8.957226872444153E-1  
 6.550000000000000E7     2.122037708759308E-1   8.985979557037354E-1   3.603998124599457E-1  -8.443174511194229E-2   3.601045608520508E-1  -8.451427519321442E-2   2.142910212278366E-1   8.955695033073425E-1  
 6.552000000000000E7     2.127139419317246E-1   8.984566330909729E-1   3.603289425373077E-1  -8.498962223529816E-2   3.605623841285706E-1  -8.468012511730194E-2   2.149391770362854E-1   8.952879309654236E-1  
 6.554000000000000E7     2.132831513881683E-1   8.982676267623901E-1   3.607336878776550E-1  -8.502299338579178E-2   3.605740666389465E-1  -8.492735028266907E-2   2.158226817846298E-1   8.951650261878967E-1  
 6.556000000000000E7     2.139512747526169E-1   8.979477286338806E-1   3.608650565147400E-1  -8.561341464519501E-2   3.608158826828003E-1  -8.528722077608109E-2   2.164683789014816E-1   8.947332501411438E-1  
 6.558000000000000E7     2.144273370504379E-1   8.977854847908020E-1   3.609689176082611E-1  -8.571626245975494E-2   3.610076308250427E-1  -8.556777983903885E-2   2.170505523681641E-1   8.946195840835571E-1  
 6.560000000000000E7     2.151947468519211E-1   8.974391222000122E-1   3.613993525505066E-1  -8.612874895334244E-2   3.611159324645996E-1  -8.606179058551788E-2   2.176624536514282E-1   8.944606184959412E-1  
 6.562000000000000E7     2.159809917211533E-1   8.970797061920166E-1   3.615117669105530E-1  -8.639226853847504E-2   3.614491820335388E-1  -8.664349466562271E-2   2.183005809783936E-1   8.942375779151917E-1  
 6.564000000000000E7     2.163214534521103E-1   8.970512151718140E-1   3.615766167640686E-1  -8.684028685092926E-2   3.616622686386108E-1  -8.686560392379761E-2   2.190963923931122E-1   8.935257792472839E-1  
 6.566000000000000E7     2.174944132566452E-1   8.963494896888733E-1   3.618830740451813E-1  -8.707208186388016E-2   3.617499470710754E-1  -8.732267469167709E-2   2.197814136743546E-1   8.934679627418518E-1  
 6.568000000000000E7     2.179102450609207E-1   8.961923718452454E-1   3.623173534870148E-1  -8.775922656059265E-2   3.619467616081238E-1  -8.765864372253418E-2   2.204906791448593E-1   8.931621909141541E-1  
 6.570000000000000E7     2.186340242624283E-1   8.957604169845581E-1   3.622054457664490E-1  -8.779400587081909E-2   3.621822595596314E-1  -8.768245577812195E-2   2.209076732397080E-1   8.928658366203308E-1  
 6.572000000000000E7     2.191485166549683E-1   8.957361578941345E-1   3.626846671104431E-1  -8.817100524902344E-2   3.625871539115906E-1  -8.808881789445877E-2   2.215711474418640E-1   8.927893638610840E-1  
 6.574000000000000E7     2.199314087629318E-1   8.954853415489197E-1   3.627595007419586E-1  -8.832882344722748E-2   3.627333045005798E-1  -8.830979466438294E-2   2.220446914434433E-1   8.924031853675842E-1  
 6.576000000000000E7     2.203612327575684E-1   8.952665328979492E-1   3.629426062107086E-1  -8.914861083030701E-2   3.628545999526978E-1  -8.868227899074554E-2   2.230262160301209E-1   8.920307159423828E-1  
 6.578000000000000E7     2.210658937692642E-1   8.946045637130737E-1   3.632270097732544E-1  -8.947104215621948E-2   3.628551065921783E-1  -8.932574093341827E-2   2.235616594552994E-1   8.917044997215271E-1  
 6.580000000000000E7     2.215642035007477E-1   8.946809172630310E-1   3.633871674537659E-1  -8.945767581462860E-2   3.633103370666504E-1  -8.946036547422409E-2   2.243434190750122E-1   8.913114666938782E-1  
 6.582000000000000E7     2.224497050046921E-1   8.939626812934876E-1   3.637068271636963E-1  -9.008196741342545E-2   3.634118437767029E-1  -8.996481448411942E-2   2.245630770921707E-1   8.913502097129822E-1  
 6.584000000000000E7     2.228917032480240E-1   8.942052125930786E-1   3.638287186622620E-1  -9.038611501455307E-2   3.636601269245148E-1  -9.037484228610992E-2   2.257007509469986E-1   8.911356329917908E-1  
 6.586000000000000E7     2.236668318510056E-1   8.936581015586853E-1   3.638204634189606E-1  -9.062859416007996E-2   3.638669550418854E-1  -9.048788994550705E-2   2.258367687463760E-1   8.906423449516296E-1  
 6.588000000000000E7     2.241075485944748E-1   8.933233618736267E-1   3.640925288200378E-1  -9.115096926689148E-2   3.638982772827148E-1  -9.073550999164581E-2   2.270476967096329E-1   8.901283740997315E-1  
 6.590000000000000E7     2.247200906276703E-1   8.930481672286987E-1   3.645823299884796E-1  -9.138371050357819E-2   3.641922771930695E-1  -9.133846312761307E-2   2.278947234153748E-1   8.899901509284973E-1  
 6.592000000000000E7     2.254709750413895E-1   8.927022814750671E-1   3.642862141132355E-1  -9.203591942787170E-2   3.642317950725555E-1  -9.162433445453644E-2   2.285820841789246E-1   8.899970650672913E-1  
 6.594000000000000E7     2.260961234569550E-1   8.926113843917847E-1   3.647784292697907E-1  -9.192341566085815E-2   3.648311793804169E-1  -9.167923778295517E-2   2.288320660591126E-1   8.898978233337402E-1  
 6.596000000000000E7     2.268622219562531E-1   8.924589157104492E-1   3.648403584957123E-1  -9.246948361396790E-2   3.648871481418610E-1  -9.224474430084229E-2   2.295134067535400E-1   8.890748620033264E-1  
 6.598000000000000E7     2.275737673044205E-1   8.919650912284851E-1   3.652708828449249E-1  -9.289117902517319E-2   3.652542829513550E-1  -9.254109114408493E-2   2.302815616130829E-1   8.886716365814209E-1  
 6.600000000000000E7     2.282858341932297E-1   8.915399312973023E-1   3.655583858489990E-1  -9.313546121120453E-2   3.652519583702087E-1  -9.285917878150940E-2   2.305404245853424E-1   8.885895609855652E-1  
 6.602000000000000E7     2.290786504745483E-1   8.916676640510559E-1   3.654648363590241E-1  -9.336154162883759E-2   3.654749095439911E-1  -9.315286576747894E-2   2.310622930526733E-1   8.884518146514893E-1  
 6.604000000000000E7     2.292718738317490E-1   8.906637430191040E-1   3.658616542816162E-1  -9.378629922866821E-2   3.654788136482239E-1  -9.383039176464081E-2   2.321896404027939E-1   8.884213566780090E-1  
 6.606000000000000E7     2.303055971860886E-1   8.910363912582398E-1   3.658192455768585E-1  -9.432533383369446E-2   3.657538890838623E-1  -9.425193071365356E-2   2.326049953699112E-1   8.878544569015503E-1  
 6.608000000000000E7     2.309198677539825E-1   8.903635740280151E-1   3.661791682243347E-1  -9.453728795051575E-2   3.663753271102905E-1  -9.452202916145325E-2   2.331083863973618E-1   8.875198960304260E-1  
 6.610000000000000E7     2.315636724233627E-1   8.900830149650574E-1   3.666687905788422E-1  -9.490329027175903E-2   3.661466240882874E-1  -9.476844966411591E-2   2.340399175882340E-1   8.877444863319397E-1  
 6.612000000000000E7     2.323473989963532E-1   8.897930979728699E-1   3.665002286434174E-1  -9.539364278316498E-2   3.663865327835083E-1  -9.536179900169373E-2   2.344222366809845E-1   8.869747519493103E-1  
 6.614000000000000E7     2.323861569166184E-1   8.898096680641174E-1   3.666386902332306E-1  -9.563761204481125E-2   3.668133020401001E-1  -9.512270987033844E-2   2.356302738189697E-1   8.867417573928833E-1  
 6.616000000000000E7     2.334119230508804E-1   8.894633650779724E-1   3.669725060462952E-1  -9.590408205986023E-2   3.664488792419434E-1  -9.580880403518677E-2   2.358606755733490E-1   8.862558603286743E-1  
 6.618000000000000E7     2.336437404155731E-1   8.893149495124817E-1   3.670119643211365E-1  -9.597913175821304E-2   3.670224547386169E-1  -9.620885550975800E-2   2.365327328443527E-1   8.859003782272339E-1  
 6.620000000000000E7     2.346398085355759E-1   8.890169858932495E-1   3.671637177467346E-1  -9.649468213319778E-2   3.673172295093536E-1  -9.639504551887512E-2   2.372290343046188E-1   8.854018449783325E-1  
 6.622000000000000E7     2.353249043226242E-1   8.887141346931458E-1   3.675532341003418E-1  -9.695989638566971E-2   3.674401342868805E-1  -9.701986610889435E-2   2.379695922136307E-1   8.856561183929443E-1  
 6.624000000000000E7     2.360908240079880E-1   8.885515928268433E-1   3.676164448261261E-1  -9.743863344192505E-2   3.676925003528595E-1  -9.720523655414581E-2   2.383896857500076E-1   8.851521611213684E-1  
 6.626000000000000E7     2.367373853921890E-1   8.879390358924866E-1   3.678235113620758E-1  -9.775760769844055E-2   3.678495287895203E-1  -9.753375500440598E-2   2.390317618846893E-1   8.850163817405701E-1  
 6.628000000000000E7     2.370037734508514E-1   8.879330754280090E-1   3.680729866027832E-1  -9.806594252586365E-2   3.679319620132446E-1  -9.783938527107239E-2   2.393605411052704E-1   8.846213221549988E-1  
 6.630000000000000E7     2.377897053956986E-1   8.876144289970398E-1   3.686834871768951E-1  -9.830217808485031E-2   3.683238327503204E-1  -9.807424992322922E-2   2.402703613042831E-1   8.846468925476074E-1  
 6.632000000000000E7     2.385504245758057E-1   8.871051669120789E-1   3.686146736145020E-1  -9.873373806476593E-2   3.683288097381592E-1  -9.858577698469162E-2   2.409500926733017E-1   8.845828771591187E-1  
 6.634000000000000E7     2.392348349094391E-1   8.869942426681519E-1   3.684828281402588E-1  -9.904289245605469E-2   3.684953451156616E-1  -9.884567558765411E-2   2.416632622480393E-1   8.839837312698364E-1  
 6.636000000000000E7     2.396869212388992E-1   8.862957358360291E-1   3.689188957214356E-1  -9.934291243553162E-2   3.687396645545960E-1  -9.926989674568176E-2   2.424837499856949E-1   8.836915493011475E-1  
 6.638000000000000E7     2.402270436286926E-1   8.867325782775879E-1   3.691336214542389E-1  -9.988142549991608E-2   3.689950704574585E-1  -9.972066432237625E-2   2.428479939699173E-1   8.833885788917542E-1  
 6.640000000000000E7     2.408321648836136E-1   8.860023617744446E-1   3.693425655364990E-1  -1.002806127071381E-1   3.691545426845551E-1  -1.001310124993324E-1   2.436521202325821E-1   8.827725648880005E-1  
 6.642000000000000E7     2.413340806961060E-1   8.858337998390198E-1   3.694533705711365E-1  -1.003910899162293E-1   3.693008124828339E-1  -1.002883762121201E-1   2.442310303449631E-1   8.829081058502197E-1  
 6.644000000000000E7     2.421527951955795E-1   8.857031464576721E-1   3.696854710578919E-1  -1.009922623634338E-1   3.694036304950714E-1  -1.005754470825195E-1   2.447449415922165E-1   8.822691440582275E-1  
 6.646000000000000E7     2.429075986146927E-1   8.853572010993958E-1   3.695738911628723E-1  -1.010144501924515E-1   3.697015643119812E-1  -1.011959910392761E-1   2.453556209802628E-1   8.817541599273682E-1  
 6.648000000000000E7     2.435684651136398E-1   8.850640654563904E-1   3.699799478054047E-1  -1.017592400312424E-1   3.695902526378632E-1  -1.010598912835121E-1   2.462538480758667E-1   8.821839094161987E-1  
 6.650000000000000E7     2.439507097005844E-1   8.845450282096863E-1   3.702068626880646E-1  -1.017905771732330E-1   3.701313436031342E-1  -1.016371995210648E-1   2.467292249202728E-1   8.816291093826294E-1  
 6.652000000000000E7     2.444913536310196E-1   8.841868638992310E-1   3.702388107776642E-1  -1.020646840333939E-1   3.701528608798981E-1  -1.020430475473404E-1   2.476111501455307E-1   8.815097808837891E-1  
 6.654000000000000E7     2.455957382917404E-1   8.842741250991821E-1   3.702638745307922E-1  -1.022970974445343E-1   3.703369200229645E-1  -1.024277955293655E-1   2.476508617401123E-1   8.810195922851563E-1  
 6.656000000000000E7     2.459588348865509E-1   8.838776946067810E-1   3.708167970180512E-1  -1.030158251523972E-1   3.708879053592682E-1  -1.027139425277710E-1   2.485990971326828E-1   8.806004524230957E-1  
 6.658000000000000E7     2.470196783542633E-1   8.835474252700806E-1   3.708817064762116E-1  -1.032481193542481E-1   3.710483908653259E-1  -1.032646596431732E-1   2.489710301160812E-1   8.805374503135681E-1  
 6.660000000000000E7     2.472482174634934E-1   8.831009268760681E-1   3.709729909896851E-1  -1.035374850034714E-1   3.709691762924194E-1  -1.033572629094124E-1   2.498767822980881E-1   8.800166249275208E-1  
 6.662000000000000E7     2.476103901863098E-1   8.829304575920105E-1   3.711745142936707E-1  -1.041711568832398E-1   3.713069558143616E-1  -1.034028008580208E-1   2.503388524055481E-1   8.797973394393921E-1  
 6.664000000000000E7     2.483265548944473E-1   8.824517726898193E-1   3.713721036911011E-1  -1.044649481773377E-1   3.711698353290558E-1  -1.042599976062775E-1   2.514700591564179E-1   8.796170949935913E-1  
 6.666000000000000E7     2.486894577741623E-1   8.822879195213318E-1   3.715617954730988E-1  -1.046543419361115E-1   3.713479340076447E-1  -1.046053916215897E-1   2.516210675239563E-1   8.795312047004700E-1  
 6.668000000000000E7     2.500557005405426E-1   8.821211457252502E-1   3.716501891613007E-1  -1.050613000988960E-1   3.720099329948425E-1  -1.049577221274376E-1   2.521434724330902E-1   8.787702918052673E-1  
 6.670000000000000E7     2.503409087657929E-1   8.817981481552124E-1   3.716353476047516E-1  -1.053466498851776E-1   3.719557821750641E-1  -1.053356230258942E-1   2.530541121959686E-1   8.786309361457825E-1  
 6.672000000000000E7     2.509648203849793E-1   8.811191916465759E-1   3.718773722648621E-1  -1.058799996972084E-1   3.719111680984497E-1  -1.055777370929718E-1   2.536163032054901E-1   8.781244158744812E-1  
 6.674000000000000E7     2.515638172626495E-1   8.811661005020142E-1   3.725871443748474E-1  -1.064185425639153E-1   3.724538981914520E-1  -1.059789657592773E-1   2.547397613525391E-1   8.779589533805847E-1  
 6.676000000000000E7     2.519946694374085E-1   8.805466890335083E-1   3.725890815258026E-1  -1.064692288637161E-1   3.723522722721100E-1  -1.063978970050812E-1   2.545156776905060E-1   8.778119087219238E-1  
 6.678000000000000E7     2.529746890068054E-1   8.801339268684387E-1   3.728221654891968E-1  -1.069057211279869E-1   3.722779154777527E-1  -1.067511290311813E-1   2.553349733352661E-1   8.776867389678955E-1  
 6.680000000000000E7     2.536936700344086E-1   8.800160288810730E-1   3.730265796184540E-1  -1.071772947907448E-1   3.729517459869385E-1  -1.071813330054283E-1   2.561861574649811E-1   8.771742582321167E-1  
 6.682000000000000E7     2.544103562831879E-1   8.799976110458374E-1   3.729762732982636E-1  -1.075905486941338E-1   3.729569315910339E-1  -1.075245365500450E-1   2.566300034523010E-1   8.767894506454468E-1  
 6.684000000000000E7     2.550848126411438E-1   8.792812824249268E-1   3.732098042964935E-1  -1.078703701496124E-1   3.730141222476959E-1  -1.077306866645813E-1   2.574984431266785E-1   8.763886094093323E-1  
 6.686000000000000E7     2.554983794689179E-1   8.790022134780884E-1   3.734968304634094E-1  -1.082231700420380E-1   3.732582628726959E-1  -1.082122474908829E-1   2.576978802680969E-1   8.764622211456299E-1  
 6.688000000000000E7     2.560021281242371E-1   8.790777325630188E-1   3.738442659378052E-1  -1.085881218314171E-1   3.735408484935761E-1  -1.083169728517532E-1   2.586249113082886E-1   8.760104775428772E-1  
 6.690000000000000E7     2.567287683486939E-1   8.786173462867737E-1   3.741948008537293E-1  -1.089447885751724E-1   3.742053806781769E-1  -1.087339296936989E-1   2.589875459671021E-1   8.759848475456238E-1  
 6.692000000000000E7     2.573491334915161E-1   8.781162500381470E-1   3.739349544048309E-1  -1.095467805862427E-1   3.739987313747406E-1  -1.092823371291161E-1   2.600502967834473E-1   8.754389286041260E-1  
 6.694000000000000E7     2.579510211944580E-1   8.778893947601318E-1   3.741951882839203E-1  -1.097384393215179E-1   3.738530874252319E-1  -1.095115244388580E-1   2.605158686637878E-1   8.748807907104492E-1  
 6.696000000000000E7     2.586968839168549E-1   8.775359392166138E-1   3.744707107543945E-1  -1.100654676556587E-1   3.740314543247223E-1  -1.099167615175247E-1   2.613139748573303E-1   8.752839565277100E-1  
 6.698000000000000E7     2.588643729686737E-1   8.772855997085571E-1   3.745027780532837E-1  -1.102316528558731E-1   3.741329014301300E-1  -1.100528538227081E-1   2.615354955196381E-1   8.743946552276611E-1  
 6.700000000000000E7     2.596096694469452E-1   8.770257830619812E-1   3.745622932910919E-1  -1.107336357235909E-1   3.746048808097839E-1  -1.105575561523438E-1   2.624545097351074E-1   8.738982081413269E-1  
 6.702000000000000E7     2.603507339954376E-1   8.764923810958862E-1   3.749723136425018E-1  -1.112947165966034E-1   3.746409714221954E-1  -1.107567176222801E-1   2.631597518920898E-1   8.738834261894226E-1  
 6.704000000000000E7     2.609426379203796E-1   8.766006231307983E-1   3.748659789562225E-1  -1.116228029131889E-1   3.750215470790863E-1  -1.112716943025589E-1   2.636963129043579E-1   8.736618161201477E-1  
 6.706000000000000E7     2.617537677288055E-1   8.759710192680359E-1   3.753232955932617E-1  -1.119567602872849E-1   3.748289346694946E-1  -1.119946241378784E-1   2.642999589443207E-1   8.733258247375488E-1  
 6.708000000000000E7     2.623494565486908E-1   8.755850195884705E-1   3.757748901844025E-1  -1.123569905757904E-1   3.751638531684876E-1  -1.122984215617180E-1   2.647015452384949E-1   8.729459047317505E-1  
 6.710000000000000E7     2.629061341285706E-1   8.755391836166382E-1   3.756944239139557E-1  -1.126638203859329E-1   3.754889369010925E-1  -1.124159321188927E-1   2.653719782829285E-1   8.727225661277771E-1  
 6.712000000000000E7     2.637262940406799E-1   8.756710290908814E-1   3.758750557899475E-1  -1.129062771797180E-1   3.756390213966370E-1  -1.126576736569405E-1   2.656354010105133E-1   8.722962141036987E-1  
 6.714000000000000E7     2.643789350986481E-1   8.752407431602478E-1   3.760833442211151E-1  -1.135070919990540E-1   3.757839500904083E-1  -1.134472489356995E-1   2.664839327335358E-1   8.719211220741272E-1  
 6.716000000000000E7     2.649145424365997E-1   8.744106292724609E-1   3.762963116168976E-1  -1.134481281042099E-1   3.761034607887268E-1  -1.134284585714340E-1   2.669157385826111E-1   8.718835711479187E-1  
 6.718000000000000E7     2.654451727867127E-1   8.740952610969544E-1   3.760929107666016E-1  -1.142368465662003E-1   3.758572041988373E-1  -1.140960305929184E-1   2.678643167018890E-1   8.714805245399475E-1  
 6.720000000000000E7     2.664562165737152E-1   8.741374611854553E-1   3.764029145240784E-1  -1.144427657127380E-1   3.762845098972321E-1  -1.141583025455475E-1   2.685196399688721E-1   8.712064027786255E-1  
 6.722000000000000E7     2.668872773647308E-1   8.740328550338745E-1   3.768938481807709E-1  -1.146042495965958E-1   3.766127824783325E-1  -1.145292520523071E-1   2.691475152969360E-1   8.712522983551025E-1  
 6.724000000000000E7     2.675068378448486E-1   8.733267188072205E-1   3.767233788967133E-1  -1.154929399490356E-1   3.765666484832764E-1  -1.152206361293793E-1   2.695203423500061E-1   8.701866269111633E-1  
 6.726000000000000E7     2.680595815181732E-1   8.729625344276428E-1   3.769333958625794E-1  -1.157229021191597E-1   3.767699599266052E-1  -1.157604306936264E-1   2.703396081924439E-1   8.702430129051209E-1  
 6.728000000000000E7     2.684415876865387E-1   8.727883100509644E-1   3.772067725658417E-1  -1.159186288714409E-1   3.770562410354614E-1  -1.156889498233795E-1   2.709027826786041E-1   8.700899481773377E-1  
 6.730000000000000E7     2.689859867095947E-1   8.727079033851624E-1   3.776782751083374E-1  -1.163110584020615E-1   3.774882853031158E-1  -1.161929517984390E-1   2.717534899711609E-1   8.695838451385498E-1  
 6.732000000000000E7     2.700014710426331E-1   8.722100257873535E-1   3.774380385875702E-1  -1.165865063667297E-1   3.774250149726868E-1  -1.161861866712570E-1   2.717036008834839E-1   8.692772984504700E-1  
 6.734000000000000E7     2.707599103450775E-1   8.720539808273315E-1   3.776853382587433E-1  -1.170312911272049E-1   3.776783943176270E-1  -1.169379055500031E-1   2.727605700492859E-1   8.688235282897949E-1  
 6.736000000000000E7     2.712377905845642E-1   8.715069890022278E-1   3.779106438159943E-1  -1.174838989973068E-1   3.778688609600067E-1  -1.170665770769119E-1   2.732377350330353E-1   8.689453601837158E-1  
 6.738000000000000E7     2.719825208187103E-1   8.714942932128906E-1   3.779930472373962E-1  -1.176366508007050E-1   3.779825866222382E-1  -1.178068518638611E-1   2.744087278842926E-1   8.683197498321533E-1  
 6.740000000000000E7     2.723395526409149E-1   8.707138299942017E-1   3.783699572086334E-1  -1.179427802562714E-1   3.778112530708313E-1  -1.181289553642273E-1   2.745737731456757E-1   8.681077361106873E-1  
 6.742000000000000E7     2.729671001434326E-1   8.706065416336060E-1   3.782451450824738E-1  -1.183258891105652E-1   3.783545792102814E-1  -1.183308362960815E-1   2.751210331916809E-1   8.678398728370667E-1  
 6.744000000000000E7     2.736223638057709E-1   8.702713251113892E-1   3.784467875957489E-1  -1.187798529863358E-1   3.784512281417847E-1  -1.188402026891708E-1   2.755716741085053E-1   8.674012422561646E-1  
 6.746000000000000E7     2.741114497184753E-1   8.697239160537720E-1   3.784080743789673E-1  -1.194538772106171E-1   3.784399330615997E-1  -1.189772188663483E-1   2.765780985355377E-1   8.669189214706421E-1  
 6.748000000000000E7     2.747025787830353E-1   8.694640398025513E-1   3.788448274135590E-1  -1.193398535251617E-1   3.785283565521240E-1  -1.193974018096924E-1   2.773242294788361E-1   8.669750690460205E-1  
 6.750000000000000E7     2.750916481018066E-1   8.697559237480164E-1   3.788238763809204E-1  -1.197121888399124E-1   3.789907097816467E-1  -1.196127980947495E-1   2.776832580566406E-1   8.663586974143982E-1  
 6.752000000000000E7     2.758203744888306E-1   8.692177534103394E-1   3.791387379169464E-1  -1.203506737947464E-1   3.788604438304901E-1  -1.200027465820313E-1   2.784403264522553E-1   8.658821582794190E-1  
 6.754000000000000E7     2.767011821269989E-1   8.688465356826782E-1   3.794765472412109E-1  -1.208078786730766E-1   3.792177736759186E-1  -1.205855235457420E-1   2.790627777576447E-1   8.658336997032166E-1  
 6.756000000000000E7     2.769623696804047E-1   8.682357072830200E-1   3.795821964740753E-1  -1.209573373198509E-1   3.791841566562653E-1  -1.208280175924301E-1   2.796380519866943E-1   8.654428720474243E-1  
 6.758000000000000E7     2.775814533233643E-1   8.678787350654602E-1   3.796885907649994E-1  -1.216149255633354E-1   3.796782195568085E-1  -1.214265674352646E-1   2.802827954292297E-1   8.653107285499573E-1  
 6.760000000000000E7     2.779258787631989E-1   8.675699234008789E-1   3.800111114978790E-1  -1.216251552104950E-1   3.798097670078278E-1  -1.217889785766602E-1   2.812117636203766E-1   8.649072647094727E-1  
 6.762000000000000E7     2.791249155998230E-1   8.673055768013001E-1   3.798072338104248E-1  -1.222350671887398E-1   3.798656761646271E-1  -1.220448315143585E-1   2.816971242427826E-1   8.646914958953857E-1  
 6.764000000000000E7     2.796400785446167E-1   8.670887947082520E-1   3.804308474063873E-1  -1.226202994585037E-1   3.804005384445190E-1  -1.225449293851852E-1   2.821030020713806E-1   8.643109798431397E-1  
 6.766000000000000E7     2.799834907054901E-1   8.669155836105347E-1   3.804161846637726E-1  -1.229837313294411E-1   3.804806172847748E-1  -1.229246705770493E-1   2.828325629234314E-1   8.641307950019836E-1  
 6.768000000000000E7     2.807964682579041E-1   8.663359880447388E-1   3.806207776069641E-1  -1.232783198356628E-1   3.804640471935272E-1  -1.231517121195793E-1   2.832064032554627E-1   8.638291358947754E-1  
 6.770000000000000E7     2.815239727497101E-1   8.666031956672669E-1   3.805765807628632E-1  -1.236852630972862E-1   3.804201185703278E-1  -1.236117705702782E-1   2.838339805603027E-1   8.630654811859131E-1  
 6.772000000000000E7     2.820788919925690E-1   8.657523989677429E-1   3.809541463851929E-1  -1.238744705915451E-1   3.807616233825684E-1  -1.238089650869370E-1   2.846551537513733E-1   8.632124066352844E-1  
 6.774000000000000E7     2.823134660720825E-1   8.655887246131897E-1   3.809195756912231E-1  -1.242895126342773E-1   3.808297216892242E-1  -1.240723282098770E-1   2.850153744220734E-1   8.625924587249756E-1  
 6.776000000000000E7     2.836208045482636E-1   8.651250600814819E-1   3.811745643615723E-1  -1.247840076684952E-1   3.813227713108063E-1  -1.247542798519135E-1   2.857988178730011E-1   8.622710108757019E-1  
 6.778000000000000E7     2.836737036705017E-1   8.648174405097961E-1   3.811361789703369E-1  -1.248878091573715E-1   3.810456097126007E-1  -1.248496025800705E-1   2.861910462379456E-1   8.620560169219971E-1  
 6.780000000000000E7     2.842803895473480E-1   8.644794225692749E-1   3.814829885959625E-1  -1.255486458539963E-1   3.812633156776428E-1  -1.253316104412079E-1   2.868972122669220E-1   8.615409135818481E-1  
 6.782000000000000E7     2.850869596004486E-1   8.641552925109863E-1   3.813442587852478E-1  -1.259116530418396E-1   3.814930021762848E-1  -1.255090683698654E-1   2.876373827457428E-1   8.613198399543762E-1  
 6.784000000000000E7     2.853262126445770E-1   8.642395734786987E-1   3.817764520645142E-1  -1.259410977363586E-1   3.816269636154175E-1  -1.257782578468323E-1   2.881543636322022E-1   8.609903454780579E-1  
 6.786000000000000E7     2.862505316734314E-1   8.636258244514465E-1   3.818762898445129E-1  -1.265125721693039E-1   3.817814886569977E-1  -1.266475766897202E-1   2.890198230743408E-1   8.604519367218018E-1  
 6.788000000000000E7     2.869781851768494E-1   8.633978366851807E-1   3.820983469486237E-1  -1.269694119691849E-1   3.820335566997528E-1  -1.265548169612885E-1   2.892510592937470E-1   8.604729175567627E-1  
 6.790000000000000E7     2.877839803695679E-1   8.629036545753479E-1   3.821342587471008E-1  -1.276064217090607E-1   3.821942508220673E-1  -1.270350366830826E-1   2.902384400367737E-1   8.598893284797669E-1  
 6.792000000000000E7     2.882924675941467E-1   8.626813888549805E-1   3.824309110641480E-1  -1.274890005588532E-1   3.821560442447662E-1  -1.273951679468155E-1   2.904920578002930E-1   8.596709370613098E-1  
 6.794000000000000E7     2.886770069599152E-1   8.620475530624390E-1   3.826383352279663E-1  -1.283332258462906E-1   3.824930489063263E-1  -1.279691606760025E-1   2.912880182266235E-1   8.596033453941345E-1  
 6.796000000000000E7     2.895741760730743E-1   8.618806600570679E-1   3.825781643390656E-1  -1.286023259162903E-1   3.828099966049194E-1  -1.281886547803879E-1   2.916283607482910E-1   8.591337203979492E-1  
 6.798000000000000E7     2.898601293563843E-1   8.613866567611694E-1   3.829290270805359E-1  -1.287332177162170E-1   3.828385770320892E-1  -1.286902576684952E-1   2.923918962478638E-1   8.588901162147522E-1  
 6.800000000000000E7     2.902903258800507E-1   8.612345457077026E-1   3.829716742038727E-1  -1.291874796152115E-1   3.828653097152710E-1  -1.289346814155579E-1   2.932320237159729E-1   8.584208488464356E-1  
 6.802000000000000E7     2.912635505199432E-1   8.609183430671692E-1   3.831450939178467E-1  -1.297469139099121E-1   3.832669556140900E-1  -1.292416006326675E-1   2.937809228897095E-1   8.585023283958435E-1  
 6.804000000000000E7     2.916644215583801E-1   8.608508110046387E-1   3.835782110691071E-1  -1.298931241035461E-1   3.832876086235046E-1  -1.294708549976349E-1   2.943756878376007E-1   8.578506708145142E-1  
 6.806000000000000E7     2.922427356243134E-1   8.599695563316345E-1   3.835965991020203E-1  -1.303819566965103E-1   3.834846317768097E-1  -1.299757808446884E-1   2.947639524936676E-1   8.575748801231384E-1  
 6.808000000000000E7     2.926580011844635E-1   8.599845170974731E-1   3.836579918861389E-1  -1.306978762149811E-1   3.836742043495178E-1  -1.302130222320557E-1   2.955978214740753E-1   8.570613861083984E-1  
 6.810000000000000E7     2.934847474098206E-1   8.594619631767273E-1   3.838881850242615E-1  -1.309308558702469E-1   3.836883008480072E-1  -1.307903230190277E-1   2.960206866264343E-1   8.568296432495117E-1  
 6.812000000000000E7     2.938823997974396E-1   8.594009876251221E-1   3.840767145156860E-1  -1.314167380332947E-1   3.838063776493073E-1  -1.312921345233917E-1   2.968653142452240E-1   8.564088940620422E-1  
 6.814000000000000E7     2.944476902484894E-1   8.590709567070007E-1   3.841869831085205E-1  -1.318803131580353E-1   3.841587603092194E-1  -1.315472424030304E-1   2.974882721900940E-1   8.556423783302307E-1  
 6.816000000000000E7     2.954587936401367E-1   8.585640192031860E-1   3.842822909355164E-1  -1.321418881416321E-1   3.840677142143250E-1  -1.321027725934982E-1   2.980407476425171E-1   8.557282090187073E-1  
 6.818000000000000E7     2.960216999053955E-1   8.581322431564331E-1   3.844483792781830E-1  -1.328098922967911E-1   3.842926323413849E-1  -1.323896646499634E-1   2.985271513462067E-1   8.554006814956665E-1  
 6.820000000000000E7     2.964334487915039E-1   8.578804731369019E-1   3.844656050205231E-1  -1.328460276126862E-1   3.844150304794312E-1  -1.327219605445862E-1   2.992260754108429E-1   8.549237847328186E-1  
 6.822000000000000E7     2.975256145000458E-1   8.575919270515442E-1   3.847663700580597E-1  -1.335698366165161E-1   3.845517039299011E-1  -1.333175450563431E-1   2.996068000793457E-1   8.547477722167969E-1  
 6.824000000000000E7     2.975401282310486E-1   8.568924069404602E-1   3.848696053028107E-1  -1.339210718870163E-1   3.844913244247437E-1  -1.335613727569580E-1   3.005178570747376E-1   8.544942140579224E-1  
 6.826000000000000E7     2.984329760074616E-1   8.569718003273010E-1   3.849672079086304E-1  -1.339099854230881E-1   3.848296403884888E-1  -1.338471025228500E-1   3.007566332817078E-1   8.540814518928528E-1  
 6.828000000000000E7     2.989910542964935E-1   8.565490841865540E-1   3.851970434188843E-1  -1.344267725944519E-1   3.849364221096039E-1  -1.345261782407761E-1   3.013506829738617E-1   8.539925813674927E-1  
 6.830000000000000E7     2.995584309101105E-1   8.562819361686707E-1   3.851076662540436E-1  -1.347091495990753E-1   3.852875530719757E-1  -1.345982849597931E-1   3.018649518489838E-1   8.532970547676086E-1  
 6.832000000000000E7     3.001037836074829E-1   8.559040427207947E-1   3.853616416454315E-1  -1.351382434368134E-1   3.851959705352783E-1  -1.348213255405426E-1   3.025177717208862E-1   8.530426621437073E-1  
 6.834000000000000E7     3.005395531654358E-1   8.554208278656006E-1   3.857710659503937E-1  -1.356465369462967E-1   3.855925202369690E-1  -1.356536298990250E-1   3.033728599548340E-1   8.528001308441162E-1  
 6.836000000000000E7     3.011942803859711E-1   8.554803729057312E-1   3.857962787151337E-1  -1.360264867544174E-1   3.854948878288269E-1  -1.357944458723068E-1   3.038611412048340E-1   8.523789644241333E-1  
 6.838000000000000E7     3.016178607940674E-1   8.548569083213806E-1   3.859776854515076E-1  -1.366099417209625E-1   3.857852518558502E-1  -1.361302137374878E-1   3.045578598976135E-1   8.519945144653320E-1  
 6.840000000000000E7     3.024815022945404E-1   8.543916344642639E-1   3.860031962394714E-1  -1.369293928146362E-1   3.858038485050201E-1  -1.367367208003998E-1   3.051789402961731E-1   8.515539765357971E-1  
 6.842000000000000E7     3.027234673500061E-1   8.540898561477661E-1   3.860986828804016E-1  -1.371018737554550E-1   3.861311078071594E-1  -1.366312354803085E-1   3.059607446193695E-1   8.511480689048767E-1  
 6.844000000000000E7     3.038586974143982E-1   8.540396690368652E-1   3.865604996681213E-1  -1.377110630273819E-1   3.863685131072998E-1  -1.375491470098496E-1   3.064508438110352E-1   8.512452840805054E-1  
 6.846000000000000E7     3.044050335884094E-1   8.535561561584473E-1   3.866076767444611E-1  -1.377991288900375E-1   3.864746987819672E-1  -1.377983391284943E-1   3.066241443157196E-1   8.508758544921875E-1  
 6.848000000000000E7     3.045520484447479E-1   8.532299399375916E-1   3.863748013973236E-1  -1.378107517957687E-1   3.864575624465942E-1  -1.378330737352371E-1   3.073898553848267E-1   8.506492376327515E-1  
 6.850000000000000E7     3.054372668266296E-1   8.530041575431824E-1   3.866817951202393E-1  -1.387300789356232E-1   3.865701556205750E-1  -1.384759396314621E-1   3.081254959106445E-1   8.498607277870178E-1  
 6.852000000000000E7     3.061596155166626E-1   8.523467183113098E-1   3.869942426681519E-1  -1.391689479351044E-1   3.866397738456726E-1  -1.387079805135727E-1   3.084840178489685E-1   8.500474095344544E-1  
 6.854000000000000E7     3.065862059593201E-1   8.521601557731628E-1   3.871142268180847E-1  -1.394709199666977E-1   3.867880403995514E-1  -1.392424404621124E-1   3.091933131217957E-1   8.493465185165405E-1  
 6.856000000000000E7     3.073140978813171E-1   8.519836068153381E-1   3.870934545993805E-1  -1.399433463811874E-1   3.871361613273621E-1  -1.396722644567490E-1   3.095535933971405E-1   8.490327000617981E-1  
 6.858000000000000E7     3.079533576965332E-1   8.516523838043213E-1   3.872469067573547E-1  -1.402698010206223E-1   3.873513936996460E-1  -1.400040835142136E-1   3.104876279830933E-1   8.485741019248962E-1  
 6.860000000000000E7     3.078860938549042E-1   8.512312769889832E-1   3.872824609279633E-1  -1.406086683273315E-1   3.873545527458191E-1  -1.402547359466553E-1   3.113994598388672E-1   8.482353091239929E-1  
 6.862000000000000E7     3.092473149299622E-1   8.509195446968079E-1   3.877606391906738E-1  -1.410035490989685E-1   3.872959315776825E-1  -1.408060640096664E-1   3.116236031055450E-1   8.481358289718628E-1  
 6.864000000000000E7     3.096903562545776E-1   8.503041863441467E-1   3.876789212226868E-1  -1.412293016910553E-1   3.875794708728790E-1  -1.411164402961731E-1   3.120603859424591E-1   8.478208184242249E-1  
 6.866000000000000E7     3.104694485664368E-1   8.502941131591797E-1   3.879250586032867E-1  -1.416430026292801E-1   3.877786099910736E-1  -1.413182616233826E-1   3.124144077301025E-1   8.474254012107849E-1  
 6.868000000000000E7     3.106961250305176E-1   8.500147461891174E-1   3.880497813224793E-1  -1.420313417911530E-1   3.881022632122040E-1  -1.418016850948334E-1   3.134198188781738E-1   8.469924926757813E-1  
 6.870000000000000E7     3.114119470119476E-1   8.495252132415772E-1   3.880908489227295E-1  -1.427287012338638E-1   3.879815042018890E-1  -1.425777673721314E-1   3.140588700771332E-1   8.464822173118591E-1  
 6.872000000000000E7     3.120142817497253E-1   8.491905927658081E-1   3.881074190139771E-1  -1.429822146892548E-1   3.883030712604523E-1  -1.426762342453003E-1   3.148113489151001E-1   8.462614417076111E-1  
 6.874000000000000E7     3.119703233242035E-1   8.486437201499939E-1   3.887309134006500E-1  -1.433262526988983E-1   3.883419632911682E-1  -1.428589820861816E-1   3.153789937496185E-1   8.462693095207214E-1  
 6.876000000000000E7     3.131771981716156E-1   8.486619591712952E-1   3.885697722434998E-1  -1.435263454914093E-1   3.884651958942413E-1  -1.434606909751892E-1   3.156607747077942E-1   8.455146551132202E-1  
 6.878000000000000E7     3.136595487594605E-1   8.479437232017517E-1   3.886720836162567E-1  -1.439287364482880E-1   3.888307213783264E-1  -1.438821256160736E-1   3.164917826652527E-1   8.452099561691284E-1  
 6.880000000000000E7     3.144654631614685E-1   8.476868867874146E-1   3.887933194637299E-1  -1.443442553281784E-1   3.886524438858032E-1  -1.441337466239929E-1   3.166618645191193E-1   8.449997305870056E-1  
 6.882000000000000E7     3.145777583122253E-1   8.476024270057678E-1   3.891161680221558E-1  -1.447388678789139E-1   3.889996111392975E-1  -1.447385251522064E-1   3.174946904182434E-1   8.446662425994873E-1  
 6.884000000000000E7     3.152851760387421E-1   8.471813797950745E-1   3.890337347984314E-1  -1.449776440858841E-1   3.892484009265900E-1  -1.445869952440262E-1   3.180182874202728E-1   8.444306850433350E-1  
 6.886000000000000E7     3.158857822418213E-1   8.466238975524902E-1   3.891921043395996E-1  -1.454596966505051E-1   3.891954720020294E-1  -1.452360153198242E-1   3.186721503734589E-1   8.440991044044495E-1  
 6.888000000000000E7     3.169551193714142E-1   8.462988138198853E-1   3.893502354621887E-1  -1.459499150514603E-1   3.893836140632629E-1  -1.458106935024262E-1   3.190546333789825E-1   8.436723947525024E-1  
 6.890000000000000E7     3.170932829380035E-1   8.458175063133240E-1   3.893554508686066E-1  -1.465119570493698E-1   3.894929289817810E-1  -1.459463089704514E-1   3.195360004901886E-1   8.430675864219666E-1  
 6.892000000000000E7     3.179080486297607E-1   8.456962108612061E-1   3.893989026546478E-1  -1.466908007860184E-1   3.895717859268189E-1  -1.463029384613037E-1   3.202063143253326E-1   8.429881930351257E-1  
 6.894000000000000E7     3.183298707008362E-1   8.454465866088867E-1   3.898316323757172E-1  -1.465923339128494E-1   3.899956047534943E-1  -1.465704143047333E-1   3.204856812953949E-1   8.427673578262329E-1  
 6.896000000000000E7     3.190742135047913E-1   8.450309038162231E-1   3.902111947536469E-1  -1.472637355327606E-1   3.900864422321320E-1  -1.473016738891602E-1   3.211339712142944E-1   8.422052264213562E-1  
 6.898000000000000E7     3.194884061813355E-1   8.446081280708313E-1   3.902654945850372E-1  -1.475375741720200E-1   3.900513350963593E-1  -1.474405676126480E-1   3.219723105430603E-1   8.419123888015747E-1  
 6.900000000000000E7     3.202210962772369E-1   8.441973924636841E-1   3.902547061443329E-1  -1.480861604213715E-1   3.899514079093933E-1  -1.479929834604263E-1   3.226454555988312E-1   8.415465950965881E-1  
 6.902000000000000E7     3.204828798770905E-1   8.440479040145874E-1   3.904156088829041E-1  -1.483793556690216E-1   3.903386592864990E-1  -1.483385562896729E-1   3.232860565185547E-1   8.411121964454651E-1  
 6.904000000000000E7     3.213545680046082E-1   8.434376716613770E-1   3.905352950096130E-1  -1.492848694324493E-1   3.904926776885986E-1  -1.486366689205170E-1   3.240376412868500E-1   8.409734368324280E-1  
 6.906000000000000E7     3.219430148601532E-1   8.429205417633057E-1   3.905436396598816E-1  -1.492825448513031E-1   3.903699815273285E-1  -1.492626368999481E-1   3.243098258972168E-1   8.404715657234192E-1  
 6.908000000000000E7     3.223312795162201E-1   8.427642583847046E-1   3.908261060714722E-1  -1.494060754776001E-1   3.906271159648895E-1  -1.493695676326752E-1   3.252615928649902E-1   8.399782180786133E-1  
 6.910000000000000E7     3.229541480541229E-1   8.424011468887329E-1   3.908227980136871E-1  -1.499388515949249E-1   3.908168673515320E-1  -1.502400338649750E-1   3.257087767124176E-1   8.397882580757141E-1  
 6.912000000000000E7     3.235912919044495E-1   8.418531417846680E-1   3.911176025867462E-1  -1.502561569213867E-1   3.909093737602234E-1  -1.503239274024963E-1   3.260770440101624E-1   8.395097255706787E-1  
 6.914000000000000E7     3.238873779773712E-1   8.419662714004517E-1   3.910534083843231E-1  -1.506780982017517E-1   3.910559713840485E-1  -1.506049185991287E-1   3.269917666912079E-1   8.392597436904907E-1  
 6.916000000000000E7     3.247952759265900E-1   8.416748642921448E-1   3.913786113262177E-1  -1.513550579547882E-1   3.913831114768982E-1  -1.509402543306351E-1   3.274759054183960E-1   8.388861417770386E-1  
 6.918000000000000E7     3.251884579658508E-1   8.413470983505249E-1   3.915061056613922E-1  -1.517299711704254E-1   3.913918733596802E-1  -1.512797325849533E-1   3.281210660934448E-1   8.384995460510254E-1  
 6.920000000000000E7     3.257989883422852E-1   8.409112095832825E-1   3.915108144283295E-1  -1.519390195608139E-1   3.915300369262695E-1  -1.520632803440094E-1   3.287390172481537E-1   8.379759788513184E-1  
 6.922000000000000E7     3.265272080898285E-1   8.405419588088989E-1   3.920169174671173E-1  -1.525742709636688E-1   3.914832770824432E-1  -1.521699428558350E-1   3.294524848461151E-1   8.378377556800842E-1  
 6.924000000000000E7     3.270508348941803E-1   8.399736881256104E-1   3.917534649372101E-1  -1.529787629842758E-1   3.918695747852325E-1  -1.526503711938858E-1   3.294664621353149E-1   8.371744751930237E-1  
 6.926000000000000E7     3.270998001098633E-1   8.395997881889343E-1   3.919555842876434E-1  -1.532757282257080E-1   3.916729092597961E-1  -1.528172641992569E-1   3.306625485420227E-1   8.370299339294434E-1  
 6.928000000000000E7     3.281471431255341E-1   8.392561674118042E-1   3.920803070068359E-1  -1.536288857460022E-1   3.919409513473511E-1  -1.530083864927292E-1   3.307748734951019E-1   8.365252614021301E-1  
 6.930000000000000E7     3.289119303226471E-1   8.389928936958313E-1   3.923966288566589E-1  -1.543436348438263E-1   3.921170532703400E-1  -1.540159881114960E-1   3.315365910530090E-1   8.364490270614624E-1  
 6.932000000000000E7     3.296119868755341E-1   8.382906913757324E-1   3.922862708568573E-1  -1.547214090824127E-1   3.921540379524231E-1  -1.542741358280182E-1   3.319424986839294E-1   8.358480334281921E-1  
 6.934000000000000E7     3.299495577812195E-1   8.382427096366882E-1   3.923362493515015E-1  -1.549357324838638E-1   3.923730552196503E-1  -1.546451449394226E-1   3.324123919010162E-1   8.353976607322693E-1  
 6.936000000000000E7     3.307989537715912E-1   8.381218910217285E-1   3.926504254341126E-1  -1.552426666021347E-1   3.922523856163025E-1  -1.550886034965515E-1   3.332302868366242E-1   8.350285291671753E-1  
 6.938000000000000E7     3.309174776077271E-1   8.375806808471680E-1   3.925218284130096E-1  -1.556509137153626E-1   3.926228284835815E-1  -1.552426517009735E-1   3.339390754699707E-1   8.347672820091248E-1  
 6.940000000000000E7     3.313778936862946E-1   8.375664949417114E-1   3.929272294044495E-1  -1.559368818998337E-1   3.927474617958069E-1  -1.555838137865067E-1   3.345672786235809E-1   8.344929218292236E-1  
 6.942000000000000E7     3.321284651756287E-1   8.369218707084656E-1   3.928209543228149E-1  -1.563522219657898E-1   3.928037583827972E-1  -1.557525992393494E-1   3.349871933460236E-1   8.341181278228760E-1  
 6.944000000000000E7     3.324073255062103E-1   8.364955782890320E-1   3.929774165153503E-1  -1.565809398889542E-1   3.930481970310211E-1  -1.563906371593475E-1   3.352803289890289E-1   8.337062001228333E-1  
 6.946000000000000E7     3.333381414413452E-1   8.362309932708740E-1   3.930371105670929E-1  -1.571679413318634E-1   3.930264711380005E-1  -1.568937152624130E-1   3.361498713493347E-1   8.332211971282959E-1  
 6.948000000000000E7     3.335992097854614E-1   8.356889486312866E-1   3.931689262390137E-1  -1.576415449380875E-1   3.930655419826508E-1  -1.570901870727539E-1   3.364211618900299E-1   8.333058357238770E-1  
 6.950000000000000E7     3.346608281135559E-1   8.353042006492615E-1   3.933485448360443E-1  -1.580696851015091E-1   3.932266831398010E-1  -1.578351557254791E-1   3.371345102787018E-1   8.325867652893066E-1  
 6.952000000000000E7     3.349124491214752E-1   8.351636528968811E-1   3.939610719680786E-1  -1.579638421535492E-1   3.937618434429169E-1  -1.578648835420609E-1   3.378052115440369E-1   8.326244950294495E-1  
 6.954000000000000E7     3.350925147533417E-1   8.347214460372925E-1   3.934558033943176E-1  -1.585614234209061E-1   3.934780657291412E-1  -1.582793146371841E-1   3.382688462734222E-1   8.318974375724793E-1  
 6.956000000000000E7     3.361277580261231E-1   8.346552252769470E-1   3.935838043689728E-1  -1.590500622987747E-1   3.938295245170593E-1  -1.584818363189697E-1   3.385481238365173E-1   8.314369916915894E-1  
 6.958000000000000E7     3.365536034107208E-1   8.339771628379822E-1   3.938847184181213E-1  -1.596041321754456E-1   3.936789035797119E-1  -1.590050160884857E-1   3.394119441509247E-1   8.309814929962158E-1  
 6.960000000000000E7     3.376101851463318E-1   8.337379693984985E-1   3.937288522720337E-1  -1.599005013704300E-1   3.938769996166229E-1  -1.596254110336304E-1   3.397542834281921E-1   8.307771682739258E-1  
 6.962000000000000E7     3.375781774520874E-1   8.335247039794922E-1   3.939962983131409E-1  -1.604179441928864E-1   3.941115140914917E-1  -1.601168513298035E-1   3.407066464424133E-1   8.303580284118652E-1  
 6.964000000000000E7     3.383423686027527E-1   8.331502079963684E-1   3.941234350204468E-1  -1.607335209846497E-1   3.942853808403015E-1  -1.603222340345383E-1   3.412930667400360E-1   8.301402330398560E-1  
 6.966000000000000E7     3.386801481246948E-1   8.326138257980347E-1   3.941611945629120E-1  -1.610778272151947E-1   3.944155573844910E-1  -1.605314165353775E-1   3.416114747524262E-1   8.297040462493897E-1  
 6.968000000000000E7     3.393039703369141E-1   8.320655226707459E-1   3.945703208446503E-1  -1.616553217172623E-1   3.943812549114227E-1  -1.610815227031708E-1   3.424806296825409E-1   8.292229175567627E-1  
 6.970000000000000E7     3.399233222007752E-1   8.314763307571411E-1   3.946214020252228E-1  -1.616716384887695E-1   3.944599926471710E-1  -1.614156067371368E-1   3.426893651485443E-1   8.289460539817810E-1  
 6.972000000000000E7     3.406343460083008E-1   8.315490484237671E-1   3.947865366935730E-1  -1.625074744224548E-1   3.943306803703308E-1  -1.619727164506912E-1   3.433291018009186E-1   8.285160660743713E-1  
 6.974000000000000E7     3.413066864013672E-1   8.311744928359985E-1   3.949198424816132E-1  -1.624912470579147E-1   3.948448002338409E-1  -1.624497771263123E-1   3.439448475837708E-1   8.283633589744568E-1  
 6.976000000000000E7     3.415657877922058E-1   8.307366967201233E-1   3.948146700859070E-1  -1.631430536508560E-1   3.948602676391602E-1  -1.628267168998718E-1   3.445874750614166E-1   8.280479311943054E-1  
 6.978000000000000E7     3.423278927803040E-1   8.302558064460754E-1   3.954939544200897E-1  -1.633577644824982E-1   3.952503502368927E-1  -1.632251143455505E-1   3.450815975666046E-1   8.275265693664551E-1  
 6.980000000000000E7     3.429544568061829E-1   8.298106193542481E-1   3.949859738349915E-1  -1.640680134296417E-1   3.949057161808014E-1  -1.635884940624237E-1   3.456689119338989E-1   8.273094892501831E-1  
 6.982000000000000E7     3.434732854366303E-1   8.298768997192383E-1   3.951887488365173E-1  -1.639964282512665E-1   3.951995968818665E-1  -1.636495590209961E-1   3.462276160717011E-1   8.267627954483032E-1  
 6.984000000000000E7     3.440740108489990E-1   8.292135000228882E-1   3.952266275882721E-1  -1.646607667207718E-1   3.953821063041687E-1  -1.642141640186310E-1   3.469491004943848E-1   8.263261318206787E-1  
 6.986000000000000E7     3.449447751045227E-1   8.291109204292297E-1   3.958678543567658E-1  -1.649138629436493E-1   3.954861760139465E-1  -1.647423654794693E-1   3.471494019031525E-1   8.262297511100769E-1  
 6.988000000000000E7     3.450546562671661E-1   8.280780911445618E-1   3.954967856407166E-1  -1.652663201093674E-1   3.954860866069794E-1  -1.651824563741684E-1   3.480221331119537E-1   8.257684111595154E-1  
 6.990000000000000E7     3.460450768470764E-1   8.280821442604065E-1   3.957173824310303E-1  -1.657937765121460E-1   3.955989181995392E-1  -1.655620932579041E-1   3.486518561840057E-1   8.253841996192932E-1  
 6.992000000000000E7     3.467654287815094E-1   8.278258442878723E-1   3.959563970565796E-1  -1.659599840641022E-1   3.956968486309052E-1  -1.658001095056534E-1   3.490379154682159E-1   8.250116705894470E-1  
 6.994000000000000E7     3.471315205097199E-1   8.274769783020020E-1   3.957880735397339E-1  -1.665160357952118E-1   3.959923386573792E-1  -1.662916094064713E-1   3.496917784214020E-1   8.244543075561523E-1  
 6.996000000000000E7     3.475959599018097E-1   8.269388675689697E-1   3.962347209453583E-1  -1.668494939804077E-1   3.960864543914795E-1  -1.667357236146927E-1   3.500692844390869E-1   8.241245150566101E-1  
 6.998000000000000E7     3.481144309043884E-1   8.264906406402588E-1   3.958681821823120E-1  -1.672794222831726E-1   3.961119651794434E-1  -1.671121865510941E-1   3.507455587387085E-1   8.238492012023926E-1  
 7.000000000000000E7     3.484535217285156E-1   8.262456059455872E-1   3.962007164955139E-1  -1.674582064151764E-1   3.962643742561340E-1  -1.674459725618362E-1   3.514608740806580E-1   8.238286375999451E-1  
