#  HZ   S   RI   R     50.00 
! Rohde & Schwarz ZVT8 8Ports - Version 4.11 - 1300.0000k08 SN: 100242
! Date: 2026-07-13 13:49:14
! Measurements: S11 S21 S12 S22 
! 
 1.000000000000000E7    -8.446845412254334E-1   4.429220855236054E-1   1.203336566686630E-1   2.296156436204910E-1   1.206903234124184E-1   2.294387817382813E-1  -8.423059582710266E-1   4.400508701801300E-1  
 1.002000000000000E7    -8.441055417060852E-1   4.437372684478760E-1   1.206921935081482E-1   2.303066700696945E-1   1.210204958915710E-1   2.302913367748261E-1  -8.420583009719849E-1   4.403426349163055E-1  
 1.004000000000000E7    -8.432045578956604E-1   4.443547129631043E-1   1.214599311351776E-1   2.308730185031891E-1   1.216273456811905E-1   2.304689288139343E-1  -8.413248658180237E-1   4.416224658489227E-1  
 1.006000000000000E7    -8.428146243095398E-1   4.456368684768677E-1   1.218057945370674E-1   2.309190779924393E-1   1.222852319478989E-1   2.310517281293869E-1  -8.407101035118103E-1   4.425481259822846E-1  
 1.008000000000000E7    -8.423274755477905E-1   4.465230405330658E-1   1.224206238985062E-1   2.314353436231613E-1   1.226959228515625E-1   2.314091622829437E-1  -8.399390578269959E-1   4.431553781032562E-1  
 1.010000000000000E7    -8.417193889617920E-1   4.471709430217743E-1   1.227915510535240E-1   2.319676876068115E-1   1.229704990983009E-1   2.318626195192337E-1  -8.396388292312622E-1   4.436476230621338E-1  
 1.012000000000000E7    -8.414452075958252E-1   4.474242627620697E-1   1.233829334378243E-1   2.323517352342606E-1   1.238541901111603E-1   2.320497334003449E-1  -8.385652303695679E-1   4.450056254863739E-1  
 1.014000000000000E7    -8.404233455657959E-1   4.487582743167877E-1   1.241782754659653E-1   2.326068580150604E-1   1.244443356990814E-1   2.325319945812225E-1  -8.378428816795349E-1   4.454685747623444E-1  
 1.016000000000000E7    -8.396187424659729E-1   4.492162466049194E-1   1.244730651378632E-1   2.332583218812943E-1   1.248749643564224E-1   2.329425513744354E-1  -8.376038670539856E-1   4.466012716293335E-1  
 1.018000000000000E7    -8.393848538398743E-1   4.504162073135376E-1   1.250571012496948E-1   2.337442636489868E-1   1.254989057779312E-1   2.335689961910248E-1  -8.375620841979981E-1   4.470054209232330E-1  
 1.020000000000000E7    -8.385210037231445E-1   4.511421322822571E-1   1.256032884120941E-1   2.338199168443680E-1   1.257486194372177E-1   2.336482703685761E-1  -8.362945318222046E-1   4.478706121444702E-1  
 1.022000000000000E7    -8.376834988594055E-1   4.521556794643402E-1   1.259787231683731E-1   2.344138622283936E-1   1.262957602739334E-1   2.341012954711914E-1  -8.357737064361572E-1   4.485213756561279E-1  
 1.024000000000000E7    -8.371359705924988E-1   4.530751705169678E-1   1.268388926982880E-1   2.347309589385986E-1   1.272474825382233E-1   2.343985289335251E-1  -8.351001143455505E-1   4.500508904457092E-1  
 1.026000000000000E7    -8.365465998649597E-1   4.535559713840485E-1   1.271260976791382E-1   2.353798151016235E-1   1.273824274539948E-1   2.349697053432465E-1  -8.345953822135925E-1   4.500830769538879E-1  
 1.028000000000000E7    -8.357881903648377E-1   4.543667137622833E-1   1.276847571134567E-1   2.357432544231415E-1   1.281389296054840E-1   2.353593111038208E-1  -8.338686823844910E-1   4.508457481861115E-1  
 1.030000000000000E7    -8.355719447135925E-1   4.552638530731201E-1   1.285678893327713E-1   2.360283881425858E-1   1.288069486618042E-1   2.358792126178742E-1  -8.329731225967407E-1   4.523634910583496E-1  
 1.032000000000000E7    -8.348184823989868E-1   4.559080004692078E-1   1.289871782064438E-1   2.364783138036728E-1   1.292756497859955E-1   2.363148778676987E-1  -8.326969742774963E-1   4.530071914196014E-1  
 1.034000000000000E7    -8.344527482986450E-1   4.570877552032471E-1   1.295763105154038E-1   2.369615882635117E-1   1.297944933176041E-1   2.367516607046127E-1  -8.319894671440125E-1   4.537813365459442E-1  
 1.036000000000000E7    -8.336172699928284E-1   4.573420882225037E-1   1.300473660230637E-1   2.372385859489441E-1   1.301287859678268E-1   2.370764464139938E-1  -8.312546014785767E-1   4.541914463043213E-1  
 1.038000000000000E7    -8.328073620796204E-1   4.583674371242523E-1   1.305678188800812E-1   2.376313507556915E-1   1.309670954942703E-1   2.375207990407944E-1  -8.304252624511719E-1   4.555520415306091E-1  
 1.040000000000000E7    -8.319861888885498E-1   4.592125713825226E-1   1.311006098985672E-1   2.381223738193512E-1   1.315470039844513E-1   2.378415167331696E-1  -8.300081491470337E-1   4.561298787593842E-1  
 1.042000000000000E7    -8.314265012741089E-1   4.597017168998718E-1   1.316836774349213E-1   2.383936643600464E-1   1.320449262857437E-1   2.383062392473221E-1  -8.289381265640259E-1   4.570106267929077E-1  
 1.044000000000000E7    -8.307818770408630E-1   4.607937633991242E-1   1.323636323213577E-1   2.387256622314453E-1   1.327739208936691E-1   2.386064678430557E-1  -8.283360004425049E-1   4.577603936195374E-1  
 1.046000000000000E7    -8.305178284645081E-1   4.613342285156250E-1   1.329474449157715E-1   2.392256110906601E-1   1.328728199005127E-1   2.391172796487808E-1  -8.278719186782837E-1   4.581701755523682E-1  
 1.048000000000000E7    -8.296203613281250E-1   4.624426960945129E-1   1.333902478218079E-1   2.398316115140915E-1   1.336524635553360E-1   2.394281029701233E-1  -8.276308774948120E-1   4.590275883674622E-1  
 1.050000000000000E7    -8.289664387702942E-1   4.635680913925171E-1   1.340532302856445E-1   2.403441816568375E-1   1.344612389802933E-1   2.399142235517502E-1  -8.265168070793152E-1   4.601639509201050E-1  
 1.052000000000000E7    -8.287780880928040E-1   4.641815125942230E-1   1.347413212060928E-1   2.406451702117920E-1   1.349084228277206E-1   2.403695583343506E-1  -8.257995247840881E-1   4.608770310878754E-1  
 1.054000000000000E7    -8.278011083602905E-1   4.648990035057068E-1   1.352389305830002E-1   2.411617785692215E-1   1.353206336498261E-1   2.409955859184265E-1  -8.254947662353516E-1   4.614554941654205E-1  
 1.056000000000000E7    -8.274996876716614E-1   4.657754302024841E-1   1.355435252189636E-1   2.415321767330170E-1   1.356993764638901E-1   2.410590797662735E-1  -8.246175050735474E-1   4.620702862739563E-1  
 1.058000000000000E7    -8.264116048812866E-1   4.664082825183868E-1   1.363833248615265E-1   2.418504208326340E-1   1.365706324577332E-1   2.417238205671310E-1  -8.243511915206909E-1   4.632184803485870E-1  
 1.060000000000000E7    -8.257928490638733E-1   4.673443138599396E-1   1.367120146751404E-1   2.420886456966400E-1   1.372375637292862E-1   2.419367879629135E-1  -8.234452605247498E-1   4.639750421047211E-1  
 1.062000000000000E7    -8.247810006141663E-1   4.681018888950348E-1   1.375934332609177E-1   2.427936196327210E-1   1.380645185709000E-1   2.423805445432663E-1  -8.228050470352173E-1   4.652541279792786E-1  
 1.064000000000000E7    -8.244553804397583E-1   4.688837528228760E-1   1.383505463600159E-1   2.428698688745499E-1   1.383660882711411E-1   2.427704334259033E-1  -8.218464255332947E-1   4.656661152839661E-1  
 1.066000000000000E7    -8.239425420761108E-1   4.696895182132721E-1   1.387196034193039E-1   2.433485388755798E-1   1.390943229198456E-1   2.432596981525421E-1  -8.215227127075195E-1   4.668583273887634E-1  
 1.068000000000000E7    -8.232601284980774E-1   4.706462323665619E-1   1.390784829854965E-1   2.439237087965012E-1   1.393796950578690E-1   2.436192482709885E-1  -8.209619522094727E-1   4.674192368984222E-1  
 1.070000000000000E7    -8.224501609802246E-1   4.713926613330841E-1   1.394812762737274E-1   2.440602779388428E-1   1.399529874324799E-1   2.439065128564835E-1  -8.199368715286255E-1   4.675107896327972E-1  
 1.072000000000000E7    -8.219685554504395E-1   4.723014831542969E-1   1.402878910303116E-1   2.448155283927918E-1   1.406521052122116E-1   2.443996965885162E-1  -8.192859888076782E-1   4.686863422393799E-1  
 1.074000000000000E7    -8.210574984550476E-1   4.730434715747833E-1   1.412487924098969E-1   2.450524568557739E-1   1.413417160511017E-1   2.447545528411865E-1  -8.185630440711975E-1   4.700784385204315E-1  
 1.076000000000000E7    -8.202300071716309E-1   4.739178419113159E-1   1.418397277593613E-1   2.452322393655777E-1   1.418531984090805E-1   2.453093528747559E-1  -8.180259466171265E-1   4.703184664249420E-1  
 1.078000000000000E7    -8.198451995849609E-1   4.743356704711914E-1   1.422197520732880E-1   2.458231002092362E-1   1.423784047365189E-1   2.456649690866470E-1  -8.170272111892700E-1   4.712600708007813E-1  
 1.080000000000000E7    -8.190678358078003E-1   4.751419126987457E-1   1.425913125276566E-1   2.460389584302902E-1   1.427446305751801E-1   2.458873391151428E-1  -8.164923191070557E-1   4.717934429645538E-1  
 1.082000000000000E7    -8.186980485916138E-1   4.764648079872131E-1   1.432673335075378E-1   2.465186566114426E-1   1.435400694608688E-1   2.463293671607971E-1  -8.155844211578369E-1   4.725433290004730E-1  
 1.084000000000000E7    -8.177559971809387E-1   4.768781065940857E-1   1.440307497978210E-1   2.469635456800461E-1   1.444896906614304E-1   2.465744614601135E-1  -8.149627447128296E-1   4.738121330738068E-1  
 1.086000000000000E7    -8.167876601219177E-1   4.774872064590454E-1   1.446942239999771E-1   2.472562044858933E-1   1.447650939226151E-1   2.468890249729157E-1  -8.144155740737915E-1   4.743697643280029E-1  
 1.088000000000000E7    -8.163529038429260E-1   4.781785607337952E-1   1.452636867761612E-1   2.478231489658356E-1   1.454053968191147E-1   2.474743127822876E-1  -8.139532208442688E-1   4.754768908023834E-1  
 1.090000000000000E7    -8.153134584426880E-1   4.787725210189819E-1   1.455476582050324E-1   2.482398599386215E-1   1.457930207252502E-1   2.482309490442276E-1  -8.136383891105652E-1   4.757237434387207E-1  
 1.092000000000000E7    -8.146980404853821E-1   4.803577959537506E-1   1.464929878711700E-1   2.485134750604630E-1   1.467366218566895E-1   2.483946830034256E-1  -8.124428391456604E-1   4.766806960105896E-1  
 1.094000000000000E7    -8.136478066444397E-1   4.811525046825409E-1   1.469174027442932E-1   2.487539350986481E-1   1.472728252410889E-1   2.485819011926651E-1  -8.118563294410706E-1   4.775325953960419E-1  
 1.096000000000000E7    -8.135585784912109E-1   4.817751646041870E-1   1.476842164993286E-1   2.492792904376984E-1   1.477393656969070E-1   2.490732669830322E-1  -8.109331727027893E-1   4.781896173954010E-1  
 1.098000000000000E7    -8.126697540283203E-1   4.826399683952332E-1   1.484434008598328E-1   2.496199905872345E-1   1.482200622558594E-1   2.493700236082077E-1  -8.103849291801453E-1   4.787385165691376E-1  
 1.100000000000000E7    -8.123891353607178E-1   4.836317300796509E-1   1.490175575017929E-1   2.502527832984924E-1   1.494084447622299E-1   2.499850839376450E-1  -8.094135522842407E-1   4.797550141811371E-1  
 1.102000000000000E7    -8.114711046218872E-1   4.843579828739166E-1   1.494556367397308E-1   2.504764199256897E-1   1.496550887823105E-1   2.503410577774048E-1  -8.088914155960083E-1   4.804589450359345E-1  
 1.104000000000000E7    -8.100149035453796E-1   4.848077297210693E-1   1.500380635261536E-1   2.506586611270905E-1   1.501587629318237E-1   2.504273056983948E-1  -8.081980347633362E-1   4.816164970397949E-1  
 1.106000000000000E7    -8.096972107887268E-1   4.853608310222626E-1   1.507132500410080E-1   2.513137459754944E-1   1.510101109743118E-1   2.510203719139099E-1  -8.075215220451355E-1   4.827780127525330E-1  
 1.108000000000000E7    -8.093721866607666E-1   4.860157370567322E-1   1.513128876686096E-1   2.514489889144898E-1   1.514360904693604E-1   2.513945996761322E-1  -8.061444163322449E-1   4.830497503280640E-1  
 1.110000000000000E7    -8.082316517829895E-1   4.870288372039795E-1   1.515737771987915E-1   2.520458698272705E-1   1.520722657442093E-1   2.519473731517792E-1  -8.061398863792419E-1   4.841313660144806E-1  
 1.112000000000000E7    -8.074637651443481E-1   4.878779649734497E-1   1.525230407714844E-1   2.524546682834625E-1   1.526800096035004E-1   2.522214055061340E-1  -8.053208589553833E-1   4.846032857894898E-1  
 1.114000000000000E7    -8.068667650222778E-1   4.887517690658569E-1   1.532462686300278E-1   2.530077695846558E-1   1.534454375505447E-1   2.525561153888702E-1  -8.047751188278198E-1   4.853576719760895E-1  
 1.116000000000000E7    -8.060828447341919E-1   4.893083274364471E-1   1.537535786628723E-1   2.528868615627289E-1   1.539422571659088E-1   2.529163360595703E-1  -8.039279580116272E-1   4.861517548561096E-1  
 1.118000000000000E7    -8.054201602935791E-1   4.905305802822113E-1   1.541595458984375E-1   2.534530162811279E-1   1.543343067169190E-1   2.535586059093475E-1  -8.031974434852600E-1   4.871296286582947E-1  
 1.120000000000000E7    -8.048291206359863E-1   4.913794100284576E-1   1.550621688365936E-1   2.539495229721069E-1   1.551710516214371E-1   2.534790039062500E-1  -8.020797371864319E-1   4.877542555332184E-1  
 1.122000000000000E7    -8.044773936271668E-1   4.920007288455963E-1   1.556282788515091E-1   2.543023228645325E-1   1.558636128902435E-1   2.542254924774170E-1  -8.014223575592041E-1   4.887520074844360E-1  
 1.124000000000000E7    -8.034958243370056E-1   4.929102361202240E-1   1.559098213911057E-1   2.548231482505798E-1   1.563735902309418E-1   2.546251118183136E-1  -8.009761571884155E-1   4.886919260025024E-1  
 1.126000000000000E7    -8.027433156967163E-1   4.933300316333771E-1   1.568989753723145E-1   2.552271783351898E-1   1.572853624820709E-1   2.548699080944061E-1  -7.999930381774902E-1   4.901993274688721E-1  
 1.128000000000000E7    -8.021323680877686E-1   4.939663410186768E-1   1.574650704860687E-1   2.555412948131561E-1   1.578351110219955E-1   2.555346190929413E-1  -7.993476390838623E-1   4.909572601318359E-1  
 1.130000000000000E7    -8.010390996932983E-1   4.949190318584442E-1   1.580857932567596E-1   2.557949125766754E-1   1.586344689130783E-1   2.559547424316406E-1  -7.986547946929932E-1   4.918002486228943E-1  
 1.132000000000000E7    -8.000999093055725E-1   4.964867830276489E-1   1.588640511035919E-1   2.560969293117523E-1   1.592311561107636E-1   2.558078169822693E-1  -7.975452542304993E-1   4.920678734779358E-1  
 1.134000000000000E7    -8.000084161758423E-1   4.965819120407105E-1   1.595013737678528E-1   2.568731307983398E-1   1.596544682979584E-1   2.564969062805176E-1  -7.969422340393066E-1   4.926348626613617E-1  
 1.136000000000000E7    -7.988905310630798E-1   4.977363049983978E-1   1.600869894027710E-1   2.571569681167603E-1   1.601943075656891E-1   2.570099830627441E-1  -7.966389060020447E-1   4.938983917236328E-1  
 1.138000000000000E7    -7.982297539710999E-1   4.980086386203766E-1   1.604831963777542E-1   2.571240663528442E-1   1.609025597572327E-1   2.573408186435700E-1  -7.958025932312012E-1   4.946965873241425E-1  
 1.140000000000000E7    -7.975924611091614E-1   4.989967644214630E-1   1.610382050275803E-1   2.580496072769165E-1   1.612919121980667E-1   2.576026916503906E-1  -7.951505780220032E-1   4.953303933143616E-1  
 1.142000000000000E7    -7.966393232345581E-1   4.997849464416504E-1   1.618561297655106E-1   2.581789791584015E-1   1.621625423431397E-1   2.579240798950195E-1  -7.940692305564880E-1   4.960401058197022E-1  
 1.144000000000000E7    -7.955673933029175E-1   5.006142854690552E-1   1.625892519950867E-1   2.584859132766724E-1   1.629124134778976E-1   2.582772970199585E-1  -7.939156293869019E-1   4.971239864826202E-1  
 1.146000000000000E7    -7.951795458793640E-1   5.013307929039002E-1   1.631021499633789E-1   2.590485811233521E-1   1.635475158691406E-1   2.589753270149231E-1  -7.930838465690613E-1   4.975739419460297E-1  
 1.148000000000000E7    -7.944513559341431E-1   5.024028420448303E-1   1.638168394565582E-1   2.592159807682037E-1   1.643172204494476E-1   2.589150965213776E-1  -7.917633056640625E-1   4.988212883472443E-1  
 1.150000000000000E7    -7.932533025741577E-1   5.027441382408142E-1   1.643620431423187E-1   2.596673667430878E-1   1.647721827030182E-1   2.592939138412476E-1  -7.910876870155335E-1   4.993918538093567E-1  
 1.152000000000000E7    -7.926633358001709E-1   5.033310651779175E-1   1.650808304548264E-1   2.600185275077820E-1   1.653873622417450E-1   2.599300444126129E-1  -7.907611727714539E-1   5.000469684600830E-1  
 1.154000000000000E7    -7.918677926063538E-1   5.042040348052979E-1   1.656645238399506E-1   2.601300776004791E-1   1.658253520727158E-1   2.600216865539551E-1  -7.895590066909790E-1   5.008888244628906E-1  
 1.156000000000000E7    -7.913908362388611E-1   5.052365064620972E-1   1.666578203439713E-1   2.606975734233856E-1   1.668791919946671E-1   2.607778310775757E-1  -7.892714738845825E-1   5.015613436698914E-1  
 1.158000000000000E7    -7.903226017951965E-1   5.059160590171814E-1   1.670501381158829E-1   2.611061930656433E-1   1.673484295606613E-1   2.610266208648682E-1  -7.883749008178711E-1   5.025231838226318E-1  
 1.160000000000000E7    -7.894119024276733E-1   5.063118934631348E-1   1.675013452768326E-1   2.615249752998352E-1   1.680336892604828E-1   2.614386975765228E-1  -7.877306342124939E-1   5.027332901954651E-1  
 1.162000000000000E7    -7.886976599693298E-1   5.077921152114868E-1   1.683256924152374E-1   2.620112299919128E-1   1.687900871038437E-1   2.617377042770386E-1  -7.864016294479370E-1   5.039009451866150E-1  
 1.164000000000000E7    -7.880728244781494E-1   5.084950923919678E-1   1.690413802862167E-1   2.623880803585053E-1   1.696444898843765E-1   2.622308135032654E-1  -7.858777046203613E-1   5.044291615486145E-1  
 1.166000000000000E7    -7.873175740242004E-1   5.090563297271729E-1   1.700143069028854E-1   2.628193795681000E-1   1.700473725795746E-1   2.627450823783875E-1  -7.856763601303101E-1   5.052836537361145E-1  
 1.168000000000000E7    -7.868672609329224E-1   5.097800493240356E-1   1.705963611602783E-1   2.634410560131073E-1   1.707880795001984E-1   2.628748118877411E-1  -7.850354313850403E-1   5.065101385116577E-1  
 1.170000000000000E7    -7.857033610343933E-1   5.108366608619690E-1   1.712817251682282E-1   2.632505893707275E-1   1.715672314167023E-1   2.633615136146545E-1  -7.832204103469849E-1   5.071131587028503E-1  
 1.172000000000000E7    -7.848085165023804E-1   5.111665725708008E-1   1.716690212488174E-1   2.637348473072052E-1   1.721867918968201E-1   2.635481953620911E-1  -7.830169200897217E-1   5.081476569175720E-1  
 1.174000000000000E7    -7.839829325675964E-1   5.121778845787048E-1   1.723350435495377E-1   2.642723619937897E-1   1.726880669593811E-1   2.641529440879822E-1  -7.825776338577271E-1   5.081986784934998E-1  
 1.176000000000000E7    -7.837741971015930E-1   5.129336118698120E-1   1.729080229997635E-1   2.645201981067658E-1   1.733662784099579E-1   2.642607092857361E-1  -7.811855077743530E-1   5.091074109077454E-1  
 1.178000000000000E7    -7.829245328903198E-1   5.139303207397461E-1   1.739963442087174E-1   2.649856805801392E-1   1.744182705879211E-1   2.648143172264099E-1  -7.808444499969482E-1   5.099191069602966E-1  
 1.180000000000000E7    -7.822352051734924E-1   5.143644809722900E-1   1.744069755077362E-1   2.652672231197357E-1   1.747936606407166E-1   2.651483416557312E-1  -7.796792984008789E-1   5.106318593025208E-1  
 1.182000000000000E7    -7.808781266212463E-1   5.158089995384216E-1   1.751031279563904E-1   2.657460868358612E-1   1.754074692726135E-1   2.652447223663330E-1  -7.789342403411865E-1   5.115023851394653E-1  
 1.184000000000000E7    -7.804347872734070E-1   5.162208676338196E-1   1.760189384222031E-1   2.656924426555634E-1   1.763262003660202E-1   2.656008899211884E-1  -7.779936194419861E-1   5.124754309654236E-1  
 1.186000000000000E7    -7.797351479530335E-1   5.169604420661926E-1   1.767110526561737E-1   2.664687931537628E-1   1.769907772541046E-1   2.664074897766113E-1  -7.776309847831726E-1   5.131175518035889E-1  
 1.188000000000000E7    -7.780530452728272E-1   5.179169774055481E-1   1.773548424243927E-1   2.668187320232391E-1   1.775442957878113E-1   2.665201127529144E-1  -7.766866683959961E-1   5.140401721000671E-1  
 1.190000000000000E7    -7.775683403015137E-1   5.183635354042053E-1   1.776219010353088E-1   2.671498358249664E-1   1.781176030635834E-1   2.667186558246613E-1  -7.761374115943909E-1   5.143285989761353E-1  
 1.192000000000000E7    -7.772571444511414E-1   5.188546776771545E-1   1.782887428998947E-1   2.673111855983734E-1   1.787182539701462E-1   2.672789394855499E-1  -7.753446102142334E-1   5.152060389518738E-1  
 1.194000000000000E7    -7.763342857360840E-1   5.197253823280335E-1   1.793016642332077E-1   2.678399085998535E-1   1.796089261770248E-1   2.675497829914093E-1  -7.742863893508911E-1   5.160860419273377E-1  
 1.196000000000000E7    -7.756329774856567E-1   5.207827687263489E-1   1.798378974199295E-1   2.680305242538452E-1   1.802026033401489E-1   2.679041624069214E-1  -7.732081413269043E-1   5.165459513664246E-1  
 1.198000000000000E7    -7.748396396636963E-1   5.214985609054565E-1   1.808356344699860E-1   2.687694430351257E-1   1.810607463121414E-1   2.683558762073517E-1  -7.728500962257385E-1   5.178067088127136E-1  
 1.200000000000000E7    -7.736767530441284E-1   5.222432017326355E-1   1.812341809272766E-1   2.691515088081360E-1   1.816401332616806E-1   2.686904072761536E-1  -7.718068361282349E-1   5.184725522994995E-1  
 1.202000000000000E7    -7.726591825485230E-1   5.230953693389893E-1   1.820565313100815E-1   2.689397633075714E-1   1.827403604984283E-1   2.692161202430725E-1  -7.710081934928894E-1   5.194078683853149E-1  
 1.204000000000000E7    -7.720686793327332E-1   5.241322517395020E-1   1.824678331613541E-1   2.695544660091400E-1   1.829939037561417E-1   2.695141732692719E-1  -7.702277898788452E-1   5.199187397956848E-1  
 1.206000000000000E7    -7.712661027908325E-1   5.243325233459473E-1   1.833568215370178E-1   2.698810696601868E-1   1.839394718408585E-1   2.696609795093536E-1  -7.693991065025330E-1   5.203834176063538E-1  
 1.208000000000000E7    -7.701889872550964E-1   5.253387689590454E-1   1.842477321624756E-1   2.700016498565674E-1   1.847510039806366E-1   2.702218294143677E-1  -7.686216831207275E-1   5.213561058044434E-1  
 1.210000000000000E7    -7.701122164726257E-1   5.257184505462647E-1   1.847196370363236E-1   2.711208760738373E-1   1.850976645946503E-1   2.705543041229248E-1  -7.680080533027649E-1   5.220625996589661E-1  
 1.212000000000000E7    -7.689753770828247E-1   5.267487168312073E-1   1.856934726238251E-1   2.710441052913666E-1   1.859206110239029E-1   2.708634138107300E-1  -7.667173147201538E-1   5.225505232810974E-1  
 1.214000000000000E7    -7.682364583015442E-1   5.279517173767090E-1   1.861801147460938E-1   2.714592516422272E-1   1.866965740919113E-1   2.714230418205261E-1  -7.665857076644898E-1   5.231434106826782E-1  
 1.216000000000000E7    -7.670835256576538E-1   5.284262895584106E-1   1.870491653680801E-1   2.719256579875946E-1   1.874526888132095E-1   2.716753184795380E-1  -7.656788229942322E-1   5.247411727905273E-1  
 1.218000000000000E7    -7.666770219802856E-1   5.289703011512756E-1   1.875606030225754E-1   2.721453905105591E-1   1.878382116556168E-1   2.717082500457764E-1  -7.644425034523010E-1   5.249708890914917E-1  
 1.220000000000000E7    -7.658650875091553E-1   5.298313498497009E-1   1.884668022394180E-1   2.725255787372589E-1   1.890694350004196E-1   2.722656130790710E-1  -7.636327147483826E-1   5.261144638061523E-1  
 1.222000000000000E7    -7.647721767425537E-1   5.306487083435059E-1   1.890584528446198E-1   2.727353572845459E-1   1.894095689058304E-1   2.726813852787018E-1  -7.624195814132690E-1   5.260230898857117E-1  
 1.224000000000000E7    -7.640326619148254E-1   5.315923094749451E-1   1.901089847087860E-1   2.731519639492035E-1   1.904172450304031E-1   2.727571427822113E-1  -7.619208693504334E-1   5.275491476058960E-1  
 1.226000000000000E7    -7.628571391105652E-1   5.319196581840515E-1   1.910873204469681E-1   2.735602855682373E-1   1.910808086395264E-1   2.734359502792358E-1  -7.610741257667542E-1   5.283560752868652E-1  
 1.228000000000000E7    -7.620631456375122E-1   5.326885581016541E-1   1.913644224405289E-1   2.738675773143768E-1   1.918644607067108E-1   2.736288309097290E-1  -7.602989077568054E-1   5.290480852127075E-1  
 1.230000000000000E7    -7.615972161293030E-1   5.333911776542664E-1   1.920117288827896E-1   2.741306126117706E-1   1.924840658903122E-1   2.741915285587311E-1  -7.595527768135071E-1   5.298305153846741E-1  
 1.232000000000000E7    -7.605601549148560E-1   5.343203544616699E-1   1.928467452526093E-1   2.747672498226166E-1   1.934669017791748E-1   2.745331525802612E-1  -7.587582468986511E-1   5.303955078125000E-1  
 1.234000000000000E7    -7.598311901092529E-1   5.352349877357483E-1   1.932288557291031E-1   2.747986018657684E-1   1.938219964504242E-1   2.746126353740692E-1  -7.578317523002625E-1   5.306854248046875E-1  
 1.236000000000000E7    -7.585231065750122E-1   5.353079438209534E-1   1.940899044275284E-1   2.753759622573853E-1   1.944183856248856E-1   2.751746773719788E-1  -7.573181986808777E-1   5.317589640617371E-1  
 1.238000000000000E7    -7.581690549850464E-1   5.365146994590759E-1   1.948414891958237E-1   2.758607268333435E-1   1.954356878995895E-1   2.758708298206329E-1  -7.561717629432678E-1   5.327459573745728E-1  
 1.240000000000000E7    -7.572335600852966E-1   5.375587940216065E-1   1.958858966827393E-1   2.759193778038025E-1   1.960752606391907E-1   2.758275568485260E-1  -7.550747990608215E-1   5.328680872917175E-1  
 1.242000000000000E7    -7.560249567031860E-1   5.377380847930908E-1   1.962547302246094E-1   2.764450311660767E-1   1.968389153480530E-1   2.761217951774597E-1  -7.544716596603394E-1   5.339813828468323E-1  
 1.244000000000000E7    -7.549050450325012E-1   5.387614369392395E-1   1.971855908632278E-1   2.768566012382507E-1   1.975120753049851E-1   2.766130864620209E-1  -7.536160945892334E-1   5.348064899444580E-1  
 1.246000000000000E7    -7.545245289802551E-1   5.392706990242004E-1   1.980106383562088E-1   2.771452069282532E-1   1.981942057609558E-1   2.770703434944153E-1  -7.525128722190857E-1   5.355873703956604E-1  
 1.248000000000000E7    -7.534534931182861E-1   5.403576493263245E-1   1.989284604787827E-1   2.771415412425995E-1   1.990415006875992E-1   2.773002386093140E-1  -7.518648505210877E-1   5.361882448196411E-1  
 1.250000000000000E7    -7.526348233222961E-1   5.407739281654358E-1   1.992098987102509E-1   2.776213884353638E-1   1.995680183172226E-1   2.777243852615356E-1  -7.509824037551880E-1   5.369027256965637E-1  
 1.252000000000000E7    -7.517021298408508E-1   5.421167016029358E-1   2.002713382244110E-1   2.779628932476044E-1   2.007529884576798E-1   2.777917981147766E-1  -7.499844431877136E-1   5.378623008728027E-1  
 1.254000000000000E7    -7.507141232490540E-1   5.424293279647827E-1   2.010999619960785E-1   2.779990136623383E-1   2.012492865324020E-1   2.780190408229828E-1  -7.490390539169312E-1   5.386672616004944E-1  
 1.256000000000000E7    -7.499179840087891E-1   5.434659123420715E-1   2.014101743698120E-1   2.788217365741730E-1   2.021515369415283E-1   2.786381840705872E-1  -7.482056617736816E-1   5.389373898506165E-1  
 1.258000000000000E7    -7.488945126533508E-1   5.441008806228638E-1   2.023632079362869E-1   2.789407968521118E-1   2.027546465396881E-1   2.789123058319092E-1  -7.474163770675659E-1   5.396645665168762E-1  
 1.260000000000000E7    -7.483405470848084E-1   5.445920228958130E-1   2.029191106557846E-1   2.793937027454376E-1   2.034944295883179E-1   2.795122861862183E-1  -7.464389801025391E-1   5.404863357543945E-1  
 1.262000000000000E7    -7.475549578666687E-1   5.452936291694641E-1   2.037694156169891E-1   2.796913385391235E-1   2.043091356754303E-1   2.796322107315064E-1  -7.458585500717163E-1   5.411804914474487E-1  
 1.264000000000000E7    -7.465521693229675E-1   5.457997322082520E-1   2.046663463115692E-1   2.801363468170166E-1   2.050042599439621E-1   2.800209522247315E-1  -7.448710799217224E-1   5.424031615257263E-1  
 1.266000000000000E7    -7.461224198341370E-1   5.463363528251648E-1   2.054330855607987E-1   2.804883122444153E-1   2.054648250341415E-1   2.803193926811218E-1  -7.438567876815796E-1   5.429702997207642E-1  
 1.268000000000000E7    -7.455441355705261E-1   5.478835701942444E-1   2.063711434602737E-1   2.811152040958405E-1   2.064913064241409E-1   2.807869911193848E-1  -7.429893016815186E-1   5.429683327674866E-1  
 1.270000000000000E7    -7.439106702804565E-1   5.489927530288696E-1   2.067949771881104E-1   2.811658382415772E-1   2.075471729040146E-1   2.808739542961121E-1  -7.422502040863037E-1   5.436941981315613E-1  
 1.272000000000000E7    -7.430575489997864E-1   5.487076640129089E-1   2.077302187681198E-1   2.815936803817749E-1   2.083060443401337E-1   2.815006971359253E-1  -7.415744662284851E-1   5.452565550804138E-1  
 1.274000000000000E7    -7.419942021369934E-1   5.494249463081360E-1   2.083400040864945E-1   2.819097936153412E-1   2.087204754352570E-1   2.816540598869324E-1  -7.407119274139404E-1   5.453078746795654E-1  
 1.276000000000000E7    -7.415078878402710E-1   5.502741932868958E-1   2.096175402402878E-1   2.822082638740540E-1   2.098387628793716E-1   2.818641960620880E-1  -7.391673922538757E-1   5.465052127838135E-1  
 1.278000000000000E7    -7.407202720642090E-1   5.512965321540833E-1   2.103298306465149E-1   2.825989425182343E-1   2.105506360530853E-1   2.822729945182800E-1  -7.385945916175842E-1   5.473327040672302E-1  
 1.280000000000000E7    -7.393316030502319E-1   5.520377159118652E-1   2.109387367963791E-1   2.827354073524475E-1   2.110830992460251E-1   2.825165390968323E-1  -7.376520633697510E-1   5.475252866744995E-1  
 1.282000000000000E7    -7.384915947914124E-1   5.523422956466675E-1   2.113773226737976E-1   2.830185890197754E-1   2.119381874799728E-1   2.832143008708954E-1  -7.370556592941284E-1   5.484607815742493E-1  
 1.284000000000000E7    -7.374926805496216E-1   5.534076690673828E-1   2.122579813003540E-1   2.838153243064880E-1   2.127212435007095E-1   2.831640541553497E-1  -7.360907793045044E-1   5.494727492332459E-1  
 1.286000000000000E7    -7.366310358047485E-1   5.536758303642273E-1   2.131243348121643E-1   2.839479148387909E-1   2.135179340839386E-1   2.837097942829132E-1  -7.350187897682190E-1   5.499982833862305E-1  
 1.288000000000000E7    -7.357168793678284E-1   5.547708272933960E-1   2.136926949024200E-1   2.843100726604462E-1   2.142633944749832E-1   2.838384509086609E-1  -7.344066500663757E-1   5.508214831352234E-1  
 1.290000000000000E7    -7.351419329643250E-1   5.549215078353882E-1   2.144005298614502E-1   2.846589386463165E-1   2.148772180080414E-1   2.842490077018738E-1  -7.333625555038452E-1   5.512093305587769E-1  
 1.292000000000000E7    -7.339766621589661E-1   5.558415055274963E-1   2.150053828954697E-1   2.847942709922791E-1   2.153255939483643E-1   2.846639156341553E-1  -7.325381636619568E-1   5.518273115158081E-1  
 1.294000000000000E7    -7.331956624984741E-1   5.568780303001404E-1   2.159481793642044E-1   2.853144109249115E-1   2.166972160339356E-1   2.849922180175781E-1  -7.315643429756165E-1   5.530046224594116E-1  
 1.296000000000000E7    -7.318897843360901E-1   5.574594736099243E-1   2.171399742364883E-1   2.857963144779205E-1   2.176348567008972E-1   2.852134108543396E-1  -7.310435771942139E-1   5.535278916358948E-1  
 1.298000000000000E7    -7.312402129173279E-1   5.583179593086243E-1   2.183435857295990E-1   2.855966985225678E-1   2.183135598897934E-1   2.855481505393982E-1  -7.296208143234253E-1   5.539559721946716E-1  
 1.300000000000000E7    -7.302713394165039E-1   5.590252280235291E-1   2.187586724758148E-1   2.861831784248352E-1   2.187490761280060E-1   2.859683334827423E-1  -7.284159064292908E-1   5.544586777687073E-1  
 1.302000000000000E7    -7.291200757026672E-1   5.600302815437317E-1   2.196073085069656E-1   2.860418558120728E-1   2.198173850774765E-1   2.859964966773987E-1  -7.275775671005249E-1   5.556037425994873E-1  
 1.304000000000000E7    -7.283682823181152E-1   5.605725646018982E-1   2.199833244085312E-1   2.870288789272308E-1   2.205364406108856E-1   2.864163219928742E-1  -7.268305420875549E-1   5.558132529258728E-1  
 1.306000000000000E7    -7.273985743522644E-1   5.615548491477966E-1   2.216997593641281E-1   2.867855727672577E-1   2.216906696557999E-1   2.868006229400635E-1  -7.258046865463257E-1   5.570576190948486E-1  
 1.308000000000000E7    -7.268328070640564E-1   5.620048642158508E-1   2.219206690788269E-1   2.871728241443634E-1   2.223865389823914E-1   2.871778309345245E-1  -7.249922752380371E-1   5.576950311660767E-1  
 1.310000000000000E7    -7.255121469497681E-1   5.623477101325989E-1   2.227389663457871E-1   2.876896858215332E-1   2.231817394495010E-1   2.872686982154846E-1  -7.241391539573669E-1   5.584668517112732E-1  
 1.312000000000000E7    -7.246600389480591E-1   5.632815957069397E-1   2.234485596418381E-1   2.880176007747650E-1   2.238336503505707E-1   2.879987657070160E-1  -7.236593961715698E-1   5.591428279876709E-1  
 1.314000000000000E7    -7.236250638961792E-1   5.643149614334106E-1   2.248011380434036E-1   2.885644733905792E-1   2.246024310588837E-1   2.884078919887543E-1  -7.226158976554871E-1   5.596535801887512E-1  
 1.316000000000000E7    -7.226371765136719E-1   5.649880766868591E-1   2.251325398683548E-1   2.889229655265808E-1   2.256221771240234E-1   2.884361743927002E-1  -7.214995026588440E-1   5.604568123817444E-1  
 1.318000000000000E7    -7.217466235160828E-1   5.655069947242737E-1   2.263882756233215E-1   2.891886234283447E-1   2.266342490911484E-1   2.891884744167328E-1  -7.208896279335022E-1   5.616746544837952E-1  
 1.320000000000000E7    -7.207551002502441E-1   5.660474896430969E-1   2.269865721464157E-1   2.893371284008026E-1   2.271835505962372E-1   2.888360619544983E-1  -7.193816900253296E-1   5.620722770690918E-1  
 1.322000000000000E7    -7.195498347282410E-1   5.666329860687256E-1   2.278001159429550E-1   2.897477447986603E-1   2.280609011650085E-1   2.893166244029999E-1  -7.184590101242065E-1   5.627802610397339E-1  
 1.324000000000000E7    -7.191457152366638E-1   5.675579905509949E-1   2.285607606172562E-1   2.898826599121094E-1   2.289736419916153E-1   2.895536720752716E-1  -7.173081636428833E-1   5.632683634757996E-1  
 1.326000000000000E7    -7.181348204612732E-1   5.683599114418030E-1   2.296533435583115E-1   2.901973128318787E-1   2.297254651784897E-1   2.903319299221039E-1  -7.168478965759277E-1   5.640351176261902E-1  
 1.328000000000000E7    -7.170435190200806E-1   5.690058469772339E-1   2.302249073982239E-1   2.906668484210968E-1   2.304386794567108E-1   2.903558611869812E-1  -7.158230543136597E-1   5.646756887435913E-1  
 1.330000000000000E7    -7.161405682563782E-1   5.694515109062195E-1   2.309778928756714E-1   2.909699976444244E-1   2.313771247863770E-1   2.908032238483429E-1  -7.151485085487366E-1   5.653389692306519E-1  
 1.332000000000000E7    -7.150714397430420E-1   5.705061554908752E-1   2.318057715892792E-1   2.914676964282990E-1   2.323230803012848E-1   2.909263968467712E-1  -7.138972282409668E-1   5.662088394165039E-1  
 1.334000000000000E7    -7.145010232925415E-1   5.707135796546936E-1   2.326764613389969E-1   2.920441627502441E-1   2.329587489366531E-1   2.914440035820007E-1  -7.129456400871277E-1   5.670823454856873E-1  
 1.336000000000000E7    -7.131666541099548E-1   5.715988874435425E-1   2.336251139640808E-1   2.920495271682739E-1   2.334512025117874E-1   2.916478216648102E-1  -7.121740579605103E-1   5.675785541534424E-1  
 1.338000000000000E7    -7.124164104461670E-1   5.725163221359253E-1   2.343690395355225E-1   2.922236323356628E-1   2.349170744419098E-1   2.921260893344879E-1  -7.111209034919739E-1   5.684815645217896E-1  
 1.340000000000000E7    -7.113065123558044E-1   5.729258656501770E-1   2.355044335126877E-1   2.926274836063385E-1   2.357969433069229E-1   2.923718690872192E-1  -7.097552418708801E-1   5.692312121391296E-1  
 1.342000000000000E7    -7.100436687469482E-1   5.736140012741089E-1   2.362289130687714E-1   2.928687632083893E-1   2.365365922451019E-1   2.925428450107575E-1  -7.093542814254761E-1   5.697405338287354E-1  
 1.344000000000000E7    -7.095273137092590E-1   5.745382905006409E-1   2.367711365222931E-1   2.929008007049561E-1   2.369712591171265E-1   2.927272319793701E-1  -7.076624631881714E-1   5.700324177742004E-1  
 1.346000000000000E7    -7.084962725639343E-1   5.756148099899292E-1   2.379394918680191E-1   2.934045195579529E-1   2.382323145866394E-1   2.932293117046356E-1  -7.071747779846191E-1   5.705178976058960E-1  
 1.348000000000000E7    -7.071208357810974E-1   5.760097503662109E-1   2.385161072015762E-1   2.934037446975708E-1   2.390747070312500E-1   2.933623790740967E-1  -7.064986228942871E-1   5.716804862022400E-1  
 1.350000000000000E7    -7.063629031181335E-1   5.761380195617676E-1   2.392084449529648E-1   2.938773334026337E-1   2.400443851947784E-1   2.934806942939758E-1  -7.047327160835266E-1   5.723808407783508E-1  
 1.352000000000000E7    -7.053152322769165E-1   5.771545767784119E-1   2.405705451965332E-1   2.940461337566376E-1   2.406103312969208E-1   2.939075231552124E-1  -7.039617300033569E-1   5.728364586830139E-1  
 1.354000000000000E7    -7.043153643608093E-1   5.778715014457703E-1   2.413147091865540E-1   2.941752672195435E-1   2.416373789310455E-1   2.941420376300812E-1  -7.026236653327942E-1   5.733677744865418E-1  
 1.356000000000000E7    -7.033779621124268E-1   5.784376263618469E-1   2.417754530906677E-1   2.946035563945770E-1   2.422111779451370E-1   2.943536639213562E-1  -7.018001079559326E-1   5.742694139480591E-1  
 1.358000000000000E7    -7.025076746940613E-1   5.791175961494446E-1   2.431536018848419E-1   2.952476739883423E-1   2.434653937816620E-1   2.950301766395569E-1  -7.011829018592835E-1   5.751594901084900E-1  
 1.360000000000000E7    -7.013345360755920E-1   5.803331732749939E-1   2.439364045858383E-1   2.956094443798065E-1   2.441850751638413E-1   2.954791486263275E-1  -6.999844312667847E-1   5.756703019142151E-1  
 1.362000000000000E7    -7.008952498435974E-1   5.807598829269409E-1   2.446381151676178E-1   2.959865331649780E-1   2.455007731914520E-1   2.958836853504181E-1  -6.990252137184143E-1   5.763809680938721E-1  
 1.364000000000000E7    -6.996058821678162E-1   5.812589526176453E-1   2.454258501529694E-1   2.959557473659515E-1   2.456303536891937E-1   2.957407236099243E-1  -6.979830265045166E-1   5.767172574996948E-1  
 1.366000000000000E7    -6.984994411468506E-1   5.820850729942322E-1   2.462740838527679E-1   2.964047491550446E-1   2.468714118003845E-1   2.963788211345673E-1  -6.973736286163330E-1   5.775194764137268E-1  
 1.368000000000000E7    -6.973774433135986E-1   5.829049944877625E-1   2.472457587718964E-1   2.964440286159515E-1   2.477471977472305E-1   2.964583337306976E-1  -6.964946985244751E-1   5.782423615455627E-1  
 1.370000000000000E7    -6.963202953338623E-1   5.832474827766419E-1   2.482829391956329E-1   2.970731556415558E-1   2.486060857772827E-1   2.965779006481171E-1  -6.950249075889587E-1   5.790379643440247E-1  
 1.372000000000000E7    -6.957871913909912E-1   5.838763117790222E-1   2.486828416585922E-1   2.974191904067993E-1   2.493070214986801E-1   2.969475984573364E-1  -6.943103075027466E-1   5.794866681098938E-1  
 1.374000000000000E7    -6.944303512573242E-1   5.844725370407105E-1   2.498683035373688E-1   2.975066304206848E-1   2.499243170022965E-1   2.973068058490753E-1  -6.933172941207886E-1   5.800328850746155E-1  
 1.376000000000000E7    -6.935828924179077E-1   5.852838158607483E-1   2.508406639099121E-1   2.980492115020752E-1   2.514422237873077E-1   2.974771857261658E-1  -6.922352910041809E-1   5.810418725013733E-1  
 1.378000000000000E7    -6.925224661827087E-1   5.860879421234131E-1   2.514364421367645E-1   2.976489961147308E-1   2.518813908100128E-1   2.977190315723419E-1  -6.908476948738098E-1   5.812206268310547E-1  
 1.380000000000000E7    -6.912016272544861E-1   5.866961479187012E-1   2.525895833969116E-1   2.982764840126038E-1   2.528776526451111E-1   2.979691028594971E-1  -6.900327205657959E-1   5.824354290962219E-1  
 1.382000000000000E7    -6.901673674583435E-1   5.873039960861206E-1   2.534569501876831E-1   2.984658479690552E-1   2.536326050758362E-1   2.983042001724243E-1  -6.890910863876343E-1   5.826333165168762E-1  
 1.384000000000000E7    -6.893222332000732E-1   5.880277752876282E-1   2.542162239551544E-1   2.988275587558746E-1   2.547982037067413E-1   2.989590764045715E-1  -6.879554390907288E-1   5.833534002304077E-1  
 1.386000000000000E7    -6.886731386184692E-1   5.888862609863281E-1   2.554413676261902E-1   2.991639375686646E-1   2.555662393569946E-1   2.991191148757935E-1  -6.871022582054138E-1   5.842269659042358E-1  
 1.388000000000000E7    -6.873831748962402E-1   5.890623331069946E-1   2.558953166007996E-1   2.995898425579071E-1   2.564290761947632E-1   2.991307377815247E-1  -6.859092116355896E-1   5.851325392723084E-1  
 1.390000000000000E7    -6.858214139938355E-1   5.902851819992065E-1   2.572709023952484E-1   2.998091578483582E-1   2.576918900012970E-1   2.996979355812073E-1  -6.853886842727661E-1   5.855711698532105E-1  
 1.392000000000000E7    -6.854254603385925E-1   5.906149744987488E-1   2.579210996627808E-1   2.999775707721710E-1   2.582018375396729E-1   3.000106811523438E-1  -6.842786073684692E-1   5.861959457397461E-1  
 1.394000000000000E7    -6.839989423751831E-1   5.915947556495667E-1   2.591631412506104E-1   2.998764812946320E-1   2.597322165966034E-1   2.997258901596069E-1  -6.828114390373230E-1   5.870013833045960E-1  
 1.396000000000000E7    -6.828532218933106E-1   5.922501087188721E-1   2.600320577621460E-1   3.006958663463593E-1   2.604828178882599E-1   3.002215325832367E-1  -6.823884844779968E-1   5.878231525421143E-1  
 1.398000000000000E7    -6.820682883262634E-1   5.925586223602295E-1   2.604921460151672E-1   3.007581830024719E-1   2.611572742462158E-1   3.004757165908814E-1  -6.812283992767334E-1   5.882195830345154E-1  
 1.400000000000000E7    -6.815221905708313E-1   5.931426882743835E-1   2.614337801933289E-1   3.010912537574768E-1   2.621050179004669E-1   3.009077012538910E-1  -6.799509525299072E-1   5.889838337898254E-1  
 1.402000000000000E7    -6.801905632019043E-1   5.938934683799744E-1   2.628179490566254E-1   3.012538552284241E-1   2.628903687000275E-1   3.010411858558655E-1  -6.788622140884399E-1   5.893549919128418E-1  
 1.404000000000000E7    -6.790514588356018E-1   5.945773720741272E-1   2.637391686439514E-1   3.019223809242249E-1   2.635885477066040E-1   3.012852370738983E-1  -6.778104305267334E-1   5.905488133430481E-1  
 1.406000000000000E7    -6.777985095977783E-1   5.953108072280884E-1   2.641784846782684E-1   3.018372654914856E-1   2.646864652633667E-1   3.017940819263458E-1  -6.766427755355835E-1   5.911946296691895E-1  
 1.408000000000000E7    -6.772459149360657E-1   5.960141420364380E-1   2.654136121273041E-1   3.020773231983185E-1   2.660600543022156E-1   3.019260168075562E-1  -6.756287217140198E-1   5.917286276817322E-1  
 1.410000000000000E7    -6.758490800857544E-1   5.963793992996216E-1   2.663664519786835E-1   3.025672733783722E-1   2.665681838989258E-1   3.021101653575897E-1  -6.745275259017944E-1   5.926142334938049E-1  
 1.412000000000000E7    -6.746565103530884E-1   5.972463488578796E-1   2.671440839767456E-1   3.024954795837402E-1   2.678321003913879E-1   3.025238513946533E-1  -6.739228367805481E-1   5.931007862091065E-1  
 1.414000000000000E7    -6.737377047538757E-1   5.975010991096497E-1   2.684108018875122E-1   3.028498888015747E-1   2.687199711799622E-1   3.024229109287262E-1  -6.723586916923523E-1   5.937563776969910E-1  
 1.416000000000000E7    -6.726146340370178E-1   5.979500412940979E-1   2.693044543266296E-1   3.030955493450165E-1   2.695048451423645E-1   3.028628528118134E-1  -6.712716817855835E-1   5.945285558700562E-1  
 1.418000000000000E7    -6.713435053825378E-1   5.986559987068176E-1   2.699967622756958E-1   3.033152222633362E-1   2.702381014823914E-1   3.033881485462189E-1  -6.706784367561340E-1   5.947961807250977E-1  
 1.420000000000000E7    -6.705104112625122E-1   5.994503498077393E-1   2.712413370609283E-1   3.040489852428436E-1   2.712918519973755E-1   3.033086359500885E-1  -6.697334647178650E-1   5.958715677261353E-1  
 1.422000000000000E7    -6.694393754005432E-1   6.001011133193970E-1   2.719191312789917E-1   3.038516938686371E-1   2.724418640136719E-1   3.041224181652069E-1  -6.685703396797180E-1   5.959866046905518E-1  
 1.424000000000000E7    -6.681997776031494E-1   6.008785367012024E-1   2.727253735065460E-1   3.044386208057404E-1   2.730293273925781E-1   3.039247393608093E-1  -6.675451397895813E-1   5.967149138450623E-1  
 1.426000000000000E7    -6.671894192695618E-1   6.017065644264221E-1   2.736878395080566E-1   3.043503165245056E-1   2.742293179035187E-1   3.041786551475525E-1  -6.660530567169190E-1   5.974079966545105E-1  
 1.428000000000000E7    -6.662266254425049E-1   6.023957133293152E-1   2.745658457279205E-1   3.046404719352722E-1   2.753219008445740E-1   3.041787147521973E-1  -6.650119423866272E-1   5.979279875755310E-1  
 1.430000000000000E7    -6.652965545654297E-1   6.027615666389465E-1   2.757773399353027E-1   3.048627972602844E-1   2.763075232505798E-1   3.046578168869019E-1  -6.637987494468689E-1   5.982261896133423E-1  
 1.432000000000000E7    -6.635625362396240E-1   6.036002039909363E-1   2.768014669418335E-1   3.055560886859894E-1   2.773224115371704E-1   3.048726916313171E-1  -6.635792851448059E-1   5.990457534790039E-1  
 1.434000000000000E7    -6.626687049865723E-1   6.041846275329590E-1   2.779198884963989E-1   3.056197464466095E-1   2.783235311508179E-1   3.053329586982727E-1  -6.622207760810852E-1   6.002368927001953E-1  
 1.436000000000000E7    -6.622692942619324E-1   6.045211553573608E-1   2.783704400062561E-1   3.059604465961456E-1   2.788601517677307E-1   3.053458631038666E-1  -6.608356237411499E-1   6.006158590316773E-1  
 1.438000000000000E7    -6.606425642967224E-1   6.048176288604736E-1   2.795559763908386E-1   3.056641817092896E-1   2.795145511627197E-1   3.057140111923218E-1  -6.598173975944519E-1   6.012794971466065E-1  
 1.440000000000000E7    -6.597626805305481E-1   6.058404445648193E-1   2.803600430488586E-1   3.061673045158386E-1   2.809351980686188E-1   3.055233359336853E-1  -6.587926745414734E-1   6.017193198204041E-1  
 1.442000000000000E7    -6.587239503860474E-1   6.065372824668884E-1   2.818645536899567E-1   3.063573241233826E-1   2.822597324848175E-1   3.063629269599915E-1  -6.577167510986328E-1   6.026298999786377E-1  
 1.444000000000000E7    -6.575787663459778E-1   6.074206233024597E-1   2.825791537761688E-1   3.066986501216888E-1   2.828645706176758E-1   3.060925304889679E-1  -6.565646529197693E-1   6.029229760169983E-1  
 1.446000000000000E7    -6.562101244926453E-1   6.076520681381226E-1   2.832372784614563E-1   3.071525990962982E-1   2.835436165332794E-1   3.066702187061310E-1  -6.556553244590759E-1   6.032131910324097E-1  
 1.448000000000000E7    -6.550080776214600E-1   6.086525321006775E-1   2.840841114521027E-1   3.071512281894684E-1   2.847219407558441E-1   3.069655001163483E-1  -6.542583107948303E-1   6.040501594543457E-1  
 1.450000000000000E7    -6.541416645050049E-1   6.091784238815308E-1   2.855736017227173E-1   3.076869249343872E-1   2.857330441474915E-1   3.074184656143189E-1  -6.534935832023621E-1   6.047863960266113E-1  
 1.452000000000000E7    -6.530557274818420E-1   6.097550988197327E-1   2.863639593124390E-1   3.076683580875397E-1   2.868873476982117E-1   3.071005940437317E-1  -6.523690223693848E-1   6.050626635551453E-1  
 1.454000000000000E7    -6.516708135604858E-1   6.101174950599670E-1   2.875239849090576E-1   3.079684674739838E-1   2.879080176353455E-1   3.073928356170654E-1  -6.512538790702820E-1   6.059908866882324E-1  
 1.456000000000000E7    -6.508480310440064E-1   6.105641722679138E-1   2.881828546524048E-1   3.083134591579437E-1   2.883482873439789E-1   3.077380657196045E-1  -6.498926877975464E-1   6.063483357429504E-1  
 1.458000000000000E7    -6.496056318283081E-1   6.112334728240967E-1   2.893893122673035E-1   3.079797029495239E-1   2.896669507026672E-1   3.078267276287079E-1  -6.487679481506348E-1   6.071407794952393E-1  
 1.460000000000000E7    -6.485207676887512E-1   6.121812462806702E-1   2.904253005981445E-1   3.086883425712585E-1   2.906251549720764E-1   3.077041208744049E-1  -6.475895643234253E-1   6.076722145080566E-1  
 1.462000000000000E7    -6.472760438919067E-1   6.125277280807495E-1   2.915230989456177E-1   3.085080683231354E-1   2.918814122676849E-1   3.080573678016663E-1  -6.464264988899231E-1   6.083762645721436E-1  
 1.464000000000000E7    -6.466540694236755E-1   6.130300164222717E-1   2.926831543445587E-1   3.088775277137756E-1   2.927832007408142E-1   3.088086843490601E-1  -6.453846693038940E-1   6.092658042907715E-1  
 1.466000000000000E7    -6.448120474815369E-1   6.134594082832336E-1   2.932162284851074E-1   3.091613054275513E-1   2.936422228813171E-1   3.090519607067108E-1  -6.444882750511169E-1   6.094236969947815E-1  
 1.468000000000000E7    -6.441520452499390E-1   6.145096421241760E-1   2.944404184818268E-1   3.093308508396149E-1   2.949256598949432E-1   3.093685507774353E-1  -6.434966921806335E-1   6.097244024276733E-1  
 1.470000000000000E7    -6.427916884422302E-1   6.150409579277039E-1   2.955596446990967E-1   3.093573749065399E-1   2.960280478000641E-1   3.091776967048645E-1  -6.420593857765198E-1   6.104589700698853E-1  
 1.472000000000000E7    -6.418836116790772E-1   6.151816248893738E-1   2.963381707668304E-1   3.096257746219635E-1   2.970461845397949E-1   3.096429109573364E-1  -6.409533023834229E-1   6.114181876182556E-1  
 1.474000000000000E7    -6.405870318412781E-1   6.158534288406372E-1   2.976316511631012E-1   3.096484839916229E-1   2.980014085769653E-1   3.096116781234741E-1  -6.394632458686829E-1   6.118900775909424E-1  
 1.476000000000000E7    -6.392620205879211E-1   6.168789267539978E-1   2.985736429691315E-1   3.104302883148193E-1   2.990053296089172E-1   3.099796473979950E-1  -6.390733122825623E-1   6.127066016197205E-1  
 1.478000000000000E7    -6.383415460586548E-1   6.173197031021118E-1   2.992639243602753E-1   3.103456199169159E-1   2.995567619800568E-1   3.101470172405243E-1  -6.374422311782837E-1   6.131263375282288E-1  
 1.480000000000000E7    -6.368772983551025E-1   6.179956197738648E-1   3.004198074340820E-1   3.106747269630432E-1   3.006618320941925E-1   3.105161190032959E-1  -6.364855766296387E-1   6.138954758644104E-1  
 1.482000000000000E7    -6.360487341880798E-1   6.187262535095215E-1   3.018772006034851E-1   3.111365437507629E-1   3.019413053989410E-1   3.107526600360870E-1  -6.356321573257446E-1   6.143308877944946E-1  
 1.484000000000000E7    -6.349792480468750E-1   6.194640398025513E-1   3.028753995895386E-1   3.112794160842896E-1   3.032616674900055E-1   3.105508387088776E-1  -6.337900161743164E-1   6.152672171592712E-1  
 1.486000000000000E7    -6.339760422706604E-1   6.197568178176880E-1   3.036089539527893E-1   3.114203214645386E-1   3.039442300796509E-1   3.112138509750366E-1  -6.330036520957947E-1   6.151883602142334E-1  
 1.488000000000000E7    -6.327225565910339E-1   6.203497648239136E-1   3.046386241912842E-1   3.116163313388825E-1   3.051397204399109E-1   3.110178112983704E-1  -6.319822072982788E-1   6.158298850059509E-1  
 1.490000000000000E7    -6.311208605766296E-1   6.208845973014832E-1   3.055799305438995E-1   3.116137981414795E-1   3.062288761138916E-1   3.113581240177155E-1  -6.305580139160156E-1   6.163335442543030E-1  
 1.492000000000000E7    -6.298456788063049E-1   6.212752461433411E-1   3.066555857658386E-1   3.118981122970581E-1   3.073137700557709E-1   3.111490309238434E-1  -6.296281218528748E-1   6.174146533012390E-1  
 1.494000000000000E7    -6.292074918746948E-1   6.224477291107178E-1   3.081706762313843E-1   3.120036721229553E-1   3.083323836326599E-1   3.116326332092285E-1  -6.282311677932739E-1   6.176421642303467E-1  
 1.496000000000000E7    -6.277939081192017E-1   6.224825382232666E-1   3.088945746421814E-1   3.122401535511017E-1   3.094086945056915E-1   3.118720352649689E-1  -6.272189617156982E-1   6.183382868766785E-1  
 1.498000000000000E7    -6.267233490943909E-1   6.230345964431763E-1   3.095604181289673E-1   3.124251961708069E-1   3.104965090751648E-1   3.119799792766571E-1  -6.258433461189270E-1   6.191451549530029E-1  
 1.500000000000000E7    -6.257786750793457E-1   6.236493587493897E-1   3.112111985683441E-1   3.127326369285584E-1   3.112948238849640E-1   3.125639855861664E-1  -6.247561573982239E-1   6.201023459434509E-1  
 1.502000000000000E7    -6.243093609809876E-1   6.242866516113281E-1   3.121986091136932E-1   3.129911720752716E-1   3.120675981044769E-1   3.123775720596314E-1  -6.235710978507996E-1   6.205234527587891E-1  
 1.504000000000000E7    -6.230813264846802E-1   6.251585483551025E-1   3.134648203849793E-1   3.131602406501770E-1   3.139655292034149E-1   3.128136992454529E-1  -6.228555440902710E-1   6.210435628890991E-1  
 1.506000000000000E7    -6.221678853034973E-1   6.252469420433044E-1   3.144093751907349E-1   3.131898045539856E-1   3.143424391746521E-1   3.128808736801148E-1  -6.209913492202759E-1   6.215468645095825E-1  
 1.508000000000000E7    -6.209610104560852E-1   6.261272430419922E-1   3.153802156448364E-1   3.137244582176209E-1   3.154929280281067E-1   3.130714893341065E-1  -6.199720501899719E-1   6.220989823341370E-1  
 1.510000000000000E7    -6.196442246437073E-1   6.264969110488892E-1   3.164455592632294E-1   3.136740624904633E-1   3.167527616024017E-1   3.133858740329742E-1  -6.190710663795471E-1   6.225535869598389E-1  
 1.512000000000000E7    -6.184645891189575E-1   6.266833543777466E-1   3.177279829978943E-1   3.135659992694855E-1   3.180108666419983E-1   3.133603036403656E-1  -6.177339553833008E-1   6.235374212265015E-1  
 1.514000000000000E7    -6.175487637519836E-1   6.279819607734680E-1   3.183754086494446E-1   3.140127360820770E-1   3.191719651222229E-1   3.139305412769318E-1  -6.173096895217896E-1   6.233850121498108E-1  
 1.516000000000000E7    -6.158763766288757E-1   6.281963586807251E-1   3.198135793209076E-1   3.140194416046143E-1   3.197876811027527E-1   3.142310976982117E-1  -6.156737804412842E-1   6.243050098419190E-1  
 1.518000000000000E7    -6.150635480880737E-1   6.282532215118408E-1   3.205652534961700E-1   3.147012591362000E-1   3.208423554897308E-1   3.141394257545471E-1  -6.140888929367065E-1   6.251884698867798E-1  
 1.520000000000000E7    -6.134148240089417E-1   6.293885707855225E-1   3.220147490501404E-1   3.141256868839264E-1   3.223569989204407E-1   3.142079114913940E-1  -6.127817630767822E-1   6.252149939537048E-1  
 1.522000000000000E7    -6.124134063720703E-1   6.301257014274597E-1   3.230253756046295E-1   3.146997988224030E-1   3.232480585575104E-1   3.141925632953644E-1  -6.117755770683289E-1   6.260804533958435E-1  
 1.524000000000000E7    -6.108975410461426E-1   6.304568648338318E-1   3.237055838108063E-1   3.148630857467651E-1   3.242226243019104E-1   3.143270909786224E-1  -6.106032729148865E-1   6.267030239105225E-1  
 1.526000000000000E7    -6.100483536720276E-1   6.312839388847351E-1   3.254508674144745E-1   3.149087429046631E-1   3.255336880683899E-1   3.146920502185822E-1  -6.094310283660889E-1   6.273678541183472E-1  
 1.528000000000000E7    -6.085996627807617E-1   6.319296956062317E-1   3.263679146766663E-1   3.151404559612274E-1   3.270314335823059E-1   3.150354921817780E-1  -6.082963347434998E-1   6.280104517936707E-1  
 1.530000000000000E7    -6.076642870903015E-1   6.323591470718384E-1   3.270074129104614E-1   3.152635991573334E-1   3.277298212051392E-1   3.148435950279236E-1  -6.062966585159302E-1   6.278957724571228E-1  
 1.532000000000000E7    -6.064307093620300E-1   6.324114799499512E-1   3.281264305114746E-1   3.152882754802704E-1   3.287079632282257E-1   3.151006102561951E-1  -6.052835583686829E-1   6.285383701324463E-1  
 1.534000000000000E7    -6.048241853713989E-1   6.333625316619873E-1   3.293909728527069E-1   3.156854212284088E-1   3.296838104724884E-1   3.153290450572968E-1  -6.049847006797791E-1   6.290322542190552E-1  
 1.536000000000000E7    -6.038678288459778E-1   6.339024305343628E-1   3.305262327194214E-1   3.158268332481384E-1   3.310914635658264E-1   3.155758380889893E-1  -6.030178070068359E-1   6.298651695251465E-1  
 1.538000000000000E7    -6.025959849357605E-1   6.347323060035706E-1   3.318945169448853E-1   3.158915936946869E-1   3.321114182472229E-1   3.154521286487579E-1  -6.017841100692749E-1   6.302320361137390E-1  
 1.540000000000000E7    -6.012784242630005E-1   6.349305510520935E-1   3.326198160648346E-1   3.158010244369507E-1   3.331025242805481E-1   3.155249655246735E-1  -6.002826094627380E-1   6.307033896446228E-1  
 1.542000000000000E7    -5.998917818069458E-1   6.350444555282593E-1   3.339381217956543E-1   3.158777952194214E-1   3.343249261379242E-1   3.157753646373749E-1  -5.987857580184937E-1   6.314322948455811E-1  
 1.544000000000000E7    -5.990616083145142E-1   6.363047957420349E-1   3.352948427200317E-1   3.160818219184876E-1   3.354014754295349E-1   3.158524036407471E-1  -5.980321764945984E-1   6.316838264465332E-1  
 1.546000000000000E7    -5.978409647941589E-1   6.362605094909668E-1   3.362480103969574E-1   3.160548806190491E-1   3.369636237621307E-1   3.160679340362549E-1  -5.967756509780884E-1   6.323254704475403E-1  
 1.548000000000000E7    -5.962759852409363E-1   6.371470093727112E-1   3.375579118728638E-1   3.169005811214447E-1   3.379163742065430E-1   3.163342177867889E-1  -5.955820679664612E-1   6.331117153167725E-1  
 1.550000000000000E7    -5.949742197990418E-1   6.375050544738770E-1   3.384243547916412E-1   3.167121112346649E-1   3.386245071887970E-1   3.161928951740265E-1  -5.942738056182861E-1   6.334441304206848E-1  
 1.552000000000000E7    -5.938997268676758E-1   6.381502747535706E-1   3.398267030715942E-1   3.168362975120544E-1   3.401434719562531E-1   3.165690004825592E-1  -5.932934284210205E-1   6.338571310043335E-1  
 1.554000000000000E7    -5.929420590400696E-1   6.388681530952454E-1   3.402848243713379E-1   3.174611032009125E-1   3.415586948394775E-1   3.166664242744446E-1  -5.917679071426392E-1   6.348082423210144E-1  
 1.556000000000000E7    -5.913187861442566E-1   6.388478279113770E-1   3.416503965854645E-1   3.171693980693817E-1   3.420367538928986E-1   3.168436586856842E-1  -5.905638933181763E-1   6.347585916519165E-1  
 1.558000000000000E7    -5.906695723533630E-1   6.397792696952820E-1   3.430427312850952E-1   3.176911175251007E-1   3.439556062221527E-1   3.170472383499146E-1  -5.890337228775024E-1   6.356382966041565E-1  
 1.560000000000000E7    -5.887626409530640E-1   6.401026844978333E-1   3.439752161502838E-1   3.172813355922699E-1   3.448836803436279E-1   3.172172009944916E-1  -5.882002711296082E-1   6.363380551338196E-1  
 1.562000000000000E7    -5.875781178474426E-1   6.405725479125977E-1   3.452068865299225E-1   3.173680901527405E-1   3.451590240001679E-1   3.171828985214233E-1  -5.864282846450806E-1   6.359287500381470E-1  
 1.564000000000000E7    -5.864046216011047E-1   6.409746408462524E-1   3.462804555892944E-1   3.179816603660584E-1   3.467693030834198E-1   3.172859251499176E-1  -5.858475565910339E-1   6.363876461982727E-1  
 1.566000000000000E7    -5.849493145942688E-1   6.421126723289490E-1   3.477787077426910E-1   3.177589476108551E-1   3.479838967323303E-1   3.173674345016480E-1  -5.846112370491028E-1   6.367196440696716E-1  
 1.568000000000000E7    -5.838129520416260E-1   6.423767209053040E-1   3.490519523620606E-1   3.176224529743195E-1   3.491242229938507E-1   3.174139857292175E-1  -5.828041434288025E-1   6.379781365394592E-1  
 1.570000000000000E7    -5.823662281036377E-1   6.430545449256897E-1   3.504496812820435E-1   3.181009292602539E-1   3.504661619663239E-1   3.176119327545166E-1  -5.812101364135742E-1   6.386626958847046E-1  
 1.572000000000000E7    -5.807732343673706E-1   6.436550021171570E-1   3.510571718215942E-1   3.179558217525482E-1   3.521975278854370E-1   3.176966309547424E-1  -5.806673169136047E-1   6.388301253318787E-1  
 1.574000000000000E7    -5.798457264900208E-1   6.436370611190796E-1   3.524186611175537E-1   3.185055255889893E-1   3.527912497520447E-1   3.178400397300720E-1  -5.789289474487305E-1   6.394829154014587E-1  
 1.576000000000000E7    -5.785868167877197E-1   6.445577740669251E-1   3.537808656692505E-1   3.182393908500671E-1   3.542261421680450E-1   3.179518580436707E-1  -5.775404572486877E-1   6.396577358245850E-1  
 1.578000000000000E7    -5.772521495819092E-1   6.446607708930969E-1   3.544710874557495E-1   3.187448978424072E-1   3.545005023479462E-1   3.180141150951386E-1  -5.762559175491333E-1   6.404017806053162E-1  
 1.580000000000000E7    -5.756518244743347E-1   6.449883580207825E-1   3.560768365859985E-1   3.187899887561798E-1   3.563405871391296E-1   3.182827532291412E-1  -5.753569602966309E-1   6.411643028259277E-1  
 1.582000000000000E7    -5.744160413742065E-1   6.456506848335266E-1   3.569628894329071E-1   3.186778426170349E-1   3.574910759925842E-1   3.180145025253296E-1  -5.739546418190002E-1   6.417070627212524E-1  
 1.584000000000000E7    -5.731669664382935E-1   6.456867456436157E-1   3.581411540508270E-1   3.187895119190216E-1   3.586157858371735E-1   3.184719681739807E-1  -5.724459886550903E-1   6.420473456382752E-1  
 1.586000000000000E7    -5.720223784446716E-1   6.467345952987671E-1   3.595531284809113E-1   3.189938664436340E-1   3.597211837768555E-1   3.184604942798615E-1  -5.711634755134583E-1   6.423038244247437E-1  
 1.588000000000000E7    -5.706327557563782E-1   6.467910408973694E-1   3.607533276081085E-1   3.188913762569428E-1   3.611778914928436E-1   3.185755908489227E-1  -5.702750086784363E-1   6.428297758102417E-1  
 1.590000000000000E7    -5.692199468612671E-1   6.472452878952026E-1   3.618168830871582E-1   3.192077279090881E-1   3.620673418045044E-1   3.184738755226135E-1  -5.685290098190308E-1   6.431171894073486E-1  
 1.592000000000000E7    -5.676196813583374E-1   6.484894752502441E-1   3.631159067153931E-1   3.187107145786285E-1   3.633929193019867E-1   3.184030055999756E-1  -5.674081444740295E-1   6.436728239059448E-1  
 1.594000000000000E7    -5.663632154464722E-1   6.487613320350647E-1   3.642271161079407E-1   3.187884986400604E-1   3.648959100246429E-1   3.185398280620575E-1  -5.657578706741333E-1   6.438232660293579E-1  
 1.596000000000000E7    -5.655211806297302E-1   6.485970616340637E-1   3.656623363494873E-1   3.189097046852112E-1   3.651697039604187E-1   3.190563321113586E-1  -5.647486448287964E-1   6.449119448661804E-1  
 1.598000000000000E7    -5.634890198707581E-1   6.491984128952026E-1   3.666393458843231E-1   3.193704187870026E-1   3.666808307170868E-1   3.187698423862457E-1  -5.633241534233093E-1   6.457663774490356E-1  
 1.600000000000000E7    -5.628398656845093E-1   6.491630077362061E-1   3.679281771183014E-1   3.193315863609314E-1   3.680056929588318E-1   3.189443647861481E-1  -5.617678761482239E-1   6.459801197052002E-1  
 1.602000000000000E7    -5.615881681442261E-1   6.504166126251221E-1   3.692184984683991E-1   3.195286393165588E-1   3.696830868721008E-1   3.193463087081909E-1  -5.605759620666504E-1   6.464912891387940E-1  
 1.604000000000000E7    -5.597894191741943E-1   6.508727669715881E-1   3.701882362365723E-1   3.187516033649445E-1   3.703685998916626E-1   3.187829554080963E-1  -5.592051148414612E-1   6.462078094482422E-1  
 1.606000000000000E7    -5.583933591842651E-1   6.513029336929321E-1   3.715261220932007E-1   3.192382156848908E-1   3.720730543136597E-1   3.193987607955933E-1  -5.577212572097778E-1   6.471368670463562E-1  
 1.608000000000000E7    -5.572482347488403E-1   6.519246101379395E-1   3.726453185081482E-1   3.203774094581604E-1   3.730226755142212E-1   3.192078471183777E-1  -5.567791461944580E-1   6.472049355506897E-1  
 1.610000000000000E7    -5.561571717262268E-1   6.520090699195862E-1   3.743952512741089E-1   3.196308314800263E-1   3.748003244400024E-1   3.196075856685638E-1  -5.550565123558044E-1   6.481140255928040E-1  
 1.612000000000000E7    -5.545057058334351E-1   6.528093218803406E-1   3.752943873405457E-1   3.196317851543427E-1   3.758604228496552E-1   3.192055225372315E-1  -5.536500215530396E-1   6.482191085815430E-1  
 1.614000000000000E7    -5.532162785530090E-1   6.529001593589783E-1   3.761803805828095E-1   3.198933005332947E-1   3.766852915287018E-1   3.195023834705353E-1  -5.525398254394531E-1   6.489338874816895E-1  
 1.616000000000000E7    -5.516121983528137E-1   6.533341407775879E-1   3.778185844421387E-1   3.200383484363556E-1   3.782229423522949E-1   3.192621469497681E-1  -5.510789155960083E-1   6.495930552482605E-1  
 1.618000000000000E7    -5.501924753189087E-1   6.542088389396668E-1   3.790303468704224E-1   3.200591802597046E-1   3.798065483570099E-1   3.191922605037689E-1  -5.495512485504150E-1   6.498949527740479E-1  
 1.620000000000000E7    -5.486646294593811E-1   6.544585824012756E-1   3.806114792823792E-1   3.200284540653229E-1   3.809309899806976E-1   3.192215561866760E-1  -5.484543442726135E-1   6.501219868659973E-1  
 1.622000000000000E7    -5.477979779243469E-1   6.548473834991455E-1   3.814962804317474E-1   3.201325237751007E-1   3.820497393608093E-1   3.197300434112549E-1  -5.466251373291016E-1   6.506831049919128E-1  
 1.624000000000000E7    -5.461592078208923E-1   6.553547978401184E-1   3.831667900085449E-1   3.202449679374695E-1   3.832443356513977E-1   3.194878995418549E-1  -5.456762909889221E-1   6.511932611465454E-1  
 1.626000000000000E7    -5.443840622901917E-1   6.554325819015503E-1   3.838815093040466E-1   3.200586438179016E-1   3.843394219875336E-1   3.194653093814850E-1  -5.443239808082581E-1   6.520936489105225E-1  
 1.628000000000000E7    -5.434713959693909E-1   6.559212207794190E-1   3.853181600570679E-1   3.200728595256805E-1   3.855065107345581E-1   3.202141523361206E-1  -5.428462624549866E-1   6.520147919654846E-1  
 1.630000000000000E7    -5.421983003616333E-1   6.559445858001709E-1   3.865113854408264E-1   3.198201656341553E-1   3.871015012264252E-1   3.196619153022766E-1  -5.413658618927002E-1   6.523332595825195E-1  
 1.632000000000000E7    -5.407240986824036E-1   6.569125652313232E-1   3.876784443855286E-1   3.203254342079163E-1   3.878698050975800E-1   3.201341927051544E-1  -5.400986075401306E-1   6.524113416671753E-1  
 1.634000000000000E7    -5.394180417060852E-1   6.575886011123657E-1   3.893833756446838E-1   3.199972510337830E-1   3.893242776393890E-1   3.198374509811401E-1  -5.381933450698853E-1   6.527234315872192E-1  
 1.636000000000000E7    -5.374944210052490E-1   6.575095653533936E-1   3.905113637447357E-1   3.202360272407532E-1   3.906763494014740E-1   3.197092413902283E-1  -5.372911691665649E-1   6.538856029510498E-1  
 1.638000000000000E7    -5.364270210266113E-1   6.579136848449707E-1   3.917025625705719E-1   3.203284144401550E-1   3.918690085411072E-1   3.196202516555786E-1  -5.359778404235840E-1   6.537505984306335E-1  
 1.640000000000000E7    -5.349436998367310E-1   6.583417057991028E-1   3.927111029624939E-1   3.201552331447601E-1   3.933210670948029E-1   3.200491964817047E-1  -5.344515442848206E-1   6.549700498580933E-1  
 1.642000000000000E7    -5.333028435707092E-1   6.591330170631409E-1   3.943522274494171E-1   3.197956383228302E-1   3.949041366577148E-1   3.194908499717712E-1  -5.326470136642456E-1   6.548035740852356E-1  
 1.644000000000000E7    -5.319133996963501E-1   6.592633724212647E-1   3.954091966152191E-1   3.201832473278046E-1   3.964883089065552E-1   3.196515738964081E-1  -5.321645140647888E-1   6.551852226257324E-1  
 1.646000000000000E7    -5.306338667869568E-1   6.598144173622131E-1   3.963656723499298E-1   3.196944296360016E-1   3.969607949256897E-1   3.195832371711731E-1  -5.297645926475525E-1   6.550018191337585E-1  
 1.648000000000000E7    -5.291393399238586E-1   6.601125597953796E-1   3.977986276149750E-1   3.204061686992645E-1   3.986192345619202E-1   3.199275434017181E-1  -5.289736390113831E-1   6.558461785316467E-1  
 1.650000000000000E7    -5.278998613357544E-1   6.606474518775940E-1   3.997538387775421E-1   3.202073276042938E-1   4.000445604324341E-1   3.197306394577026E-1  -5.278354287147522E-1   6.562424302101135E-1  
 1.652000000000000E7    -5.267441272735596E-1   6.608561873435974E-1   4.010150432586670E-1   3.203395009040833E-1   4.010793864727020E-1   3.196655809879303E-1  -5.259063243865967E-1   6.567766070365906E-1  
 1.654000000000000E7    -5.250828862190247E-1   6.615791320800781E-1   4.020011425018311E-1   3.203642368316650E-1   4.024300277233124E-1   3.195555210113525E-1  -5.242475271224976E-1   6.573168039321899E-1  
 1.656000000000000E7    -5.232226252555847E-1   6.616215109825134E-1   4.032629728317261E-1   3.202530741691589E-1   4.035663008689880E-1   3.195999264717102E-1  -5.230014324188232E-1   6.572388410568237E-1  
 1.658000000000000E7    -5.217078924179077E-1   6.621738672256470E-1   4.041391015052795E-1   3.200428485870361E-1   4.050547480583191E-1   3.196336328983307E-1  -5.217072963714600E-1   6.579579114913940E-1  
 1.660000000000000E7    -5.206669569015503E-1   6.621152758598328E-1   4.055517017841339E-1   3.200462162494659E-1   4.058721065521240E-1   3.193219900131226E-1  -5.201926827430725E-1   6.584138274192810E-1  
 1.662000000000000E7    -5.189114212989807E-1   6.629849076271057E-1   4.075448513031006E-1   3.199930489063263E-1   4.079001247882843E-1   3.196747303009033E-1  -5.187120437622070E-1   6.586225628852844E-1  
 1.664000000000000E7    -5.176707506179810E-1   6.628779172897339E-1   4.082803130149841E-1   3.199241161346436E-1   4.093444049358368E-1   3.194197118282318E-1  -5.173093676567078E-1   6.588713526725769E-1  
 1.666000000000000E7    -5.161945223808289E-1   6.635392308235169E-1   4.099594950675964E-1   3.199609518051148E-1   4.101422429084778E-1   3.194709718227387E-1  -5.157871842384338E-1   6.591545939445496E-1  
 1.668000000000000E7    -5.151396393775940E-1   6.641916632652283E-1   4.115535914897919E-1   3.195803165435791E-1   4.114919006824493E-1   3.191477060317993E-1  -5.144531726837158E-1   6.597409248352051E-1  
 1.670000000000000E7    -5.130414962768555E-1   6.638107299804688E-1   4.127041697502136E-1   3.198198974132538E-1   4.127448797225952E-1   3.192434310913086E-1  -5.132129192352295E-1   6.599551439285278E-1  
 1.672000000000000E7    -5.118685364723206E-1   6.642485260963440E-1   4.140356779098511E-1   3.196727335453033E-1   4.143497645854950E-1   3.196245133876801E-1  -5.114099383354187E-1   6.604231595993042E-1  
 1.674000000000000E7    -5.102908015251160E-1   6.646072268486023E-1   4.152780771255493E-1   3.199474215507507E-1   4.157817661762238E-1   3.192064166069031E-1  -5.099672675132752E-1   6.607821583747864E-1  
 1.676000000000000E7    -5.089404582977295E-1   6.653330922126770E-1   4.169089794158936E-1   3.196611404418945E-1   4.168962836265564E-1   3.189254999160767E-1  -5.083327293395996E-1   6.610457897186279E-1  
 1.678000000000000E7    -5.073463320732117E-1   6.655566096305847E-1   4.173849523067474E-1   3.198258876800537E-1   4.180656075477600E-1   3.195191919803619E-1  -5.070995688438416E-1   6.615833640098572E-1  
 1.680000000000000E7    -5.057341456413269E-1   6.658390760421753E-1   4.195429682731628E-1   3.193422257900238E-1   4.195448160171509E-1   3.191188573837280E-1  -5.054653286933899E-1   6.618622541427612E-1  
 1.682000000000000E7    -5.046081542968750E-1   6.660622954368591E-1   4.211169779300690E-1   3.194534480571747E-1   4.209794402122498E-1   3.191839158535004E-1  -5.042607188224793E-1   6.619758009910584E-1  
 1.684000000000000E7    -5.029339790344238E-1   6.666243076324463E-1   4.222673475742340E-1   3.193126022815704E-1   4.223255217075348E-1   3.192538321018219E-1  -5.025271773338318E-1   6.625007390975952E-1  
 1.686000000000000E7    -5.014503598213196E-1   6.667159795761108E-1   4.235042929649353E-1   3.189641237258911E-1   4.236813485622406E-1   3.193233609199524E-1  -5.014741420745850E-1   6.626577973365784E-1  
 1.688000000000000E7    -4.998207390308380E-1   6.673148870468140E-1   4.248931705951691E-1   3.195870518684387E-1   4.254306256771088E-1   3.187339007854462E-1  -4.997529983520508E-1   6.634303927421570E-1  
 1.690000000000000E7    -4.986979067325592E-1   6.674411296844482E-1   4.260751605033875E-1   3.196018040180206E-1   4.264614284038544E-1   3.193266987800598E-1  -4.980340898036957E-1   6.633077859878540E-1  
 1.692000000000000E7    -4.971629679203033E-1   6.674281954765320E-1   4.277288317680359E-1   3.192962706089020E-1   4.278655648231506E-1   3.187216818332672E-1  -4.962801635265350E-1   6.641622781753540E-1  
 1.694000000000000E7    -4.958117902278900E-1   6.682410240173340E-1   4.291128516197205E-1   3.191488087177277E-1   4.296261966228485E-1   3.186368346214294E-1  -4.947612583637238E-1   6.638552546501160E-1  
 1.696000000000000E7    -4.939534068107605E-1   6.685194373130798E-1   4.303376972675324E-1   3.195002675056458E-1   4.307129383087158E-1   3.187539875507355E-1  -4.935289621353149E-1   6.641796231269836E-1  
 1.698000000000000E7    -4.923616647720337E-1   6.686033010482788E-1   4.317414760589600E-1   3.187087178230286E-1   4.324996471405029E-1   3.182606995105743E-1  -4.922180771827698E-1   6.642066836357117E-1  
 1.700000000000000E7    -4.914706647396088E-1   6.691833138465881E-1   4.330998659133911E-1   3.186849951744080E-1   4.335221350193024E-1   3.185133934020996E-1  -4.905124306678772E-1   6.646202802658081E-1  
 1.702000000000000E7    -4.893152713775635E-1   6.696560978889465E-1   4.349103569984436E-1   3.186890780925751E-1   4.350539743900299E-1   3.188954293727875E-1  -4.889716207981110E-1   6.656619906425476E-1  
 1.704000000000000E7    -4.877997636795044E-1   6.696520447731018E-1   4.357745051383972E-1   3.183013498783112E-1   4.362932741641998E-1   3.181934952735901E-1  -4.879082143306732E-1   6.654826998710632E-1  
 1.706000000000000E7    -4.859376549720764E-1   6.698104143142700E-1   4.373400211334229E-1   3.188228607177734E-1   4.377007782459259E-1   3.176668286323547E-1  -4.862589240074158E-1   6.662223935127258E-1  
 1.708000000000000E7    -4.850167930126190E-1   6.702316403388977E-1   4.393018186092377E-1   3.182603120803833E-1   4.389009177684784E-1   3.179073035717011E-1  -4.841242134571075E-1   6.660609841346741E-1  
 1.710000000000000E7    -4.832901954650879E-1   6.700775027275085E-1   4.402825534343720E-1   3.186002969741821E-1   4.402521848678589E-1   3.180967867374420E-1  -4.832074940204620E-1   6.669455170631409E-1  
 1.712000000000000E7    -4.817365705966950E-1   6.710562109947205E-1   4.418639838695526E-1   3.181691467761993E-1   4.420723319053650E-1   3.180089592933655E-1  -4.811322093009949E-1   6.665906310081482E-1  
 1.714000000000000E7    -4.800303876399994E-1   6.709933280944824E-1   4.427367448806763E-1   3.177756965160370E-1   4.433424174785614E-1   3.176553547382355E-1  -4.799151122570038E-1   6.672307252883911E-1  
 1.716000000000000E7    -4.784466028213501E-1   6.711823344230652E-1   4.450674951076508E-1   3.178214728832245E-1   4.446146488189697E-1   3.175700306892395E-1  -4.783744513988495E-1   6.676465272903442E-1  
 1.718000000000000E7    -4.771685302257538E-1   6.715523004531860E-1   4.459492862224579E-1   3.180394172668457E-1   4.461333751678467E-1   3.176759183406830E-1  -4.763366580009460E-1   6.673207283020020E-1  
 1.720000000000000E7    -4.755238890647888E-1   6.715694069862366E-1   4.471167623996735E-1   3.173728287220001E-1   4.472884535789490E-1   3.171864748001099E-1  -4.751065671443939E-1   6.678805947303772E-1  
 1.722000000000000E7    -4.738079607486725E-1   6.719418764114380E-1   4.488245844841003E-1   3.172005712985992E-1   4.491782188415527E-1   3.171296715736389E-1  -4.730850458145142E-1   6.682044863700867E-1  
 1.724000000000000E7    -4.718770086765289E-1   6.723070144653320E-1   4.502517879009247E-1   3.174552321434021E-1   4.503710269927979E-1   3.166005611419678E-1  -4.723321199417114E-1   6.679799556732178E-1  
 1.726000000000000E7    -4.705221652984619E-1   6.727763414382935E-1   4.514650702476502E-1   3.172656595706940E-1   4.516613483428955E-1   3.165014684200287E-1  -4.703089296817780E-1   6.685266494750977E-1  
 1.728000000000000E7    -4.692222774028778E-1   6.724406480789185E-1   4.531549513339996E-1   3.169780671596527E-1   4.530638158321381E-1   3.166827559471130E-1  -4.685042798519135E-1   6.687759160995483E-1  
 1.730000000000000E7    -4.670465588569641E-1   6.728867292404175E-1   4.545640647411346E-1   3.168967068195343E-1   4.545714259147644E-1   3.166165649890900E-1  -4.673168659210205E-1   6.689559817314148E-1  
 1.732000000000000E7    -4.656075835227966E-1   6.731405258178711E-1   4.557866156101227E-1   3.167850077152252E-1   4.567248821258545E-1   3.161282539367676E-1  -4.660555422306061E-1   6.695719957351685E-1  
 1.734000000000000E7    -4.647675454616547E-1   6.733923554420471E-1   4.574664831161499E-1   3.162997364997864E-1   4.579106271266937E-1   3.162383437156677E-1  -4.641971886157990E-1   6.693370938301086E-1  
 1.736000000000000E7    -4.629793763160706E-1   6.736004948616028E-1   4.585569500923157E-1   3.165159523487091E-1   4.589205384254456E-1   3.156823217868805E-1  -4.623965322971344E-1   6.701031327247620E-1  
 1.738000000000000E7    -4.607217013835907E-1   6.738409399986267E-1   4.602375030517578E-1   3.162504434585571E-1   4.603837430477142E-1   3.149523138999939E-1  -4.608326554298401E-1   6.696274280548096E-1  
 1.740000000000000E7    -4.597899317741394E-1   6.742634773254395E-1   4.621422588825226E-1   3.158271610736847E-1   4.615568816661835E-1   3.154076635837555E-1  -4.588409960269928E-1   6.700408458709717E-1  
 1.742000000000000E7    -4.578424990177155E-1   6.737998723983765E-1   4.634180665016174E-1   3.158192038536072E-1   4.629355072975159E-1   3.150734007358551E-1  -4.578011631965637E-1   6.703181862831116E-1  
 1.744000000000000E7    -4.567001461982727E-1   6.744745373725891E-1   4.651482701301575E-1   3.150870800018311E-1   4.647066593170166E-1   3.149947822093964E-1  -4.556611776351929E-1   6.701393127441406E-1  
 1.746000000000000E7    -4.552666842937470E-1   6.748433113098145E-1   4.664937257766724E-1   3.151752054691315E-1   4.664081931114197E-1   3.153424561023712E-1  -4.545016288757324E-1   6.707140803337097E-1  
 1.748000000000000E7    -4.527683258056641E-1   6.751123666763306E-1   4.676875472068787E-1   3.150473535060883E-1   4.681418836116791E-1   3.146260380744934E-1  -4.527918696403503E-1   6.707471609115601E-1  
 1.750000000000000E7    -4.513397216796875E-1   6.756465435028076E-1   4.688479006290436E-1   3.149409294128418E-1   4.688774347305298E-1   3.145632743835449E-1  -4.513730704784393E-1   6.708209514617920E-1  
 1.752000000000000E7    -4.497764110565186E-1   6.759318709373474E-1   4.706974327564240E-1   3.145796656608582E-1   4.709077179431915E-1   3.142055273056030E-1  -4.496625959873200E-1   6.712318062782288E-1  
 1.754000000000000E7    -4.485488235950470E-1   6.755625009536743E-1   4.725227355957031E-1   3.143931031227112E-1   4.722494482994080E-1   3.139048814773560E-1  -4.479129612445831E-1   6.718220114707947E-1  
 1.756000000000000E7    -4.464866816997528E-1   6.758608818054199E-1   4.737343788146973E-1   3.144648373126984E-1   4.740881025791168E-1   3.133574724197388E-1  -4.463411271572113E-1   6.715298891067505E-1  
 1.758000000000000E7    -4.449627101421356E-1   6.758950948715210E-1   4.749701023101807E-1   3.144647479057312E-1   4.751480817794800E-1   3.134467899799347E-1  -4.448180198669434E-1   6.717266440391541E-1  
 1.760000000000000E7    -4.434992671012878E-1   6.763481497764587E-1   4.766584932804108E-1   3.139679133892059E-1   4.770906865596771E-1   3.132700026035309E-1  -4.431163370609283E-1   6.719112396240234E-1  
 1.762000000000000E7    -4.418966770172119E-1   6.756445169448853E-1   4.784166812896729E-1   3.134453594684601E-1   4.784008562564850E-1   3.127332627773285E-1  -4.412502646446228E-1   6.720996499061585E-1  
 1.764000000000000E7    -4.401532113552094E-1   6.763975024223328E-1   4.799490571022034E-1   3.132317066192627E-1   4.797332286834717E-1   3.130266368389130E-1  -4.398214221000671E-1   6.723682880401611E-1  
 1.766000000000000E7    -4.384280443191528E-1   6.766336560249329E-1   4.814372062683106E-1   3.131688833236694E-1   4.813957810401917E-1   3.128966689109802E-1  -4.380215406417847E-1   6.723753213882446E-1  
 1.768000000000000E7    -4.368237555027008E-1   6.766073703765869E-1   4.824977517127991E-1   3.128824532032013E-1   4.829329848289490E-1   3.127034008502960E-1  -4.360223412513733E-1   6.724787354469299E-1  
 1.770000000000000E7    -4.348636567592621E-1   6.768438816070557E-1   4.841609001159668E-1   3.130221366882324E-1   4.845082461833954E-1   3.122230172157288E-1  -4.345794916152954E-1   6.725480556488037E-1  
 1.772000000000000E7    -4.335147738456726E-1   6.769541501998901E-1   4.855980575084686E-1   3.124949038028717E-1   4.860485196113586E-1   3.117688596248627E-1  -4.328373968601227E-1   6.725096702575684E-1  
 1.774000000000000E7    -4.312210977077484E-1   6.772366166114807E-1   4.871463775634766E-1   3.120241463184357E-1   4.880782365798950E-1   3.113219738006592E-1  -4.313391745090485E-1   6.726627945899963E-1  
 1.776000000000000E7    -4.298771619796753E-1   6.770330667495728E-1   4.887479543685913E-1   3.118797242641449E-1   4.887874424457550E-1   3.111041486263275E-1  -4.298293292522430E-1   6.732006669044495E-1  
 1.778000000000000E7    -4.283899664878845E-1   6.774196028709412E-1   4.901376962661743E-1   3.112374544143677E-1   4.903285801410675E-1   3.107715845108032E-1  -4.280483424663544E-1   6.731293797492981E-1  
 1.780000000000000E7    -4.265657067298889E-1   6.775295734405518E-1   4.915451705455780E-1   3.111816346645355E-1   4.922772645950317E-1   3.106481432914734E-1  -4.264267385005951E-1   6.733707785606384E-1  
 1.782000000000000E7    -4.249885976314545E-1   6.776494979858398E-1   4.932869076728821E-1   3.108542859554291E-1   4.932961165904999E-1   3.104786872863770E-1  -4.244385957717896E-1   6.732032895088196E-1  
 1.784000000000000E7    -4.233250021934509E-1   6.772704124450684E-1   4.951444268226624E-1   3.103105723857880E-1   4.952144026756287E-1   3.101560175418854E-1  -4.228844344615936E-1   6.738534569740295E-1  
 1.786000000000000E7    -4.212845861911774E-1   6.779377460479736E-1   4.966111481189728E-1   3.104724586009979E-1   4.964112043380737E-1   3.095644712448120E-1  -4.215202331542969E-1   6.732677817344666E-1  
 1.788000000000000E7    -4.200766086578369E-1   6.775212883949280E-1   4.981551766395569E-1   3.093521296977997E-1   4.980798661708832E-1   3.097812533378601E-1  -4.196992218494415E-1   6.743004322052002E-1  
 1.790000000000000E7    -4.184737205505371E-1   6.779708266258240E-1   4.993526637554169E-1   3.091182112693787E-1   5.000439882278442E-1   3.092399835586548E-1  -4.175099730491638E-1   6.740419864654541E-1  
 1.792000000000000E7    -4.165279567241669E-1   6.780226826667786E-1   5.011820197105408E-1   3.092326521873474E-1   5.013136863708496E-1   3.086186349391937E-1  -4.164875745773315E-1   6.736722588539124E-1  
 1.794000000000000E7    -4.148989319801331E-1   6.781381368637085E-1   5.025157928466797E-1   3.088035881519318E-1   5.030392408370972E-1   3.080627024173737E-1  -4.147940874099731E-1   6.739016771316528E-1  
 1.796000000000000E7    -4.128032028675079E-1   6.781663894653320E-1   5.042383074760437E-1   3.088746368885040E-1   5.046468377113342E-1   3.077318668365479E-1  -4.128918647766113E-1   6.742239594459534E-1  
 1.798000000000000E7    -4.116965532302856E-1   6.785154342651367E-1   5.059954524040222E-1   3.081926107406616E-1   5.064330101013184E-1   3.083235621452332E-1  -4.108877480030060E-1   6.739124059677124E-1  
 1.800000000000000E7    -4.095966815948486E-1   6.779260635375977E-1   5.078171491622925E-1   3.077819645404816E-1   5.078393220901489E-1   3.076474964618683E-1  -4.095047116279602E-1   6.745193004608154E-1  
 1.802000000000000E7    -4.083711802959442E-1   6.780627965927124E-1   5.087488889694214E-1   3.076481521129608E-1   5.095866918563843E-1   3.071841597557068E-1  -4.073314070701599E-1   6.740093827247620E-1  
 1.804000000000000E7    -4.057196378707886E-1   6.777181029319763E-1   5.104607939720154E-1   3.066819608211517E-1   5.107528567314148E-1   3.063036203384399E-1  -4.059591293334961E-1   6.739804744720459E-1  
 1.806000000000000E7    -4.045774340629578E-1   6.784861087799072E-1   5.118368268013001E-1   3.065919578075409E-1   5.123205780982971E-1   3.066963553428650E-1  -4.038206934928894E-1   6.738805174827576E-1  
 1.808000000000000E7    -4.030113220214844E-1   6.784600615501404E-1   5.137959718704224E-1   3.066049814224243E-1   5.138149857521057E-1   3.061994314193726E-1  -4.024913609027863E-1   6.742241382598877E-1  
 1.810000000000000E7    -4.010176360607147E-1   6.785507798194885E-1   5.157186985015869E-1   3.063156604766846E-1   5.153286457061768E-1   3.057172298431397E-1  -4.012658894062042E-1   6.740806102752686E-1  
 1.812000000000000E7    -3.995553851127625E-1   6.785302758216858E-1   5.167914032936096E-1   3.058712184429169E-1   5.173536539077759E-1   3.053723573684692E-1  -3.992020487785339E-1   6.747684478759766E-1  
 1.814000000000000E7    -3.975629210472107E-1   6.785845160484314E-1   5.188646316528320E-1   3.046756684780121E-1   5.188671946525574E-1   3.050858080387116E-1  -3.970804810523987E-1   6.745507717132568E-1  
 1.816000000000000E7    -3.956382274627686E-1   6.785614490509033E-1   5.203504562377930E-1   3.049074411392212E-1   5.203393101692200E-1   3.044742643833160E-1  -3.949699699878693E-1   6.745265722274780E-1  
 1.818000000000000E7    -3.937417566776276E-1   6.785483360290527E-1   5.215159654617310E-1   3.039925098419190E-1   5.218517184257507E-1   3.036789298057556E-1  -3.936392068862915E-1   6.742477416992188E-1  
 1.820000000000000E7    -3.918939232826233E-1   6.781600117683411E-1   5.231059789657593E-1   3.040616214275360E-1   5.237344503402710E-1   3.033869564533234E-1  -3.919803798198700E-1   6.740832924842835E-1  
 1.822000000000000E7    -3.906695842742920E-1   6.782352924346924E-1   5.250352621078491E-1   3.037772476673126E-1   5.251379013061523E-1   3.034542798995972E-1  -3.901224136352539E-1   6.739885807037354E-1  
 1.824000000000000E7    -3.879918158054352E-1   6.780630946159363E-1   5.264803767204285E-1   3.033000230789185E-1   5.268772244453430E-1   3.023004233837128E-1  -3.882343769073486E-1   6.741536259651184E-1  
 1.826000000000000E7    -3.869545459747315E-1   6.787248849868774E-1   5.284258723258972E-1   3.029750287532806E-1   5.284073352813721E-1   3.021597564220429E-1  -3.866415917873383E-1   6.741639375686646E-1  
 1.828000000000000E7    -3.853070437908173E-1   6.785511374473572E-1   5.297564864158630E-1   3.023491203784943E-1   5.304800868034363E-1   3.018687963485718E-1  -3.848880529403687E-1   6.742374897003174E-1  
 1.830000000000000E7    -3.828715980052948E-1   6.781427264213562E-1   5.317682623863220E-1   3.021953403949738E-1   5.316619277000427E-1   3.016245365142822E-1  -3.831698000431061E-1   6.743797063827515E-1  
 1.832000000000000E7    -3.813864886760712E-1   6.783012747764587E-1   5.333064198493958E-1   3.011776208877564E-1   5.330862998962402E-1   3.010238111019135E-1  -3.813431262969971E-1   6.743605732917786E-1  
 1.834000000000000E7    -3.793102800846100E-1   6.781125664710999E-1   5.349415540695190E-1   3.013168573379517E-1   5.346648097038269E-1   3.003259003162384E-1  -3.796052038669586E-1   6.742064356803894E-1  
 1.836000000000000E7    -3.777511119842529E-1   6.785235404968262E-1   5.364708304405212E-1   3.004385828971863E-1   5.368340015411377E-1   3.005421459674835E-1  -3.776038289070129E-1   6.738857626914978E-1  
 1.838000000000000E7    -3.762018680572510E-1   6.782813668251038E-1   5.385767221450806E-1   2.999408245086670E-1   5.381431579589844E-1   2.995022833347321E-1  -3.762173056602478E-1   6.740750074386597E-1  
 1.840000000000000E7    -3.739970624446869E-1   6.776387691497803E-1   5.396217703819275E-1   2.997688353061676E-1   5.394014716148377E-1   2.988501489162445E-1  -3.743281364440918E-1   6.737817525863648E-1  
 1.842000000000000E7    -3.721239268779755E-1   6.776278614997864E-1   5.419045090675354E-1   2.987846732139587E-1   5.415661931037903E-1   2.984882295131683E-1  -3.725387752056122E-1   6.737198829650879E-1  
 1.844000000000000E7    -3.706788122653961E-1   6.777870059013367E-1   5.429079532623291E-1   2.987463772296906E-1   5.426595211029053E-1   2.980629503726959E-1  -3.706263005733490E-1   6.736883521080017E-1  
 1.846000000000000E7    -3.685393631458283E-1   6.778770685195923E-1   5.442789793014526E-1   2.982560992240906E-1   5.446460247039795E-1   2.976295948028565E-1  -3.684068322181702E-1   6.732497215270996E-1  
 1.848000000000000E7    -3.667724132537842E-1   6.773574352264404E-1   5.460106730461121E-1   2.976618707180023E-1   5.463316440582275E-1   2.968389987945557E-1  -3.673672378063202E-1   6.732665896415710E-1  
 1.850000000000000E7    -3.654466569423676E-1   6.778008937835693E-1   5.479528307914734E-1   2.971168160438538E-1   5.481417179107666E-1   2.967962324619293E-1  -3.650557100772858E-1   6.728709340095520E-1  
 1.852000000000000E7    -3.631578385829926E-1   6.770815253257752E-1   5.496523976325989E-1   2.973492145538330E-1   5.498532056808472E-1   2.960340678691864E-1  -3.635749220848084E-1   6.735470294952393E-1  
 1.854000000000000E7    -3.617206513881683E-1   6.771131157875061E-1   5.515743494033814E-1   2.957278192043304E-1   5.518807768821716E-1   2.958224117755890E-1  -3.615525960922241E-1   6.734266281127930E-1  
 1.856000000000000E7    -3.596353232860565E-1   6.769386529922485E-1   5.531726479530335E-1   2.948126494884491E-1   5.531225204467773E-1   2.946984767913818E-1  -3.599501848220825E-1   6.734855175018311E-1  
 1.858000000000000E7    -3.582750260829926E-1   6.772210001945496E-1   5.548889636993408E-1   2.945697307586670E-1   5.551550388336182E-1   2.943826913833618E-1  -3.579769432544708E-1   6.726352572441101E-1  
 1.860000000000000E7    -3.563003540039063E-1   6.766749024391174E-1   5.564589500427246E-1   2.943823337554932E-1   5.566666722297669E-1   2.939960360527039E-1  -3.562717735767365E-1   6.729760169982910E-1  
 1.862000000000000E7    -3.539569675922394E-1   6.768444180488586E-1   5.585495233535767E-1   2.943208217620850E-1   5.584304332733154E-1   2.934513092041016E-1  -3.548325300216675E-1   6.727027893066406E-1  
 1.864000000000000E7    -3.520038723945618E-1   6.763144731521606E-1   5.600308179855347E-1   2.929227948188782E-1   5.599380731582642E-1   2.930092513561249E-1  -3.522894680500031E-1   6.729609370231628E-1  
 1.866000000000000E7    -3.503194451332092E-1   6.767193078994751E-1   5.615147948265076E-1   2.927121818065643E-1   5.620059967041016E-1   2.921662926673889E-1  -3.507180809974670E-1   6.723129749298096E-1  
 1.868000000000000E7    -3.488259613513947E-1   6.762017011642456E-1   5.629686117172241E-1   2.915815114974976E-1   5.631306767463684E-1   2.916247546672821E-1  -3.484509289264679E-1   6.716695427894592E-1  
 1.870000000000000E7    -3.466394543647766E-1   6.758950948715210E-1   5.646771788597107E-1   2.913939952850342E-1   5.653587579727173E-1   2.910758256912231E-1  -3.464947342872620E-1   6.717323064804077E-1  
 1.872000000000000E7    -3.444035351276398E-1   6.759634613990784E-1   5.664181709289551E-1   2.909628748893738E-1   5.666820406913757E-1   2.906762659549713E-1  -3.448355495929718E-1   6.718640923500061E-1  
 1.874000000000000E7    -3.427626788616180E-1   6.755479574203491E-1   5.683071613311768E-1   2.902675271034241E-1   5.681930780410767E-1   2.897052466869354E-1  -3.431924581527710E-1   6.716671586036682E-1  
 1.876000000000000E7    -3.409585356712341E-1   6.750916838645935E-1   5.700320005416870E-1   2.894974350929260E-1   5.696308016777039E-1   2.889220714569092E-1  -3.410204350948334E-1   6.715682744979858E-1  
 1.878000000000000E7    -3.391999304294586E-1   6.749487519264221E-1   5.718978047370911E-1   2.892801761627197E-1   5.717129111289978E-1   2.889176309108734E-1  -3.386549651622772E-1   6.716443300247192E-1  
 1.880000000000000E7    -3.372916579246521E-1   6.750036478042603E-1   5.734024047851563E-1   2.879891991615295E-1   5.734179019927979E-1   2.878503799438477E-1  -3.377235531806946E-1   6.709455847740173E-1  
 1.882000000000000E7    -3.348671197891235E-1   6.747246980667114E-1   5.758746266365051E-1   2.878868877887726E-1   5.752851366996765E-1   2.876875400543213E-1  -3.352145850658417E-1   6.709321141242981E-1  
 1.884000000000000E7    -3.335360884666443E-1   6.743409037590027E-1   5.769273638725281E-1   2.873865664005280E-1   5.769914984703064E-1   2.866840362548828E-1  -3.333217799663544E-1   6.708849072456360E-1  
 1.886000000000000E7    -3.316110074520111E-1   6.748113036155701E-1   5.787847638130188E-1   2.865418195724487E-1   5.786899328231812E-1   2.862551212310791E-1  -3.320992588996887E-1   6.704037189483643E-1  
 1.888000000000000E7    -3.295308947563171E-1   6.745043396949768E-1   5.803439021110535E-1   2.861550450325012E-1   5.807335376739502E-1   2.855532169342041E-1  -3.301646113395691E-1   6.698795557022095E-1  
 1.890000000000000E7    -3.277839124202728E-1   6.736667156219482E-1   5.818685293197632E-1   2.853219807147980E-1   5.821999907493591E-1   2.847744524478912E-1  -3.279081881046295E-1   6.702073216438294E-1  
 1.892000000000000E7    -3.260854184627533E-1   6.736571788787842E-1   5.836584568023682E-1   2.843691706657410E-1   5.833921432495117E-1   2.842859625816345E-1  -3.256234824657440E-1   6.698483228683472E-1  
 1.894000000000000E7    -3.238984644412994E-1   6.730798482894898E-1   5.857924818992615E-1   2.837979495525360E-1   5.853847861289978E-1   2.835375964641571E-1  -3.240875601768494E-1   6.691612005233765E-1  
 1.896000000000000E7    -3.223244845867157E-1   6.733059883117676E-1   5.871611833572388E-1   2.828678190708160E-1   5.869597196578980E-1   2.828954458236694E-1  -3.221484720706940E-1   6.689582467079163E-1  
 1.898000000000000E7    -3.203547596931458E-1   6.726122498512268E-1   5.886949896812439E-1   2.825085818767548E-1   5.892481207847595E-1   2.822768688201904E-1  -3.200291693210602E-1   6.688235402107239E-1  
 1.900000000000000E7    -3.187046945095062E-1   6.722494363784790E-1   5.908012390136719E-1   2.817521989345551E-1   5.908062458038330E-1   2.819583415985107E-1  -3.184857368469238E-1   6.681217551231384E-1  
 1.902000000000000E7    -3.165599405765533E-1   6.719403862953186E-1   5.924475789070129E-1   2.805378139019013E-1   5.927032232284546E-1   2.807491719722748E-1  -3.166103661060333E-1   6.679580807685852E-1  
 1.904000000000000E7    -3.146758675575256E-1   6.715468764305115E-1   5.947574377059937E-1   2.800194919109345E-1   5.942595005035400E-1   2.798458933830261E-1  -3.142456412315369E-1   6.671858429908752E-1  
 1.906000000000000E7    -3.125202655792236E-1   6.713538765907288E-1   5.964452028274536E-1   2.793718576431274E-1   5.961416363716126E-1   2.795633971691132E-1  -3.124616742134094E-1   6.675996780395508E-1  
 1.908000000000000E7    -3.105686306953430E-1   6.716486811637878E-1   5.975347757339478E-1   2.790662646293640E-1   5.985231399536133E-1   2.787662744522095E-1  -3.110458552837372E-1   6.668574810028076E-1  
 1.910000000000000E7    -3.088029623031616E-1   6.708380579948425E-1   5.995479226112366E-1   2.779120802879334E-1   5.995382666587830E-1   2.778381109237671E-1  -3.089321851730347E-1   6.670241951942444E-1  
 1.912000000000000E7    -3.062545359134674E-1   6.702615022659302E-1   6.015122532844544E-1   2.775766551494598E-1   6.016916036605835E-1   2.767278254032135E-1  -3.074119985103607E-1   6.659776568412781E-1  
 1.914000000000000E7    -3.048175275325775E-1   6.701743006706238E-1   6.025212407112122E-1   2.763010561466217E-1   6.030833125114441E-1   2.759569585323334E-1  -3.049388527870178E-1   6.664312481880188E-1  
 1.916000000000000E7    -3.026511967182159E-1   6.695830225944519E-1   6.051958799362183E-1   2.763810753822327E-1   6.053090095520020E-1   2.754704654216766E-1  -3.030809164047241E-1   6.656203866004944E-1  
 1.918000000000000E7    -3.005652725696564E-1   6.694589257240295E-1   6.065819859504700E-1   2.751035094261169E-1   6.068195104598999E-1   2.746877074241638E-1  -3.010237216949463E-1   6.652342081069946E-1  
 1.920000000000000E7    -2.989653944969177E-1   6.686205863952637E-1   6.087652444839478E-1   2.737587094306946E-1   6.088400483131409E-1   2.738935649394989E-1  -2.993411123752594E-1   6.645339727401733E-1  
 1.922000000000000E7    -2.964615821838379E-1   6.683933734893799E-1   6.104112863540649E-1   2.734698355197907E-1   6.100916862487793E-1   2.724210321903229E-1  -2.971864044666290E-1   6.646629571914673E-1  
 1.924000000000000E7    -2.948980331420898E-1   6.683179140090942E-1   6.119747757911682E-1   2.725818455219269E-1   6.121295094490051E-1   2.719669044017792E-1  -2.956411242485046E-1   6.637913584709168E-1  
 1.926000000000000E7    -2.929779291152954E-1   6.679153442382813E-1   6.138345003128052E-1   2.715605199337006E-1   6.135532259941101E-1   2.712653875350952E-1  -2.935931086540222E-1   6.636086702346802E-1  
 1.928000000000000E7    -2.910151183605194E-1   6.672701835632324E-1   6.156283617019653E-1   2.710629999637604E-1   6.152741909027100E-1   2.708272337913513E-1  -2.918175458908081E-1   6.631860733032227E-1  
 1.930000000000000E7    -2.893697619438171E-1   6.667551398277283E-1   6.176694035530090E-1   2.702034413814545E-1   6.171332001686096E-1   2.700848877429962E-1  -2.895664274692535E-1   6.629829406738281E-1  
 1.932000000000000E7    -2.876901328563690E-1   6.658692955970764E-1   6.193475723266602E-1   2.688519954681397E-1   6.190569400787354E-1   2.687479853630066E-1  -2.873928844928742E-1   6.623432040214539E-1  
 1.934000000000000E7    -2.852066755294800E-1   6.659997701644898E-1   6.213437914848328E-1   2.683642506599426E-1   6.208853721618652E-1   2.679030895233154E-1  -2.860339879989624E-1   6.617836356163025E-1  
 1.936000000000000E7    -2.833722531795502E-1   6.654002666473389E-1   6.226733326911926E-1   2.673549652099609E-1   6.228585243225098E-1   2.675193548202515E-1  -2.832210958003998E-1   6.613816022872925E-1  
 1.938000000000000E7    -2.815024256706238E-1   6.650367975234985E-1   6.247670650482178E-1   2.662276029586792E-1   6.243143081665039E-1   2.662332057952881E-1  -2.816748321056366E-1   6.610417962074280E-1  
 1.940000000000000E7    -2.794697880744934E-1   6.647787690162659E-1   6.261583566665649E-1   2.660121023654938E-1   6.265495419502258E-1   2.655225992202759E-1  -2.793754935264587E-1   6.606028676033020E-1  
 1.942000000000000E7    -2.772645056247711E-1   6.639784574508667E-1   6.280090808868408E-1   2.650499343872070E-1   6.280857920646668E-1   2.643896937370300E-1  -2.780589163303375E-1   6.599664092063904E-1  
 1.944000000000000E7    -2.751117944717407E-1   6.637237668037415E-1   6.299140453338623E-1   2.635775506496429E-1   6.300614476203919E-1   2.632040381431580E-1  -2.759669721126556E-1   6.593717336654663E-1  
 1.946000000000000E7    -2.734638452529907E-1   6.627506017684937E-1   6.316868662834168E-1   2.628239989280701E-1   6.313999295234680E-1   2.624311745166779E-1  -2.736107707023621E-1   6.592047214508057E-1  
 1.948000000000000E7    -2.713182568550110E-1   6.622763276100159E-1   6.340836882591248E-1   2.617361843585968E-1   6.336264014244080E-1   2.613115012645721E-1  -2.721526622772217E-1   6.583780050277710E-1  
 1.950000000000000E7    -2.694732844829559E-1   6.623699665069580E-1   6.350461840629578E-1   2.611105740070343E-1   6.350848078727722E-1   2.604208588600159E-1  -2.698543369770050E-1   6.575239300727844E-1  
 1.952000000000000E7    -2.671736180782318E-1   6.617529988288879E-1   6.375747323036194E-1   2.604489624500275E-1   6.370596885681152E-1   2.597920894622803E-1  -2.680357992649078E-1   6.573902368545532E-1  
 1.954000000000000E7    -2.649469077587128E-1   6.609358787536621E-1   6.387851834297180E-1   2.598505616188049E-1   6.390614509582520E-1   2.585354149341583E-1  -2.664774656295776E-1   6.570296883583069E-1  
 1.956000000000000E7    -2.634164094924927E-1   6.603996157646179E-1   6.408653855323792E-1   2.584453821182251E-1   6.413647532463074E-1   2.575713396072388E-1  -2.638174891471863E-1   6.559275388717651E-1  
 1.958000000000000E7    -2.613139450550079E-1   6.596371531486511E-1   6.429484486579895E-1   2.577002644538879E-1   6.429721713066101E-1   2.567875683307648E-1  -2.618706226348877E-1   6.556463837623596E-1  
 1.960000000000000E7    -2.589547336101532E-1   6.590366959571838E-1   6.447132825851440E-1   2.563191056251526E-1   6.450654268264771E-1   2.554350495338440E-1  -2.601760029792786E-1   6.552883982658386E-1  
 1.962000000000000E7    -2.570387423038483E-1   6.584674715995789E-1   6.464946269989014E-1   2.554624080657959E-1   6.463154554367065E-1   2.554097473621368E-1  -2.576708793640137E-1   6.547425389289856E-1  
 1.964000000000000E7    -2.555056214332581E-1   6.581625938415527E-1   6.477941274642944E-1   2.540907859802246E-1   6.483804583549500E-1   2.538509368896484E-1  -2.557088434696198E-1   6.540082693099976E-1  
 1.966000000000000E7    -2.531290054321289E-1   6.571012735366821E-1   6.504936218261719E-1   2.534226477146149E-1   6.502385139465332E-1   2.525339722633362E-1  -2.537725269794464E-1   6.529658436775208E-1  
 1.968000000000000E7    -2.509846985340118E-1   6.563144922256470E-1   6.521645188331604E-1   2.527777552604675E-1   6.522444486618042E-1   2.526614069938660E-1  -2.514210641384125E-1   6.527926921844482E-1  
 1.970000000000000E7    -2.492502182722092E-1   6.553480029106140E-1   6.540880799293518E-1   2.511517703533173E-1   6.535045504570007E-1   2.510537803173065E-1  -2.495585978031158E-1   6.520622372627258E-1  
 1.972000000000000E7    -2.473407983779907E-1   6.554225087165833E-1   6.557790040969849E-1   2.503200769424439E-1   6.559229493141174E-1   2.499683201313019E-1  -2.479854226112366E-1   6.509427428245544E-1  
 1.974000000000000E7    -2.451006919145584E-1   6.543009877204895E-1   6.571567654609680E-1   2.488724291324616E-1   6.572481989860535E-1   2.485806941986084E-1  -2.455405741930008E-1   6.508132219314575E-1  
 1.976000000000000E7    -2.430864274501801E-1   6.538203954696655E-1   6.588572859764099E-1   2.479095458984375E-1   6.595618128776550E-1   2.475801557302475E-1  -2.437280267477036E-1   6.497201919555664E-1  
 1.978000000000000E7    -2.409699708223343E-1   6.531286835670471E-1   6.616283059120178E-1   2.471997588872910E-1   6.610376834869385E-1   2.465986311435700E-1  -2.419960796833038E-1   6.487954854965210E-1  
 1.980000000000000E7    -2.391922026872635E-1   6.519509553909302E-1   6.633121371269226E-1   2.459730803966522E-1   6.627698540687561E-1   2.455345094203949E-1  -2.393684089183807E-1   6.488119363784790E-1  
 1.982000000000000E7    -2.376498579978943E-1   6.515313386917114E-1   6.650547385215759E-1   2.447059750556946E-1   6.647050380706787E-1   2.443569451570511E-1  -2.377388626337051E-1   6.481945514678955E-1  
 1.984000000000000E7    -2.348246723413467E-1   6.510217785835266E-1   6.662466526031494E-1   2.442752420902252E-1   6.666834950447083E-1   2.432273179292679E-1  -2.357813417911530E-1   6.467999219894409E-1  
 1.986000000000000E7    -2.327016592025757E-1   6.501897573471069E-1   6.681624054908752E-1   2.429796755313873E-1   6.686515808105469E-1   2.421268969774246E-1  -2.339801639318466E-1   6.460566520690918E-1  
 1.988000000000000E7    -2.308513820171356E-1   6.493063569068909E-1   6.710155010223389E-1   2.410672456026077E-1   6.700436472892761E-1   2.405299246311188E-1  -2.321499586105347E-1   6.461600065231323E-1  
 1.990000000000000E7    -2.286732345819473E-1   6.494899392127991E-1   6.718810200691223E-1   2.401616424322128E-1   6.720452308654785E-1   2.396929562091827E-1  -2.299353033304215E-1   6.452142596244812E-1  
 1.992000000000000E7    -2.266193628311157E-1   6.483146548271179E-1   6.739624142646790E-1   2.389640212059021E-1   6.742994189262390E-1   2.383200824260712E-1  -2.272924929857254E-1   6.446036696434021E-1  
 1.994000000000000E7    -2.245891392230988E-1   6.470727324485779E-1   6.763255000114441E-1   2.379995584487915E-1   6.755778193473816E-1   2.371156662702560E-1  -2.259694039821625E-1   6.439146399497986E-1  
 1.996000000000000E7    -2.231529355049133E-1   6.464145183563232E-1   6.774556636810303E-1   2.365223467350006E-1   6.776115298271179E-1   2.362417429685593E-1  -2.232224643230438E-1   6.428780555725098E-1  
 1.998000000000000E7    -2.208249866962433E-1   6.456004977226257E-1   6.795880794525147E-1   2.357373237609863E-1   6.794045567512512E-1   2.352993190288544E-1  -2.214464545249939E-1   6.423529386520386E-1  
 2.000000000000000E7    -2.186549603939056E-1   6.445721983909607E-1   6.816024780273438E-1   2.342059910297394E-1   6.808817982673645E-1   2.338393330574036E-1  -2.190954536199570E-1   6.416626572608948E-1  
 2.002000000000000E7    -2.180670946836472E-1   6.429001092910767E-1   6.826204061508179E-1   2.343092262744904E-1   6.821581125259399E-1   2.342881262302399E-1  -2.190527468919754E-1   6.392902731895447E-1  
 2.004000000000000E7    -2.157622724771500E-1   6.427500844001770E-1   6.843979954719544E-1   2.332926094532013E-1   6.837270259857178E-1   2.331705987453461E-1  -2.165664732456207E-1   6.384868621826172E-1  
 2.006000000000000E7    -2.131419628858566E-1   6.412400603294373E-1   6.861763596534729E-1   2.322378307580948E-1   6.859787702560425E-1   2.318313419818878E-1  -2.149485498666763E-1   6.371650099754334E-1  
 2.008000000000000E7    -2.115563452243805E-1   6.404845118522644E-1   6.880941390991211E-1   2.308317273855209E-1   6.874208450317383E-1   2.305939197540283E-1  -2.121357172727585E-1   6.369441151618958E-1  
 2.010000000000000E7    -2.096672058105469E-1   6.398674249649048E-1   6.895666718482971E-1   2.293499708175659E-1   6.895300149917603E-1   2.296966016292572E-1  -2.102236598730087E-1   6.358872652053833E-1  
 2.012000000000000E7    -2.073560506105423E-1   6.389124989509583E-1   6.915864348411560E-1   2.284256219863892E-1   6.912548542022705E-1   2.282067239284515E-1  -2.081359028816223E-1   6.351666450500488E-1  
 2.014000000000000E7    -2.048541158437729E-1   6.375466585159302E-1   6.937580108642578E-1   2.273463308811188E-1   6.931635737419128E-1   2.269368618726730E-1  -2.063759118318558E-1   6.343590617179871E-1  
 2.016000000000000E7    -2.030684351921082E-1   6.365405917167664E-1   6.957956552505493E-1   2.258934974670410E-1   6.952226161956787E-1   2.254843264818192E-1  -2.043584287166596E-1   6.335752606391907E-1  
 2.018000000000000E7    -2.016105353832245E-1   6.359854340553284E-1   6.974184513092041E-1   2.237544059753418E-1   6.969150900840759E-1   2.240955829620361E-1  -2.024256885051727E-1   6.326634287834168E-1  
 2.020000000000000E7    -1.991559416055679E-1   6.346167922019959E-1   6.996468901634216E-1   2.232550680637360E-1   6.986608505249023E-1   2.228661775588989E-1  -2.000830322504044E-1   6.310772299766541E-1  
 2.022000000000000E7    -1.971490383148193E-1   6.340707540512085E-1   7.018670439720154E-1   2.214977741241455E-1   7.003443837165833E-1   2.215240746736527E-1  -1.980873644351959E-1   6.310174465179443E-1  
 2.024000000000000E7    -1.952313929796219E-1   6.334769129753113E-1   7.027696967124939E-1   2.205311357975006E-1   7.029521465301514E-1   2.203318178653717E-1  -1.956793665885925E-1   6.297918558120728E-1  
 2.026000000000000E7    -1.927583515644074E-1   6.328219771385193E-1   7.046387195587158E-1   2.189606577157974E-1   7.052010297775269E-1   2.191179096698761E-1  -1.937399804592133E-1   6.286981701850891E-1  
 2.028000000000000E7    -1.912851929664612E-1   6.317867636680603E-1   7.067271471023560E-1   2.177089750766754E-1   7.065275907516480E-1   2.174213528633118E-1  -1.916035562753677E-1   6.277242898941040E-1  
 2.030000000000000E7    -1.888425499200821E-1   6.310530900955200E-1   7.082270383834839E-1   2.166155576705933E-1   7.086023092269898E-1   2.160318642854691E-1  -1.904389262199402E-1   6.264246106147766E-1  
 2.032000000000000E7    -1.868835985660553E-1   6.291478276252747E-1   7.108592391014099E-1   2.153277695178986E-1   7.105266451835632E-1   2.145210653543472E-1  -1.876110881567001E-1   6.256543397903442E-1  
 2.034000000000000E7    -1.844809651374817E-1   6.278327107429504E-1   7.130659818649292E-1   2.137332111597061E-1   7.124033570289612E-1   2.134193181991577E-1  -1.856604516506195E-1   6.248949170112610E-1  
 2.036000000000000E7    -1.824640184640884E-1   6.276277303695679E-1   7.142856121063232E-1   2.125870585441589E-1   7.137951254844666E-1   2.119081914424896E-1  -1.838732063770294E-1   6.239466667175293E-1  
 2.038000000000000E7    -1.804865896701813E-1   6.260143518447876E-1   7.162550687789917E-1   2.107157409191132E-1   7.161990404129028E-1   2.102725952863693E-1  -1.815741956233978E-1   6.224805712699890E-1  
 2.040000000000000E7    -1.779450327157974E-1   6.257984042167664E-1   7.176790833473206E-1   2.090089321136475E-1   7.174401283264160E-1   2.090822011232376E-1  -1.800175309181213E-1   6.214281916618347E-1  
 2.042000000000000E7    -1.751746535301209E-1   6.240708231925964E-1   7.203205823898315E-1   2.079230993986130E-1   7.188153862953186E-1   2.074783742427826E-1  -1.783846318721771E-1   6.213363409042358E-1  
 2.044000000000000E7    -1.739017367362976E-1   6.228909492492676E-1   7.219697237014771E-1   2.065415978431702E-1   7.213782072067261E-1   2.062769234180450E-1  -1.752809584140778E-1   6.195108294487000E-1  
 2.046000000000000E7    -1.718714237213135E-1   6.221629381179810E-1   7.238491177558899E-1   2.048159241676331E-1   7.233303785324097E-1   2.042339742183685E-1  -1.741044670343399E-1   6.180739402770996E-1  
 2.048000000000000E7    -1.702566593885422E-1   6.213937997817993E-1   7.255773544311523E-1   2.031284272670746E-1   7.255919575691223E-1   2.029690891504288E-1  -1.717294305562973E-1   6.168678402900696E-1  
 2.050000000000000E7    -1.681271195411682E-1   6.197745800018311E-1   7.277284264564514E-1   2.018153220415115E-1   7.275783419609070E-1   2.014772146940231E-1  -1.695919334888458E-1   6.158891916275024E-1  
 2.052000000000000E7    -1.659820824861527E-1   6.184114217758179E-1   7.292767763137817E-1   1.999446600675583E-1   7.285364866256714E-1   1.998841613531113E-1  -1.675398051738739E-1   6.150098443031311E-1  
 2.054000000000000E7    -1.637413352727890E-1   6.175763010978699E-1   7.310793995857239E-1   1.987799406051636E-1   7.306557297706604E-1   1.986947059631348E-1  -1.652641296386719E-1   6.138751506805420E-1  
 2.056000000000000E7    -1.617040634155273E-1   6.163024306297302E-1   7.329545021057129E-1   1.973423063755035E-1   7.325406670570374E-1   1.970396935939789E-1  -1.632795333862305E-1   6.131506562232971E-1  
 2.058000000000000E7    -1.590338200330734E-1   6.156807541847229E-1   7.347176074981690E-1   1.960722655057907E-1   7.342289686203003E-1   1.955005526542664E-1  -1.613709181547165E-1   6.117419004440308E-1  
 2.060000000000000E7    -1.576125919818878E-1   6.145458221435547E-1   7.364216446876526E-1   1.940906643867493E-1   7.363446950912476E-1   1.935836821794510E-1  -1.594372093677521E-1   6.103726029396057E-1  
 2.062000000000000E7    -1.559020578861237E-1   6.125155091285706E-1   7.386965751647949E-1   1.925233155488968E-1   7.381768822669983E-1   1.921398788690567E-1  -1.569453775882721E-1   6.093903779983521E-1  
 2.064000000000000E7    -1.535929441452026E-1   6.116071343421936E-1   7.404891252517700E-1   1.907426714897156E-1   7.399849891662598E-1   1.901451051235199E-1  -1.551571786403656E-1   6.079461574554443E-1  
 2.066000000000000E7    -1.511221528053284E-1   6.103930473327637E-1   7.424159049987793E-1   1.894247382879257E-1   7.419180870056152E-1   1.892105340957642E-1  -1.524976938962936E-1   6.064889430999756E-1  
 2.068000000000000E7    -1.492375582456589E-1   6.090366244316101E-1   7.444456815719605E-1   1.875656396150589E-1   7.437559366226196E-1   1.872097700834274E-1  -1.506937146186829E-1   6.063091158866882E-1  
 2.070000000000000E7    -1.470748484134674E-1   6.081635951995850E-1   7.457693219184876E-1   1.858805716037750E-1   7.459056973457336E-1   1.855073422193527E-1  -1.488557159900665E-1   6.043343544006348E-1  
 2.072000000000000E7    -1.452415883541107E-1   6.058480143547058E-1   7.483929991722107E-1   1.844242513179779E-1   7.476022839546204E-1   1.843780726194382E-1  -1.465231776237488E-1   6.035276055335999E-1  
 2.074000000000000E7    -1.435105800628662E-1   6.046648621559143E-1   7.503054738044739E-1   1.825556904077530E-1   7.495836019515991E-1   1.821494996547699E-1  -1.442706286907196E-1   6.018168926239014E-1  
 2.076000000000000E7    -1.410202831029892E-1   6.037406921386719E-1   7.517427802085877E-1   1.811557114124298E-1   7.513934969902039E-1   1.803347021341324E-1  -1.432430744171143E-1   6.005603671073914E-1  
 2.078000000000000E7    -1.386954188346863E-1   6.026586294174194E-1   7.535047531127930E-1   1.790095269680023E-1   7.536656856536865E-1   1.786733567714691E-1  -1.406614184379578E-1   5.990223884582520E-1  
 2.080000000000000E7    -1.376687139272690E-1   6.012890338897705E-1   7.555469870567322E-1   1.771612912416458E-1   7.553212046623230E-1   1.769546121358872E-1  -1.385762840509415E-1   5.979673862457275E-1  
 2.082000000000000E7    -1.348407268524170E-1   5.993239283561707E-1   7.577174305915833E-1   1.755446195602417E-1   7.569738626480103E-1   1.755738854408264E-1  -1.365604996681213E-1   5.968858003616333E-1  
 2.084000000000000E7    -1.328949630260468E-1   5.981336236000061E-1   7.593293786048889E-1   1.738829314708710E-1   7.585299015045166E-1   1.737881749868393E-1  -1.344035565853119E-1   5.951627492904663E-1  
 2.086000000000000E7    -1.308182477951050E-1   5.969246029853821E-1   7.609893083572388E-1   1.718757152557373E-1   7.609845995903015E-1   1.718426346778870E-1  -1.321980804204941E-1   5.935915112495422E-1  
 2.088000000000000E7    -1.285052150487900E-1   5.961979627609253E-1   7.625064849853516E-1   1.707291752099991E-1   7.625219821929932E-1   1.700494885444641E-1  -1.304362118244171E-1   5.924039483070374E-1  
 2.090000000000000E7    -1.265573352575302E-1   5.942181944847107E-1   7.649940252304077E-1   1.687526553869247E-1   7.640663981437683E-1   1.682315319776535E-1  -1.287598907947540E-1   5.915400981903076E-1  
 2.092000000000000E7    -1.248790845274925E-1   5.929784178733826E-1   7.665857076644898E-1   1.661404669284821E-1   7.663906812667847E-1   1.665076166391373E-1  -1.266601383686066E-1   5.894042849540710E-1  
 2.094000000000000E7    -1.222562417387962E-1   5.911889672279358E-1   7.686457633972168E-1   1.646327227354050E-1   7.680026292800903E-1   1.645598113536835E-1  -1.246158108115196E-1   5.886157751083374E-1  
 2.096000000000000E7    -1.204640418291092E-1   5.895655155181885E-1   7.701684236526489E-1   1.629901826381683E-1   7.697767019271851E-1   1.628206372261047E-1  -1.219517439603806E-1   5.866556763648987E-1  
 2.098000000000000E7    -1.187773644924164E-1   5.882683992385864E-1   7.719724178314209E-1   1.607809364795685E-1   7.715912461280823E-1   1.606826931238174E-1  -1.199854239821434E-1   5.856821537017822E-1  
 2.100000000000000E7    -1.164274662733078E-1   5.872005820274353E-1   7.735158801078796E-1   1.593032777309418E-1   7.734512686729431E-1   1.589244008064270E-1  -1.180913820862770E-1   5.840072631835938E-1  
 2.102000000000000E7    -1.142474114894867E-1   5.858594775199890E-1   7.757834792137146E-1   1.571213752031326E-1   7.755575776100159E-1   1.571716070175171E-1  -1.157607883214951E-1   5.822023153305054E-1  
 2.104000000000000E7    -1.119283437728882E-1   5.838887691497803E-1   7.776132225990295E-1   1.560173332691193E-1   7.772716879844666E-1   1.552992314100266E-1  -1.133696883916855E-1   5.809201002120972E-1  
 2.106000000000000E7    -1.107196360826492E-1   5.823036432266235E-1   7.796737551689148E-1   1.534870564937592E-1   7.794448733329773E-1   1.531424671411514E-1  -1.122139915823937E-1   5.787344574928284E-1  
 2.108000000000000E7    -1.090886443853378E-1   5.804228782653809E-1   7.815645933151245E-1   1.513306349515915E-1   7.812057733535767E-1   1.510509848594666E-1  -1.098671555519104E-1   5.773966312408447E-1  
 2.110000000000000E7    -1.057570278644562E-1   5.796861052513123E-1   7.831205129623413E-1   1.501725167036057E-1   7.827983498573303E-1   1.494704037904739E-1  -1.078914403915405E-1   5.762120485305786E-1  
 2.112000000000000E7    -1.046303957700729E-1   5.777254104614258E-1   7.850936651229858E-1   1.478176862001419E-1   7.846552729606628E-1   1.475489735603333E-1  -1.058871746063232E-1   5.745718479156494E-1  
 2.114000000000000E7    -1.028269976377487E-1   5.762922167778015E-1   7.865465879440308E-1   1.454970836639404E-1   7.865009307861328E-1   1.455563306808472E-1  -1.034912467002869E-1   5.729767084121704E-1  
 2.116000000000000E7    -1.008391380310059E-1   5.743262767791748E-1   7.886015176773071E-1   1.436374634504318E-1   7.882340550422669E-1   1.433297693729401E-1  -1.021695733070374E-1   5.714830756187439E-1  
 2.118000000000000E7    -9.825167804956436E-2   5.727913379669190E-1   7.905126214027405E-1   1.421561986207962E-1   7.896097302436829E-1   1.414069533348084E-1  -1.006210595369339E-1   5.703446269035339E-1  
 2.120000000000000E7    -9.640862792730331E-2   5.709592103958130E-1   7.923765182495117E-1   1.393591165542603E-1   7.917529940605164E-1   1.396443247795105E-1  -9.777993708848953E-2   5.685161352157593E-1  
 2.122000000000000E7    -9.432817995548248E-2   5.694502592086792E-1   7.939954400062561E-1   1.378753185272217E-1   7.935249209403992E-1   1.376574337482452E-1  -9.564586728811264E-2   5.662379264831543E-1  
 2.124000000000000E7    -9.194783866405487E-2   5.679534077644348E-1   7.959533333778381E-1   1.356874704360962E-1   7.954865694046021E-1   1.355566531419754E-1  -9.415297210216522E-2   5.650582313537598E-1  
 2.126000000000000E7    -9.056662023067474E-2   5.661022067070007E-1   7.974510192871094E-1   1.330863237380981E-1   7.970156669616699E-1   1.329663097858429E-1  -9.256345033645630E-2   5.632367134094238E-1  
 2.128000000000000E7    -8.822490274906158E-2   5.646437406539917E-1   7.994740009307861E-1   1.316050589084625E-1   7.984414100646973E-1   1.310601830482483E-1  -9.011022746562958E-2   5.619531273841858E-1  
 2.130000000000000E7    -8.613207936286926E-2   5.627569556236267E-1   8.012155294418335E-1   1.293323338031769E-1   8.007860779762268E-1   1.288672685623169E-1  -8.836505562067032E-2   5.595118403434753E-1  
 2.132000000000000E7    -8.440331369638443E-2   5.604340434074402E-1   8.030788898468018E-1   1.272937059402466E-1   8.025785088539124E-1   1.270976513624191E-1  -8.628387749195099E-2   5.578803420066834E-1  
 2.134000000000000E7    -8.282294869422913E-2   5.592415928840637E-1   8.044327497482300E-1   1.244850158691406E-1   8.041456937789917E-1   1.247478798031807E-1  -8.366441726684570E-2   5.563873052597046E-1  
 2.136000000000000E7    -8.060353994369507E-2   5.571764707565308E-1   8.065887689590454E-1   1.228895038366318E-1   8.056092858314514E-1   1.227277964353561E-1  -8.207296580076218E-2   5.545327067375183E-1  
 2.138000000000000E7    -7.802855968475342E-2   5.558967590332031E-1   8.078481554985046E-1   1.209389865398407E-1   8.074656724929810E-1   1.206558644771576E-1  -8.023159950971603E-2   5.525623559951782E-1  
 2.140000000000000E7    -7.700654864311218E-2   5.537135004997253E-1   8.101139068603516E-1   1.180742383003235E-1   8.090842962265015E-1   1.182484030723572E-1  -7.847313582897186E-2   5.506693124771118E-1  
 2.142000000000000E7    -7.488604635000229E-2   5.522735118865967E-1   8.113772273063660E-1   1.162340715527535E-1   8.111050724983215E-1   1.158078685402870E-1  -7.635477185249329E-2   5.485231280326843E-1  
 2.144000000000000E7    -7.274027913808823E-2   5.496118664741516E-1   8.136705756187439E-1   1.138754040002823E-1   8.129460811614990E-1   1.137515306472778E-1  -7.439354807138443E-2   5.477402210235596E-1  
 2.146000000000000E7    -7.094344496726990E-2   5.479107499122620E-1   8.151438832283020E-1   1.115323379635811E-1   8.143645524978638E-1   1.114498525857925E-1  -7.246148586273193E-2   5.455715656280518E-1  
 2.148000000000000E7    -6.886054575443268E-2   5.465340614318848E-1   8.164384961128235E-1   1.098504513502121E-1   8.165303468704224E-1   1.092801690101624E-1  -7.099284231662750E-2   5.433785915374756E-1  
 2.150000000000000E7    -6.688632816076279E-2   5.442099571228027E-1   8.190101981163025E-1   1.070967167615891E-1   8.177657723426819E-1   1.073011532425880E-1  -6.841234862804413E-2   5.419305562973023E-1  
 2.152000000000000E7    -6.480467319488525E-2   5.427698493003845E-1   8.202112913131714E-1   1.051158607006073E-1   8.195108175277710E-1   1.043310686945915E-1  -6.762768328189850E-2   5.394918918609619E-1  
 2.154000000000000E7    -6.348846852779388E-2   5.410552024841309E-1   8.219843506813049E-1   1.024952530860901E-1   8.215759396553040E-1   1.024216562509537E-1  -6.483764946460724E-2   5.375298261642456E-1  
 2.156000000000000E7    -6.039844080805779E-2   5.386095643043518E-1   8.233268260955811E-1   1.010374426841736E-1   8.234330415725708E-1   1.002145558595657E-1  -6.282797455787659E-2   5.355943441390991E-1  
 2.158000000000000E7    -5.929765105247498E-2   5.369601845741272E-1   8.253675699234009E-1   9.795014560222626E-2   8.250533938407898E-1   9.790601581335068E-2  -6.098613515496254E-2   5.339670181274414E-1  
 2.160000000000000E7    -5.727277696132660E-2   5.348814725875855E-1   8.271825313568115E-1   9.563018381595612E-2   8.261864781379700E-1   9.546549618244171E-2  -5.916865915060043E-2   5.320499539375305E-1  
 2.162000000000000E7    -5.508791282773018E-2   5.333390831947327E-1   8.285329341888428E-1   9.334953129291534E-2   8.276359438896179E-1   9.292244911193848E-2  -5.750028789043427E-2   5.304902195930481E-1  
 2.164000000000000E7    -5.352611839771271E-2   5.307527780532837E-1   8.305752873420715E-1   9.111423045396805E-2   8.296561241149902E-1   9.041039645671845E-2  -5.530451238155365E-2   5.282704830169678E-1  
 2.166000000000000E7    -5.182168632745743E-2   5.287791490554810E-1   8.319845199584961E-1   8.829262107610703E-2   8.318858742713928E-1   8.801611512899399E-2  -5.344246700406075E-2   5.255900025367737E-1  
 2.168000000000000E7    -4.967535287141800E-2   5.272454023361206E-1   8.333308696746826E-1   8.590558171272278E-2   8.330364823341370E-1   8.559417724609375E-2  -5.183866247534752E-2   5.242851376533508E-1  
 2.170000000000000E7    -4.831510037183762E-2   5.240189433097839E-1   8.358401060104370E-1   8.357690274715424E-2   8.349567651748657E-1   8.352014422416687E-2  -4.934509471058846E-2   5.225404500961304E-1  
 2.172000000000000E7    -4.614115878939629E-2   5.222691893577576E-1   8.370289802551270E-1   8.133526891469955E-2   8.368573784828186E-1   8.113603293895721E-2  -4.764925688505173E-2   5.196104645729065E-1  
 2.174000000000000E7    -4.420670866966248E-2   5.203025341033936E-1   8.384672999382019E-1   7.867127656936646E-2   8.379828333854675E-1   7.861538231372833E-2  -4.627464339137077E-2   5.178413987159729E-1  
 2.176000000000000E7    -4.317378997802734E-2   5.180444121360779E-1   8.404881954193115E-1   7.585942745208740E-2   8.399941325187683E-1   7.602468132972717E-2  -4.408831149339676E-2   5.154320001602173E-1  
 2.178000000000000E7    -4.045270383358002E-2   5.158473253250122E-1   8.423455953598023E-1   7.372611761093140E-2   8.410106897354126E-1   7.315641641616821E-2  -4.250261932611466E-2   5.138576626777649E-1  
 2.180000000000000E7    -3.918307274580002E-2   5.137386322021484E-1   8.432111144065857E-1   7.091219723224640E-2   8.428605794906616E-1   7.112395763397217E-2  -4.038834944367409E-2   5.116978287696838E-1  
 2.182000000000000E7    -3.710900247097015E-2   5.116015672683716E-1   8.453366756439209E-1   6.859127432107925E-2   8.441146016120911E-1   6.835739314556122E-2  -3.863264620304108E-2   5.090249776840210E-1  
 2.184000000000000E7    -3.513714671134949E-2   5.093278288841248E-1   8.472299575805664E-1   6.620143353939056E-2   8.458836078643799E-1   6.623748689889908E-2  -3.778542578220367E-2   5.073656439781189E-1  
 2.186000000000000E7    -3.292807191610336E-2   5.076225996017456E-1   8.482803702354431E-1   6.366585195064545E-2   8.476526737213135E-1   6.396150588989258E-2  -3.509564697742462E-2   5.045721530914307E-1  
 2.188000000000000E7    -3.164445608854294E-2   5.049690008163452E-1   8.499792814254761E-1   6.100608780980110E-2   8.489367961883545E-1   6.120139732956886E-2  -3.289732336997986E-2   5.028882026672363E-1  
 2.190000000000000E7    -2.973820269107819E-2   5.027307868003845E-1   8.514702320098877E-1   5.839357897639275E-2   8.507989645004273E-1   5.799608677625656E-2  -3.158545494079590E-2   5.001083016395569E-1  
 2.192000000000000E7    -2.810825407505035E-2   5.009825229644775E-1   8.531292676925659E-1   5.548061430454254E-2   8.524223566055298E-1   5.533498525619507E-2  -3.024605661630631E-2   4.978615939617157E-1  
 2.194000000000000E7    -2.587930113077164E-2   4.984662830829620E-1   8.546659350395203E-1   5.301136896014214E-2   8.538706898689270E-1   5.278556048870087E-2  -2.867808565497398E-2   4.954713881015778E-1  
 2.196000000000000E7    -2.436243742704392E-2   4.957140088081360E-1   8.559869527816773E-1   5.049338564276695E-2   8.555567860603333E-1   5.011122301220894E-2  -2.614878863096237E-2   4.935812652111054E-1  
 2.198000000000000E7    -2.262619882822037E-2   4.936057329177856E-1   8.578367829322815E-1   4.775969311594963E-2   8.566391468048096E-1   4.788262769579887E-2  -2.480595558881760E-2   4.911361038684845E-1  
 2.200000000000000E7    -2.178828418254852E-2   4.911524355411530E-1   8.596242666244507E-1   4.506085067987442E-2   8.591171503067017E-1   4.466388747096062E-2  -2.319885045289993E-2   4.884043335914612E-1  
 2.202000000000000E7    -1.929926127195358E-2   4.895159006118774E-1   8.606703281402588E-1   4.235754162073135E-2   8.599824905395508E-1   4.200206696987152E-2  -2.166181057691574E-2   4.864722490310669E-1  
 2.204000000000000E7    -1.768843829631805E-2   4.866806864738464E-1   8.623342514038086E-1   3.980380296707153E-2   8.616129159927368E-1   3.959895670413971E-2  -1.950877904891968E-2   4.841062426567078E-1  
 2.206000000000000E7    -1.619715243577957E-2   4.844849705696106E-1   8.634893894195557E-1   3.683017194271088E-2   8.629907965660095E-1   3.681854531168938E-2  -1.730244606733322E-2   4.821611642837524E-1  
 2.208000000000000E7    -1.392398029565811E-2   4.817596077919006E-1   8.651111721992493E-1   3.392934799194336E-2   8.642336130142212E-1   3.391132876276970E-2  -1.648532599210739E-2   4.797555208206177E-1  
 2.210000000000000E7    -1.293595135211945E-2   4.797735214233398E-1   8.667317032814026E-1   3.141839057207108E-2   8.654525279998779E-1   3.090602159500122E-2  -1.483646035194397E-2   4.771772027015686E-1  
 2.212000000000000E7    -1.063477247953415E-2   4.773221611976624E-1   8.676603436470032E-1   2.882385253906250E-2   8.671994209289551E-1   2.843432873487473E-2  -1.280317455530167E-2   4.746205508708954E-1  
 2.214000000000000E7    -9.353481233119965E-3   4.737870097160339E-1   8.698468208312988E-1   2.564006671309471E-2   8.690167665481567E-1   2.524154633283615E-2  -1.172364503145218E-2   4.722742736339569E-1  
 2.216000000000000E7    -7.774762809276581E-3   4.716158807277679E-1   8.710405826568604E-1   2.271130681037903E-2   8.696104288101196E-1   2.296467125415802E-2  -9.589895606040955E-3   4.703230261802673E-1  
 2.218000000000000E7    -5.900189280509949E-3   4.687588214874268E-1   8.724587559700012E-1   1.999571919441223E-2   8.713697791099548E-1   1.965716853737831E-2  -8.383780717849731E-3   4.672335088253021E-1  
 2.220000000000000E7    -4.713580012321472E-3   4.668038189411163E-1   8.735308647155762E-1   1.701619848608971E-2   8.732260465621948E-1   1.672950387001038E-2  -6.880320608615875E-3   4.651742875576019E-1  
 2.222000000000000E7    -2.930894494056702E-3   4.647617936134338E-1   8.748815655708313E-1   1.431573554873467E-2   8.741497397422791E-1   1.381993293762207E-2  -5.015358328819275E-3   4.623748064041138E-1  
 2.224000000000000E7    -1.774027943611145E-3   4.618064165115356E-1   8.762844800949097E-1   1.133891940116882E-2   8.755019903182983E-1   1.116117462515831E-2  -3.636680543422699E-3   4.598623812198639E-1  
 2.226000000000000E7     3.413408994674683E-4   4.591883718967438E-1   8.776168227195740E-1   8.505515754222870E-3   8.770030736923218E-1   8.482333272695541E-3  -1.517921686172485E-3   4.571889936923981E-1  
 2.228000000000000E7     2.348236739635468E-3   4.564934670925140E-1   8.792240023612976E-1   5.695819854736328E-3   8.780739307403565E-1   5.414426326751709E-3  -8.581504225730896E-4   4.547928869724274E-1  
 2.230000000000000E7     3.772266209125519E-3   4.541094005107880E-1   8.806310892105103E-1   2.601534128189087E-3   8.794988393783569E-1   2.718560397624970E-3   1.047775149345398E-3   4.523397982120514E-1  
 2.232000000000000E7     4.922106862068176E-3   4.518424272537231E-1   8.818438053131104E-1  -4.901550128124654E-4   8.812525868415833E-1  -1.875050220405683E-4   3.108330070972443E-3   4.493380486965179E-1  
 2.234000000000000E7     6.064854562282562E-3   4.497268199920654E-1   8.828677535057068E-1  -3.711536526679993E-3   8.821932673454285E-1  -3.630444407463074E-3   4.118286073207855E-3   4.468148350715637E-1  
 2.236000000000000E7     7.810011506080627E-3   4.470918774604797E-1   8.842254281044006E-1  -6.436597555875778E-3   8.835204839706421E-1  -6.590690463781357E-3   5.749337375164032E-3   4.440251290798187E-1  
 2.238000000000000E7     9.729839861392975E-3   4.439367949962616E-1   8.857223987579346E-1  -8.759159594774246E-3   8.847578763961792E-1  -9.850583970546722E-3   6.871730089187622E-3   4.415011107921600E-1  
 2.240000000000000E7     1.091802120208740E-2   4.409996271133423E-1   8.870114684104919E-1  -1.226621493697166E-2   8.859650492668152E-1  -1.227218285202980E-2   8.603714406490326E-3   4.390391707420349E-1  
 2.242000000000000E7     1.215462386608124E-2   4.385631978511810E-1   8.878068327903748E-1  -1.577008515596390E-2   8.878070116043091E-1  -1.530251652002335E-2   9.807564318180084E-3   4.361225366592407E-1  
 2.244000000000000E7     1.394347101449966E-2   4.361409842967987E-1   8.890238404273987E-1  -1.855106651782990E-2   8.888684511184692E-1  -1.834907010197640E-2   1.200425624847412E-2   4.327629804611206E-1  
 2.246000000000000E7     1.534412056207657E-2   4.333193600177765E-1   8.906301856040955E-1  -2.133365347981453E-2   8.897492289543152E-1  -2.179084159433842E-2   1.320117712020874E-2   4.306265711784363E-1  
 2.248000000000000E7     1.695623993873596E-2   4.309035539627075E-1   8.918568491935730E-1  -2.460350468754768E-2   8.909441232681274E-1  -2.460230886936188E-2   1.447167247533798E-2   4.281173348426819E-1  
 2.250000000000000E7     1.799649000167847E-2   4.271571338176727E-1   8.933745026588440E-1  -2.800868824124336E-2   8.923131823539734E-1  -2.759743295609951E-2   1.600967347621918E-2   4.258844852447510E-1  
 2.252000000000000E7     1.975813508033752E-2   4.254647493362427E-1   8.939079642295837E-1  -3.048943169414997E-2   8.934431076049805E-1  -3.090712614357472E-2   1.789969205856323E-2   4.224465489387512E-1  
 2.254000000000000E7     2.082486450672150E-2   4.220413565635681E-1   8.953903913497925E-1  -3.398909047245979E-2   8.945989608764648E-1  -3.415050357580185E-2   1.844426244497299E-2   4.198964536190033E-1  
 2.256000000000000E7     2.264737337827683E-2   4.188424646854401E-1   8.966155052185059E-1  -3.694790601730347E-2   8.956765532493591E-1  -3.727746382355690E-2   1.951130479574204E-2   4.169548749923706E-1  
 2.258000000000000E7     2.336518466472626E-2   4.162138104438782E-1   8.979093432426453E-1  -4.022919386625290E-2   8.968969583511353E-1  -4.032800346612930E-2   2.100332826375961E-2   4.141426086425781E-1  
 2.260000000000000E7     2.460968494415283E-2   4.133104681968689E-1   8.987664580345154E-1  -4.346848279237747E-2   8.979088664054871E-1  -4.373139888048172E-2   2.231849730014801E-2   4.114380180835724E-1  
 2.262000000000000E7     2.639638632535934E-2   4.104355573654175E-1   8.998467326164246E-1  -4.664844274520874E-2   8.997727036476135E-1  -4.654555767774582E-2   2.387556433677673E-2   4.078754484653473E-1  
 2.264000000000000E7     2.708169817924500E-2   4.071580469608307E-1   9.010682106018066E-1  -4.979402571916580E-2   9.004823565483093E-1  -5.006491392850876E-2   2.519211918115616E-2   4.053446650505066E-1  
 2.266000000000000E7     2.827740460634232E-2   4.039272964000702E-1   9.021006822586060E-1  -5.335562676191330E-2   9.013805985450745E-1  -5.333352088928223E-2   2.599859982728958E-2   4.030066728591919E-1  
 2.268000000000000E7     2.984115481376648E-2   4.013679921627045E-1   9.034113287925720E-1  -5.648398399353027E-2   9.024836421012878E-1  -5.654454976320267E-2   2.759211510419846E-2   3.995890319347382E-1  
 2.270000000000000E7     3.127922117710114E-2   3.989107012748718E-1   9.041122198104858E-1  -5.947537720203400E-2   9.031735062599182E-1  -5.981244891881943E-2   2.902387082576752E-2   3.970205783843994E-1  
 2.272000000000000E7     3.199699521064758E-2   3.962329030036926E-1   9.049137234687805E-1  -6.316859275102615E-2   9.042431116104126E-1  -6.288168579339981E-2   2.963917702436447E-2   3.940492868423462E-1  
 2.274000000000000E7     3.371066600084305E-2   3.924024701118469E-1   9.063006639480591E-1  -6.597379595041275E-2   9.053080081939697E-1  -6.613978743553162E-2   3.124834597110748E-2   3.910655379295349E-1  
 2.276000000000000E7     3.497536480426788E-2   3.901059031486511E-1   9.064736366271973E-1  -6.948915123939514E-2   9.065098762512207E-1  -6.961201131343842E-2   3.216996043920517E-2   3.881760239601135E-1  
 2.278000000000000E7     3.613270074129105E-2   3.864067494869232E-1   9.082506895065308E-1  -7.314370572566986E-2   9.067978262901306E-1  -7.306534051895142E-2   3.306055814027786E-2   3.859196603298187E-1  
 2.280000000000000E7     3.654617071151733E-2   3.840523958206177E-1   9.089689254760742E-1  -7.624462246894836E-2   9.079215526580811E-1  -7.600477337837219E-2   3.516446053981781E-2   3.826098442077637E-1  
 2.282000000000000E7     3.825327754020691E-2   3.811006247997284E-1   9.102042317390442E-1  -7.914714515209198E-2   9.090611338615418E-1  -7.965434342622757E-2   3.596308827400208E-2   3.786589503288269E-1  
 2.284000000000000E7     3.897166997194290E-2   3.778030276298523E-1   9.107865095138550E-1  -8.298062533140183E-2   9.101114869117737E-1  -8.299431204795837E-2   3.674682229757309E-2   3.761998414993286E-1  
 2.286000000000000E7     4.034175723791122E-2   3.743859529495239E-1   9.119191169738770E-1  -8.646564930677414E-2   9.109286069869995E-1  -8.627530932426453E-2   3.810665756464005E-2   3.730877041816711E-1  
 2.288000000000000E7     4.112941771745682E-2   3.713873028755188E-1   9.128110408782959E-1  -8.981150388717651E-2   9.118450880050659E-1  -8.964271843433380E-2   3.916811943054199E-2   3.699325621128082E-1  
 2.290000000000000E7     4.173403978347778E-2   3.688690662384033E-1   9.136214852333069E-1  -9.331624209880829E-2   9.127151370048523E-1  -9.331117570400238E-2   4.069033265113831E-2   3.674519360065460E-1  
 2.292000000000000E7     4.330969601869583E-2   3.654879629611969E-1   9.140182137489319E-1  -9.700011461973190E-2   9.133388996124268E-1  -9.648064523935318E-2   4.129897803068161E-2   3.646932244300842E-1  
 2.294000000000000E7     4.397841542959213E-2   3.621172904968262E-1   9.150781035423279E-1  -1.004158258438110E-1   9.139916896820068E-1  -9.995097666978836E-2   4.177355766296387E-2   3.620179295539856E-1  
 2.296000000000000E7     4.477894306182861E-2   3.594329357147217E-1   9.159194827079773E-1  -1.036537736654282E-1   9.154752492904663E-1  -1.036817878484726E-1   4.336718469858170E-2   3.572494685649872E-1  
 2.298000000000000E7     4.613319784402847E-2   3.560797274112701E-1   9.168984293937683E-1  -1.071547418832779E-1   9.159007668495178E-1  -1.068407297134399E-1   4.380771517753601E-2   3.549749255180359E-1  
 2.300000000000000E7     4.698985069990158E-2   3.531115055084229E-1   9.175712466239929E-1  -1.103155091404915E-1   9.162933230400085E-1  -1.108328700065613E-1   4.460641741752625E-2   3.523786664009094E-1  
 2.302000000000000E7     4.753665626049042E-2   3.499755263328552E-1   9.180707931518555E-1  -1.141303777694702E-1   9.176923632621765E-1  -1.140554696321487E-1   4.662986844778061E-2   3.482975065708160E-1  
 2.304000000000000E7     4.881846159696579E-2   3.468526005744934E-1   9.188984632492065E-1  -1.178711429238319E-1   9.178636074066162E-1  -1.174230799078941E-1   4.704835265874863E-2   3.454462885856628E-1  
 2.306000000000000E7     4.947249591350555E-2   3.435024917125702E-1   9.192428588867188E-1  -1.211763769388199E-1   9.186685681343079E-1  -1.212401539087296E-1   4.790214449167252E-2   3.426033854484558E-1  
 2.308000000000000E7     5.117224156856537E-2   3.401416540145874E-1   9.202681183815002E-1  -1.247227266430855E-1   9.195958375930786E-1  -1.245115697383881E-1   4.884146898984909E-2   3.387386202812195E-1  
 2.310000000000000E7     5.178759247064591E-2   3.374695479869843E-1   9.203152656555176E-1  -1.281745284795761E-1   9.201414585113525E-1  -1.280056387186050E-1   4.946664720773697E-2   3.355409204959869E-1  
 2.312000000000000E7     5.232288688421249E-2   3.341650962829590E-1   9.212425947189331E-1  -1.313661336898804E-1   9.203314185142517E-1  -1.321783363819122E-1   4.993490129709244E-2   3.323202133178711E-1  
 2.314000000000000E7     5.266593396663666E-2   3.306479454040527E-1   9.217008352279663E-1  -1.355579346418381E-1   9.212363958358765E-1  -1.355021297931671E-1   5.073515325784683E-2   3.295802474021912E-1  
 2.316000000000000E7     5.391435325145721E-2   3.275059163570404E-1   9.227190017700195E-1  -1.389965116977692E-1   9.219978451728821E-1  -1.395557373762131E-1   5.125496536493301E-2   3.256193101406097E-1  
 2.318000000000000E7     5.461901426315308E-2   3.235203027725220E-1   9.233177900314331E-1  -1.429341286420822E-1   9.225414991378784E-1  -1.426904052495956E-1   5.215510725975037E-2   3.233137130737305E-1  
 2.320000000000000E7     5.515319854021072E-2   3.204812407493591E-1   9.237272143363953E-1  -1.464958786964417E-1   9.229236841201782E-1  -1.465644687414169E-1   5.255788564682007E-2   3.194675445556641E-1  
 2.322000000000000E7     5.543433874845505E-2   3.180274963378906E-1   9.237666726112366E-1  -1.500966548919678E-1   9.234077334403992E-1  -1.499710083007813E-1   5.374242365360260E-2   3.164616823196411E-1  
 2.324000000000000E7     5.645738542079926E-2   3.139892816543579E-1   9.247214794158936E-1  -1.539559215307236E-1   9.233896136283875E-1  -1.535486578941345E-1   5.445995926856995E-2   3.136305212974548E-1  
 2.326000000000000E7     5.743761360645294E-2   3.105970025062561E-1   9.248748421669006E-1  -1.571905016899109E-1   9.244577288627625E-1  -1.571047753095627E-1   5.529705435037613E-2   3.102943897247315E-1  
 2.328000000000000E7     5.865199118852615E-2   3.064860105514526E-1   9.258552789688110E-1  -1.607730835676193E-1   9.248238205909729E-1  -1.608897000551224E-1   5.562212318181992E-2   3.065275549888611E-1  
 2.330000000000000E7     5.894071608781815E-2   3.041400313377380E-1   9.259554147720337E-1  -1.644731163978577E-1   9.248216152191162E-1  -1.646395474672318E-1   5.609452351927757E-2   3.033621013164520E-1  
 2.332000000000000E7     5.951105803251267E-2   2.998859286308289E-1   9.269455671310425E-1  -1.679616272449493E-1   9.254853129386902E-1  -1.686017513275147E-1   5.679924041032791E-2   2.992122173309326E-1  
 2.334000000000000E7     5.981644243001938E-2   2.967270612716675E-1   9.272028207778931E-1  -1.721822768449783E-1   9.256604909896851E-1  -1.717620193958283E-1   5.709780007600784E-2   2.968174219131470E-1  
 2.336000000000000E7     6.010304391384125E-2   2.932777702808380E-1   9.273458719253540E-1  -1.755212843418121E-1   9.262405633926392E-1  -1.754816770553589E-1   5.845697596669197E-2   2.929685115814209E-1  
 2.338000000000000E7     6.104184314608574E-2   2.900618910789490E-1   9.276790618896484E-1  -1.795405447483063E-1   9.263619184494019E-1  -1.793923079967499E-1   5.797515437006950E-2   2.899747490882874E-1  
 2.340000000000000E7     6.182991713285446E-2   2.874411344528198E-1   9.277775287628174E-1  -1.832959949970245E-1   9.267982244491577E-1  -1.829229891300201E-1   5.855142697691917E-2   2.863892614841461E-1  
 2.342000000000000E7     6.074151024222374E-2   2.839833796024323E-1   9.277763366699219E-1  -1.872470378875732E-1   9.266490340232849E-1  -1.869982779026032E-1   5.926553532481194E-2   2.832785844802856E-1  
 2.344000000000000E7     6.121715903282166E-2   2.799692749977112E-1   9.282774329185486E-1  -1.910634785890579E-1   9.272986650466919E-1  -1.912018805742264E-1   5.933594703674316E-2   2.798929214477539E-1  
 2.346000000000000E7     6.204848363995552E-2   2.765244245529175E-1   9.286764264106751E-1  -1.947047561407089E-1   9.274806976318359E-1  -1.941794753074646E-1   6.079377979040146E-2   2.761412858963013E-1  
 2.348000000000000E7     6.242171302437782E-2   2.733219265937805E-1   9.282842278480530E-1  -1.981556564569473E-1   9.276792407035828E-1  -1.987485587596893E-1   6.105538085103035E-2   2.729665338993073E-1  
 2.350000000000000E7     6.202377006411552E-2   2.698523700237274E-1   9.285578727722168E-1  -2.022679597139359E-1   9.278076291084290E-1  -2.021089941263199E-1   6.152615696191788E-2   2.693010568618774E-1  
 2.352000000000000E7     6.354287266731262E-2   2.664200067520142E-1   9.288600087165833E-1  -2.060337662696838E-1   9.280306696891785E-1  -2.058066874742508E-1   6.181824952363968E-2   2.652221322059631E-1  
 2.354000000000000E7     6.338385492563248E-2   2.626627087593079E-1   9.290180206298828E-1  -2.099152058362961E-1   9.283960461616516E-1  -2.095857560634613E-1   6.211232393980026E-2   2.626324295997620E-1  
 2.356000000000000E7     6.403365731239319E-2   2.593509554862976E-1   9.289848804473877E-1  -2.137739062309265E-1   9.282062053680420E-1  -2.136960178613663E-1   6.176714971661568E-2   2.591102123260498E-1  
 2.358000000000000E7     6.389436870813370E-2   2.561728954315186E-1   9.290222525596619E-1  -2.172448337078095E-1   9.284609556198120E-1  -2.175420075654984E-1   6.259322911500931E-2   2.549639046192169E-1  
 2.360000000000000E7     6.431340426206589E-2   2.530526816844940E-1   9.291028380393982E-1  -2.216193974018097E-1   9.284582138061523E-1  -2.213716357946396E-1   6.206478178501129E-2   2.518516480922699E-1  
 2.362000000000000E7     6.432756781578064E-2   2.493810057640076E-1   9.290595054626465E-1  -2.253686934709549E-1   9.285224676132202E-1  -2.254635244607925E-1   6.149773299694061E-2   2.485761940479279E-1  
 2.364000000000000E7     6.469319760799408E-2   2.453819215297699E-1   9.291258454322815E-1  -2.291250675916672E-1   9.282516241073608E-1  -2.287870943546295E-1   6.300827115774155E-2   2.448642551898956E-1  
 2.366000000000000E7     6.570506840944290E-2   2.423432022333145E-1   9.291227459907532E-1  -2.326913774013519E-1   9.282525777816773E-1  -2.331331819295883E-1   6.263840198516846E-2   2.412584125995636E-1  
 2.368000000000000E7     6.467625498771668E-2   2.385248839855194E-1   9.291149973869324E-1  -2.371510714292526E-1   9.282633066177368E-1  -2.369527667760849E-1   6.252450495958328E-2   2.374750673770905E-1  
 2.370000000000000E7     6.520144641399384E-2   2.349460273981094E-1   9.288756847381592E-1  -2.410053014755249E-1   9.281335473060608E-1  -2.407222092151642E-1   6.288298964500427E-2   2.341861724853516E-1  
 2.372000000000000E7     6.492784619331360E-2   2.309430092573166E-1   9.286881685256958E-1  -2.450119107961655E-1   9.281102418899536E-1  -2.445006221532822E-1   6.297031790018082E-2   2.310343384742737E-1  
 2.374000000000000E7     6.532262265682221E-2   2.270961701869965E-1   9.287276864051819E-1  -2.487607747316361E-1   9.276930093765259E-1  -2.485725730657578E-1   6.227440014481545E-2   2.276534736156464E-1  
 2.376000000000000E7     6.467317789793015E-2   2.241474390029907E-1   9.284893274307251E-1  -2.523990869522095E-1   9.276900291442871E-1  -2.524858415126801E-1   6.304485350847244E-2   2.234911769628525E-1  
 2.378000000000000E7     6.524074822664261E-2   2.199448049068451E-1   9.283835291862488E-1  -2.567171156406403E-1   9.272054433822632E-1  -2.562155425548554E-1   6.243585050106049E-2   2.208723425865173E-1  
 2.380000000000000E7     6.460055708885193E-2   2.172512263059616E-1   9.280193448066711E-1  -2.605590224266052E-1   9.273592829704285E-1  -2.602729499340057E-1   6.289553642272949E-2   2.170237898826599E-1  
 2.382000000000000E7     6.448884308338165E-2   2.132114768028259E-1   9.280831813812256E-1  -2.643291056156158E-1   9.269400835037231E-1  -2.644985914230347E-1   6.211554259061813E-2   2.127824127674103E-1  
 2.384000000000000E7     6.505551934242249E-2   2.096028625965118E-1   9.275406599044800E-1  -2.681602835655212E-1   9.264332652091980E-1  -2.681852281093597E-1   6.260938942432404E-2   2.101256251335144E-1  
 2.386000000000000E7     6.362748146057129E-2   2.062058597803116E-1   9.272511601448059E-1  -2.727203965187073E-1   9.261296391487122E-1  -2.723510861396790E-1   6.168788671493530E-2   2.064697742462158E-1  
 2.388000000000000E7     6.391203403472900E-2   2.018270343542099E-1   9.263562560081482E-1  -2.762663066387177E-1   9.263451695442200E-1  -2.760642170906067E-1   6.181348487734795E-2   2.025126218795776E-1  
 2.390000000000000E7     6.329684704542160E-2   1.988901644945145E-1   9.261255860328674E-1  -2.803323268890381E-1   9.253586530685425E-1  -2.803080976009369E-1   6.120176613330841E-2   1.989477425813675E-1  
 2.392000000000000E7     6.344129145145416E-2   1.951389014720917E-1   9.259521961212158E-1  -2.843114733695984E-1   9.251584410667419E-1  -2.840694189071655E-1   6.130486726760864E-2   1.953473687171936E-1  
 2.394000000000000E7     6.367315351963043E-2   1.921755075454712E-1   9.253401160240173E-1  -2.880502939224243E-1   9.246287345886231E-1  -2.880155742168427E-1   6.122014299035072E-2   1.909293234348297E-1  
 2.396000000000000E7     6.321777403354645E-2   1.876441538333893E-1   9.253036975860596E-1  -2.922539412975311E-1   9.242452979087830E-1  -2.919802963733673E-1   6.071286275982857E-2   1.879099905490875E-1  
 2.398000000000000E7     6.260934472084045E-2   1.846661567687988E-1   9.240395426750183E-1  -2.963222861289978E-1   9.237528443336487E-1  -2.962120175361633E-1   6.104282662272453E-2   1.850215792655945E-1  
 2.400000000000000E7     6.220257282257080E-2   1.807377338409424E-1   9.238558411598206E-1  -3.001251220703125E-1   9.231907129287720E-1  -2.997584342956543E-1   6.062537059187889E-2   1.808067560195923E-1  
 2.402000000000000E7     6.151330098509789E-2   1.773574948310852E-1   9.233053326606751E-1  -3.044117093086243E-1   9.227971434593201E-1  -3.039614558219910E-1   6.009011715650559E-2   1.771055012941361E-1  
 2.404000000000000E7     6.112501770257950E-2   1.733028590679169E-1   9.228507280349731E-1  -3.081116974353790E-1   9.221517443656921E-1  -3.080956339836121E-1   5.936365947127342E-2   1.728640496730804E-1  
 2.406000000000000E7     6.118204444646835E-2   1.696668416261673E-1   9.219316244125366E-1  -3.123314082622528E-1   9.215726256370544E-1  -3.118573129177094E-1   5.889334529638290E-2   1.700677573680878E-1  
 2.408000000000000E7     6.137179210782051E-2   1.657082438468933E-1   9.215337038040161E-1  -3.163084089756012E-1   9.206784367561340E-1  -3.155895173549652E-1   5.891284346580505E-2   1.661124080419540E-1  
 2.410000000000000E7     6.061199307441711E-2   1.628536880016327E-1   9.207192063331604E-1  -3.200633227825165E-1   9.198564291000366E-1  -3.202300965785980E-1   5.729547142982483E-2   1.629559397697449E-1  
 2.412000000000000E7     5.953785404562950E-2   1.585948169231415E-1   9.200096726417542E-1  -3.242969512939453E-1   9.190199971199036E-1  -3.237465918064117E-1   5.751578882336617E-2   1.597345024347305E-1  
 2.414000000000000E7     5.856520310044289E-2   1.551443636417389E-1   9.191811084747315E-1  -3.281785547733307E-1   9.182825684547424E-1  -3.283714652061462E-1   5.687854066491127E-2   1.566037237644196E-1  
 2.416000000000000E7     5.788329988718033E-2   1.520006358623505E-1   9.185712337493897E-1  -3.324044346809387E-1   9.180328249931335E-1  -3.320485651493073E-1   5.625678226351738E-2   1.522657275199890E-1  
 2.418000000000000E7     5.788127332925797E-2   1.484437733888626E-1   9.176620841026306E-1  -3.364145755767822E-1   9.171115756034851E-1  -3.358946144580841E-1   5.532616749405861E-2   1.481419801712036E-1  
 2.420000000000000E7     5.662662535905838E-2   1.445363759994507E-1   9.166746735572815E-1  -3.402310013771057E-1   9.160107970237732E-1  -3.399884402751923E-1   5.535603687167168E-2   1.457231193780899E-1  
 2.422000000000000E7     5.578217655420303E-2   1.407728940248489E-1   9.158439040184021E-1  -3.440946042537689E-1   9.148901700973511E-1  -3.440884947776794E-1   5.386173725128174E-2   1.418769210577011E-1  
 2.424000000000000E7     5.532966554164887E-2   1.369253396987915E-1   9.153413176536560E-1  -3.483167290687561E-1   9.141224026679993E-1  -3.481267988681793E-1   5.328249186277390E-2   1.377067863941193E-1  
 2.426000000000000E7     5.462527275085449E-2   1.335618048906326E-1   9.142066240310669E-1  -3.522291183471680E-1   9.131727218627930E-1  -3.516877293586731E-1   5.300016328692436E-2   1.343047618865967E-1  
 2.428000000000000E7     5.371320620179176E-2   1.301198303699493E-1   9.129714965820313E-1  -3.559720814228058E-1   9.122171998023987E-1  -3.561841547489166E-1   5.183518305420876E-2   1.311048567295075E-1  
 2.430000000000000E7     5.347955226898193E-2   1.263935714960098E-1   9.123666882514954E-1  -3.601108491420746E-1   9.109075069427490E-1  -3.599217236042023E-1   5.126483365893364E-2   1.268849223852158E-1  
 2.432000000000000E7     5.214209482073784E-2   1.229620650410652E-1   9.111933708190918E-1  -3.640080690383911E-1   9.102776646614075E-1  -3.638411164283752E-1   5.011200904846191E-2   1.234008669853210E-1  
 2.434000000000000E7     5.106114223599434E-2   1.184285059571266E-1   9.102095365524292E-1  -3.682307898998261E-1   9.091510176658630E-1  -3.674432933330536E-1   4.965780675411224E-2   1.193016543984413E-1  
 2.436000000000000E7     5.004972964525223E-2   1.161129996180534E-1   9.087504148483276E-1  -3.722242712974548E-1   9.081301093101502E-1  -3.719817101955414E-1   4.826528951525688E-2   1.163448169827461E-1  
 2.438000000000000E7     4.932041838765144E-2   1.115909218788147E-1   9.078857898712158E-1  -3.762040436267853E-1   9.071796536445618E-1  -3.757992982864380E-1   4.805665090680122E-2   1.124359071254730E-1  
 2.440000000000000E7     4.842852801084518E-2   1.087764054536820E-1   9.066322445869446E-1  -3.803359568119049E-1   9.057384133338928E-1  -3.799223601818085E-1   4.608022049069405E-2   1.085615381598473E-1  
 2.442000000000000E7     4.757677763700485E-2   1.048315986990929E-1   9.057162404060364E-1  -3.839728832244873E-1   9.045585989952087E-1  -3.840258717536926E-1   4.603689163923264E-2   1.048381179571152E-1  
 2.444000000000000E7     4.674475640058518E-2   1.012628823518753E-1   9.039771556854248E-1  -3.883210122585297E-1   9.036144018173218E-1  -3.880808949470520E-1   4.379797354340553E-2   1.013952940702438E-1  
 2.446000000000000E7     4.492073506116867E-2   9.820007532835007E-2   9.027859568595886E-1  -3.921962976455689E-1   9.018681049346924E-1  -3.920595645904541E-1   4.298697784543037E-2   9.893157333135605E-2  
 2.448000000000000E7     4.396052286028862E-2   9.380387514829636E-2   9.017798900604248E-1  -3.962432146072388E-1   9.006222486495972E-1  -3.959998786449432E-1   4.194078594446182E-2   9.497258812189102E-2  
 2.450000000000000E7     4.358478263020515E-2   9.009684622287750E-2   9.003668427467346E-1  -4.003239274024963E-1   8.995962738990784E-1  -3.997225165367127E-1   4.114649444818497E-2   9.098572283983231E-2  
 2.452000000000000E7     4.261606186628342E-2   8.598239719867706E-2   8.991851806640625E-1  -4.041788280010223E-1   8.980739116668701E-1  -4.039724469184876E-1   3.926686942577362E-2   8.769743144512177E-2  
 2.454000000000000E7     3.970054164528847E-2   8.323402702808380E-2   8.972678780555725E-1  -4.082331359386444E-1   8.968920111656189E-1  -4.077961444854736E-1   3.846873342990875E-2   8.379217237234116E-2  
 2.456000000000000E7     3.932386636734009E-2   7.987819612026215E-2   8.964070081710815E-1  -4.121602177619934E-1   8.951898217201233E-1  -4.115998148918152E-1   3.748756274580956E-2   8.003601431846619E-2  
 2.458000000000000E7     3.737985342741013E-2   7.600580155849457E-2   8.945870399475098E-1  -4.162937402725220E-1   8.938952684402466E-1  -4.157011508941650E-1   3.609760105609894E-2   7.649523764848709E-2  
 2.460000000000000E7     3.667047992348671E-2   7.294839620590210E-2   8.933052420616150E-1  -4.201288521289825E-1   8.920622467994690E-1  -4.196431934833527E-1   3.431001678109169E-2   7.289278507232666E-2  
 2.462000000000000E7     3.611906617879868E-2   6.870770454406738E-2   8.914473652839661E-1  -4.239246547222138E-1   8.906998038291931E-1  -4.232198596000671E-1   3.404611349105835E-2   7.040443271398544E-2  
 2.464000000000000E7     3.411587327718735E-2   6.554371118545532E-2   8.899318575859070E-1  -4.277504980564117E-1   8.897344470024109E-1  -4.275386631488800E-1   3.246784955263138E-2   6.561690568923950E-2  
 2.466000000000000E7     3.239381313323975E-2   6.115857139229775E-2   8.884929418563843E-1  -4.319258034229279E-1   8.876763582229614E-1  -4.312991499900818E-1   3.070485219359398E-2   6.204963847994804E-2  
 2.468000000000000E7     3.144844621419907E-2   5.832405760884285E-2   8.868452310562134E-1  -4.357809126377106E-1   8.862160444259644E-1  -4.353265464305878E-1   2.956654876470566E-2   5.900134891271591E-2  
 2.470000000000000E7     2.990589290857315E-2   5.508864670991898E-2   8.851544857025147E-1  -4.397407472133637E-1   8.845403194427490E-1  -4.391069710254669E-1   2.837137505412102E-2   5.529386177659035E-2  
 2.472000000000000E7     2.819493040442467E-2   5.162028968334198E-2   8.832249641418457E-1  -4.435001909732819E-1   8.827447295188904E-1  -4.434239566326141E-1   2.585156448185444E-2   5.206878110766411E-2  
 2.474000000000000E7     2.688781544566155E-2   4.750578850507736E-2   8.818469643592835E-1  -4.473030269145966E-1   8.810613751411438E-1  -4.467448592185974E-1   2.486617118120194E-2   4.855554550886154E-2  
 2.476000000000000E7     2.512779459357262E-2   4.377321898937225E-2   8.796766996383667E-1  -4.515794217586517E-1   8.794260025024414E-1  -4.507532119750977E-1   2.316914126276970E-2   4.501213133335114E-2  
 2.478000000000000E7     2.351358905434609E-2   4.102641344070435E-2   8.783169388771057E-1  -4.551815390586853E-1   8.769960403442383E-1  -4.547523558139801E-1   2.147750183939934E-2   4.157020896673203E-2  
 2.480000000000000E7     2.117077820003033E-2   3.802371770143509E-2   8.765192031860352E-1  -4.589559137821198E-1   8.758915662765503E-1  -4.586422145366669E-1   2.048311010003090E-2   3.814298659563065E-2  
 2.482000000000000E7     2.088663727045059E-2   3.394491225481033E-2   8.747633099555969E-1  -4.627015292644501E-1   8.736861348152161E-1  -4.623095691204071E-1   1.840070448815823E-2   3.521124273538590E-2  
 2.484000000000000E7     1.795493625104427E-2   3.003448992967606E-2   8.728680014610291E-1  -4.665297567844391E-1   8.721558451652527E-1  -4.663548767566681E-1   1.750777661800385E-2   3.132070600986481E-2  
 2.486000000000000E7     1.684726588428021E-2   2.764367312192917E-2   8.708974719047546E-1  -4.703405201435089E-1   8.700380921363831E-1  -4.700294733047485E-1   1.484581083059311E-2   2.738040685653687E-2  
 2.488000000000000E7     1.499211043119431E-2   2.324198931455612E-2   8.688318729400635E-1  -4.742193818092346E-1   8.683511018753052E-1  -4.740188419818878E-1   1.320264302194119E-2   2.442880719900131E-2  
 2.490000000000000E7     1.391828805208206E-2   1.982167363166809E-2   8.669294118881226E-1  -4.782697260379791E-1   8.660964965820313E-1  -4.774677753448486E-1   1.167285256087780E-2   2.138497680425644E-2  
 2.492000000000000E7     1.155078411102295E-2   1.662379503250122E-2   8.649802207946777E-1  -4.819654524326325E-1   8.646394610404968E-1  -4.819402396678925E-1   9.511258453130722E-3   1.743233948945999E-2  
 2.494000000000000E7     9.382847696542740E-3   1.313254982233048E-2   8.631164431571960E-1  -4.859438240528107E-1   8.623061776161194E-1  -4.854384660720825E-1   7.678590714931488E-3   1.451686024665833E-2  
 2.496000000000000E7     7.183838635683060E-3   9.611912071704865E-3   8.606187701225281E-1  -4.894154071807861E-1   8.602369427680969E-1  -4.890684485435486E-1   6.312601268291473E-3   1.111869513988495E-2  
 2.498000000000000E7     6.174311041831970E-3   6.148807704448700E-3   8.584644198417664E-1  -4.930131137371063E-1   8.581197261810303E-1  -4.927670657634735E-1   4.604116082191467E-3   7.108129560947418E-3  
 2.500000000000000E7     4.238266497850418E-3   3.036409616470337E-3   8.564435243606567E-1  -4.970589578151703E-1   8.560042381286621E-1  -4.961464405059815E-1   2.264566719532013E-3   4.235714673995972E-3  
 2.502000000000000E7     1.274056732654572E-3  -2.468377351760864E-4   8.546702265739441E-1  -5.006404519081116E-1   8.535209894180298E-1  -5.002309679985046E-1   1.725442562019453E-4   9.302422404289246E-4  
 2.504000000000000E7    -8.272752893390134E-5  -4.165351390838623E-3   8.521358966827393E-1  -5.042470097541809E-1   8.517270684242249E-1  -5.036748647689819E-1  -1.647423952817917E-3  -2.444200217723846E-3  
 2.506000000000000E7    -2.435591071844101E-3  -6.589218974113464E-3   8.502961397171021E-1  -5.082536935806274E-1   8.491292595863342E-1  -5.074951648712158E-1  -2.945661544799805E-3  -5.448050796985626E-3  
 2.508000000000000E7    -4.315670579671860E-3  -9.978897869586945E-3   8.475552797317505E-1  -5.119700431823731E-1   8.471311926841736E-1  -5.110310316085815E-1  -5.833256989717484E-3  -8.600413799285889E-3  
 2.510000000000000E7    -6.779409945011139E-3  -1.351653784513474E-2   8.453609347343445E-1  -5.154051184654236E-1   8.448582291603088E-1  -5.148167014122009E-1  -8.030291646718979E-3  -1.135171204805374E-2  
 2.512000000000000E7    -8.707784116268158E-3  -1.701696217060089E-2   8.435520529747009E-1  -5.189049839973450E-1   8.421613574028015E-1  -5.188255310058594E-1  -9.858187288045883E-3  -1.529706269502640E-2  
 2.514000000000000E7    -1.109561696648598E-2  -2.016483992338181E-2   8.410478830337524E-1  -5.225216150283814E-1   8.401727080345154E-1  -5.222150087356567E-1  -1.229997724294663E-2  -1.865609735250473E-2  
 2.516000000000000E7    -1.332531869411469E-2  -2.313450723886490E-2   8.383724093437195E-1  -5.261386632919312E-1   8.379024863243103E-1  -5.258827209472656E-1  -1.466589048504829E-2  -2.184747159481049E-2  
 2.518000000000000E7    -1.480771601200104E-2  -2.630838006734848E-2   8.358467221260071E-1  -5.300135612487793E-1   8.353371024131775E-1  -5.291396975517273E-1  -1.611051708459854E-2  -2.447628974914551E-2  
 2.520000000000000E7    -1.671686768531799E-2  -2.947323769330978E-2   8.337643742561340E-1  -5.333135128021240E-1   8.328690528869629E-1  -5.329199433326721E-1  -1.854755729436874E-2  -2.792222797870636E-2  
 2.522000000000000E7    -1.868309080600739E-2  -3.225637227296829E-2   8.311756849288940E-1  -5.367738008499146E-1   8.304379582405090E-1  -5.366398096084595E-1  -2.057124301791191E-2  -3.111553192138672E-2  
 2.524000000000000E7    -2.190333604812622E-2  -3.580694645643234E-2   8.289871215820313E-1  -5.403143763542175E-1   8.279157876968384E-1  -5.401306152343750E-1  -2.282022684812546E-2  -3.408581763505936E-2  
 2.526000000000000E7    -2.457535266876221E-2  -3.920488059520721E-2   8.261873126029968E-1  -5.440282225608826E-1   8.253946900367737E-1  -5.437159538269043E-1  -2.502296119928360E-2  -3.792342543601990E-2  
 2.528000000000000E7    -2.694413810968399E-2  -4.137843102216721E-2   8.234961032867432E-1  -5.475031733512878E-1   8.230202198028565E-1  -5.473039746284485E-1  -2.744410932064056E-2  -4.074566066265106E-2  
 2.530000000000000E7    -2.850147336721420E-2  -4.494562000036240E-2   8.210897445678711E-1  -5.511724352836609E-1   8.203294873237610E-1  -5.505223870277405E-1  -3.025230765342712E-2  -4.336471855640411E-2  
 2.532000000000000E7    -3.150201588869095E-2  -4.846704006195068E-2   8.183563351631165E-1  -5.542824864387512E-1   8.179602026939392E-1  -5.541146397590637E-1  -3.232240676879883E-2  -4.666101187467575E-2  
 2.534000000000000E7    -3.382217884063721E-2  -5.177249759435654E-2   8.158646225929260E-1  -5.577190518379211E-1   8.154173493385315E-1  -5.575985908508301E-1  -3.458359092473984E-2  -4.988931119441986E-2  
 2.536000000000000E7    -3.662215918302536E-2  -5.449963361024857E-2   8.130772113800049E-1  -5.612281560897827E-1   8.124258518218994E-1  -5.609345436096191E-1  -3.721101582050324E-2  -5.271846801042557E-2  
 2.538000000000000E7    -3.857652097940445E-2  -5.711936950683594E-2   8.106660842895508E-1  -5.649598240852356E-1   8.097649812698364E-1  -5.643270611763001E-1  -3.957510739564896E-2  -5.572482198476791E-2  
 2.540000000000000E7    -4.113797098398209E-2  -6.028386950492859E-2   8.080956935882568E-1  -5.683289766311646E-1   8.071379661560059E-1  -5.672887563705444E-1  -4.215691238641739E-2  -5.916831642389298E-2  
 2.542000000000000E7    -4.417508840560913E-2  -6.347703933715820E-2   8.047692179679871E-1  -5.713918805122376E-1   8.047189116477966E-1  -5.710473060607910E-1  -4.467586427927017E-2  -6.167365610599518E-2  
 2.544000000000000E7    -4.654177278280258E-2  -6.620614230632782E-2   8.020997047424316E-1  -5.747821331024170E-1   8.016119003295898E-1  -5.745413899421692E-1  -4.715061187744141E-2  -6.463222205638886E-2  
 2.546000000000000E7    -4.889301210641861E-2  -6.895105540752411E-2   7.994526624679565E-1  -5.780008435249329E-1   7.990321516990662E-1  -5.776906609535217E-1  -4.967710375785828E-2  -6.697425246238709E-2  
 2.548000000000000E7    -5.134085565805435E-2  -7.232978940010071E-2   7.967753410339356E-1  -5.816062688827515E-1   7.961587309837341E-1  -5.808987617492676E-1  -5.163830518722534E-2  -7.074142992496491E-2  
 2.550000000000000E7    -5.489684641361237E-2  -7.484202086925507E-2   7.939220070838928E-1  -5.846736431121826E-1   7.929115891456604E-1  -5.842322111129761E-1  -5.516583472490311E-2  -7.329848408699036E-2  
 2.552000000000000E7    -5.695970356464386E-2  -7.774415612220764E-2   7.909594774246216E-1  -5.880684256553650E-1   7.902134060859680E-1  -5.876123905181885E-1  -5.755450576543808E-2  -7.610241323709488E-2  
 2.554000000000000E7    -5.962841212749481E-2  -8.136436343193054E-2   7.880373001098633E-1  -5.910632610321045E-1   7.874067425727844E-1  -5.907205939292908E-1  -6.035142391920090E-2  -7.905469834804535E-2  
 2.556000000000000E7    -6.211081147193909E-2  -8.351808041334152E-2   7.852400541305542E-1  -5.943754911422730E-1   7.844297885894775E-1  -5.940868854522705E-1  -6.350389122962952E-2  -8.195225894451141E-2  
 2.558000000000000E7    -6.456936150789261E-2  -8.660381287336350E-2   7.821087837219238E-1  -5.974817276000977E-1   7.816224098205566E-1  -5.970178246498108E-1  -6.576465070247650E-2  -8.501020818948746E-2  
 2.560000000000000E7    -6.830179691314697E-2  -8.926447480916977E-2   7.792669534683228E-1  -6.007099151611328E-1   7.786002755165100E-1  -6.002652645111084E-1  -6.832108646631241E-2  -8.752202987670898E-2  
 2.562000000000000E7    -7.034945487976074E-2  -9.176178276538849E-2   7.764122486114502E-1  -6.038720011711121E-1   7.754843235015869E-1  -6.033266186714172E-1  -7.169887423515320E-2  -9.005387127399445E-2  
 2.564000000000000E7    -7.380460202693939E-2  -9.426357597112656E-2   7.730508446693420E-1  -6.069595813751221E-1   7.727612853050232E-1  -6.066354513168335E-1  -7.416141778230667E-2  -9.325982630252838E-2  
 2.566000000000000E7    -7.666869461536408E-2  -9.776880592107773E-2   7.700307965278626E-1  -6.102176904678345E-1   7.696672081947327E-1  -6.096141338348389E-1  -7.728277891874313E-2  -9.480344504117966E-2  
 2.568000000000000E7    -7.884505391120911E-2  -1.004992127418518E-1   7.668200135231018E-1  -6.127753257751465E-1   7.665876746177673E-1  -6.128906607627869E-1  -8.022372424602509E-2  -9.740564972162247E-2  
 2.570000000000000E7    -8.153577893972397E-2  -1.028635203838348E-1   7.639423012733460E-1  -6.158983111381531E-1   7.637548446655273E-1  -6.154150962829590E-1  -8.181113749742508E-2  -9.984007477760315E-2  
 2.572000000000000E7    -8.486795425415039E-2  -1.048953980207443E-1   7.610510587692261E-1  -6.192024350166321E-1   7.602458596229553E-1  -6.187700629234314E-1  -8.550086617469788E-2  -1.034176126122475E-1  
 2.574000000000000E7    -8.778243511915207E-2  -1.080749705433846E-1   7.577177882194519E-1  -6.222325563430786E-1   7.572358250617981E-1  -6.214591264724731E-1  -8.855868875980377E-2  -1.056893989443779E-1  
 2.576000000000000E7    -9.087486565113068E-2  -1.102903410792351E-1   7.548836469650269E-1  -6.252583265304565E-1   7.540773749351502E-1  -6.245145201683044E-1  -9.154614061117172E-2  -1.081128865480423E-1  
 2.578000000000000E7    -9.364694356918335E-2  -1.129660084843636E-1   7.512390017509460E-1  -6.280067563056946E-1   7.510003447532654E-1  -6.274784207344055E-1  -9.401093423366547E-2  -1.109169125556946E-1  
 2.580000000000000E7    -9.700988978147507E-2  -1.157917529344559E-1   7.485587596893311E-1  -6.307067275047302E-1   7.473716139793396E-1  -6.301812529563904E-1  -9.726145118474960E-2  -1.136699616909027E-1  
 2.582000000000000E7    -9.978368878364563E-2  -1.179898232221603E-1   7.450572252273560E-1  -6.337042450904846E-1   7.440831065177918E-1  -6.335219144821167E-1  -1.007586643099785E-1  -1.158953532576561E-1  
 2.584000000000000E7    -1.037521883845329E-1  -1.203435361385346E-1   7.418010234832764E-1  -6.368705034255981E-1   7.412299513816834E-1  -6.358851194381714E-1  -1.034898608922958E-1  -1.184627860784531E-1  
 2.586000000000000E7    -1.065600290894508E-1  -1.226468756794930E-1   7.384977936744690E-1  -6.395602822303772E-1   7.379248142242432E-1  -6.390753388404846E-1  -1.068487167358398E-1  -1.202139034867287E-1  
 2.588000000000000E7    -1.084074601531029E-1  -1.251529455184937E-1   7.352598309516907E-1  -6.422426104545593E-1   7.347227931022644E-1  -6.418517827987671E-1  -1.097091510891914E-1  -1.231074109673500E-1  
 2.590000000000000E7    -1.127002090215683E-1  -1.279938817024231E-1   7.317522168159485E-1  -6.449335217475891E-1   7.313724160194397E-1  -6.444528698921204E-1  -1.132261753082275E-1  -1.250585317611694E-1  
 2.592000000000000E7    -1.152340918779373E-1  -1.297965943813324E-1   7.286322116851807E-1  -6.478786468505859E-1   7.280535101890564E-1  -6.473999023437500E-1  -1.158841848373413E-1  -1.277644783258438E-1  
 2.594000000000000E7    -1.181514710187912E-1  -1.320481300354004E-1   7.256574630737305E-1  -6.504217386245728E-1   7.241941094398499E-1  -6.502998471260071E-1  -1.188284978270531E-1  -1.302745640277863E-1  
 2.596000000000000E7    -1.215246021747589E-1  -1.348643302917481E-1   7.221189141273499E-1  -6.532605886459351E-1   7.210811376571655E-1  -6.525894403457642E-1  -1.220414415001869E-1  -1.326234340667725E-1  
 2.598000000000000E7    -1.253251433372498E-1  -1.367516517639160E-1   7.184045314788818E-1  -6.558150649070740E-1   7.180785536766052E-1  -6.554318666458130E-1  -1.253303587436676E-1  -1.344964802265167E-1  
 2.600000000000000E7    -1.283609718084335E-1  -1.385470479726791E-1   7.150593400001526E-1  -6.581803560256958E-1   7.148633599281311E-1  -6.581763625144959E-1  -1.282143294811249E-1  -1.365497112274170E-1  
 2.602000000000000E7    -1.313975304365158E-1  -1.414115130901337E-1   7.117267251014710E-1  -6.610282659530640E-1   7.112222313880920E-1  -6.607031822204590E-1  -1.315610408782959E-1  -1.389398574829102E-1  
 2.604000000000000E7    -1.342143118381500E-1  -1.437026262283325E-1   7.083959579467773E-1  -6.636016368865967E-1   7.075621485710144E-1  -6.634208559989929E-1  -1.348322629928589E-1  -1.416870057582855E-1  
 2.606000000000000E7    -1.379057765007019E-1  -1.456249952316284E-1   7.048647999763489E-1  -6.660679578781128E-1   7.040721178054810E-1  -6.656781435012817E-1  -1.384287923574448E-1  -1.429696679115295E-1  
 2.608000000000000E7    -1.413539499044418E-1  -1.472973227500916E-1   7.011429667472839E-1  -6.685834527015686E-1   7.007990479469299E-1  -6.678061485290527E-1  -1.415845453739166E-1  -1.451969444751740E-1  
 2.610000000000000E7    -1.440462470054627E-1  -1.498894244432449E-1   6.978794932365418E-1  -6.711230874061585E-1   6.969439983367920E-1  -6.704414486885071E-1  -1.447160840034485E-1  -1.472145318984985E-1  
 2.612000000000000E7    -1.482478529214859E-1  -1.520754992961884E-1   6.941251754760742E-1  -6.737129092216492E-1   6.937721371650696E-1  -6.732075214385986E-1  -1.475460231304169E-1  -1.495178937911987E-1  
 2.614000000000000E7    -1.511047184467316E-1  -1.539273262023926E-1   6.905667185783386E-1  -6.757796406745911E-1   6.903649568557739E-1  -6.756825447082520E-1  -1.514655947685242E-1  -1.512522101402283E-1  
 2.616000000000000E7    -1.544527113437653E-1  -1.564407497644424E-1   6.870777010917664E-1  -6.785826683044434E-1   6.866610646247864E-1  -6.777766346931458E-1  -1.548723131418228E-1  -1.529443264007568E-1  
 2.618000000000000E7    -1.579817831516266E-1  -1.578270792961121E-1   6.838288307189941E-1  -6.805907487869263E-1   6.830326914787293E-1  -6.805337667465210E-1  -1.574465483427048E-1  -1.554254144430161E-1  
 2.620000000000000E7    -1.607449054718018E-1  -1.598947793245316E-1   6.800451874732971E-1  -6.833253502845764E-1   6.792772412300110E-1  -6.825763583183289E-1  -1.612813770771027E-1  -1.579810380935669E-1  
 2.622000000000000E7    -1.641829460859299E-1  -1.614661216735840E-1   6.766933202743530E-1  -6.852991580963135E-1   6.760366559028626E-1  -6.851582527160645E-1  -1.642252206802368E-1  -1.597132384777069E-1  
 2.624000000000000E7    -1.681382209062576E-1  -1.637254655361176E-1   6.726374626159668E-1  -6.876056790351868E-1   6.726416349411011E-1  -6.871454119682312E-1  -1.679002940654755E-1  -1.608261317014694E-1  
 2.626000000000000E7    -1.712687909603119E-1  -1.652509421110153E-1   6.693615317344666E-1  -6.901909708976746E-1   6.688627600669861E-1  -6.892048120498657E-1  -1.714088022708893E-1  -1.630312502384186E-1  
 2.628000000000000E7    -1.749493628740311E-1  -1.663975119590759E-1   6.657048463821411E-1  -6.919169425964356E-1   6.650995612144470E-1  -6.917773485183716E-1  -1.741923689842224E-1  -1.651121377944946E-1  
 2.630000000000000E7    -1.778135895729065E-1  -1.689762026071549E-1   6.619713306427002E-1  -6.942608356475830E-1   6.614613533020020E-1  -6.938042044639587E-1  -1.785226166248322E-1  -1.670317053794861E-1  
 2.632000000000000E7    -1.824045330286026E-1  -1.714631021022797E-1   6.579340100288391E-1  -6.961783766746521E-1   6.577562093734741E-1  -6.961743831634522E-1  -1.812875717878342E-1  -1.680682152509689E-1  
 2.634000000000000E7    -1.852259635925293E-1  -1.727568507194519E-1   6.544774174690247E-1  -6.986051201820374E-1   6.543725728988648E-1  -6.982513666152954E-1  -1.848627328872681E-1  -1.703765094280243E-1  
 2.636000000000000E7    -1.889690607786179E-1  -1.748291999101639E-1   6.508367657661438E-1  -7.009931206703186E-1   6.505806446075440E-1  -6.999350786209106E-1  -1.884197592735291E-1  -1.716760098934174E-1  
 2.638000000000000E7    -1.917936801910400E-1  -1.759649962186813E-1   6.471665501594544E-1  -7.029771804809570E-1   6.467353105545044E-1  -7.020436525344849E-1  -1.921823471784592E-1  -1.736916899681091E-1  
 2.640000000000000E7    -1.959582269191742E-1  -1.780711114406586E-1   6.433300971984863E-1  -7.046060562133789E-1   6.429992318153381E-1  -7.045026421546936E-1  -1.950359344482422E-1  -1.750726103782654E-1  
 2.642000000000000E7    -1.987599581480026E-1  -1.795735359191895E-1   6.398738026618958E-1  -7.069320678710938E-1   6.392312049865723E-1  -7.062768936157227E-1  -1.989261806011200E-1  -1.770156323909760E-1  
 2.644000000000000E7    -2.023726701736450E-1  -1.812526285648346E-1   6.359340548515320E-1  -7.085708379745483E-1   6.357959508895874E-1  -7.079909443855286E-1  -2.025942206382752E-1  -1.785723865032196E-1  
 2.646000000000000E7    -2.064064443111420E-1  -1.828475743532181E-1   6.322521567344666E-1  -7.110232710838318E-1   6.320978403091431E-1  -7.098557949066162E-1  -2.061506360769272E-1  -1.798678040504456E-1  
 2.648000000000000E7    -2.096718400716782E-1  -1.838781535625458E-1   6.285145878791809E-1  -7.126612663269043E-1   6.280854940414429E-1  -7.118586301803589E-1  -2.091972976922989E-1  -1.809587180614471E-1  
 2.650000000000000E7    -2.132396847009659E-1  -1.856109797954559E-1   6.248481273651123E-1  -7.144488096237183E-1   6.244322657585144E-1  -7.137815952301025E-1  -2.122351229190826E-1  -1.824945807456970E-1  
 2.652000000000000E7    -2.165310382843018E-1  -1.877672225236893E-1   6.210762858390808E-1  -7.161194086074829E-1   6.208267807960510E-1  -7.158129811286926E-1  -2.163134217262268E-1  -1.840975135564804E-1  
 2.654000000000000E7    -2.204404622316361E-1  -1.878098100423813E-1   6.177213788032532E-1  -7.178806662559509E-1   6.170333027839661E-1  -7.174988985061646E-1  -2.197180986404419E-1  -1.859392672777176E-1  
 2.656000000000000E7    -2.237435430288315E-1  -1.904235035181046E-1   6.132236123085022E-1  -7.198007106781006E-1   6.133126020431519E-1  -7.190721035003662E-1  -2.234344184398651E-1  -1.871993243694305E-1  
 2.658000000000000E7    -2.279229462146759E-1  -1.907651275396347E-1   6.096566319465637E-1  -7.211439013481140E-1   6.093577146530151E-1  -7.215582728385925E-1  -2.265780270099640E-1  -1.888023763895035E-1  
 2.660000000000000E7    -2.317043989896774E-1  -1.923919320106506E-1   6.059859395027161E-1  -7.227514982223511E-1   6.053577661514282E-1  -7.229928374290466E-1  -2.304413020610809E-1  -1.901382356882095E-1  
 2.662000000000000E7    -2.346088439226151E-1  -1.935317516326904E-1   6.020589470863342E-1  -7.247819900512695E-1   6.017193198204041E-1  -7.245721817016602E-1  -2.338142395019531E-1  -1.910555064678192E-1  
 2.664000000000000E7    -2.387082576751709E-1  -1.948575973510742E-1   5.980951189994812E-1  -7.263258099555969E-1   5.981637835502625E-1  -7.262299656867981E-1  -2.380612492561340E-1  -1.919575631618500E-1  
 2.666000000000000E7    -2.416693866252899E-1  -1.965204179286957E-1   5.943095684051514E-1  -7.283862829208374E-1   5.940764546394348E-1  -7.277907133102417E-1  -2.411192953586578E-1  -1.937246322631836E-1  
 2.668000000000000E7    -2.455563098192215E-1  -1.978469491004944E-1   5.903466939926148E-1  -7.296023964881897E-1   5.898540616035461E-1  -7.294139266014099E-1  -2.444568276405335E-1  -1.952715367078781E-1  
 2.670000000000000E7    -2.493118196725845E-1  -1.988072991371155E-1   5.865110754966736E-1  -7.313914299011231E-1   5.866040587425232E-1  -7.305131554603577E-1  -2.485264837741852E-1  -1.954562515020371E-1  
 2.672000000000000E7    -2.533310651779175E-1  -2.000377476215363E-1   5.825992226600647E-1  -7.324299812316895E-1   5.827001333236694E-1  -7.324798703193665E-1  -2.520653605461121E-1  -1.964289397001267E-1  
 2.674000000000000E7    -2.569354772567749E-1  -2.008071988821030E-1   5.790331363677979E-1  -7.344115972518921E-1   5.783846974372864E-1  -7.335334420204163E-1  -2.562163472175598E-1  -1.986152231693268E-1  
 2.676000000000000E7    -2.603001594543457E-1  -2.020795047283173E-1   5.750451683998108E-1  -7.353920936584473E-1   5.748807787895203E-1  -7.352648377418518E-1  -2.592315375804901E-1  -1.994978189468384E-1  
 2.678000000000000E7    -2.633066773414612E-1  -2.024446129798889E-1   5.716044306755066E-1  -7.373037934303284E-1   5.709089636802673E-1  -7.366610169410706E-1  -2.633441984653473E-1  -2.004913538694382E-1  
 2.680000000000000E7    -2.669535875320435E-1  -2.038531303405762E-1   5.675266385078430E-1  -7.389706373214722E-1   5.671226382255554E-1  -7.382462024688721E-1  -2.664369642734528E-1  -2.017031610012054E-1  
 2.682000000000000E7    -2.710949480533600E-1  -2.051242887973785E-1   5.638446211814880E-1  -7.399217486381531E-1   5.633533596992493E-1  -7.393085360527039E-1  -2.698829770088196E-1  -2.015718966722488E-1  
 2.684000000000000E7    -2.747815847396851E-1  -2.061469852924347E-1   5.598342418670654E-1  -7.414088249206543E-1   5.596817135810852E-1  -7.405012249946594E-1  -2.736016511917114E-1  -2.029219567775726E-1  
 2.686000000000000E7    -2.786549925804138E-1  -2.071053683757782E-1   5.559263229370117E-1  -7.424027919769287E-1   5.553285479545593E-1  -7.422674894332886E-1  -2.774142026901245E-1  -2.049891799688339E-1  
 2.688000000000000E7    -2.819038033485413E-1  -2.082870006561279E-1   5.519390106201172E-1  -7.437150478363037E-1   5.518606305122376E-1  -7.433117032051086E-1  -2.812063097953796E-1  -2.047232538461685E-1  
 2.690000000000000E7    -2.855268716812134E-1  -2.088249921798706E-1   5.480440258979797E-1  -7.447909712791443E-1   5.480030179023743E-1  -7.448863983154297E-1  -2.841907739639282E-1  -2.057068645954132E-1  
 2.692000000000000E7    -2.894376814365387E-1  -2.092218697071075E-1   5.440135598182678E-1  -7.462171912193298E-1   5.437988638877869E-1  -7.456524968147278E-1  -2.888378202915192E-1  -2.070622444152832E-1  
 2.694000000000000E7    -2.933307290077210E-1  -2.102461755275726E-1   5.403307080268860E-1  -7.474085092544556E-1   5.399741530418396E-1  -7.470298409461975E-1  -2.917634248733521E-1  -2.074899673461914E-1  
 2.696000000000000E7    -2.965671718120575E-1  -2.108581364154816E-1   5.365096330642700E-1  -7.484951019287109E-1   5.364209413528442E-1  -7.484524250030518E-1  -2.955363988876343E-1  -2.080860882997513E-1  
 2.698000000000000E7    -3.008178472518921E-1  -2.115080207586289E-1   5.324377417564392E-1  -7.493463754653931E-1   5.322641134262085E-1  -7.494318485260010E-1  -2.987756431102753E-1  -2.092081755399704E-1  
 2.700000000000000E7    -3.029940128326416E-1  -2.126451730728149E-1   5.286165475845337E-1  -7.511690258979797E-1   5.284511446952820E-1  -7.505620718002319E-1  -3.024220764636993E-1  -2.098083645105362E-1  
 2.702000000000000E7    -3.073939085006714E-1  -2.134677022695541E-1   5.246737003326416E-1  -7.515763044357300E-1   5.246179699897766E-1  -7.512171268463135E-1  -3.069016933441162E-1  -2.098549455404282E-1  
 2.704000000000000E7    -3.112106025218964E-1  -2.135471552610397E-1   5.212891697883606E-1  -7.530757784843445E-1   5.207257270812988E-1  -7.522047758102417E-1  -3.103798031806946E-1  -2.108843326568604E-1  
 2.706000000000000E7    -3.150483965873718E-1  -2.140320241451263E-1   5.169888734817505E-1  -7.539044618606567E-1   5.166974067687988E-1  -7.533635497093201E-1  -3.146102130413055E-1  -2.118778675794601E-1  
 2.708000000000000E7    -3.185737431049347E-1  -2.143574953079224E-1   5.133436322212219E-1  -7.545125484466553E-1   5.130210518836975E-1  -7.546756863594055E-1  -3.177220225334168E-1  -2.121971845626831E-1  
 2.710000000000000E7    -3.223946988582611E-1  -2.150683999061585E-1   5.096000432968140E-1  -7.556080818176270E-1   5.089346766471863E-1  -7.552367448806763E-1  -3.210217058658600E-1  -2.127579301595688E-1  
 2.712000000000000E7    -3.264379501342773E-1  -2.157999873161316E-1   5.056288242340088E-1  -7.563921213150024E-1   5.052276849746704E-1  -7.560767531394959E-1  -3.251328468322754E-1  -2.128356695175171E-1  
 2.714000000000000E7    -3.291763663291931E-1  -2.173792123794556E-1   5.014752149581909E-1  -7.575477361679077E-1   5.011613368988037E-1  -7.569799423217773E-1  -3.285554647445679E-1  -2.136299610137940E-1  
 2.716000000000000E7    -3.331445455551148E-1  -2.169297337532044E-1   4.977127909660339E-1  -7.580099105834961E-1   4.974577724933624E-1  -7.574673891067505E-1  -3.323650062084198E-1  -2.140446305274963E-1  
 2.718000000000000E7    -3.373917937278748E-1  -2.173822522163391E-1   4.935134351253510E-1  -7.583956718444824E-1   4.933376908302307E-1  -7.586733698844910E-1  -3.359026312828064E-1  -2.145460993051529E-1  
 2.720000000000000E7    -3.408184051513672E-1  -2.175806462764740E-1   4.898895025253296E-1  -7.595227360725403E-1   4.897928237915039E-1  -7.592558860778809E-1  -3.392298221588135E-1  -2.149218916893005E-1  
 2.722000000000000E7    -3.440514802932739E-1  -2.182817906141281E-1   4.857287406921387E-1  -7.604155540466309E-1   4.855744242668152E-1  -7.598952651023865E-1  -3.436633050441742E-1  -2.160260975360870E-1  
 2.724000000000000E7    -3.483814597129822E-1  -2.186619639396668E-1   4.819636940956116E-1  -7.607904076576233E-1   4.821107387542725E-1  -7.608176469802856E-1  -3.466905951499939E-1  -2.153767049312592E-1  
 2.726000000000000E7    -3.517990112304688E-1  -2.185844779014587E-1   4.781748950481415E-1  -7.620293498039246E-1   4.782003164291382E-1  -7.609900832176209E-1  -3.502540588378906E-1  -2.156215310096741E-1  
 2.728000000000000E7    -3.554278016090393E-1  -2.185915857553482E-1   4.743843078613281E-1  -7.624225616455078E-1   4.741514623165131E-1  -7.620456814765930E-1  -3.539751768112183E-1  -2.163760662078857E-1  
 2.730000000000000E7    -3.589409291744232E-1  -2.196185737848282E-1   4.703966975212097E-1  -7.632477283477783E-1   4.700829386711121E-1  -7.627250552177429E-1  -3.581158518791199E-1  -2.165920883417130E-1  
 2.732000000000000E7    -3.620600104331970E-1  -2.197400927543640E-1   4.664434790611267E-1  -7.638309597969055E-1   4.669946134090424E-1  -7.633208632469177E-1  -3.615064322948456E-1  -2.157748341560364E-1  
 2.734000000000000E7    -3.655875325202942E-1  -2.198401987552643E-1   4.627985656261444E-1  -7.649198174476624E-1   4.623844027519226E-1  -7.637602686882019E-1  -3.650336861610413E-1  -2.170203179121018E-1  
 2.736000000000000E7    -3.697799444198608E-1  -2.200161367654800E-1   4.585347175598145E-1  -7.649098038673401E-1   4.584443867206574E-1  -7.648637890815735E-1  -3.678308129310608E-1  -2.171562314033508E-1  
 2.738000000000000E7    -3.738484680652618E-1  -2.198530137538910E-1   4.550608396530151E-1  -7.652307748794556E-1   4.545950591564179E-1  -7.652803659439087E-1  -3.718830645084381E-1  -2.172354012727737E-1  
 2.740000000000000E7    -3.777611255645752E-1  -2.202489972114563E-1   4.511187970638275E-1  -7.656443119049072E-1   4.510044753551483E-1  -7.654520273208618E-1  -3.756325840950012E-1  -2.173107117414475E-1  
 2.742000000000000E7    -3.803619742393494E-1  -2.204640209674835E-1   4.473328590393066E-1  -7.662687301635742E-1   4.471322596073151E-1  -7.661482095718384E-1  -3.790060281753540E-1  -2.167750895023346E-1  
 2.744000000000000E7    -3.847293853759766E-1  -2.201518416404724E-1   4.436268210411072E-1  -7.668354511260986E-1   4.432138800621033E-1  -7.664587497711182E-1  -3.824740648269653E-1  -2.173273414373398E-1  
 2.746000000000000E7    -3.878071308135986E-1  -2.199474275112152E-1   4.399295151233673E-1  -7.670465707778931E-1   4.397467970848084E-1  -7.670537233352661E-1  -3.856317102909088E-1  -2.175977081060410E-1  
 2.748000000000000E7    -3.914026916027069E-1  -2.197532653808594E-1   4.361504912376404E-1  -7.674108147621155E-1   4.358577728271484E-1  -7.667001485824585E-1  -3.901075422763825E-1  -2.169001996517181E-1  
 2.750000000000000E7    -3.953086435794830E-1  -2.196801006793976E-1   4.324925541877747E-1  -7.679496407508850E-1   4.321761131286621E-1  -7.676116228103638E-1  -3.934496343135834E-1  -2.167051732540131E-1  
 2.752000000000000E7    -3.988194763660431E-1  -2.203310728073120E-1   4.284030795097351E-1  -7.678868770599365E-1   4.282228052616119E-1  -7.678223252296448E-1  -3.975206613540649E-1  -2.168556302785873E-1  
 2.754000000000000E7    -4.021844267845154E-1  -2.199952602386475E-1   4.243227243423462E-1  -7.683967351913452E-1   4.243161380290985E-1  -7.682419419288635E-1  -4.003412127494812E-1  -2.170355767011643E-1  
 2.756000000000000E7    -4.056188464164734E-1  -2.199774831533432E-1   4.205799400806427E-1  -7.688682675361633E-1   4.205489754676819E-1  -7.684463262557983E-1  -4.039820134639740E-1  -2.170306742191315E-1  
 2.758000000000000E7    -4.094232916831970E-1  -2.198834717273712E-1   4.167761206626892E-1  -7.692891359329224E-1   4.172418415546417E-1  -7.690089941024780E-1  -4.067993760108948E-1  -2.161040902137756E-1  
 2.760000000000000E7    -4.128525555133820E-1  -2.192681133747101E-1   4.132176041603088E-1  -7.695621848106384E-1   4.127880334854126E-1  -7.683263421058655E-1  -4.109655916690826E-1  -2.165524661540985E-1  
 2.762000000000000E7    -4.163039028644562E-1  -2.195442914962769E-1   4.093281030654907E-1  -7.693707346916199E-1   4.086943566799164E-1  -7.692683935165405E-1  -4.140764772891998E-1  -2.171498835086823E-1  
 2.764000000000000E7    -4.199659228324890E-1  -2.189175337553024E-1   4.059110879898071E-1  -7.695666551589966E-1   4.055006206035614E-1  -7.691108584403992E-1  -4.181113243103027E-1  -2.163117080926895E-1  
 2.766000000000000E7    -4.237421154975891E-1  -2.188654243946075E-1   4.016561508178711E-1  -7.693769931793213E-1   4.019477367401123E-1  -7.692558765411377E-1  -4.213571548461914E-1  -2.158489376306534E-1  
 2.768000000000000E7    -4.263571500778198E-1  -2.181346863508225E-1   3.982746303081513E-1  -7.697598934173584E-1   3.983559608459473E-1  -7.691947817802429E-1  -4.252811968326569E-1  -2.157037556171417E-1  
 2.770000000000000E7    -4.307650327682495E-1  -2.181967794895172E-1   3.945793509483337E-1  -7.695437669754028E-1   3.940553665161133E-1  -7.697049379348755E-1  -4.279593229293823E-1  -2.156030684709549E-1  
 2.772000000000000E7    -4.339050352573395E-1  -2.177826762199402E-1   3.907551467418671E-1  -7.695343494415283E-1   3.903275132179260E-1  -7.694721817970276E-1  -4.318389892578125E-1  -2.152819931507111E-1  
 2.774000000000000E7    -4.367998242378235E-1  -2.175374776124954E-1   3.871315121650696E-1  -7.698990702629089E-1   3.867247104644775E-1  -7.689451575279236E-1  -4.360925853252411E-1  -2.147119939327240E-1  
 2.776000000000000E7    -4.410493373870850E-1  -2.174518108367920E-1   3.830315470695496E-1  -7.694443464279175E-1   3.833039700984955E-1  -7.689916491508484E-1  -4.391259551048279E-1  -2.139883190393448E-1  
 2.778000000000000E7    -4.444356560707092E-1  -2.167779952287674E-1   3.793789744377136E-1  -7.694673538208008E-1   3.794727623462677E-1  -7.689921259880066E-1  -4.430244266986847E-1  -2.140452712774277E-1  
 2.780000000000000E7    -4.481006264686585E-1  -2.157790362834930E-1   3.763517439365387E-1  -7.695292234420776E-1   3.755530118942261E-1  -7.693263292312622E-1  -4.458447396755219E-1  -2.133268415927887E-1  
 2.782000000000000E7    -4.514401555061340E-1  -2.161740213632584E-1   3.720970153808594E-1  -7.695425152778626E-1   3.716877698898315E-1  -7.690570354461670E-1  -4.493989348411560E-1  -2.133867144584656E-1  
 2.784000000000000E7    -4.549186229705811E-1  -2.149755954742432E-1   3.687897920608521E-1  -7.693087458610535E-1   3.678872883319855E-1  -7.686077356338501E-1  -4.530258178710938E-1  -2.130775153636932E-1  
 2.786000000000000E7    -4.586828351020813E-1  -2.147158980369568E-1   3.650489151477814E-1  -7.689254879951477E-1   3.643714189529419E-1  -7.688902616500855E-1  -4.558775424957275E-1  -2.118178457021713E-1  
 2.788000000000000E7    -4.619470238685608E-1  -2.144098132848740E-1   3.612033128738403E-1  -7.689666152000427E-1   3.611036539077759E-1  -7.690198421478272E-1  -4.594882130622864E-1  -2.118004560470581E-1  
 2.790000000000000E7    -4.652964472770691E-1  -2.134988009929657E-1   3.575766086578369E-1  -7.686790227890015E-1   3.571132421493530E-1  -7.681588530540466E-1  -4.631881713867188E-1  -2.114885449409485E-1  
 2.792000000000000E7    -4.690626263618469E-1  -2.128520309925079E-1   3.540320396423340E-1  -7.681851387023926E-1   3.539436459541321E-1  -7.683019638061523E-1  -4.665605723857880E-1  -2.102165520191193E-1  
 2.794000000000000E7    -4.719603657722473E-1  -2.121497243642807E-1   3.504858016967773E-1  -7.684948444366455E-1   3.503327965736389E-1  -7.681226134300232E-1  -4.694673120975494E-1  -2.098041772842407E-1  
 2.796000000000000E7    -4.752185940742493E-1  -2.123113274574280E-1   3.465722799301148E-1  -7.685770392417908E-1   3.466317057609558E-1  -7.676506042480469E-1  -4.731691479682922E-1  -2.088510990142822E-1  
 2.798000000000000E7    -4.786699414253235E-1  -2.114679515361786E-1   3.428448438644409E-1  -7.679626941680908E-1   3.432415425777435E-1  -7.673837542533875E-1  -4.768302440643311E-1  -2.083380669355393E-1  
 2.800000000000000E7    -4.822171330451965E-1  -2.105396538972855E-1   3.397266268730164E-1  -7.675877213478088E-1   3.395394980907440E-1  -7.674285173416138E-1  -4.789671301841736E-1  -2.078363597393036E-1  
 2.802000000000000E7    -4.853962361812592E-1  -2.098656147718430E-1   3.360686004161835E-1  -7.665969729423523E-1   3.358665406703949E-1  -7.664111256599426E-1  -4.832056164741516E-1  -2.071382701396942E-1  
 2.804000000000000E7    -4.887903034687042E-1  -2.092820703983307E-1   3.324368298053742E-1  -7.668401002883911E-1   3.322651386260986E-1  -7.667645812034607E-1  -4.863044321537018E-1  -2.062798440456390E-1  
 2.806000000000000E7    -4.914211630821228E-1  -2.085138857364655E-1   3.288951218128204E-1  -7.668076157569885E-1   3.285366892814636E-1  -7.664403915405273E-1  -4.897477030754089E-1  -2.055935859680176E-1  
 2.808000000000000E7    -4.947324991226196E-1  -2.074235379695892E-1   3.255928158760071E-1  -7.664725184440613E-1   3.255110979080200E-1  -7.661125659942627E-1  -4.925420284271240E-1  -2.047474533319473E-1  
 2.810000000000000E7    -4.986054897308350E-1  -2.069108486175537E-1   3.221448361873627E-1  -7.657023668289185E-1   3.214720487594605E-1  -7.651008367538452E-1  -4.964272081851959E-1  -2.039593160152435E-1  
 2.812000000000000E7    -5.019915699958801E-1  -2.064457833766937E-1   3.178295493125916E-1  -7.649602890014648E-1   3.182168006896973E-1  -7.653331160545349E-1  -4.994001090526581E-1  -2.035390138626099E-1  
 2.814000000000000E7    -5.051339268684387E-1  -2.053627520799637E-1   3.148289918899536E-1  -7.645769715309143E-1   3.151093721389771E-1  -7.641845345497131E-1  -5.027993917465210E-1  -2.024520039558411E-1  
 2.816000000000000E7    -5.082300901412964E-1  -2.046013623476028E-1   3.110684156417847E-1  -7.645536661148071E-1   3.110526800155640E-1  -7.638872265815735E-1  -5.060213804244995E-1  -2.020451128482819E-1  
 2.818000000000000E7    -5.120013356208801E-1  -2.030172646045685E-1   3.077427148818970E-1  -7.632517814636231E-1   3.076434135437012E-1  -7.635197639465332E-1  -5.090124011039734E-1  -2.012185901403427E-1  
 2.820000000000000E7    -5.151928663253784E-1  -2.028595805168152E-1   3.042975962162018E-1  -7.632206082344055E-1   3.045552670955658E-1  -7.627559304237366E-1  -5.121209621429443E-1  -1.993825733661652E-1  
 2.822000000000000E7    -5.182885527610779E-1  -2.015387415885925E-1   3.010803759098053E-1  -7.626968622207642E-1   3.009116947650909E-1  -7.623943686485291E-1  -5.153954625129700E-1  -1.986233741044998E-1  
 2.824000000000000E7    -5.213952064514160E-1  -2.008987665176392E-1   2.972564399242401E-1  -7.618377208709717E-1   2.974891066551209E-1  -7.623375654220581E-1  -5.181599259376526E-1  -1.980573385953903E-1  
 2.826000000000000E7    -5.241037607192993E-1  -1.997623294591904E-1   2.943971753120422E-1  -7.614203691482544E-1   2.938823103904724E-1  -7.613508105278015E-1  -5.213022828102112E-1  -1.969729363918304E-1  
 2.828000000000000E7    -5.280090570449829E-1  -1.985333859920502E-1   2.909351885318756E-1  -7.604301571846008E-1   2.907539606094360E-1  -7.605221271514893E-1  -5.250877141952515E-1  -1.960014998912811E-1  
 2.830000000000000E7    -5.306749343872070E-1  -1.978187561035156E-1   2.871087193489075E-1  -7.602900266647339E-1   2.869921326637268E-1  -7.600572109222412E-1  -5.281270742416382E-1  -1.951521486043930E-1  
 2.832000000000000E7    -5.340082645416260E-1  -1.971968710422516E-1   2.837623357772827E-1  -7.593337297439575E-1   2.839255034923554E-1  -7.592946290969849E-1  -5.313785672187805E-1  -1.942300498485565E-1  
 2.834000000000000E7    -5.371888279914856E-1  -1.955469846725464E-1   2.805159687995911E-1  -7.585549354553223E-1   2.808510065078735E-1  -7.590568065643311E-1  -5.342609882354736E-1  -1.930468827486038E-1  
 2.836000000000000E7    -5.393909215927124E-1  -1.947959065437317E-1   2.771134376525879E-1  -7.585353851318359E-1   2.772498726844788E-1  -7.578983306884766E-1  -5.382159948348999E-1  -1.920099556446075E-1  
 2.838000000000000E7    -5.431994199752808E-1  -1.932838261127472E-1   2.740884423255920E-1  -7.570861577987671E-1   2.740978002548218E-1  -7.570284008979797E-1  -5.405826568603516E-1  -1.904220581054688E-1  
 2.840000000000000E7    -5.462306737899780E-1  -1.925949603319168E-1   2.704248428344727E-1  -7.566952109336853E-1   2.707589566707611E-1  -7.569883465766907E-1  -5.436519384384155E-1  -1.897151023149490E-1  
 2.842000000000000E7    -5.489311218261719E-1  -1.909702420234680E-1   2.678375542163849E-1  -7.558898329734802E-1   2.672517895698547E-1  -7.557179927825928E-1  -5.470562577247620E-1  -1.885570883750916E-1  
 2.844000000000000E7    -5.525725483894348E-1  -1.900273263454437E-1   2.643320560455322E-1  -7.551922798156738E-1   2.637577950954437E-1  -7.551127076148987E-1  -5.490544438362122E-1  -1.879093199968338E-1  
 2.846000000000000E7    -5.553943514823914E-1  -1.891185790300369E-1   2.607645690441132E-1  -7.549394369125366E-1   2.602978646755219E-1  -7.540906071662903E-1  -5.529148578643799E-1  -1.866451352834702E-1  
 2.848000000000000E7    -5.586574673652649E-1  -1.874674558639526E-1   2.578852474689484E-1  -7.536574006080627E-1   2.572373449802399E-1  -7.532805204391480E-1  -5.559643507003784E-1  -1.852868944406509E-1  
 2.850000000000000E7    -5.619937777519226E-1  -1.866762936115265E-1   2.541958093643189E-1  -7.525717020034790E-1   2.543842494487763E-1  -7.526190876960754E-1  -5.585616827011108E-1  -1.838684231042862E-1  
 2.852000000000000E7    -5.644381046295166E-1  -1.851885020732880E-1   2.513640820980072E-1  -7.521150112152100E-1   2.507624924182892E-1  -7.518555521965027E-1  -5.619305372238159E-1  -1.831105947494507E-1  
 2.854000000000000E7    -5.671365261077881E-1  -1.842870414257050E-1   2.479973584413528E-1  -7.512641549110413E-1   2.477187216281891E-1  -7.508783340454102E-1  -5.648437738418579E-1  -1.815802156925201E-1  
 2.856000000000000E7    -5.702853798866272E-1  -1.828737109899521E-1   2.448575198650360E-1  -7.504112124443054E-1   2.446964681148529E-1  -7.507193088531494E-1  -5.673928260803223E-1  -1.804751455783844E-1  
 2.858000000000000E7    -5.736865997314453E-1  -1.817366182804108E-1   2.417635619640350E-1  -7.490633130073547E-1   2.410190254449844E-1  -7.493000626564026E-1  -5.703325867652893E-1  -1.797037720680237E-1  
 2.860000000000000E7    -5.764082074165344E-1  -1.799781173467636E-1   2.386751770973206E-1  -7.484096288681030E-1   2.381235361099243E-1  -7.485933303833008E-1  -5.731641650199890E-1  -1.783072501420975E-1  
 2.862000000000000E7    -5.790124535560608E-1  -1.791234165430069E-1   2.353880703449249E-1  -7.478391528129578E-1   2.345867156982422E-1  -7.470384836196899E-1  -5.766153335571289E-1  -1.771172285079956E-1  
 2.864000000000000E7    -5.824038982391357E-1  -1.778315305709839E-1   2.319636344909668E-1  -7.464907765388489E-1   2.318377345800400E-1  -7.463063001632690E-1  -5.794315934181213E-1  -1.755911409854889E-1  
 2.866000000000000E7    -5.849282741546631E-1  -1.761160492897034E-1   2.292539924383164E-1  -7.457545995712280E-1   2.287388443946838E-1  -7.459796667098999E-1  -5.814306139945984E-1  -1.741484999656677E-1  
 2.868000000000000E7    -5.881280303001404E-1  -1.754832863807678E-1   2.256966978311539E-1  -7.446216344833374E-1   2.258351743221283E-1  -7.445657849311829E-1  -5.847740769386292E-1  -1.727154552936554E-1  
 2.870000000000000E7    -5.906059145927429E-1  -1.739389598369598E-1   2.226216048002243E-1  -7.437269687652588E-1   2.229504138231278E-1  -7.438641190528870E-1  -5.875012874603272E-1  -1.712873280048370E-1  
 2.872000000000000E7    -5.934028625488281E-1  -1.726418435573578E-1   2.196047008037567E-1  -7.429257631301880E-1   2.196957021951675E-1  -7.426379323005676E-1  -5.907563567161560E-1  -1.697692871093750E-1  
 2.874000000000000E7    -5.963013768196106E-1  -1.708002388477325E-1   2.169162780046463E-1  -7.419651150703430E-1   2.162800729274750E-1  -7.416691184043884E-1  -5.932672023773193E-1  -1.688730716705322E-1  
 2.876000000000000E7    -5.992380380630493E-1  -1.697933077812195E-1   2.134690880775452E-1  -7.404808998107910E-1   2.134188562631607E-1  -7.407143712043762E-1  -5.960803031921387E-1  -1.674225330352783E-1  
 2.878000000000000E7    -6.016208529472351E-1  -1.680555939674377E-1   2.108210623264313E-1  -7.398272752761841E-1   2.106027901172638E-1  -7.391296625137329E-1  -5.992820262908936E-1  -1.653413027524948E-1  
 2.880000000000000E7    -6.045370101928711E-1  -1.668170690536499E-1   2.074063718318939E-1  -7.382276058197022E-1   2.070729434490204E-1  -7.384411096572876E-1  -6.015936732292175E-1  -1.643482297658920E-1  
 2.882000000000000E7    -6.075646877288818E-1  -1.655213534832001E-1   2.044573873281479E-1  -7.368848323822022E-1   2.044171690940857E-1  -7.370977997779846E-1  -6.041160821914673E-1  -1.626229286193848E-1  
 2.884000000000000E7    -6.108061671257019E-1  -1.638236343860626E-1   2.014053314924240E-1  -7.360856533050537E-1   2.015009820461273E-1  -7.360470294952393E-1  -6.071661114692688E-1  -1.614587157964706E-1  
 2.886000000000000E7    -6.128206849098206E-1  -1.624464839696884E-1   1.985854953527451E-1  -7.353514432907105E-1   1.985314786434174E-1  -7.350907325744629E-1  -6.098780632019043E-1  -1.601017415523529E-1  
 2.888000000000000E7    -6.158650517463684E-1  -1.610274314880371E-1   1.955032944679260E-1  -7.341325879096985E-1   1.952898204326630E-1  -7.338517308235169E-1  -6.126085519790649E-1  -1.589104831218720E-1  
 2.890000000000000E7    -6.182760000228882E-1  -1.590548455715179E-1   1.929572969675064E-1  -7.323634028434753E-1   1.927301287651062E-1  -7.324482798576355E-1  -6.150697469711304E-1  -1.572117805480957E-1  
 2.892000000000000E7    -6.208919882774353E-1  -1.576426923274994E-1   1.902875304222107E-1  -7.317270040512085E-1   1.898377239704132E-1  -7.315253019332886E-1  -6.179288625717163E-1  -1.554621011018753E-1  
 2.894000000000000E7    -6.237589120864868E-1  -1.561820507049561E-1   1.867724806070328E-1  -7.306556701660156E-1   1.868275403976440E-1  -7.302588820457459E-1  -6.204746365547180E-1  -1.539123058319092E-1  
 2.896000000000000E7    -6.263350248336792E-1  -1.547549962997437E-1   1.842160671949387E-1  -7.295085191726685E-1   1.839448213577271E-1  -7.294169664382935E-1  -6.229438781738281E-1  -1.522593498229981E-1  
 2.898000000000000E7    -6.289891004562378E-1  -1.534263193607330E-1   1.809127181768417E-1  -7.282835245132446E-1   1.811653673648834E-1  -7.282196283340454E-1  -6.257845163345337E-1  -1.506603956222534E-1  
 2.900000000000000E7    -6.315765380859375E-1  -1.518727838993073E-1   1.782234311103821E-1  -7.267138361930847E-1   1.780557334423065E-1  -7.269740104675293E-1  -6.282793879508972E-1  -1.494724452495575E-1  
 2.902000000000000E7    -6.342949867248535E-1  -1.502423137426376E-1   1.753322929143906E-1  -7.258319854736328E-1   1.754460632801056E-1  -7.255156636238098E-1  -6.310024857521057E-1  -1.476345509290695E-1  
 2.904000000000000E7    -6.360632181167603E-1  -1.484385579824448E-1   1.727183014154434E-1  -7.249078154563904E-1   1.726302057504654E-1  -7.242913246154785E-1  -6.339442729949951E-1  -1.462381035089493E-1  
 2.906000000000000E7    -6.393516063690186E-1  -1.472887992858887E-1   1.700708717107773E-1  -7.230584025382996E-1   1.699039638042450E-1  -7.229642868041992E-1  -6.362176537513733E-1  -1.443442851305008E-1  
 2.908000000000000E7    -6.417809128761292E-1  -1.454338133335114E-1   1.673103570938110E-1  -7.222952246665955E-1   1.670468300580978E-1  -7.219413518905640E-1  -6.386350393295288E-1  -1.429024636745453E-1  
 2.910000000000000E7    -6.442325115203857E-1  -1.435771137475967E-1   1.644580066204071E-1  -7.209718823432922E-1   1.640918850898743E-1  -7.208620309829712E-1  -6.408649682998657E-1  -1.415653824806213E-1  
 2.912000000000000E7    -6.470590233802795E-1  -1.418002992868424E-1   1.619070470333099E-1  -7.195921540260315E-1   1.611734479665756E-1  -7.196230888366699E-1  -6.434254646301270E-1  -1.398394256830216E-1  
 2.914000000000000E7    -6.490569114685059E-1  -1.405176073312759E-1   1.591181457042694E-1  -7.185009121894836E-1   1.589484959840775E-1  -7.182148098945618E-1  -6.461624503135681E-1  -1.379886716604233E-1  
 2.916000000000000E7    -6.518110036849976E-1  -1.389623880386353E-1   1.563263088464737E-1  -7.170099616050720E-1   1.566584706306458E-1  -7.166972756385803E-1  -6.481079459190369E-1  -1.359514743089676E-1  
 2.918000000000000E7    -6.536068320274353E-1  -1.373273581266403E-1   1.532310098409653E-1  -7.158449888229370E-1   1.536113321781158E-1  -7.156445384025574E-1  -6.510562300682068E-1  -1.345504075288773E-1  
 2.920000000000000E7    -6.570742130279541E-1  -1.357972919940949E-1   1.505977213382721E-1  -7.142776250839233E-1   1.505706906318665E-1  -7.141884565353394E-1  -6.532887816429138E-1  -1.330239921808243E-1  
 2.922000000000000E7    -6.593338251113892E-1  -1.335787177085877E-1   1.483984738588333E-1  -7.126836180686951E-1   1.481263637542725E-1  -7.128244042396545E-1  -6.560280323028565E-1  -1.312920302152634E-1  
 2.924000000000000E7    -6.616675853729248E-1  -1.320721805095673E-1   1.455014795064926E-1  -7.116129398345947E-1   1.452369093894959E-1  -7.114408612251282E-1  -6.583632826805115E-1  -1.298904418945313E-1  
 2.926000000000000E7    -6.638772487640381E-1  -1.299355030059815E-1   1.433105766773224E-1  -7.105040550231934E-1   1.429225206375122E-1  -7.102212905883789E-1  -6.603164672851563E-1  -1.280151605606079E-1  
 2.928000000000000E7    -6.663011312484741E-1  -1.284173727035523E-1   1.404639333486557E-1  -7.089642882347107E-1   1.402612626552582E-1  -7.085110545158386E-1  -6.628965139389038E-1  -1.260680854320526E-1  
 2.930000000000000E7    -6.687251329421997E-1  -1.270158737897873E-1   1.372510790824890E-1  -7.079361677169800E-1   1.376158595085144E-1  -7.077409625053406E-1  -6.650139093399048E-1  -1.246963441371918E-1  
 2.932000000000000E7    -6.705034971237183E-1  -1.250475496053696E-1   1.350577920675278E-1  -7.064787149429321E-1   1.349168568849564E-1  -7.060704231262207E-1  -6.678090691566467E-1  -1.228080913424492E-1  
 2.934000000000000E7    -6.733899712562561E-1  -1.234701201319695E-1   1.326775997877121E-1  -7.048286199569702E-1   1.321480125188828E-1  -7.046782970428467E-1  -6.695845127105713E-1  -1.214766353368759E-1  
 2.936000000000000E7    -6.762926578521729E-1  -1.212993562221527E-1   1.300788074731827E-1  -7.028407454490662E-1   1.299344152212143E-1  -7.029578089714050E-1  -6.722730994224548E-1  -1.192189157009125E-1  
 2.938000000000000E7    -6.779635548591614E-1  -1.201019510626793E-1   1.274542808532715E-1  -7.020499706268311E-1   1.274434477090836E-1  -7.016849517822266E-1  -6.745840311050415E-1  -1.171079352498055E-1  
 2.940000000000000E7    -6.801757812500000E-1  -1.180598512291908E-1   1.252815276384354E-1  -7.007899284362793E-1   1.251350194215775E-1  -7.004644870758057E-1  -6.763712167739868E-1  -1.156674325466156E-1  
 2.942000000000000E7    -6.826924681663513E-1  -1.163273751735687E-1   1.224460303783417E-1  -6.990969181060791E-1   1.223910152912140E-1  -6.992155313491821E-1  -6.791421771049500E-1  -1.139432340860367E-1  
 2.944000000000000E7    -6.850528120994568E-1  -1.144138276576996E-1   1.203111559152603E-1  -6.975238919258118E-1   1.199056282639504E-1  -6.978097558021545E-1  -6.811832785606384E-1  -1.124407649040222E-1  
 2.946000000000000E7    -6.875576376914978E-1  -1.128349900245667E-1   1.174857318401337E-1  -6.957145333290100E-1   1.174878627061844E-1  -6.961375474929810E-1  -6.831280589103699E-1  -1.106277257204056E-1  
 2.948000000000000E7    -6.889849901199341E-1  -1.110081821680069E-1   1.148485243320465E-1  -6.948831677436829E-1   1.147663295269013E-1  -6.947352290153503E-1  -6.855462789535523E-1  -1.086974889039993E-1  
 2.950000000000000E7    -6.913792490959168E-1  -1.090330183506012E-1   1.127938702702522E-1  -6.931291222572327E-1   1.125835850834847E-1  -6.931337714195252E-1  -6.878805160522461E-1  -1.066741645336151E-1  
 2.952000000000000E7    -6.937068104743958E-1  -1.071744859218597E-1   1.099963635206223E-1  -6.916327476501465E-1   1.099922508001328E-1  -6.917713880538940E-1  -6.900345683097839E-1  -1.048640757799149E-1  
 2.954000000000000E7    -6.957008242607117E-1  -1.053902357816696E-1   1.078520566225052E-1  -6.901273131370544E-1   1.078157275915146E-1  -6.902458667755127E-1  -6.921817064285278E-1  -1.027830243110657E-1  
 2.956000000000000E7    -6.980630755424500E-1  -1.033712476491928E-1   1.053417026996613E-1  -6.887505054473877E-1   1.052049845457077E-1  -6.885663866996765E-1  -6.945925951004028E-1  -1.014112234115601E-1  
 2.958000000000000E7    -7.000330090522766E-1  -1.017970964312553E-1   1.031439751386643E-1  -6.876162290573120E-1   1.022474318742752E-1  -6.874995231628418E-1  -6.961516737937927E-1  -9.970450401306152E-2  
 2.960000000000000E7    -7.021389603614807E-1  -9.955683350563049E-2   1.010209918022156E-1  -6.859272122383118E-1   1.005744263529778E-1  -6.860386729240418E-1  -6.979715824127197E-1  -9.767930209636688E-2  
 2.962000000000000E7    -7.041931152343750E-1  -9.815513342618942E-2   9.831333160400391E-2  -6.839900016784668E-1   9.826508164405823E-2  -6.841019392013550E-1  -7.005114555358887E-1  -9.557008743286133E-2  
 2.964000000000000E7    -7.062806487083435E-1  -9.561672806739807E-2   9.607417136430740E-2  -6.828367710113525E-1   9.569054096937180E-2  -6.827118396759033E-1  -7.024846076965332E-1  -9.408312290906906E-2  
 2.966000000000000E7    -7.078676223754883E-1  -9.401765465736389E-2   9.362147003412247E-2  -6.812230348587036E-1   9.319370985031128E-2  -6.808096766471863E-1  -7.047865986824036E-1  -9.211022406816483E-2  
 2.968000000000000E7    -7.105346918106079E-1  -9.195636957883835E-2   9.154675900936127E-2  -6.797169446945190E-1   9.113775193691254E-2  -6.792733073234558E-1  -7.070034146308899E-1  -8.999508619308472E-2  
 2.970000000000000E7    -7.124270796775818E-1  -9.004233777523041E-2   8.891645818948746E-2  -6.783518791198731E-1   8.841317892074585E-2  -6.784773468971252E-1  -7.085427641868591E-1  -8.842413872480393E-2  
 2.972000000000000E7    -7.144564986228943E-1  -8.827482163906097E-2   8.630737662315369E-2  -6.765359044075012E-1   8.700882643461227E-2  -6.768224239349365E-1  -7.105758190155029E-1  -8.627634495496750E-2  
 2.974000000000000E7    -7.163721323013306E-1  -8.640969544649124E-2   8.494871109724045E-2  -6.747108101844788E-1   8.471003919839859E-2  -6.747181415557861E-1  -7.124906182289124E-1  -8.419835567474365E-2  
 2.976000000000000E7    -7.181531190872192E-1  -8.459150791168213E-2   8.239839971065521E-2  -6.735591888427734E-1   8.241618424654007E-2  -6.734438538551331E-1  -7.147950530052185E-1  -8.212792128324509E-2  
 2.978000000000000E7    -7.206283211708069E-1  -8.292157948017120E-2   8.013865351676941E-2  -6.717683672904968E-1   8.018615096807480E-2  -6.718706488609314E-1  -7.163819670677185E-1  -8.027362823486328E-2  
 2.980000000000000E7    -7.223004102706909E-1  -8.052905648946762E-2   7.819925248622894E-2  -6.700990200042725E-1   7.754988968372345E-2  -6.703027486801148E-1  -7.181236147880554E-1  -7.897670567035675E-2  
 2.982000000000000E7    -7.243286967277527E-1  -7.845936715602875E-2   7.578320801258087E-2  -6.686131954193115E-1   7.576111704111099E-2  -6.687803864479065E-1  -7.204146981239319E-1  -7.644173502922058E-2  
 2.984000000000000E7    -7.262258529663086E-1  -7.670272886753082E-2   7.371170818805695E-2  -6.671872138977051E-1   7.336133718490601E-2  -6.670588254928589E-1  -7.222908735275269E-1  -7.486189901828766E-2  
 2.986000000000000E7    -7.278124690055847E-1  -7.525719702243805E-2   7.163308560848236E-2  -6.657540202140808E-1   7.141206413507462E-2  -6.656146049499512E-1  -7.243031859397888E-1  -7.271054387092590E-2  
 2.988000000000000E7    -7.299779057502747E-1  -7.299360632896423E-2   6.930091977119446E-2  -6.640974283218384E-1   6.922322511672974E-2  -6.636140346527100E-1  -7.261748909950256E-1  -7.075057923793793E-2  
 2.990000000000000E7    -7.322154045104981E-1  -7.071048021316528E-2   6.720687448978424E-2  -6.623788475990295E-1   6.706315279006958E-2  -6.627962589263916E-1  -7.276937961578369E-1  -6.912118941545487E-2  
 2.992000000000000E7    -7.337720990180969E-1  -6.901304423809052E-2   6.538699567317963E-2  -6.609191894531250E-1   6.500738114118576E-2  -6.606522202491760E-1  -7.298134565353394E-1  -6.665638834238052E-2  
 2.994000000000000E7    -7.354636788368225E-1  -6.722281128168106E-2   6.264945864677429E-2  -6.590632796287537E-1   6.287542730569840E-2  -6.589883565902710E-1  -7.315991520881653E-1  -6.476804614067078E-2  
 2.996000000000000E7    -7.372159361839294E-1  -6.481023132801056E-2   6.134532764554024E-2  -6.574060916900635E-1   6.080944836139679E-2  -6.574479937553406E-1  -7.336349487304688E-1  -6.325612962245941E-2  
 2.998000000000000E7    -7.390527725219727E-1  -6.310719251632690E-2   5.875290557742119E-2  -6.563015580177307E-1   5.877668038010597E-2  -6.556749343872070E-1  -7.353820800781250E-1  -6.099303811788559E-2  
 3.000000000000000E7    -7.412244081497192E-1  -6.110750138759613E-2   5.664980039000511E-2  -6.539576649665833E-1   5.675898492336273E-2  -6.548678278923035E-1  -7.368534207344055E-1  -5.889236927032471E-2  
 3.002000000000000E7    -7.428506016731262E-1  -5.909931287169457E-2   5.454072728753090E-2  -6.527833938598633E-1   5.467938259243965E-2  -6.528008580207825E-1  -7.388218045234680E-1  -5.677488446235657E-2  
 3.004000000000000E7    -7.445147037506104E-1  -5.730453878641129E-2   5.256575718522072E-2  -6.509273052215576E-1   5.261816829442978E-2  -6.509203910827637E-1  -7.405127286911011E-1  -5.517755448818207E-2  
 3.006000000000000E7    -7.467203140258789E-1  -5.484317988157272E-2   5.103657022118568E-2  -6.488808989524841E-1   5.035893619060516E-2  -6.493769884109497E-1  -7.419956326484680E-1  -5.338796600699425E-2  
 3.008000000000000E7    -7.481302022933960E-1  -5.309255793690682E-2   4.853015765547752E-2  -6.477817893028259E-1   4.821284115314484E-2  -6.475926637649536E-1  -7.441949844360352E-1  -5.157006159424782E-2  
 3.010000000000000E7    -7.494921684265137E-1  -5.065458640456200E-2   4.699164628982544E-2  -6.462203264236450E-1   4.624420031905174E-2  -6.458500623703003E-1  -7.462103366851807E-1  -4.975099116563797E-2  
 3.012000000000000E7    -7.511574625968933E-1  -4.908032715320587E-2   4.495634511113167E-2  -6.445215940475464E-1   4.481630772352219E-2  -6.442528367042542E-1  -7.474672794342041E-1  -4.725094512104988E-2  
 3.014000000000000E7    -7.531966567039490E-1  -4.704557359218597E-2   4.293457791209221E-2  -6.426367163658142E-1   4.271561279892921E-2  -6.423398852348328E-1  -7.495592832565308E-1  -4.510376229882240E-2  
 3.016000000000000E7    -7.547376155853272E-1  -4.547116160392761E-2   4.077674075961113E-2  -6.410393118858337E-1   4.120191186666489E-2  -6.410621404647827E-1  -7.507770657539368E-1  -4.280382767319679E-2  
 3.018000000000000E7    -7.565020322799683E-1  -4.319327324628830E-2   3.911262378096581E-2  -6.396252512931824E-1   3.929158300161362E-2  -6.395276784896851E-1  -7.524546384811401E-1  -4.065730422735214E-2  
 3.020000000000000E7    -7.581714391708374E-1  -4.119412228465080E-2   3.724574297666550E-2  -6.375407576560974E-1   3.685612604022026E-2  -6.374974846839905E-1  -7.543082833290100E-1  -3.887090831995010E-2  
 3.022000000000000E7    -7.596604228019714E-1  -3.912054747343063E-2   3.542254492640495E-2  -6.361253857612610E-1   3.501877561211586E-2  -6.359586715698242E-1  -7.556446790695190E-1  -3.735001012682915E-2  
 3.024000000000000E7    -7.611646056175232E-1  -3.660602122545242E-2   3.345261886715889E-2  -6.345549821853638E-1   3.301853686571121E-2  -6.340951323509216E-1  -7.572147250175476E-1  -3.506610915064812E-2  
 3.026000000000000E7    -7.629581689834595E-1  -3.506207093596458E-2   3.168606013059616E-2  -6.324939727783203E-1   3.140714019536972E-2  -6.324661970138550E-1  -7.589977979660034E-1  -3.263951465487480E-2  
 3.028000000000000E7    -7.644180059432983E-1  -3.309972584247589E-2   2.972821518778801E-2  -6.311770677566528E-1   2.947713807225227E-2  -6.313140988349915E-1  -7.603297829627991E-1  -3.082726523280144E-2  
 3.030000000000000E7    -7.660586237907410E-1  -3.058056905865669E-2   2.822301909327507E-2  -6.292076110839844E-1   2.791233733296394E-2  -6.292403340339661E-1  -7.621476650238037E-1  -2.866699919104576E-2  
 3.032000000000000E7    -7.679498791694641E-1  -2.853179723024368E-2   2.603982761502266E-2  -6.271795630455017E-1   2.634938061237335E-2  -6.276573538780212E-1  -7.633627653121948E-1  -2.662048116326332E-2  
 3.034000000000000E7    -7.694670557975769E-1  -2.688796445727348E-2   2.383593469858170E-2  -6.258625388145447E-1   2.420247718691826E-2  -6.259046792984009E-1  -7.652066946029663E-1  -2.493561059236527E-2  
 3.036000000000000E7    -7.705494761466980E-1  -2.475457638502121E-2   2.303108200430870E-2  -6.240639686584473E-1   2.232538163661957E-2  -6.238890886306763E-1  -7.667914628982544E-1  -2.286827191710472E-2  
 3.038000000000000E7    -7.721266746520996E-1  -2.240573614835739E-2   2.066099643707275E-2  -6.225388646125794E-1   2.099803090095520E-2  -6.224952936172485E-1  -7.681307196617127E-1  -2.049431577324867E-2  
 3.040000000000000E7    -7.743852734565735E-1  -2.060549706220627E-2   1.918590813875198E-2  -6.205130815505981E-1   1.896047964692116E-2  -6.208868026733398E-1  -7.692062258720398E-1  -1.849266514182091E-2  
 3.042000000000000E7    -7.751276493072510E-1  -1.814909651875496E-2   1.776350662112236E-2  -6.190105080604553E-1   1.730630919337273E-2  -6.189923286437988E-1  -7.709420919418335E-1  -1.659321784973145E-2  
 3.044000000000000E7    -7.763367891311646E-1  -1.600793749094009E-2   1.599159464240074E-2  -6.178631782531738E-1   1.525714248418808E-2  -6.174294948577881E-1  -7.726611495018005E-1  -1.482733339071274E-2  
 3.046000000000000E7    -7.780992388725281E-1  -1.416918635368347E-2   1.393198594450951E-2  -6.157714724540710E-1   1.376805454492569E-2  -6.159217357635498E-1  -7.741649150848389E-1  -1.224601641297340E-2  
 3.048000000000000E7    -7.797271609306335E-1  -1.229437813162804E-2   1.183624938130379E-2  -6.141110658645630E-1   1.205148547887802E-2  -6.139727830886841E-1  -7.757205367088318E-1  -1.074513420462608E-2  
 3.050000000000000E7    -7.808054089546204E-1  -1.016699522733688E-2   1.057963073253632E-2  -6.126752495765686E-1   1.014794036746025E-2  -6.119692325592041E-1  -7.770091891288757E-1  -8.474901318550110E-3  
 3.052000000000000E7    -7.823238968849182E-1  -7.801242172718048E-3   8.952330797910690E-3  -6.106342077255249E-1   8.576788008213043E-3  -6.105970740318298E-1  -7.781962156295776E-1  -6.354071199893951E-3  
 3.054000000000000E7    -7.839379906654358E-1  -5.849245935678482E-3   7.842991501092911E-3  -6.085932850837708E-1   7.099777460098267E-3  -6.087177395820618E-1  -7.793659567832947E-1  -4.544425755739212E-3  
 3.056000000000000E7    -7.851245403289795E-1  -3.910996019840241E-3   5.767524242401123E-3  -6.073161959648132E-1   5.531109869480133E-3  -6.068773269653320E-1  -7.809856534004211E-1  -2.226460725069046E-3  
 3.058000000000000E7    -7.866406440734863E-1  -1.700885593891144E-3   4.087258130311966E-3  -6.056170463562012E-1   3.229036927223206E-3  -6.058643460273743E-1  -7.822222709655762E-1  -7.044337689876556E-4  
 3.060000000000000E7    -7.878868579864502E-1   1.358464360237122E-4   2.450045198202133E-3  -6.038220524787903E-1   2.280123531818390E-3  -6.039107441902161E-1  -7.836351394653320E-1   1.848068088293076E-3  
 3.062000000000000E7    -7.891705632209778E-1   2.432629466056824E-3   1.054082065820694E-3  -6.020348668098450E-1   6.906464695930481E-4  -6.017517447471619E-1  -7.854075431823731E-1   3.769088536500931E-3  
 3.064000000000000E7    -7.903530597686768E-1   4.606116563081741E-3  -2.996288239955902E-4  -6.002762913703919E-1  -4.519633948802948E-4  -6.002794504165649E-1  -7.860168218612671E-1   6.202213466167450E-3  
 3.066000000000000E7    -7.918816208839417E-1   6.424888968467712E-3  -2.105753868818283E-3  -5.986545681953430E-1  -2.455756068229675E-3  -5.983819365501404E-1  -7.876678705215454E-1   8.157528936862946E-3  
 3.068000000000000E7    -7.932491898536682E-1   8.643791079521179E-3  -3.923993557691574E-3  -5.971144437789917E-1  -3.994882106781006E-3  -5.967141389846802E-1  -7.888827919960022E-1   1.012338325381279E-2  
 3.070000000000000E7    -7.942611575126648E-1   1.047908142209053E-2  -5.432512611150742E-3  -5.950865149497986E-1  -5.862042307853699E-3  -5.952219963073731E-1  -7.904153466224670E-1   1.226103678345680E-2  
 3.072000000000000E7    -7.959198951721191E-1   1.235920190811157E-2  -7.040537893772125E-3  -5.932922959327698E-1  -7.549922913312912E-3  -5.936332345008850E-1  -7.915265560150147E-1   1.426109671592712E-2  
 3.074000000000000E7    -7.969230413436890E-1   1.513583958148956E-2  -8.482784032821655E-3  -5.917089581489563E-1  -8.948519825935364E-3  -5.915799736976624E-1  -7.929602265357971E-1   1.650660485029221E-2  
 3.076000000000000E7    -7.982233762741089E-1   1.654017716646195E-2  -9.972322732210159E-3  -5.899796485900879E-1  -9.822387248277664E-3  -5.901593565940857E-1  -7.938553094863892E-1   1.868756860494614E-2  
 3.078000000000000E7    -7.995398640632629E-1   1.881351321935654E-2  -1.182325556874275E-2  -5.885389447212219E-1  -1.165718212723732E-2  -5.884212851524353E-1  -7.950997948646545E-1   2.060907706618309E-2  
 3.080000000000000E7    -8.005158305168152E-1   2.092692255973816E-2  -1.296457275748253E-2  -5.863113403320313E-1  -1.286692917346954E-2  -5.863078236579895E-1  -7.966293692588806E-1   2.284448966383934E-2  
 3.082000000000000E7    -8.021063804626465E-1   2.275585383176804E-2  -1.439527794718742E-2  -5.844621062278748E-1  -1.411152631044388E-2  -5.848354101181030E-1  -7.972812652587891E-1   2.483464032411575E-2  
 3.084000000000000E7    -8.029600977897644E-1   2.493600547313690E-2  -1.602681726217270E-2  -5.830382704734802E-1  -1.603740453720093E-2  -5.826708078384399E-1  -7.989399433135986E-1   2.672554925084114E-2  
 3.086000000000000E7    -8.043074011802673E-1   2.746529504656792E-2  -1.737440750002861E-2  -5.816465020179749E-1  -1.770956441760063E-2  -5.815637707710266E-1  -7.999138832092285E-1   2.869996801018715E-2  
 3.088000000000000E7    -8.051948547363281E-1   2.911416068673134E-2  -1.882544532418251E-2  -5.794864296913147E-1  -1.837961748242378E-2  -5.794127583503723E-1  -8.008744120597839E-1   3.090476617217064E-2  
 3.090000000000000E7    -8.062610626220703E-1   3.137212991714478E-2  -2.010196447372437E-2  -5.782822370529175E-1  -2.011644467711449E-2  -5.776619911193848E-1  -8.024560213088989E-1   3.299528360366821E-2  
 3.092000000000000E7    -8.078418970108032E-1   3.394196927547455E-2  -2.109909057617188E-2  -5.760997533798218E-1  -2.187655866146088E-2  -5.760197639465332E-1  -8.032528758049011E-1   3.484719991683960E-2  
 3.094000000000000E7    -8.086346983909607E-1   3.556152060627937E-2  -2.306421473622322E-2  -5.746736526489258E-1  -2.313731610774994E-2  -5.743085741996765E-1  -8.047113418579102E-1   3.728778287768364E-2  
 3.096000000000000E7    -8.100954890251160E-1   3.780389577150345E-2  -2.441373839974403E-2  -5.727905631065369E-1  -2.487848326563835E-2  -5.725863575935364E-1  -8.054873943328857E-1   3.913164511322975E-2  
 3.098000000000000E7    -8.109084367752075E-1   3.950321674346924E-2  -2.568659558892250E-2  -5.706698298454285E-1  -2.591294422745705E-2  -5.707037448883057E-1  -8.070119023323059E-1   4.147703200578690E-2  
 3.100000000000000E7    -8.123642206192017E-1   4.190113022923470E-2  -2.689100056886673E-2  -5.693213939666748E-1  -2.710967883467674E-2  -5.692949295043945E-1  -8.076013922691345E-1   4.313210397958756E-2  
 3.102000000000000E7    -8.135231733322144E-1   4.426321387290955E-2  -2.794535458087921E-2  -5.671515464782715E-1  -2.845016494393349E-2  -5.671628713607788E-1  -8.089288473129273E-1   4.531526565551758E-2  
 3.104000000000000E7    -8.138800263404846E-1   4.647165164351463E-2  -2.940252795815468E-2  -5.661642551422119E-1  -2.977101877331734E-2  -5.652989149093628E-1  -8.103903532028198E-1   4.754756763577461E-2  
 3.106000000000000E7    -8.157224059104919E-1   4.822305962443352E-2  -3.085516020655632E-2  -5.636420249938965E-1  -3.122350573539734E-2  -5.636919736862183E-1  -8.110736608505249E-1   4.948019608855248E-2  
 3.108000000000000E7    -8.164917230606079E-1   5.032055452466011E-2  -3.222712129354477E-2  -5.621904134750366E-1  -3.253874927759171E-2  -5.621311664581299E-1  -8.123115897178650E-1   5.173027142882347E-2  
 3.110000000000000E7    -8.176807165145874E-1   5.227090045809746E-2  -3.366304188966751E-2  -5.607882738113403E-1  -3.377152234315872E-2  -5.606955885887146E-1  -8.131201863288879E-1   5.362554267048836E-2  
 3.112000000000000E7    -8.183806538581848E-1   5.414367094635963E-2  -3.491602465510368E-2  -5.587749481201172E-1  -3.490049764513969E-2  -5.587688088417053E-1  -8.142371773719788E-1   5.598608404397965E-2  
 3.114000000000000E7    -8.196763396263123E-1   5.644993856549263E-2  -3.600187599658966E-2  -5.571085214614868E-1  -3.631437569856644E-2  -5.568774938583374E-1  -8.150480985641480E-1   5.791155993938446E-2  
 3.116000000000000E7    -8.205473423004150E-1   5.846961587667465E-2  -3.743226826190949E-2  -5.553534030914307E-1  -3.749539330601692E-2  -5.552296638488770E-1  -8.162136673927307E-1   5.999303609132767E-2  
 3.118000000000000E7    -8.214778900146484E-1   6.065457686781883E-2  -3.848352655768395E-2  -5.537040829658508E-1  -3.904121369123459E-2  -5.536076426506043E-1  -8.170818090438843E-1   6.204969063401222E-2  
 3.120000000000000E7    -8.223881721496582E-1   6.284414976835251E-2  -3.942121192812920E-2  -5.514452457427979E-1  -4.003881663084030E-2  -5.513964891433716E-1  -8.179576992988586E-1   6.422169506549835E-2  
 3.122000000000000E7    -8.232149481773377E-1   6.487908214330673E-2  -4.123093560338020E-2  -5.501714944839478E-1  -4.146809503436089E-2  -5.501701235771179E-1  -8.187101483345032E-1   6.619584560394287E-2  
 3.124000000000000E7    -8.243499398231506E-1   6.699459999799728E-2  -4.227720573544502E-2  -5.483782887458801E-1  -4.264843463897705E-2  -5.479162335395813E-1  -8.197616934776306E-1   6.816749274730682E-2  
 3.126000000000000E7    -8.251813054084778E-1   6.896442174911499E-2  -4.370297119021416E-2  -5.468351244926453E-1  -4.365888610482216E-2  -5.466254949569702E-1  -8.210301995277405E-1   7.047490775585175E-2  
 3.128000000000000E7    -8.259980082511902E-1   7.108689844608307E-2  -4.452923685312271E-2  -5.448119044303894E-1  -4.488597065210342E-2  -5.443851351737976E-1  -8.221024274826050E-1   7.223643362522125E-2  
 3.130000000000000E7    -8.271234631538391E-1   7.310519367456436E-2  -4.578512907028198E-2  -5.430626273155212E-1  -4.592023044824600E-2  -5.427702665328980E-1  -8.227170705795288E-1   7.453791797161102E-2  
 3.132000000000000E7    -8.279289007186890E-1   7.544479519128799E-2  -4.683299362659454E-2  -5.417277216911316E-1  -4.708659276366234E-2  -5.412651896476746E-1  -8.235487341880798E-1   7.642005383968353E-2  
 3.134000000000000E7    -8.289208412170410E-1   7.695490121841431E-2  -4.841778799891472E-2  -5.399783253669739E-1  -4.865840449929237E-2  -5.396032333374023E-1  -8.246070146560669E-1   7.869250327348709E-2  
 3.136000000000000E7    -8.298012018203735E-1   7.929585874080658E-2  -4.925356060266495E-2  -5.381157398223877E-1  -4.926143959164619E-2  -5.374499559402466E-1  -8.256106376647949E-1   8.061756938695908E-2  
 3.138000000000000E7    -8.308951258659363E-1   8.177597820758820E-2  -5.041350051760674E-2  -5.361665487289429E-1  -5.130254477262497E-2  -5.360718369483948E-1  -8.261519670486450E-1   8.258251845836639E-2  
 3.140000000000000E7    -8.313364982604981E-1   8.362638950347900E-2  -5.151365697383881E-2  -5.349783897399902E-1  -5.190797522664070E-2  -5.341682434082031E-1  -8.272475600242615E-1   8.444820344448090E-2  
 3.142000000000000E7    -8.322618603706360E-1   8.562637865543366E-2  -5.228098109364510E-2  -5.330641269683838E-1  -5.291104689240456E-2  -5.329482555389404E-1  -8.278230428695679E-1   8.653376996517181E-2  
 3.144000000000000E7    -8.330879211425781E-1   8.769326657056809E-2  -5.388664826750755E-2  -5.312187075614929E-1  -5.391099676489830E-2  -5.313089489936829E-1  -8.286017179489136E-1   8.914700150489807E-2  
 3.146000000000000E7    -8.344786763191223E-1   8.961005508899689E-2  -5.504312738776207E-2  -5.293083190917969E-1  -5.521370097994804E-2  -5.296201705932617E-1  -8.293814659118652E-1   9.087249636650085E-2  
 3.148000000000000E7    -8.348295688629150E-1   9.200754016637802E-2  -5.547890812158585E-2  -5.276995897293091E-1  -5.618252605199814E-2  -5.276286005973816E-1  -8.304794430732727E-1   9.287200868129730E-2  
 3.150000000000000E7    -8.355018496513367E-1   9.410757571458817E-2  -5.703971907496452E-2  -5.258871316909790E-1  -5.716941505670548E-2  -5.259599685668945E-1  -8.312058448791504E-1   9.527374058961868E-2  
 3.152000000000000E7    -8.362050056457520E-1   9.594148397445679E-2  -5.782862007617950E-2  -5.244307518005371E-1  -5.814301222562790E-2  -5.244376063346863E-1  -8.322104811668396E-1   9.725646674633026E-2  
 3.154000000000000E7    -8.373007774353027E-1   9.741885960102081E-2  -5.908017605543137E-2  -5.224415659904480E-1  -5.908514559268951E-2  -5.226184129714966E-1  -8.325114846229553E-1   9.939718246459961E-2  
 3.156000000000000E7    -8.379180431365967E-1   1.001608446240425E-1  -6.009164080023766E-2  -5.211372971534729E-1  -6.036327034235001E-2  -5.210112929344177E-1  -8.333461880683899E-1   1.013570129871368E-1  
 3.158000000000000E7    -8.388183712959290E-1   1.021702587604523E-1  -6.095565482974052E-2  -5.191008448600769E-1  -6.136025488376617E-2  -5.186563730239868E-1  -8.341944217681885E-1   1.032222434878349E-1  
 3.160000000000000E7    -8.396894931793213E-1   1.037832349538803E-1  -6.229656189680100E-2  -5.174850225448608E-1  -6.234912574291229E-2  -5.175064802169800E-1  -8.348382115364075E-1   1.053146943449974E-1  
 3.162000000000000E7    -8.404428362846375E-1   1.063070967793465E-1  -6.293629109859467E-2  -5.156047940254211E-1  -6.350135803222656E-2  -5.154623985290527E-1  -8.357129096984863E-1   1.073941588401794E-1  
 3.164000000000000E7    -8.409095406532288E-1   1.083033531904221E-1  -6.374450027942658E-2  -5.138262510299683E-1  -6.479003280401230E-2  -5.141762495040894E-1  -8.360409736633301E-1   1.090816855430603E-1  
 3.166000000000000E7    -8.415387868881226E-1   1.105246841907501E-1  -6.511849910020828E-2  -5.122133493423462E-1  -6.522347033023834E-2  -5.120884776115418E-1  -8.371012210845947E-1   1.114262044429779E-1  
 3.168000000000000E7    -8.426401615142822E-1   1.122682988643646E-1  -6.614927947521210E-2  -5.106612443923950E-1  -6.652083247900009E-2  -5.106949210166931E-1  -8.375553488731384E-1   1.136248856782913E-1  
 3.170000000000000E7    -8.430944681167603E-1   1.145985946059227E-1  -6.686281412839890E-2  -5.089071393013001E-1  -6.750050187110901E-2  -5.087506771087647E-1  -8.381455540657044E-1   1.152723729610443E-1  
 3.172000000000000E7    -8.435446023941040E-1   1.166028380393982E-1  -6.827869266271591E-2  -5.071883797645569E-1  -6.843249499797821E-2  -5.070697665214539E-1  -8.390469551086426E-1   1.175375133752823E-1  
 3.174000000000000E7    -8.444899916648865E-1   1.184222400188446E-1  -6.897310912609100E-2  -5.058651566505432E-1  -6.888723373413086E-2  -5.053387880325317E-1  -8.399114608764648E-1   1.197495311498642E-1  
 3.176000000000000E7    -8.451155424118042E-1   1.202144697308540E-1  -6.997007876634598E-2  -5.037512779235840E-1  -7.003164291381836E-2  -5.034802556037903E-1  -8.406010270118713E-1   1.217324286699295E-1  
 3.178000000000000E7    -8.456193804740906E-1   1.227838173508644E-1  -7.084432244300842E-2  -5.021606683731079E-1  -7.101351022720337E-2  -5.021370053291321E-1  -8.411318659782410E-1   1.235354021191597E-1  
 3.180000000000000E7    -8.463307619094849E-1   1.244822889566422E-1  -7.189624011516571E-2  -5.006782412528992E-1  -7.183955609798431E-2  -5.004912614822388E-1  -8.414766788482666E-1   1.260457932949066E-1  
 3.182000000000000E7    -8.470731377601624E-1   1.268992424011231E-1  -7.273542881011963E-2  -4.984769821166992E-1  -7.311703264713287E-2  -4.987658560276032E-1  -8.421542048454285E-1   1.276701092720032E-1  
 3.184000000000000E7    -8.475604057312012E-1   1.288398355245590E-1  -7.323810458183289E-2  -4.971780478954315E-1  -7.392343878746033E-2  -4.973051249980927E-1  -8.429545760154724E-1   1.296259909868240E-1  
 3.186000000000000E7    -8.486226797103882E-1   1.303995996713638E-1  -7.448994368314743E-2  -4.952797293663025E-1  -7.448124885559082E-2  -4.956083595752716E-1  -8.436320424079895E-1   1.318813264369965E-1  
 3.188000000000000E7    -8.487344384193420E-1   1.328874081373215E-1  -7.480865716934204E-2  -4.937578439712524E-1  -7.555533945560455E-2  -4.936563968658447E-1  -8.441792130470276E-1   1.339294612407684E-1  
 3.190000000000000E7    -8.494936823844910E-1   1.346795856952667E-1  -7.628650963306427E-2  -4.921461641788483E-1  -7.634155452251434E-2  -4.921493232250214E-1  -8.444959521293640E-1   1.355676352977753E-1  
 3.192000000000000E7    -8.501591086387634E-1   1.367881596088409E-1  -7.685251533985138E-2  -4.902975857257843E-1  -7.696390897035599E-2  -4.901285767555237E-1  -8.454880714416504E-1   1.375763863325119E-1  
 3.194000000000000E7    -8.508845567703247E-1   1.388704776763916E-1  -7.785467058420181E-2  -4.885009825229645E-1  -7.861332595348358E-2  -4.884963631629944E-1  -8.458358049392700E-1   1.397227346897125E-1  
 3.196000000000000E7    -8.513560891151428E-1   1.406225711107254E-1  -7.891641557216644E-2  -4.870273768901825E-1  -7.878450304269791E-2  -4.872628748416901E-1  -8.463981151580811E-1   1.419610232114792E-1  
 3.198000000000000E7    -8.519613146781921E-1   1.430458724498749E-1  -7.949114590883255E-2  -4.855492413043976E-1  -7.962356507778168E-2  -4.857483804225922E-1  -8.468145728111267E-1   1.438852995634079E-1  
 3.200000000000000E7    -8.524209856987000E-1   1.447447836399078E-1  -8.024660497903824E-2  -4.837178885936737E-1  -8.042423427104950E-2  -4.834198355674744E-1  -8.472034335136414E-1   1.458493471145630E-1  
 3.202000000000000E7    -8.529863953590393E-1   1.469253599643707E-1  -8.144729584455490E-2  -4.823600053787231E-1  -8.122423291206360E-2  -4.821598827838898E-1  -8.476849198341370E-1   1.479523032903671E-1  
 3.204000000000000E7    -8.535476326942444E-1   1.489745974540710E-1  -8.166950196027756E-2  -4.805675148963928E-1  -8.202607929706574E-2  -4.806205928325653E-1  -8.485916852951050E-1   1.496249437332153E-1  
 3.206000000000000E7    -8.540847301483154E-1   1.508664339780808E-1  -8.258210867643356E-2  -4.787837266921997E-1  -8.298951387405396E-2  -4.790660440921783E-1  -8.491142392158508E-1   1.517339646816254E-1  
 3.208000000000000E7    -8.545692563056946E-1   1.527812182903290E-1  -8.335901051759720E-2  -4.772396683692932E-1  -8.364529907703400E-2  -4.775518476963043E-1  -8.494448065757752E-1   1.534859389066696E-1  
 3.210000000000000E7    -8.549387454986572E-1   1.546779274940491E-1  -8.406230062246323E-2  -4.754091501235962E-1  -8.455993235111237E-2  -4.754520356655121E-1  -8.500883579254150E-1   1.557853519916534E-1  
 3.212000000000000E7    -8.553379774093628E-1   1.567640900611877E-1  -8.510757237672806E-2  -4.737516641616821E-1  -8.523042500019074E-2  -4.736888110637665E-1  -8.506340384483337E-1   1.575835645198822E-1  
 3.214000000000000E7    -8.559160232543945E-1   1.584767103195190E-1  -8.607892692089081E-2  -4.720297753810883E-1  -8.607451617717743E-2  -4.716613292694092E-1  -8.515813350677490E-1   1.597912758588791E-1  
 3.216000000000000E7    -8.563359975814819E-1   1.607611030340195E-1  -8.654960989952087E-2  -4.702994525432587E-1  -8.669529855251312E-2  -4.706537425518036E-1  -8.515222072601318E-1   1.614079028367996E-1  
 3.218000000000000E7    -8.567739129066467E-1   1.626727879047394E-1  -8.753535151481628E-2  -4.690401554107666E-1  -8.773411065340042E-2  -4.691672325134277E-1  -8.520175814628601E-1   1.633530706167221E-1  
 3.220000000000000E7    -8.570467233657837E-1   1.644071638584137E-1  -8.831925690174103E-2  -4.674145579338074E-1  -8.823902159929276E-2  -4.671741425991058E-1  -8.525662422180176E-1   1.657532155513763E-1  
 3.222000000000000E7    -8.577730059623718E-1   1.665942668914795E-1  -8.896108716726303E-2  -4.654447436332703E-1  -8.938767760992050E-2  -4.655251801013947E-1  -8.529046177864075E-1   1.674613803625107E-1  
 3.224000000000000E7    -8.580541014671326E-1   1.687930971384049E-1  -8.949036151170731E-2  -4.640790820121765E-1  -8.976668119430542E-2  -4.641994535923004E-1  -8.533740043640137E-1   1.695106625556946E-1  
 3.226000000000000E7    -8.588271141052246E-1   1.706686019897461E-1  -8.960554003715515E-2  -4.623738527297974E-1  -9.060573577880859E-2  -4.621427655220032E-1  -8.535249233245850E-1   1.717301160097122E-1  
 3.228000000000000E7    -8.591217994689941E-1   1.727015674114227E-1  -9.069002419710159E-2  -4.607124328613281E-1  -9.101943671703339E-2  -4.608899652957916E-1  -8.541538715362549E-1   1.733850836753845E-1  
 3.230000000000000E7    -8.592777848243713E-1   1.744551658630371E-1  -9.126261621713638E-2  -4.594777822494507E-1  -9.141424298286438E-2  -4.591474533081055E-1  -8.545489311218262E-1   1.753793358802795E-1  
 3.232000000000000E7    -8.600142002105713E-1   1.768046319484711E-1  -9.201088547706604E-2  -4.576523005962372E-1  -9.246437251567841E-2  -4.580484628677368E-1  -8.547345995903015E-1   1.773331463336945E-1  
 3.234000000000000E7    -8.602747321128845E-1   1.785608679056168E-1  -9.289986640214920E-2  -4.555895030498505E-1  -9.313475340604782E-2  -4.553896784782410E-1  -8.557052612304688E-1   1.792885065078735E-1  
 3.236000000000000E7    -8.608899712562561E-1   1.804841160774231E-1  -9.339203685522080E-2  -4.542074799537659E-1  -9.348052740097046E-2  -4.541562795639038E-1  -8.554401993751526E-1   1.812260448932648E-1  
 3.238000000000000E7    -8.610143661499023E-1   1.824004650115967E-1  -9.406419843435288E-2  -4.526524543762207E-1  -9.435977041721344E-2  -4.521405100822449E-1  -8.559494614601135E-1   1.831596195697784E-1  
 3.240000000000000E7    -8.615948557853699E-1   1.842369735240936E-1  -9.477904438972473E-2  -4.512481689453125E-1  -9.488837420940399E-2  -4.510985314846039E-1  -8.566898703575134E-1   1.849625110626221E-1  
 3.242000000000000E7    -8.619419932365418E-1   1.863541901111603E-1  -9.524463117122650E-2  -4.493711292743683E-1  -9.579157084226608E-2  -4.494417309761047E-1  -8.569443225860596E-1   1.871545016765595E-1  
 3.244000000000000E7    -8.622477650642395E-1   1.882155835628510E-1  -9.587711095809937E-2  -4.478792846202850E-1  -9.608016908168793E-2  -4.478445351123810E-1  -8.572037816047669E-1   1.892628222703934E-1  
 3.246000000000000E7    -8.629140853881836E-1   1.902276575565338E-1  -9.659490734338760E-2  -4.459527432918549E-1  -9.655233472585678E-2  -4.461299180984497E-1  -8.573768734931946E-1   1.910551041364670E-1  
 3.248000000000000E7    -8.628023266792297E-1   1.921669989824295E-1  -9.744165837764740E-2  -4.446822404861450E-1  -9.743352234363556E-2  -4.445968568325043E-1  -8.579451441764832E-1   1.930444389581680E-1  
 3.250000000000000E7    -8.631414771080017E-1   1.941952258348465E-1  -9.780463576316834E-2  -4.426349401473999E-1  -9.813223779201508E-2  -4.427701234817505E-1  -8.583328127861023E-1   1.948246061801910E-1  
 3.252000000000000E7    -8.637301325798035E-1   1.956849992275238E-1  -9.855996817350388E-2  -4.414793252944946E-1  -9.865259379148483E-2  -4.413997828960419E-1  -8.584474325180054E-1   1.965689510107040E-1  
 3.254000000000000E7    -8.638518452644348E-1   1.980499178171158E-1  -9.915247559547424E-2  -4.400234818458557E-1  -9.958778321743012E-2  -4.398781061172485E-1  -8.590370416641235E-1   1.986617147922516E-1  
 3.256000000000000E7    -8.641604185104370E-1   2.000225037336350E-1  -9.957034885883331E-2  -4.383126497268677E-1  -1.000108867883682E-1  -4.382744729518890E-1  -8.592639565467835E-1   2.006487399339676E-1  
 3.258000000000000E7    -8.642416000366211E-1   2.016376554965973E-1  -1.002059504389763E-1  -4.366312325000763E-1  -1.001976355910301E-1  -4.364926218986511E-1  -8.592389225959778E-1   2.024275511503220E-1  
 3.260000000000000E7    -8.648923039436340E-1   2.034594565629959E-1  -1.007102876901627E-1  -4.349424839019775E-1  -1.008239835500717E-1  -4.353201389312744E-1  -8.597224354743958E-1   2.045840322971344E-1  
 3.262000000000000E7    -8.653070926666260E-1   2.053300440311432E-1  -1.015345081686974E-1  -4.334032237529755E-1  -1.015361174941063E-1  -4.337037503719330E-1  -8.600468635559082E-1   2.064125686883926E-1  
 3.264000000000000E7    -8.652703762054443E-1   2.073273807764053E-1  -1.019192636013031E-1  -4.322797060012817E-1  -1.020083054900169E-1  -4.320125281810761E-1  -8.605420589447022E-1   2.082665711641312E-1  
 3.266000000000000E7    -8.657072782516480E-1   2.093788385391235E-1  -1.027560383081436E-1  -4.302406013011932E-1  -1.026409193873406E-1  -4.300572872161865E-1  -8.608321547508240E-1   2.101771086454392E-1  
 3.268000000000000E7    -8.658851385116577E-1   2.115037441253662E-1  -1.029731556773186E-1  -4.285575151443481E-1  -1.032477840781212E-1  -4.287528395652771E-1  -8.608424663543701E-1   2.117619067430496E-1  
 3.270000000000000E7    -8.663844466209412E-1   2.132565081119537E-1  -1.034068837761879E-1  -4.271690845489502E-1  -1.040287539362907E-1  -4.271293282508850E-1  -8.610860109329224E-1   2.139515876770020E-1  
 3.272000000000000E7    -8.665336370468140E-1   2.151316106319428E-1  -1.042818725109100E-1  -4.259449839591980E-1  -1.046411544084549E-1  -4.254064559936523E-1  -8.615866303443909E-1   2.158613651990891E-1  
 3.274000000000000E7    -8.666798472404480E-1   2.172006070613861E-1  -1.046386361122131E-1  -4.242965877056122E-1  -1.048404350876808E-1  -4.239436388015747E-1  -8.616802096366882E-1   2.175949364900589E-1  
 3.276000000000000E7    -8.669920563697815E-1   2.186659723520279E-1  -1.050746589899063E-1  -4.227710366249085E-1  -1.052812486886978E-1  -4.229467511177063E-1  -8.617183566093445E-1   2.197100520133972E-1  
 3.278000000000000E7    -8.672406673431397E-1   2.208631038665772E-1  -1.056158095598221E-1  -4.211612343788147E-1  -1.057344153523445E-1  -4.209059476852417E-1  -8.619094491004944E-1   2.213576138019562E-1  
 3.280000000000000E7    -8.671454787254334E-1   2.224731147289276E-1  -1.062255650758743E-1  -4.193667173385620E-1  -1.063590124249458E-1  -4.194371700286865E-1  -8.621125221252441E-1   2.235124111175537E-1  
 3.282000000000000E7    -8.674206733703613E-1   2.246234416961670E-1  -1.062969043850899E-1  -4.177289009094238E-1  -1.067798733711243E-1  -4.177460670471191E-1  -8.624187111854553E-1   2.251965254545212E-1  
 3.284000000000000E7    -8.676401972770691E-1   2.263788431882858E-1  -1.072910428047180E-1  -4.168437123298645E-1  -1.072176173329353E-1  -4.166542291641235E-1  -8.627874851226807E-1   2.271518558263779E-1  
 3.286000000000000E7    -8.678865432739258E-1   2.284762561321259E-1  -1.078735366463661E-1  -4.150451123714447E-1  -1.077803522348404E-1  -4.149502515792847E-1  -8.624958992004395E-1   2.289166301488876E-1  
 3.288000000000000E7    -8.679550290107727E-1   2.299946993589401E-1  -1.079183965921402E-1  -4.133048057556152E-1  -1.082436442375183E-1  -4.132628440856934E-1  -8.629863262176514E-1   2.305177450180054E-1  
 3.290000000000000E7    -8.683577179908752E-1   2.318363040685654E-1  -1.087894290685654E-1  -4.116271734237671E-1  -1.088167503476143E-1  -4.116047918796539E-1  -8.632199168205261E-1   2.329138219356537E-1  
 3.292000000000000E7    -8.686661124229431E-1   2.342590838670731E-1  -1.090320646762848E-1  -4.100502729415894E-1  -1.090504154562950E-1  -4.103230834007263E-1  -8.632552623748779E-1   2.346674799919128E-1  
 3.294000000000000E7    -8.689246773719788E-1   2.360607981681824E-1  -1.092214435338974E-1  -4.084476828575134E-1  -1.097364053130150E-1  -4.086012840270996E-1  -8.631455302238464E-1   2.364868819713593E-1  
 3.296000000000000E7    -8.690354824066162E-1   2.375375032424927E-1  -1.102076098322868E-1  -4.074175655841827E-1  -1.101468652486801E-1  -4.071740508079529E-1  -8.637623190879822E-1   2.387109845876694E-1  
 3.298000000000000E7    -8.690442442893982E-1   2.396024018526077E-1  -1.101856604218483E-1  -4.059155881404877E-1  -1.103976294398308E-1  -4.057976603507996E-1  -8.638151884078980E-1   2.401811331510544E-1  
 3.300000000000000E7    -8.691926598548889E-1   2.413267493247986E-1  -1.105745211243630E-1  -4.043480157852173E-1  -1.106048971414566E-1  -4.040970206260681E-1  -8.642958998680115E-1   2.419521808624268E-1  
 3.302000000000000E7    -8.693997263908386E-1   2.434804886579514E-1  -1.111558005213738E-1  -4.025062322616577E-1  -1.109878048300743E-1  -4.026952981948853E-1  -8.640542030334473E-1   2.439962327480316E-1  
 3.304000000000000E7    -8.696002364158630E-1   2.449421286582947E-1  -1.116172373294830E-1  -4.013202488422394E-1  -1.119651868939400E-1  -4.012140929698944E-1  -8.641699552536011E-1   2.455054074525833E-1  
 3.306000000000000E7    -8.695903420448303E-1   2.468786686658859E-1  -1.119709387421608E-1  -3.996950984001160E-1  -1.120564192533493E-1  -3.994802534580231E-1  -8.641215562820435E-1   2.474822252988815E-1  
 3.308000000000000E7    -8.695626258850098E-1   2.490554749965668E-1  -1.124025285243988E-1  -3.978761136531830E-1  -1.123823598027229E-1  -3.978790044784546E-1  -8.644782900810242E-1   2.492350190877914E-1  
 3.310000000000000E7    -8.698712587356567E-1   2.509622871875763E-1  -1.127721145749092E-1  -3.966327011585236E-1  -1.130338385701180E-1  -3.965527117252350E-1  -8.645374178886414E-1   2.509249746799469E-1  
 3.312000000000000E7    -8.699164390563965E-1   2.524021267890930E-1  -1.133822798728943E-1  -3.950724601745606E-1  -1.133693978190422E-1  -3.949841856956482E-1  -8.647550344467163E-1   2.528374493122101E-1  
 3.314000000000000E7    -8.702126741409302E-1   2.544417977333069E-1  -1.138687282800674E-1  -3.936818242073059E-1  -1.140415072441101E-1  -3.939785063266754E-1  -8.648887872695923E-1   2.548155486583710E-1  
 3.316000000000000E7    -8.701304197311401E-1   2.564165890216827E-1  -1.140460744500160E-1  -3.919611573219299E-1  -1.141650676727295E-1  -3.919937312602997E-1  -8.648856878280640E-1   2.567690908908844E-1  
 3.318000000000000E7    -8.703337311744690E-1   2.580326497554779E-1  -1.143401563167572E-1  -3.904876410961151E-1  -1.145870015025139E-1  -3.904214501380920E-1  -8.647879362106323E-1   2.584624290466309E-1  
 3.320000000000000E7    -8.701838254928589E-1   2.598275244235992E-1  -1.145958974957466E-1  -3.891885280609131E-1  -1.149160861968994E-1  -3.890875577926636E-1  -8.649918437004089E-1   2.601931393146515E-1  
 3.322000000000000E7    -8.704147338867188E-1   2.615510821342468E-1  -1.148993149399757E-1  -3.877159953117371E-1  -1.152670010924339E-1  -3.876202106475830E-1  -8.652037978172302E-1   2.620759904384613E-1  
 3.324000000000000E7    -8.702980279922485E-1   2.634032070636749E-1  -1.156483069062233E-1  -3.863162398338318E-1  -1.157869547605515E-1  -3.861583173274994E-1  -8.651465177536011E-1   2.636595070362091E-1  
 3.326000000000000E7    -8.706445693969727E-1   2.653878629207611E-1  -1.155745536088944E-1  -3.845288455486298E-1  -1.161207035183907E-1  -3.849737048149109E-1  -8.652950525283814E-1   2.653953731060028E-1  
 3.328000000000000E7    -8.706713318824768E-1   2.668257951736450E-1  -1.161386892199516E-1  -3.833858966827393E-1  -1.164115965366364E-1  -3.833773732185364E-1  -8.655291795730591E-1   2.674430608749390E-1  
 3.330000000000000E7    -8.707601428031921E-1   2.686147987842560E-1  -1.164821162819862E-1  -3.819746375083923E-1  -1.166398078203201E-1  -3.820057511329651E-1  -8.655318021774292E-1   2.690351605415344E-1  
 3.332000000000000E7    -8.706834912300110E-1   2.707023024559021E-1  -1.166709735989571E-1  -3.805310726165772E-1  -1.171748563647270E-1  -3.801610171794891E-1  -8.654636144638062E-1   2.710710465908051E-1  
 3.334000000000000E7    -8.711827397346497E-1   2.724025845527649E-1  -1.170465797185898E-1  -3.788582682609558E-1  -1.170533373951912E-1  -3.790423870086670E-1  -8.651679158210754E-1   2.727821469306946E-1  
 3.336000000000000E7    -8.708582520484924E-1   2.743117511272430E-1  -1.175136715173721E-1  -3.778797686100006E-1  -1.176762133836746E-1  -3.775862455368042E-1  -8.655800223350525E-1   2.746132612228394E-1  
 3.338000000000000E7    -8.712178468704224E-1   2.762894630432129E-1  -1.176346465945244E-1  -3.760270178318024E-1  -1.179326847195625E-1  -3.761233687400818E-1  -8.654209375381470E-1   2.760024964809418E-1  
 3.340000000000000E7    -8.709206581115723E-1   2.775928378105164E-1  -1.179983913898468E-1  -3.744765520095825E-1  -1.180772930383682E-1  -3.745614886283875E-1  -8.656297922134399E-1   2.781233191490173E-1  
 3.342000000000000E7    -8.708591461181641E-1   2.796307206153870E-1  -1.186166554689407E-1  -3.732030987739563E-1  -1.190009415149689E-1  -3.732170164585114E-1  -8.652381896972656E-1   2.801114320755005E-1  
 3.344000000000000E7    -8.711819648742676E-1   2.815887331962585E-1  -1.186859533190727E-1  -3.716807365417481E-1  -1.188722550868988E-1  -3.716920912265778E-1  -8.653532266616821E-1   2.815318107604981E-1  
 3.346000000000000E7    -8.713059425354004E-1   2.830612659454346E-1  -1.189996451139450E-1  -3.700988888740540E-1  -1.191610619425774E-1  -3.705449998378754E-1  -8.653137087821960E-1   2.835333347320557E-1  
 3.348000000000000E7    -8.710449934005737E-1   2.846671640872955E-1  -1.191693916916847E-1  -3.688606023788452E-1  -1.195163726806641E-1  -3.687499165534973E-1  -8.654543757438660E-1   2.850378453731537E-1  
 3.350000000000000E7    -8.708792328834534E-1   2.866713702678680E-1  -1.197755411267281E-1  -3.671351075172424E-1  -1.198045536875725E-1  -3.675752878189087E-1  -8.654177784919739E-1   2.866761088371277E-1  
 3.352000000000000E7    -8.705904483795166E-1   2.882244586944580E-1  -1.199955418705940E-1  -3.658832013607025E-1  -1.199305430054665E-1  -3.656369149684906E-1  -8.655261397361755E-1   2.886869013309479E-1  
 3.354000000000000E7    -8.712676763534546E-1   2.901512682437897E-1  -1.196796596050263E-1  -3.643705844879150E-1  -1.202185004949570E-1  -3.645105361938477E-1  -8.653370738029480E-1   2.903149127960205E-1  
 3.356000000000000E7    -8.705415725708008E-1   2.918157279491425E-1  -1.203763335943222E-1  -3.631799221038818E-1  -1.203440874814987E-1  -3.631388247013092E-1  -8.657335042953491E-1   2.923478186130524E-1  
 3.358000000000000E7    -8.709176182746887E-1   2.937161922454834E-1  -1.207990944385529E-1  -3.617696166038513E-1  -1.206863000988960E-1  -3.616978824138641E-1  -8.656244874000549E-1   2.938647270202637E-1  
 3.360000000000000E7    -8.707725405693054E-1   2.954918742179871E-1  -1.209686771035194E-1  -3.604747951030731E-1  -1.212243065237999E-1  -3.603951930999756E-1  -8.651843070983887E-1   2.955890297889710E-1  
 3.362000000000000E7    -8.706872463226318E-1   2.971019148826599E-1  -1.213090419769287E-1  -3.588541150093079E-1  -1.213260069489479E-1  -3.588187396526337E-1  -8.652663230895996E-1   2.970835268497467E-1  
 3.364000000000000E7    -8.706258535385132E-1   2.987602353096008E-1  -1.215434297919273E-1  -3.575043380260468E-1  -1.217084452509880E-1  -3.574493825435638E-1  -8.654599189758301E-1   2.988598942756653E-1  
 3.366000000000000E7    -8.706637024879456E-1   3.007718026638031E-1  -1.219953075051308E-1  -3.559473156929016E-1  -1.218236014246941E-1  -3.559499382972717E-1  -8.652357459068298E-1   3.010284304618835E-1  
 3.368000000000000E7    -8.704138398170471E-1   3.021348714828491E-1  -1.219559758901596E-1  -3.550353944301605E-1  -1.217809170484543E-1  -3.547175824642181E-1  -8.655520677566528E-1   3.024648129940033E-1  
 3.370000000000000E7    -8.706498742103577E-1   3.043870627880096E-1  -1.223974898457527E-1  -3.532851934432983E-1  -1.224137991666794E-1  -3.533096015453339E-1  -8.652350306510925E-1   3.041241466999054E-1  
 3.372000000000000E7    -8.707488775253296E-1   3.058619201183319E-1  -1.221431270241737E-1  -3.518204092979431E-1  -1.221209242939949E-1  -3.516902327537537E-1  -8.652014732360840E-1   3.061076402664185E-1  
 3.374000000000000E7    -8.704352974891663E-1   3.073628246784210E-1  -1.225060001015663E-1  -3.504413068294525E-1  -1.227792948484421E-1  -3.500549793243408E-1  -8.649009466171265E-1   3.075703978538513E-1  
 3.376000000000000E7    -8.702571988105774E-1   3.090327978134155E-1  -1.227129772305489E-1  -3.493515849113464E-1  -1.230586469173431E-1  -3.494011461734772E-1  -8.651105761528015E-1   3.095650374889374E-1  
 3.378000000000000E7    -8.706618547439575E-1   3.107288181781769E-1  -1.231089383363724E-1  -3.477119207382202E-1  -1.232326030731201E-1  -3.474556505680084E-1  -8.649736642837524E-1   3.111788034439087E-1  
 3.380000000000000E7    -8.704230189323425E-1   3.127574324607849E-1  -1.230616718530655E-1  -3.466300368309021E-1  -1.234218925237656E-1  -3.463273644447327E-1  -8.648271560668945E-1   3.125571012496948E-1  
 3.382000000000000E7    -8.699738979339600E-1   3.144473731517792E-1  -1.233384832739830E-1  -3.448293209075928E-1  -1.235371679067612E-1  -3.447407186031342E-1  -8.644827604293823E-1   3.143971860408783E-1  
 3.384000000000000E7    -8.701863288879395E-1   3.160932958126068E-1  -1.234238296747208E-1  -3.438054323196411E-1  -1.237924695014954E-1  -3.433226943016052E-1  -8.645800948143005E-1   3.161613345146179E-1  
 3.386000000000000E7    -8.698685765266419E-1   3.175575435161591E-1  -1.239085197448731E-1  -3.421896100044251E-1  -1.236237883567810E-1  -3.422408699989319E-1  -8.643504381179810E-1   3.178156316280365E-1  
 3.388000000000000E7    -8.697701096534729E-1   3.193414509296417E-1  -1.241037026047707E-1  -3.409486114978790E-1  -1.242397427558899E-1  -3.410592079162598E-1  -8.640455007553101E-1   3.194986879825592E-1  
 3.390000000000000E7    -8.696430921554565E-1   3.211878538131714E-1  -1.238744854927063E-1  -3.395992517471314E-1  -1.240872740745544E-1  -3.397678136825562E-1  -8.642236590385437E-1   3.212360739707947E-1  
 3.392000000000000E7    -8.697172403335571E-1   3.227143883705139E-1  -1.244937628507614E-1  -3.382186591625214E-1  -1.243736594915390E-1  -3.381760418415070E-1  -8.639984130859375E-1   3.227134644985199E-1  
 3.394000000000000E7    -8.696124553680420E-1   3.245663642883301E-1  -1.245006471872330E-1  -3.367778956890106E-1  -1.246920749545097E-1  -3.367388844490051E-1  -8.638063073158264E-1   3.243882656097412E-1  
 3.396000000000000E7    -8.690013885498047E-1   3.263427913188934E-1  -1.245648637413979E-1  -3.353702425956726E-1  -1.246911138296127E-1  -3.353472352027893E-1  -8.638084530830383E-1   3.261865079402924E-1  
 3.398000000000000E7    -8.692827224731445E-1   3.276013433933258E-1  -1.247897371649742E-1  -3.340705633163452E-1  -1.250135749578476E-1  -3.339020609855652E-1  -8.636748790740967E-1   3.280622065067291E-1  
 3.400000000000000E7    -8.691908121109009E-1   3.294641375541687E-1  -1.249671056866646E-1  -3.327220082283020E-1  -1.250589191913605E-1  -3.329310417175293E-1  -8.633628487586975E-1   3.293948471546173E-1  
 3.402000000000000E7    -8.691175580024719E-1   3.313288688659668E-1  -1.250382065773010E-1  -3.311300873756409E-1  -1.251204162836075E-1  -3.313112854957581E-1  -8.630599379539490E-1   3.312188982963562E-1  
 3.404000000000000E7    -8.688712716102600E-1   3.327719271183014E-1  -1.253368258476257E-1  -3.298882842063904E-1  -1.254611313343048E-1  -3.299545347690582E-1  -8.626535534858704E-1   3.327877223491669E-1  
 3.406000000000000E7    -8.684512376785278E-1   3.344944417476654E-1  -1.255630105733872E-1  -3.284755349159241E-1  -1.257615685462952E-1  -3.286902904510498E-1  -8.629617094993591E-1   3.345529437065125E-1  
 3.408000000000000E7    -8.682327270507813E-1   3.365125954151154E-1  -1.254594773054123E-1  -3.276407718658447E-1  -1.257336437702179E-1  -3.272377252578735E-1  -8.631898164749146E-1   3.362653553485870E-1  
 3.410000000000000E7    -8.679502606391907E-1   3.378970026969910E-1  -1.257239431142807E-1  -3.261265158653259E-1  -1.258319318294525E-1  -3.258278667926788E-1  -8.625612854957581E-1   3.379442691802979E-1  
 3.412000000000000E7    -8.682023882865906E-1   3.394111692905426E-1  -1.257250458002091E-1  -3.246878981590271E-1  -1.261423230171204E-1  -3.248343169689179E-1  -8.623805046081543E-1   3.394072651863098E-1  
 3.414000000000000E7    -8.678839802742004E-1   3.411846160888672E-1  -1.258923709392548E-1  -3.235293626785278E-1  -1.261160075664520E-1  -3.231886029243469E-1  -8.620482087135315E-1   3.410697281360626E-1  
 3.416000000000000E7    -8.674619793891907E-1   3.426636755466461E-1  -1.262281686067581E-1  -3.220627605915070E-1  -1.264911442995071E-1  -3.217031955718994E-1  -8.621411919593811E-1   3.431013822555542E-1  
 3.418000000000000E7    -8.676660060882568E-1   3.443956971168518E-1  -1.262624710798264E-1  -3.205952346324921E-1  -1.264874786138535E-1  -3.208510577678680E-1  -8.617060184478760E-1   3.443841338157654E-1  
 3.420000000000000E7    -8.673101663589478E-1   3.459309339523315E-1  -1.264156550168991E-1  -3.196027874946594E-1  -1.265636086463928E-1  -3.194459676742554E-1  -8.618597388267517E-1   3.460448980331421E-1  
 3.422000000000000E7    -8.670837879180908E-1   3.477321565151215E-1  -1.264718472957611E-1  -3.183152973651886E-1  -1.268510520458221E-1  -3.181571960449219E-1  -8.614103198051453E-1   3.477101922035217E-1  
 3.424000000000000E7    -8.670169115066528E-1   3.493604362010956E-1  -1.265750825405121E-1  -3.168021738529205E-1  -1.267528235912323E-1  -3.169803917407990E-1  -8.610907793045044E-1   3.492137193679810E-1  
 3.426000000000000E7    -8.670913577079773E-1   3.508816063404083E-1  -1.268562823534012E-1  -3.156110644340515E-1  -1.269056797027588E-1  -3.156639039516449E-1  -8.608958721160889E-1   3.511610627174377E-1  
 3.428000000000000E7    -8.667861223220825E-1   3.528449535369873E-1  -1.267552077770233E-1  -3.145580589771271E-1  -1.271865367889404E-1  -3.144665360450745E-1  -8.608628511428833E-1   3.524100184440613E-1  
 3.430000000000000E7    -8.665137290954590E-1   3.544816076755524E-1  -1.265958100557327E-1  -3.128279447555542E-1  -1.267643421888351E-1  -3.130798935890198E-1  -8.604825735092163E-1   3.540053963661194E-1  
 3.432000000000000E7    -8.662052750587463E-1   3.558157086372376E-1  -1.269202232360840E-1  -3.116914629936218E-1  -1.268919855356216E-1  -3.119362294673920E-1  -8.606863617897034E-1   3.557780385017395E-1  
 3.434000000000000E7    -8.659826517105103E-1   3.572289943695068E-1  -1.271095871925354E-1  -3.102701902389526E-1  -1.273026168346405E-1  -3.105241358280182E-1  -8.601925969123840E-1   3.576666712760925E-1  
 3.436000000000000E7    -8.655903935432434E-1   3.587786555290222E-1  -1.270658820867539E-1  -3.088835477828980E-1  -1.273158341646195E-1  -3.089603781700134E-1  -8.600447177886963E-1   3.588523566722870E-1  
 3.438000000000000E7    -8.656715750694275E-1   3.606227934360504E-1  -1.272311508655548E-1  -3.081189692020416E-1  -1.275203377008438E-1  -3.081028461456299E-1  -8.598719239234924E-1   3.607714474201202E-1  
 3.440000000000000E7    -8.651459217071533E-1   3.618662655353546E-1  -1.274282783269882E-1  -3.063315153121948E-1  -1.270082890987396E-1  -3.064894080162048E-1  -8.595145940780640E-1   3.621732294559479E-1  
 3.442000000000000E7    -8.650866746902466E-1   3.639492690563202E-1  -1.275268495082855E-1  -3.052290081977844E-1  -1.276012659072876E-1  -3.052177131175995E-1  -8.592053651809692E-1   3.638811707496643E-1  
 3.444000000000000E7    -8.645907044410706E-1   3.655340969562531E-1  -1.274164915084839E-1  -3.041622936725617E-1  -1.275394409894943E-1  -3.039299249649048E-1  -8.590037226676941E-1   3.650756776332855E-1  
 3.446000000000000E7    -8.645342588424683E-1   3.666154742240906E-1  -1.271946281194687E-1  -3.027744889259338E-1  -1.272703558206558E-1  -3.028386235237122E-1  -8.590009212493897E-1   3.669357895851135E-1  
 3.448000000000000E7    -8.642750978469849E-1   3.687980175018311E-1  -1.276020854711533E-1  -3.015008568763733E-1  -1.276106983423233E-1  -3.014564812183380E-1  -8.586924672126770E-1   3.684296905994415E-1  
 3.450000000000000E7    -8.643321394920349E-1   3.703210353851318E-1  -1.278148144483566E-1  -3.000283837318420E-1  -1.279400438070297E-1  -3.001932799816132E-1  -8.582455515861511E-1   3.698827326297760E-1  
 3.452000000000000E7    -8.639461398124695E-1   3.718233704566956E-1  -1.275380849838257E-1  -2.989516556262970E-1  -1.278920769691467E-1  -2.992235720157623E-1  -8.578825592994690E-1   3.713049590587616E-1  
 3.454000000000000E7    -8.640403151512146E-1   3.733080029487610E-1  -1.276802271604538E-1  -2.978103756904602E-1  -1.277380734682083E-1  -2.980628311634064E-1  -8.579342365264893E-1   3.731482625007629E-1  
 3.456000000000000E7    -8.633638024330139E-1   3.747884333133698E-1  -1.275977343320847E-1  -2.965409755706787E-1  -1.278522312641144E-1  -2.963513135910034E-1  -8.574439287185669E-1   3.745250701904297E-1  
 3.458000000000000E7    -8.627904057502747E-1   3.761886656284332E-1  -1.276849210262299E-1  -2.951875329017639E-1  -1.278921067714691E-1  -2.951281368732452E-1  -8.574090003967285E-1   3.761682212352753E-1  
 3.460000000000000E7    -8.626299500465393E-1   3.783162534236908E-1  -1.278652399778366E-1  -2.939674258232117E-1  -1.281130015850067E-1  -2.939386069774628E-1  -8.570690155029297E-1   3.777354359626770E-1  
 3.462000000000000E7    -8.627640604972839E-1   3.798129260540009E-1  -1.278241872787476E-1  -2.926780581474304E-1  -1.278607100248337E-1  -2.927448451519013E-1  -8.571180701255798E-1   3.792186677455902E-1  
 3.464000000000000E7    -8.625340461730957E-1   3.809989094734192E-1  -1.277378350496292E-1  -2.914224267005920E-1  -1.278790980577469E-1  -2.913357019424439E-1  -8.563737869262695E-1   3.809113800525665E-1  
 3.466000000000000E7    -8.620021343231201E-1   3.827778995037079E-1  -1.279388666152954E-1  -2.902815937995911E-1  -1.281064152717590E-1  -2.900891602039337E-1  -8.561536073684692E-1   3.822578489780426E-1  
 3.468000000000000E7    -8.617558479309082E-1   3.841449916362763E-1  -1.279707998037338E-1  -2.893157303333283E-1  -1.278749555349350E-1  -2.895056605339050E-1  -8.562403321266174E-1   3.837843537330627E-1  
 3.470000000000000E7    -8.618755936622620E-1   3.854413330554962E-1  -1.279464215040207E-1  -2.880475819110870E-1  -1.277488023042679E-1  -2.881043851375580E-1  -8.558902144432068E-1   3.853784501552582E-1  
 3.472000000000000E7    -8.613404631614685E-1   3.873436450958252E-1  -1.277699470520020E-1  -2.866806685924530E-1  -1.281437873840332E-1  -2.867212891578674E-1  -8.554975390434265E-1   3.868929743766785E-1  
 3.474000000000000E7    -8.613121509552002E-1   3.886931836605072E-1  -1.277122050523758E-1  -2.853257954120636E-1  -1.279321461915970E-1  -2.855544984340668E-1  -8.547590970993042E-1   3.885265290737152E-1  
 3.476000000000000E7    -8.605538010597229E-1   3.903075456619263E-1  -1.279665976762772E-1  -2.843655049800873E-1  -1.280481070280075E-1  -2.843853831291199E-1  -8.550626635551453E-1   3.898010551929474E-1  
 3.478000000000000E7    -8.607156276702881E-1   3.915528059005737E-1  -1.281946748495102E-1  -2.833184897899628E-1  -1.281595230102539E-1  -2.830176651477814E-1  -8.544008731842041E-1   3.915829360485077E-1  
 3.480000000000000E7    -8.601834774017334E-1   3.932124972343445E-1  -1.278246045112610E-1  -2.820067703723908E-1  -1.280757784843445E-1  -2.818690836429596E-1  -8.542204499244690E-1   3.928364217281342E-1  
 3.482000000000000E7    -8.597356081008911E-1   3.944704532623291E-1  -1.278873980045319E-1  -2.806444168090820E-1  -1.278293579816818E-1  -2.806569933891296E-1  -8.538528084754944E-1   3.945593833923340E-1  
 3.484000000000000E7    -8.593872785568237E-1   3.961524963378906E-1  -1.278417110443115E-1  -2.794736921787262E-1  -1.277913600206375E-1  -2.795856595039368E-1  -8.534427881240845E-1   3.960126638412476E-1  
 3.486000000000000E7    -8.593919873237610E-1   3.982770144939423E-1  -1.276743859052658E-1  -2.783635556697846E-1  -1.280238181352615E-1  -2.783217132091522E-1  -8.532546162605286E-1   3.975628614425659E-1  
 3.488000000000000E7    -8.588404655456543E-1   3.996965885162354E-1  -1.280682384967804E-1  -2.772203385829926E-1  -1.279845982789993E-1  -2.772080898284912E-1  -8.527939915657044E-1   3.987991809844971E-1  
 3.490000000000000E7    -8.586865067481995E-1   4.009403288364410E-1  -1.276610642671585E-1  -2.754931151866913E-1  -1.282096207141876E-1  -2.756495177745819E-1  -8.523883223533630E-1   4.003065228462219E-1  
 3.492000000000000E7    -8.583332896232605E-1   4.025029838085175E-1  -1.278031915426254E-1  -2.747875154018402E-1  -1.277703791856766E-1  -2.749615907669067E-1  -8.523641824722290E-1   4.020916521549225E-1  
 3.494000000000000E7    -8.580603003501892E-1   4.039080440998077E-1  -1.281733512878418E-1  -2.734377384185791E-1  -1.277353018522263E-1  -2.735762894153595E-1  -8.521321415901184E-1   4.038093686103821E-1  
 3.496000000000000E7    -8.575056791305542E-1   4.053794145584106E-1  -1.278081238269806E-1  -2.723998129367828E-1  -1.278889924287796E-1  -2.727230787277222E-1  -8.518066406250000E-1   4.050877094268799E-1  
 3.498000000000000E7    -8.576422929763794E-1   4.070292115211487E-1  -1.277866810560226E-1  -2.712423801422119E-1  -1.278568208217621E-1  -2.711750566959381E-1  -8.513877987861633E-1   4.065940082073212E-1  
 3.500000000000000E7    -8.571708202362061E-1   4.081910550594330E-1  -1.277610063552856E-1  -2.700451612472534E-1  -1.279876679182053E-1  -2.702495455741882E-1  -8.510968089103699E-1   4.080637991428375E-1  
 3.502000000000000E7    -8.568927645683289E-1   4.096287190914154E-1  -1.277805715799332E-1  -2.690660655498505E-1  -1.279156804084778E-1  -2.689993679523468E-1  -8.509547710418701E-1   4.096195399761200E-1  
 3.504000000000000E7    -8.561565876007080E-1   4.112482070922852E-1  -1.276875287294388E-1  -2.676352262496948E-1  -1.277292519807816E-1  -2.677286267280579E-1  -8.503373861312866E-1   4.108297824859619E-1  
 3.506000000000000E7    -8.558703660964966E-1   4.128521680831909E-1  -1.277386248111725E-1  -2.664613127708435E-1  -1.279990971088409E-1  -2.667297124862671E-1  -8.502337932586670E-1   4.122237861156464E-1  
 3.508000000000000E7    -8.557230234146118E-1   4.146215319633484E-1  -1.274257451295853E-1  -2.650501132011414E-1  -1.277806758880615E-1  -2.652339339256287E-1  -8.496035933494568E-1   4.140568971633911E-1  
 3.510000000000000E7    -8.553999662399292E-1   4.158026278018951E-1  -1.273616105318070E-1  -2.641581296920776E-1  -1.276256591081619E-1  -2.641074955463409E-1  -8.489930033683777E-1   4.154955148696899E-1  
 3.512000000000000E7    -8.547744154930115E-1   4.172204434871674E-1  -1.275055706501007E-1  -2.629389464855194E-1  -1.276779472827911E-1  -2.631342113018036E-1  -8.488615751266480E-1   4.170062839984894E-1  
 3.514000000000000E7    -8.546347618103027E-1   4.188317954540253E-1  -1.272048950195313E-1  -2.620030641555786E-1  -1.274667829275131E-1  -2.620309889316559E-1  -8.487725257873535E-1   4.182217121124268E-1  
 3.516000000000000E7    -8.546695113182068E-1   4.201814234256744E-1  -1.273342669010162E-1  -2.607564628124237E-1  -1.273658275604248E-1  -2.607569098472595E-1  -8.481857180595398E-1   4.196667075157166E-1  
 3.518000000000000E7    -8.541091680526733E-1   4.215078055858612E-1  -1.271899193525314E-1  -2.599819004535675E-1  -1.272507011890411E-1  -2.597732245922089E-1  -8.477753996849060E-1   4.211895763874054E-1  
 3.520000000000000E7    -8.537654876708984E-1   4.230456650257111E-1  -1.273046135902405E-1  -2.582828104496002E-1  -1.271019428968430E-1  -2.583572566509247E-1  -8.472371101379395E-1   4.223397970199585E-1  
 3.522000000000000E7    -8.531135320663452E-1   4.244066476821899E-1  -1.270667612552643E-1  -2.575029134750366E-1  -1.274432837963104E-1  -2.574945688247681E-1  -8.472583889961243E-1   4.243004620075226E-1  
 3.524000000000000E7    -8.529737591743469E-1   4.259691536426544E-1  -1.270041763782501E-1  -2.562358081340790E-1  -1.272240579128265E-1  -2.561523020267487E-1  -8.465206623077393E-1   4.252743422985077E-1  
 3.526000000000000E7    -8.523119091987610E-1   4.273738265037537E-1  -1.268436461687088E-1  -2.549262344837189E-1  -1.270905286073685E-1  -2.552171051502228E-1  -8.464224338531494E-1   4.267383217811585E-1  
 3.528000000000000E7    -8.522431850433350E-1   4.285894036293030E-1  -1.269281953573227E-1  -2.541564106941223E-1  -1.270230263471603E-1  -2.538361251354218E-1  -8.458686470985413E-1   4.279912114143372E-1  
 3.530000000000000E7    -8.516411781311035E-1   4.301647841930389E-1  -1.265939772129059E-1  -2.526836097240448E-1  -1.267293691635132E-1  -2.528441250324249E-1  -8.452734351158142E-1   4.296968877315521E-1  
 3.532000000000000E7    -8.512896895408630E-1   4.319839775562286E-1  -1.270198673009872E-1  -2.516648769378662E-1  -1.268672645092011E-1  -2.518738806247711E-1  -8.452008962631226E-1   4.308016300201416E-1  
 3.534000000000000E7    -8.510143160820007E-1   4.333266913890839E-1  -1.266322880983353E-1  -2.504009604454041E-1  -1.266414076089859E-1  -2.506684362888336E-1  -8.446258902549744E-1   4.326047897338867E-1  
 3.536000000000000E7    -8.505324125289917E-1   4.346720874309540E-1  -1.269796192646027E-1  -2.495982199907303E-1  -1.267131268978119E-1  -2.494807243347168E-1  -8.446425199508667E-1   4.342975318431854E-1  
 3.538000000000000E7    -8.501815199851990E-1   4.360905289649963E-1  -1.263480037450790E-1  -2.482701241970062E-1  -1.265862882137299E-1  -2.483926415443420E-1  -8.442004919052124E-1   4.354381859302521E-1  
 3.540000000000000E7    -8.497533798217773E-1   4.375146031379700E-1  -1.265098303556442E-1  -2.472862601280212E-1  -1.267492771148682E-1  -2.474210560321808E-1  -8.438978791236877E-1   4.366408884525299E-1  
 3.542000000000000E7    -8.489124774932861E-1   4.388976097106934E-1  -1.265359371900559E-1  -2.462232410907745E-1  -1.264613568782806E-1  -2.461692690849304E-1  -8.433330059051514E-1   4.385030269622803E-1  
 3.544000000000000E7    -8.488379120826721E-1   4.402702450752258E-1  -1.263475120067596E-1  -2.449667453765869E-1  -1.264373660087585E-1  -2.450269013643265E-1  -8.429983854293823E-1   4.398393034934998E-1  
 3.546000000000000E7    -8.485590815544128E-1   4.416661560535431E-1  -1.259847879409790E-1  -2.439541816711426E-1  -1.262574046850205E-1  -2.439968287944794E-1  -8.425642251968384E-1   4.412052631378174E-1  
 3.548000000000000E7    -8.480802178382874E-1   4.433000981807709E-1  -1.259549707174301E-1  -2.428130209445953E-1  -1.261805742979050E-1  -2.429998815059662E-1  -8.422663211822510E-1   4.423720836639404E-1  
 3.550000000000000E7    -8.476362824440002E-1   4.445122182369232E-1  -1.258257329463959E-1  -2.419236004352570E-1  -1.260561048984528E-1  -2.418909966945648E-1  -8.417701125144959E-1   4.436686635017395E-1  
 3.552000000000000E7    -8.473256230354309E-1   4.459730386734009E-1  -1.258126944303513E-1  -2.403829991817474E-1  -1.260326355695725E-1  -2.407942414283752E-1  -8.414149880409241E-1   4.452961683273315E-1  
 3.554000000000000E7    -8.466802239418030E-1   4.476115405559540E-1  -1.256392002105713E-1  -2.396385520696640E-1  -1.257153451442719E-1  -2.396727353334427E-1  -8.409432768821716E-1   4.464141428470612E-1  
 3.556000000000000E7    -8.465671539306641E-1   4.487301707267761E-1  -1.257749050855637E-1  -2.386987209320068E-1  -1.256693452596664E-1  -2.386497259140015E-1  -8.405869603157044E-1   4.478948414325714E-1  
 3.558000000000000E7    -8.460422158241272E-1   4.500079751014710E-1  -1.254662871360779E-1  -2.374779433012009E-1  -1.256632953882217E-1  -2.376824021339417E-1  -8.402248024940491E-1   4.494191110134125E-1  
 3.560000000000000E7    -8.456447124481201E-1   4.513393938541412E-1  -1.252446025609970E-1  -2.362226694822311E-1  -1.255398690700531E-1  -2.363609671592712E-1  -8.395453095436096E-1   4.505338668823242E-1  
 3.562000000000000E7    -8.452510237693787E-1   4.529088139533997E-1  -1.253913491964340E-1  -2.351730167865753E-1  -1.254833787679672E-1  -2.354198247194290E-1  -8.392810821533203E-1   4.521966576576233E-1  
 3.564000000000000E7    -8.449940085411072E-1   4.541538357734680E-1  -1.251435428857803E-1  -2.345029711723328E-1  -1.252141743898392E-1  -2.342751920223236E-1  -8.386087417602539E-1   4.535695910453796E-1  
 3.566000000000000E7    -8.445861339569092E-1   4.558948278427124E-1  -1.250254511833191E-1  -2.331618666648865E-1  -1.250486820936203E-1  -2.332584559917450E-1  -8.380140066146851E-1   4.549400806427002E-1  
 3.568000000000000E7    -8.439348936080933E-1   4.566456079483032E-1  -1.249951124191284E-1  -2.319007962942123E-1  -1.248891726136208E-1  -2.321189790964127E-1  -8.380203843116760E-1   4.566574096679688E-1  
 3.570000000000000E7    -8.433309793472290E-1   4.583563804626465E-1  -1.248712837696075E-1  -2.307639122009277E-1  -1.247829869389534E-1  -2.310527563095093E-1  -8.375508785247803E-1   4.575946331024170E-1  
 3.572000000000000E7    -8.430904150009155E-1   4.595807194709778E-1  -1.246440410614014E-1  -2.298973649740219E-1  -1.246484071016312E-1  -2.300733774900436E-1  -8.370236158370972E-1   4.590613543987274E-1  
 3.574000000000000E7    -8.424821496009827E-1   4.609877169132233E-1  -1.242373511195183E-1  -2.292565554380417E-1  -1.242294386029244E-1  -2.292268276214600E-1  -8.369601964950562E-1   4.600267410278320E-1  
 3.576000000000000E7    -8.422005772590637E-1   4.623263776302338E-1  -1.243085414171219E-1  -2.277919650077820E-1  -1.242201551795006E-1  -2.279395461082459E-1  -8.361800909042358E-1   4.618055522441864E-1  
 3.578000000000000E7    -8.415528535842896E-1   4.639031887054443E-1  -1.241719052195549E-1  -2.270428538322449E-1  -1.242313310503960E-1  -2.268034815788269E-1  -8.357106447219849E-1   4.629363715648651E-1  
 3.580000000000000E7    -8.412923216819763E-1   4.651390016078949E-1  -1.239797696471214E-1  -2.256811112165451E-1  -1.240010634064674E-1  -2.259091436862946E-1  -8.353447914123535E-1   4.644642174243927E-1  
 3.582000000000000E7    -8.409784436225891E-1   4.666262269020081E-1  -1.239912211894989E-1  -2.247262895107269E-1  -1.239828094840050E-1  -2.246685028076172E-1  -8.346050977706909E-1   4.654847681522369E-1  
 3.584000000000000E7    -8.404924273490906E-1   4.680258035659790E-1  -1.239091902971268E-1  -2.236173301935196E-1  -1.240117102861404E-1  -2.238816767930985E-1  -8.343128561973572E-1   4.668445885181427E-1  
 3.586000000000000E7    -8.402001261711121E-1   4.691886603832245E-1  -1.235970556735992E-1  -2.227274775505066E-1  -1.237045675516129E-1  -2.227606475353241E-1  -8.338569402694702E-1   4.681994020938873E-1  
 3.588000000000000E7    -8.395448327064514E-1   4.705877900123596E-1  -1.231736540794373E-1  -2.215268313884735E-1  -1.236449852585793E-1  -2.218098640441895E-1  -8.335961699485779E-1   4.695611298084259E-1  
 3.590000000000000E7    -8.389550447463989E-1   4.717643260955811E-1  -1.231516897678375E-1  -2.205935716629028E-1  -1.231334283947945E-1  -2.207939028739929E-1  -8.332123160362244E-1   4.712210297584534E-1  
 3.592000000000000E7    -8.384587764739990E-1   4.731861352920532E-1  -1.231379136443138E-1  -2.196457237005234E-1  -1.233568787574768E-1  -2.194589525461197E-1  -8.322731852531433E-1   4.726574122905731E-1  
 3.594000000000000E7    -8.384263515472412E-1   4.746049940586090E-1  -1.229077726602554E-1  -2.189045697450638E-1  -1.228960603475571E-1  -2.187946587800980E-1  -8.321113586425781E-1   4.735609591007233E-1  
 3.596000000000000E7    -8.379883766174316E-1   4.757770597934723E-1  -1.226201206445694E-1  -2.175645530223846E-1  -1.228713691234589E-1  -2.179282903671265E-1  -8.318380117416382E-1   4.752484560012817E-1  
 3.598000000000000E7    -8.373810648918152E-1   4.770595431327820E-1  -1.224992871284485E-1  -2.164734899997711E-1  -1.227084845304489E-1  -2.167582958936691E-1  -8.311073184013367E-1   4.766229987144470E-1  
 3.600000000000000E7    -8.367680907249451E-1   4.786901175975800E-1  -1.223905533552170E-1  -2.154838889837265E-1  -1.226069107651711E-1  -2.158251702785492E-1  -8.306444883346558E-1   4.779884219169617E-1  
 3.602000000000000E7    -8.366146683692932E-1   4.798386693000794E-1  -1.221671476960182E-1  -2.148186266422272E-1  -1.223623082041740E-1  -2.149323970079422E-1  -8.306291699409485E-1   4.789409935474396E-1  
 3.604000000000000E7    -8.361746668815613E-1   4.811075329780579E-1  -1.221131533384323E-1  -2.136258780956268E-1  -1.222687587141991E-1  -2.137432694435120E-1  -8.301228284835815E-1   4.802995324134827E-1  
 3.606000000000000E7    -8.355655670166016E-1   4.826860129833221E-1  -1.218830347061157E-1  -2.126745730638504E-1  -1.221435964107513E-1  -2.126492559909821E-1  -8.296878933906555E-1   4.813032746315002E-1  
 3.608000000000000E7    -8.352505564689636E-1   4.840027093887329E-1  -1.217266917228699E-1  -2.116285264492035E-1  -1.217882782220841E-1  -2.118386179208756E-1  -8.292072415351868E-1   4.825624227523804E-1  
 3.610000000000000E7    -8.348548412322998E-1   4.848587512969971E-1  -1.214577704668045E-1  -2.105014920234680E-1  -1.217155605554581E-1  -2.107619047164917E-1  -8.284413218498230E-1   4.837702810764313E-1  
 3.612000000000000E7    -8.342422842979431E-1   4.864215552806854E-1  -1.214075684547424E-1  -2.094725072383881E-1  -1.215275228023529E-1  -2.095982283353806E-1  -8.281956911087036E-1   4.855324029922485E-1  
 3.614000000000000E7    -8.338540792465210E-1   4.879952967166901E-1  -1.211670935153961E-1  -2.086694985628128E-1  -1.213623583316803E-1  -2.088141739368439E-1  -8.276147246360779E-1   4.865060448646545E-1  
 3.616000000000000E7    -8.331237435340881E-1   4.892437756061554E-1  -1.210204064846039E-1  -2.076284587383270E-1  -1.214587241411209E-1  -2.077421844005585E-1  -8.272716999053955E-1   4.881358444690704E-1  
 3.618000000000000E7    -8.328700661659241E-1   4.902835786342621E-1  -1.208072751760483E-1  -2.067852467298508E-1  -1.208107322454453E-1  -2.069230377674103E-1  -8.268063068389893E-1   4.894161820411682E-1  
 3.620000000000000E7    -8.321718573570252E-1   4.918919205665588E-1  -1.206761896610260E-1  -2.057504653930664E-1  -1.209018751978874E-1  -2.059883475303650E-1  -8.264969587326050E-1   4.905140995979309E-1  
 3.622000000000000E7    -8.316870927810669E-1   4.928359091281891E-1  -1.204839497804642E-1  -2.048086524009705E-1  -1.207033544778824E-1  -2.048196941614151E-1  -8.258804082870483E-1   4.919152557849884E-1  
 3.624000000000000E7    -8.312768340110779E-1   4.942079484462738E-1  -1.203098967671394E-1  -2.039146572351456E-1  -1.204681992530823E-1  -2.039701789617539E-1  -8.254276514053345E-1   4.930909276008606E-1  
 3.626000000000000E7    -8.309386372566223E-1   4.956023395061493E-1  -1.200719475746155E-1  -2.028000056743622E-1  -1.203009039163590E-1  -2.029031664133072E-1  -8.249286413192749E-1   4.942712783813477E-1  
 3.628000000000000E7    -8.300954103469849E-1   4.969951510429382E-1  -1.198862195014954E-1  -2.016972303390503E-1  -1.199472844600678E-1  -2.018951922655106E-1  -8.245078921318054E-1   4.956819713115692E-1  
 3.630000000000000E7    -8.299351930618286E-1   4.980568587779999E-1  -1.196691617369652E-1  -2.008860558271408E-1  -1.198538318276405E-1  -2.007684409618378E-1  -8.238597512245178E-1   4.968287348747253E-1  
 3.632000000000000E7    -8.291592597961426E-1   4.991374611854553E-1  -1.194051355123520E-1  -1.999943852424622E-1  -1.195317804813385E-1  -1.999029964208603E-1  -8.233116269111633E-1   4.982000589370728E-1  
 3.634000000000000E7    -8.287271857261658E-1   5.006063580513001E-1  -1.192986518144608E-1  -1.989510953426361E-1  -1.195298731327057E-1  -1.988920569419861E-1  -8.229486942291260E-1   4.992585480213165E-1  
 3.636000000000000E7    -8.282676339149475E-1   5.017498731613159E-1  -1.191336736083031E-1  -1.980583369731903E-1  -1.192237362265587E-1  -1.979438513517380E-1  -8.222836852073669E-1   5.007874369621277E-1  
 3.638000000000000E7    -8.279553055763245E-1   5.030335783958435E-1  -1.188115477561951E-1  -1.968439668416977E-1  -1.190604194998741E-1  -1.972098499536514E-1  -8.218479156494141E-1   5.018427371978760E-1  
 3.640000000000000E7    -8.272627592086792E-1   5.042802691459656E-1  -1.186272054910660E-1  -1.961803585290909E-1  -1.187713593244553E-1  -1.960368305444717E-1  -8.215764164924622E-1   5.030993819236755E-1  
 3.642000000000000E7    -8.271285295486450E-1   5.053566098213196E-1  -1.184748262166977E-1  -1.950503885746002E-1  -1.185378879308701E-1  -1.951912492513657E-1  -8.207815289497376E-1   5.045519471168518E-1  
 3.644000000000000E7    -8.266162872314453E-1   5.069280266761780E-1  -1.182372644543648E-1  -1.942608207464218E-1  -1.182170361280441E-1  -1.941224038600922E-1  -8.202568292617798E-1   5.056197047233582E-1  
 3.646000000000000E7    -8.261626362800598E-1   5.079069733619690E-1  -1.180478632450104E-1  -1.932080090045929E-1  -1.182491853833199E-1  -1.931719332933426E-1  -8.197391629219055E-1   5.069494843482971E-1  
 3.648000000000000E7    -8.254086971282959E-1   5.093195438385010E-1  -1.178282946348190E-1  -1.924506276845932E-1  -1.180015057325363E-1  -1.922808587551117E-1  -8.191840052604675E-1   5.082920789718628E-1  
 3.650000000000000E7    -8.246134519577026E-1   5.102195739746094E-1  -1.176328063011169E-1  -1.914371550083160E-1  -1.177145242691040E-1  -1.912549585103989E-1  -8.188409209251404E-1   5.096449851989746E-1  
 3.652000000000000E7    -8.241584897041321E-1   5.117394328117371E-1  -1.173804551362991E-1  -1.902658492326737E-1  -1.174213141202927E-1  -1.903407424688339E-1  -8.184865117073059E-1   5.105893015861511E-1  
 3.654000000000000E7    -8.236073851585388E-1   5.133683085441589E-1  -1.172387152910233E-1  -1.893494874238968E-1  -1.174209415912628E-1  -1.893046200275421E-1  -8.177301883697510E-1   5.120790600776672E-1  
 3.656000000000000E7    -8.233847022056580E-1   5.141076445579529E-1  -1.169290617108345E-1  -1.884795874357224E-1  -1.168655902147293E-1  -1.886807680130005E-1  -8.170628547668457E-1   5.130963325500488E-1  
 3.658000000000000E7    -8.226703405380249E-1   5.154082775115967E-1  -1.167688965797424E-1  -1.876007765531540E-1  -1.168922781944275E-1  -1.876685470342636E-1  -8.165416121482849E-1   5.143676400184631E-1  
 3.660000000000000E7    -8.223425745964050E-1   5.168803334236145E-1  -1.163322925567627E-1  -1.866355687379837E-1  -1.167147383093834E-1  -1.867510825395584E-1  -8.158543705940247E-1   5.156329274177551E-1  
 3.662000000000000E7    -8.214629888534546E-1   5.179456472396851E-1  -1.161663308739662E-1  -1.857815086841583E-1  -1.164358854293823E-1  -1.856821626424789E-1  -8.155878782272339E-1   5.168040990829468E-1  
 3.664000000000000E7    -8.212548494338989E-1   5.193384289741516E-1  -1.160367131233215E-1  -1.849379241466522E-1  -1.162688359618187E-1  -1.849052757024765E-1  -8.150011897087097E-1   5.179430842399597E-1  
 3.666000000000000E7    -8.205759525299072E-1   5.204839706420898E-1  -1.158303767442703E-1  -1.840701848268509E-1  -1.157715767621994E-1  -1.839007586240768E-1  -8.147074580192566E-1   5.190466642379761E-1  
 3.668000000000000E7    -8.200287222862244E-1   5.216885805130005E-1  -1.157264783978462E-1  -1.831353008747101E-1  -1.156434863805771E-1  -1.830131411552429E-1  -8.140037655830383E-1   5.202487111091614E-1  
 3.670000000000000E7    -8.196238279342651E-1   5.229398608207703E-1  -1.153719127178192E-1  -1.819207370281220E-1  -1.153768151998520E-1  -1.823772937059403E-1  -8.132625818252564E-1   5.217118263244629E-1  
 3.672000000000000E7    -8.192422986030579E-1   5.243438482284546E-1  -1.151213273406029E-1  -1.811831295490265E-1  -1.152069494128227E-1  -1.812946200370789E-1  -8.129767179489136E-1   5.227698683738709E-1  
 3.674000000000000E7    -8.186221122741699E-1   5.255662202835083E-1  -1.149394884705544E-1  -1.802045553922653E-1  -1.150342673063278E-1  -1.803387999534607E-1  -8.120566010475159E-1   5.239595174789429E-1  
 3.676000000000000E7    -8.176860809326172E-1   5.263423919677734E-1  -1.146874576807022E-1  -1.792792677879334E-1  -1.149094104766846E-1  -1.794806867837906E-1  -8.115513324737549E-1   5.254031419754028E-1  
 3.678000000000000E7    -8.173009753227234E-1   5.279240012168884E-1  -1.144733950495720E-1  -1.785464584827423E-1  -1.145937368273735E-1  -1.786694079637528E-1  -8.112501502037048E-1   5.264996886253357E-1  
 3.680000000000000E7    -8.168463110923767E-1   5.289960503578186E-1  -1.140785366296768E-1  -1.775256395339966E-1  -1.144130006432533E-1  -1.775374561548233E-1  -8.107837438583374E-1   5.274040699005127E-1  
 3.682000000000000E7    -8.166162371635437E-1   5.301104784011841E-1  -1.139626428484917E-1  -1.767252534627914E-1  -1.140170022845268E-1  -1.770051121711731E-1  -8.099859952926636E-1   5.287274718284607E-1  
 3.684000000000000E7    -8.155601620674133E-1   5.312327146530151E-1  -1.137059405446053E-1  -1.757700294256210E-1  -1.137759611010552E-1  -1.758983880281448E-1  -8.095214962959290E-1   5.299933552742004E-1  
 3.686000000000000E7    -8.151561617851257E-1   5.327828526496887E-1  -1.135183274745941E-1  -1.747900843620300E-1  -1.137575209140778E-1  -1.748065352439880E-1  -8.088158369064331E-1   5.312028527259827E-1  
 3.688000000000000E7    -8.149272203445435E-1   5.340011715888977E-1  -1.133064478635788E-1  -1.740401089191437E-1  -1.134408861398697E-1  -1.740123331546783E-1  -8.083540797233582E-1   5.325708985328674E-1  
 3.690000000000000E7    -8.139101862907410E-1   5.350458621978760E-1  -1.129126101732254E-1  -1.729843318462372E-1  -1.131428331136704E-1  -1.731439977884293E-1  -8.079953193664551E-1   5.335536599159241E-1  
 3.692000000000000E7    -8.135426044464111E-1   5.361006259918213E-1  -1.127375215291977E-1  -1.723688840866089E-1  -1.129769235849381E-1  -1.721823364496231E-1  -8.073535561561585E-1   5.349773764610291E-1  
 3.694000000000000E7    -8.129186630249023E-1   5.371048450469971E-1  -1.124501451849937E-1  -1.713586747646332E-1  -1.124987751245499E-1  -1.713845729827881E-1  -8.069807291030884E-1   5.356881022453308E-1  
 3.696000000000000E7    -8.122971653938294E-1   5.385698080062866E-1  -1.122365444898605E-1  -1.704238802194595E-1  -1.123593747615814E-1  -1.705810427665710E-1  -8.064553141593933E-1   5.373547077178955E-1  
 3.698000000000000E7    -8.119314312934876E-1   5.399549603462219E-1  -1.118966341018677E-1  -1.695605367422104E-1  -1.121569573879242E-1  -1.696917861700058E-1  -8.058381080627441E-1   5.381742119789124E-1  
 3.700000000000000E7    -8.112848401069641E-1   5.408099889755249E-1  -1.116980016231537E-1  -1.686501652002335E-1  -1.119769886136055E-1  -1.689038127660751E-1  -8.050706386566162E-1   5.393802523612976E-1  
 3.702000000000000E7    -8.108063936233521E-1   5.420152544975281E-1  -1.114411056041718E-1  -1.678802818059921E-1  -1.115373820066452E-1  -1.679304838180542E-1  -8.046877980232239E-1   5.404499769210815E-1  
 3.704000000000000E7    -8.100994229316711E-1   5.432466864585877E-1  -1.112850680947304E-1  -1.671660244464874E-1  -1.114546954631805E-1  -1.669995188713074E-1  -8.042514920234680E-1   5.418399572372437E-1  
 3.706000000000000E7    -8.101901412010193E-1   5.442816615104675E-1  -1.109317317605019E-1  -1.662371754646301E-1  -1.111483722925186E-1  -1.662509292364121E-1  -8.035439252853394E-1   5.429502725601196E-1  
 3.708000000000000E7    -8.092394471168518E-1   5.455854535102844E-1  -1.107057109475136E-1  -1.652363091707230E-1  -1.108975112438202E-1  -1.653095036745071E-1  -8.027887940406799E-1   5.444456338882446E-1  
 3.710000000000000E7    -8.086763024330139E-1   5.469900369644165E-1  -1.104187220335007E-1  -1.645883023738861E-1  -1.105137616395950E-1  -1.645274162292481E-1  -8.024121522903442E-1   5.451080799102783E-1  
 3.712000000000000E7    -8.077003955841065E-1   5.480250716209412E-1  -1.103263869881630E-1  -1.636400967836380E-1  -1.103780865669251E-1  -1.636434346437454E-1  -8.015699386596680E-1   5.467787981033325E-1  
 3.714000000000000E7    -8.074238300323486E-1   5.491673946380615E-1  -1.099026799201965E-1  -1.628774553537369E-1  -1.100567206740379E-1  -1.626774519681931E-1  -8.012214899063110E-1   5.474305748939514E-1  
 3.716000000000000E7    -8.068734407424927E-1   5.505578517913818E-1  -1.096315979957581E-1  -1.619217395782471E-1  -1.097983270883560E-1  -1.619918495416641E-1  -8.007592558860779E-1   5.486856698989868E-1  
 3.718000000000000E7    -8.061428666114807E-1   5.511757135391235E-1  -1.095336452126503E-1  -1.610262691974640E-1  -1.095153242349625E-1  -1.610017567873001E-1  -8.000876903533936E-1   5.501769781112671E-1  
 3.720000000000000E7    -8.056528568267822E-1   5.525310039520264E-1  -1.090492084622383E-1  -1.602534949779511E-1  -1.093071550130844E-1  -1.601618081331253E-1  -7.994282841682434E-1   5.513433814048767E-1  
 3.722000000000000E7    -8.053140640258789E-1   5.536510348320007E-1  -1.088082492351532E-1  -1.593137234449387E-1  -1.088813394308090E-1  -1.593707501888275E-1  -7.985802888870239E-1   5.521288514137268E-1  
 3.724000000000000E7    -8.043835163116455E-1   5.548885464668274E-1  -1.084696054458618E-1  -1.585274934768677E-1  -1.086953952908516E-1  -1.585345715284348E-1  -7.981907725334168E-1   5.535303950309753E-1  
 3.726000000000000E7    -8.038541674613953E-1   5.560157895088196E-1  -1.082817167043686E-1  -1.575978100299835E-1  -1.084982827305794E-1  -1.577079892158508E-1  -7.975961565971375E-1   5.544899106025696E-1  
 3.728000000000000E7    -8.032701015472412E-1   5.568726062774658E-1  -1.081518903374672E-1  -1.567903310060501E-1  -1.082494333386421E-1  -1.568454205989838E-1  -7.971908450126648E-1   5.558905601501465E-1  
 3.730000000000000E7    -8.026191592216492E-1   5.580379366874695E-1  -1.078778058290482E-1  -1.560792177915573E-1  -1.078554987907410E-1  -1.560799330472946E-1  -7.968610525131226E-1   5.566838979721069E-1  
 3.732000000000000E7    -8.021429181098938E-1   5.593028068542481E-1  -1.075358539819717E-1  -1.551818549633026E-1  -1.076050549745560E-1  -1.552719473838806E-1  -7.959930300712585E-1   5.579313039779663E-1  
 3.734000000000000E7    -8.017131686210632E-1   5.604363679885864E-1  -1.072622612118721E-1  -1.544400006532669E-1  -1.072639897465706E-1  -1.546216905117035E-1  -7.952957749366760E-1   5.590798854827881E-1  
 3.736000000000000E7    -8.010317683219910E-1   5.619047284126282E-1  -1.071036979556084E-1  -1.536682397127152E-1  -1.072755604982376E-1  -1.534526497125626E-1  -7.947849631309509E-1   5.602493882179260E-1  
 3.738000000000000E7    -8.005176186561585E-1   5.625415444374085E-1  -1.065296530723572E-1  -1.527712792158127E-1  -1.067033857107163E-1  -1.528316289186478E-1  -7.944366931915283E-1   5.609889626502991E-1  
 3.740000000000000E7    -7.997170090675354E-1   5.639921426773071E-1  -1.062683537602425E-1  -1.519482284784317E-1  -1.066176146268845E-1  -1.517773419618607E-1  -7.934113740921021E-1   5.622214078903198E-1  
 3.742000000000000E7    -7.992515563964844E-1   5.650319457054138E-1  -1.060792505741119E-1  -1.510008573532105E-1  -1.062929332256317E-1  -1.510137021541596E-1  -7.928788661956787E-1   5.633897781372070E-1  
 3.744000000000000E7    -7.983787655830383E-1   5.663762688636780E-1  -1.058062165975571E-1  -1.503125429153442E-1  -1.060155406594276E-1  -1.502335220575333E-1  -7.922772169113159E-1   5.643581151962280E-1  
 3.746000000000000E7    -7.984293699264526E-1   5.673229098320007E-1  -1.055637896060944E-1  -1.495873779058456E-1  -1.057207062840462E-1  -1.495599597692490E-1  -7.914767861366272E-1   5.659012198448181E-1  
 3.748000000000000E7    -7.972297072410584E-1   5.683523416519165E-1  -1.052256748080254E-1  -1.486347913742065E-1  -1.053523123264313E-1  -1.486287564039230E-1  -7.911782860755920E-1   5.666412115097046E-1  
 3.750000000000000E7    -7.967821955680847E-1   5.694499611854553E-1  -1.048502475023270E-1  -1.477990895509720E-1  -1.051581203937531E-1  -1.477606296539307E-1  -7.904127240180969E-1   5.680015683174133E-1  
 3.752000000000000E7    -7.964066863059998E-1   5.707225203514099E-1  -1.046417057514191E-1  -1.470105051994324E-1  -1.047583594918251E-1  -1.470277607440949E-1  -7.899461388587952E-1   5.689208507537842E-1  
 3.754000000000000E7    -7.957716584205627E-1   5.711407065391541E-1  -1.042655110359192E-1  -1.462399214506149E-1  -1.043982803821564E-1  -1.462181508541107E-1  -7.892411351203919E-1   5.703312158584595E-1  
 3.756000000000000E7    -7.948248386383057E-1   5.725507736206055E-1  -1.040384843945503E-1  -1.453621238470078E-1  -1.040612459182739E-1  -1.452871412038803E-1  -7.884765863418579E-1   5.710147619247437E-1  
 3.758000000000000E7    -7.945655584335327E-1   5.738950371742249E-1  -1.036356240510941E-1  -1.446093022823334E-1  -1.039769798517227E-1  -1.446418166160584E-1  -7.881103754043579E-1   5.723403692245483E-1  
 3.760000000000000E7    -7.939853668212891E-1   5.748181343078613E-1  -1.034892499446869E-1  -1.437914967536926E-1  -1.035608798265457E-1  -1.438908576965332E-1  -7.876393198966980E-1   5.734882354736328E-1  
 3.762000000000000E7    -7.929928302764893E-1   5.760378837585449E-1  -1.031369268894196E-1  -1.429646164178848E-1  -1.033735200762749E-1  -1.429874897003174E-1  -7.865229845046997E-1   5.745148062705994E-1  
 3.764000000000000E7    -7.925863265991211E-1   5.770584940910339E-1  -1.028522253036499E-1  -1.421988010406494E-1  -1.030460447072983E-1  -1.423033177852631E-1  -7.861572504043579E-1   5.754804015159607E-1  
 3.766000000000000E7    -7.921771407127380E-1   5.781369209289551E-1  -1.024119481444359E-1  -1.415372788906097E-1  -1.027690768241882E-1  -1.414719820022583E-1  -7.857969999313355E-1   5.766490697860718E-1  
 3.768000000000000E7    -7.911624312400818E-1   5.793599486351013E-1  -1.022147238254547E-1  -1.406707018613815E-1  -1.023031175136566E-1  -1.405265182256699E-1  -7.851079702377319E-1   5.776554942131043E-1  
 3.770000000000000E7    -7.907342314720154E-1   5.804160833358765E-1  -1.018921509385109E-1  -1.399703472852707E-1  -1.019208803772926E-1  -1.399943828582764E-1  -7.845166921615601E-1   5.785596966743469E-1  
 3.772000000000000E7    -7.902898788452148E-1   5.816259980201721E-1  -1.016149818897247E-1  -1.391208469867706E-1  -1.017919033765793E-1  -1.392235606908798E-1  -7.841991186141968E-1   5.796362757682800E-1  
 3.774000000000000E7    -7.895945310592651E-1   5.821736454963684E-1  -1.012889146804810E-1  -1.383959949016571E-1  -1.013521626591682E-1  -1.384229362010956E-1  -7.835891842842102E-1   5.809559822082520E-1  
 3.776000000000000E7    -7.891754508018494E-1   5.836563706398010E-1  -1.010913327336311E-1  -1.374897509813309E-1  -1.012391820549965E-1  -1.375099569559097E-1  -7.826130986213684E-1   5.818522572517395E-1  
 3.778000000000000E7    -7.883491516113281E-1   5.847420692443848E-1  -1.007462367415428E-1  -1.368431448936462E-1  -1.008994877338409E-1  -1.369121670722961E-1  -7.820684909820557E-1   5.831542611122131E-1  
 3.780000000000000E7    -7.878435254096985E-1   5.858228206634522E-1  -1.003707945346832E-1  -1.360379010438919E-1  -1.004015877842903E-1  -1.359098255634308E-1  -7.814605236053467E-1   5.839608311653137E-1  
 3.782000000000000E7    -7.873342633247376E-1   5.866083502769470E-1  -1.000120341777802E-1  -1.352913826704025E-1  -1.001937985420227E-1  -1.353319585323334E-1  -7.808101177215576E-1   5.850889086723328E-1  
 3.784000000000000E7    -7.862716913223267E-1   5.878977179527283E-1  -9.964349865913391E-2  -1.345189660787582E-1  -9.981223195791245E-2  -1.344514042139053E-1  -7.801161408424377E-1   5.858677029609680E-1  
 3.786000000000000E7    -7.857373356819153E-1   5.890080332756043E-1  -9.952379763126373E-2  -1.337157487869263E-1  -9.964319318532944E-2  -1.336720883846283E-1  -7.794772982597351E-1   5.874620079994202E-1  
 3.788000000000000E7    -7.852347493171692E-1   5.898979306221008E-1  -9.900876879692078E-2  -1.330584287643433E-1  -9.926814585924149E-2  -1.329276263713837E-1  -7.790766358375549E-1   5.880809426307678E-1  
 3.790000000000000E7    -7.843511104583740E-1   5.909541249275208E-1  -9.877829998731613E-2  -1.321180164813995E-1  -9.885501861572266E-2  -1.321728229522705E-1  -7.782086133956909E-1   5.892399549484253E-1  
 3.792000000000000E7    -7.840683460235596E-1   5.917728543281555E-1  -9.853024035692215E-2  -1.313952952623367E-1  -9.861908853054047E-2  -1.315403580665588E-1  -7.775712013244629E-1   5.904071331024170E-1  
 3.794000000000000E7    -7.833587527275085E-1   5.931675434112549E-1  -9.814728796482086E-2  -1.306482106447220E-1  -9.832877665758133E-2  -1.307822912931442E-1  -7.770302295684815E-1   5.914700031280518E-1  
 3.796000000000000E7    -7.826511859893799E-1   5.940996408462524E-1  -9.795813262462616E-2  -1.300272196531296E-1  -9.815923124551773E-2  -1.300634294748306E-1  -7.765319347381592E-1   5.924743413925171E-1  
 3.798000000000000E7    -7.823462486267090E-1   5.957220196723938E-1  -9.757141768932343E-2  -1.293027549982071E-1  -9.790275245904923E-2  -1.293110549449921E-1  -7.759376168251038E-1   5.934479832649231E-1  
 3.800000000000000E7    -7.814560532569885E-1   5.962345004081726E-1  -9.713356941938400E-2  -1.284785866737366E-1  -9.751504659652710E-2  -1.284526884555817E-1  -7.750851511955261E-1   5.944204330444336E-1  
 3.802000000000000E7    -7.809719443321228E-1   5.976327657699585E-1  -9.707516431808472E-2  -1.278642416000366E-1  -9.713525325059891E-2  -1.278243809938431E-1  -7.747849225997925E-1   5.955892801284790E-1  
 3.804000000000000E7    -7.798324227333069E-1   5.983545184135437E-1  -9.667589515447617E-2  -1.268892139196396E-1  -9.691898524761200E-2  -1.268395036458969E-1  -7.738860845565796E-1   5.965675711631775E-1  
 3.806000000000000E7    -7.796042561531067E-1   5.993426442146301E-1  -9.625785052776337E-2  -1.262674331665039E-1  -9.646259248256683E-2  -1.262397170066834E-1  -7.734509110450745E-1   5.973877906799316E-1  
 3.808000000000000E7    -7.791600823402405E-1   6.002225875854492E-1  -9.600084275007248E-2  -1.255351006984711E-1  -9.607629477977753E-2  -1.255915910005570E-1  -7.727447748184204E-1   5.988045930862427E-1  
 3.810000000000000E7    -7.784966826438904E-1   6.014487743377686E-1  -9.568117558956146E-2  -1.249338760972023E-1  -9.568186849355698E-2  -1.248614937067032E-1  -7.721461057662964E-1   5.994167327880859E-1  
 3.812000000000000E7    -7.774677872657776E-1   6.021639704704285E-1  -9.534978866577148E-2  -1.241462454199791E-1  -9.538853168487549E-2  -1.241318359971046E-1  -7.716926336288452E-1   6.006532311439514E-1  
 3.814000000000000E7    -7.768641710281372E-1   6.037984490394592E-1  -9.509333968162537E-2  -1.233434081077576E-1  -9.522947669029236E-2  -1.233395189046860E-1  -7.707720398902893E-1   6.016644239425659E-1  
 3.816000000000000E7    -7.764486670494080E-1   6.046710610389710E-1  -9.464165568351746E-2  -1.226451471447945E-1  -9.485512971878052E-2  -1.226186677813530E-1  -7.700110673904419E-1   6.026028394699097E-1  
 3.818000000000000E7    -7.757340073585510E-1   6.055862307548523E-1  -9.436705708503723E-2  -1.219312250614166E-1  -9.439332783222199E-2  -1.218689382076263E-1  -7.691320776939392E-1   6.037268042564392E-1  
 3.820000000000000E7    -7.752904891967773E-1   6.065391898155212E-1  -9.393927454948425E-2  -1.212389022111893E-1  -9.402831643819809E-2  -1.212856248021126E-1  -7.690704464912415E-1   6.046373248100281E-1  
 3.822000000000000E7    -7.744535803794861E-1   6.076361536979675E-1  -9.377270936965942E-2  -1.204187721014023E-1  -9.385978430509567E-2  -1.203217655420303E-1  -7.681034803390503E-1   6.059527397155762E-1  
 3.824000000000000E7    -7.739213109016419E-1   6.086933612823486E-1  -9.333033859729767E-2  -1.197536960244179E-1  -9.350643306970596E-2  -1.196699738502502E-1  -7.677843570709229E-1   6.070090532302856E-1  
 3.826000000000000E7    -7.729806900024414E-1   6.097968220710754E-1  -9.311892092227936E-2  -1.189640611410141E-1  -9.321256726980209E-2  -1.189213246107101E-1  -7.669436931610107E-1   6.079009771347046E-1  
 3.828000000000000E7    -7.725558876991272E-1   6.106009483337402E-1  -9.270997345447540E-2  -1.183596104383469E-1  -9.299510717391968E-2  -1.182850599288940E-1  -7.663589119911194E-1   6.089931726455689E-1  
 3.830000000000000E7    -7.718909978866577E-1   6.117585301399231E-1  -9.228684753179550E-2  -1.174981221556664E-1  -9.243092685937882E-2  -1.176107376813889E-1  -7.655516862869263E-1   6.096681952476502E-1  
 3.832000000000000E7    -7.712703347206116E-1   6.130069494247437E-1  -9.214612841606140E-2  -1.168703287839890E-1  -9.217834472656250E-2  -1.168050840497017E-1  -7.648450136184692E-1   6.106840372085571E-1  
 3.834000000000000E7    -7.707020044326782E-1   6.142181754112244E-1  -9.170363098382950E-2  -1.163285076618195E-1  -9.186930954456329E-2  -1.163091734051704E-1  -7.649092674255371E-1   6.120162010192871E-1  
 3.836000000000000E7    -7.699264883995056E-1   6.147788763046265E-1  -9.141632914543152E-2  -1.154347732663155E-1  -9.149859845638275E-2  -1.153857633471489E-1  -7.638126015663147E-1   6.131002306938171E-1  
 3.838000000000000E7    -7.691347002983093E-1   6.155349612236023E-1  -9.109901636838913E-2  -1.147469282150269E-1  -9.125535190105438E-2  -1.146736741065979E-1  -7.628417611122131E-1   6.140694022178650E-1  
 3.840000000000000E7    -7.687311768531799E-1   6.169841885566711E-1  -9.069268405437470E-2  -1.141066253185272E-1  -9.090296924114227E-2  -1.140352413058281E-1  -7.624732255935669E-1   6.147505640983582E-1  
 3.842000000000000E7    -7.679169774055481E-1   6.176552772521973E-1  -9.028070420026779E-2  -1.133888289332390E-1  -9.048854559659958E-2  -1.133441701531410E-1  -7.618450522422791E-1   6.156524419784546E-1  
 3.844000000000000E7    -7.673971652984619E-1   6.187005043029785E-1  -9.016082435846329E-2  -1.126909479498863E-1  -9.014799445867539E-2  -1.127456426620483E-1  -7.611912488937378E-1   6.168065071105957E-1  
 3.846000000000000E7    -7.668688893318176E-1   6.198006868362427E-1  -8.967788517475128E-2  -1.119158864021301E-1  -8.990758657455444E-2  -1.118639111518860E-1  -7.603510022163391E-1   6.177573204040527E-1  
 3.848000000000000E7    -7.665547132492065E-1   6.206429600715637E-1  -8.930622041225433E-2  -1.113803982734680E-1  -8.950629830360413E-2  -1.113357096910477E-1  -7.600946426391602E-1   6.185154914855957E-1  
 3.850000000000000E7    -7.654903531074524E-1   6.218699812889099E-1  -8.900845795869827E-2  -1.106010153889656E-1  -8.930654823780060E-2  -1.104884222149849E-1  -7.591910362243652E-1   6.195133328437805E-1  
 3.852000000000000E7    -7.649819254875183E-1   6.224400997161865E-1  -8.869746327400208E-2  -1.098644286394119E-1  -8.876976370811462E-2  -1.099834144115448E-1  -7.584668993949890E-1   6.205869317054749E-1  
 3.854000000000000E7    -7.639191150665283E-1   6.237141489982605E-1  -8.830992877483368E-2  -1.092297658324242E-1  -8.848668634891510E-2  -1.091348677873612E-1  -7.577745914459229E-1   6.217824220657349E-1  
 3.856000000000000E7    -7.632569074630737E-1   6.246924996376038E-1  -8.793754875659943E-2  -1.084805130958557E-1  -8.816278725862503E-2  -1.084796041250229E-1  -7.571617960929871E-1   6.224641203880310E-1  
 3.858000000000000E7    -7.628254294395447E-1   6.255561709403992E-1  -8.762204647064209E-2  -1.077961325645447E-1  -8.773503452539444E-2  -1.078746244311333E-1  -7.566402554512024E-1   6.238455772399902E-1  
 3.860000000000000E7    -7.620573639869690E-1   6.269825696945190E-1  -8.734159171581268E-2  -1.070718690752983E-1  -8.757559955120087E-2  -1.071388572454453E-1  -7.557416558265686E-1   6.247114539146423E-1  
 3.862000000000000E7    -7.612912058830261E-1   6.272876262664795E-1  -8.684422075748444E-2  -1.063786447048187E-1  -8.713036775588989E-2  -1.063592135906220E-1  -7.548961639404297E-1   6.251541376113892E-1  
 3.864000000000000E7    -7.606648802757263E-1   6.281760931015015E-1  -8.653555065393448E-2  -1.057583764195442E-1  -8.676084876060486E-2  -1.057226583361626E-1  -7.544041275978088E-1   6.265165209770203E-1  
 3.866000000000000E7    -7.601898312568665E-1   6.296164393424988E-1  -8.636489510536194E-2  -1.051517128944397E-1  -8.640433847904205E-2  -1.050995737314224E-1  -7.538164854049683E-1   6.274183392524719E-1  
 3.868000000000000E7    -7.594593763351440E-1   6.303029656410217E-1  -8.589114993810654E-2  -1.044055074453354E-1  -8.601862192153931E-2  -1.044172048568726E-1  -7.529433965682983E-1   6.282448172569275E-1  
 3.870000000000000E7    -7.586107254028320E-1   6.316058635711670E-1  -8.559815585613251E-2  -1.037478670477867E-1  -8.578491210937500E-2  -1.036970391869545E-1  -7.525401711463928E-1   6.293562054634094E-1  
 3.872000000000000E7    -7.579047083854675E-1   6.325073838233948E-1  -8.527147769927979E-2  -1.031208038330078E-1  -8.535239100456238E-2  -1.031034961342812E-1  -7.519944310188294E-1   6.302464008331299E-1  
 3.874000000000000E7    -7.576243877410889E-1   6.333054900169373E-1  -8.485003560781479E-2  -1.024480387568474E-1  -8.499050140380859E-2  -1.024807170033455E-1  -7.509602308273315E-1   6.313689351081848E-1  
 3.876000000000000E7    -7.568278312683106E-1   6.343761086463928E-1  -8.454108238220215E-2  -1.017951965332031E-1  -8.465392887592316E-2  -1.017220690846443E-1  -7.505114078521729E-1   6.322574019432068E-1  
 3.878000000000000E7    -7.560731768608093E-1   6.352990269660950E-1  -8.417915552854538E-2  -1.010679602622986E-1  -8.438693732023239E-2  -1.009911745786667E-1  -7.495926022529602E-1   6.335881352424622E-1  
 3.880000000000000E7    -7.553320527076721E-1   6.361538767814636E-1  -8.387560397386551E-2  -1.004403382539749E-1  -8.404932916164398E-2  -1.003990918397903E-1  -7.489426136016846E-1   6.344341635704041E-1  
 3.882000000000000E7    -7.548021078109741E-1   6.375044584274292E-1  -8.346366882324219E-2  -9.990475326776505E-2  -8.363237977027893E-2  -9.977381676435471E-2  -7.485464215278626E-1   6.354331970214844E-1  
 3.884000000000000E7    -7.542663216590881E-1   6.382303833961487E-1  -8.310018479824066E-2  -9.918588399887085E-2  -8.319611847400665E-2  -9.914360195398331E-2  -7.475460767745972E-1   6.362324357032776E-1  
 3.886000000000000E7    -7.535240054130554E-1   6.389894485473633E-1  -8.275543153285980E-2  -9.857198596000671E-2  -8.292316645383835E-2  -9.849105030298233E-2  -7.470981478691101E-1   6.370495557785034E-1  
 3.888000000000000E7    -7.527740597724915E-1   6.400292515754700E-1  -8.242293447256088E-2  -9.788428992033005E-2  -8.254736661911011E-2  -9.785882383584976E-2  -7.464671134948731E-1   6.377915143966675E-1  
 3.890000000000000E7    -7.519927620887756E-1   6.411806344985962E-1  -8.196364343166351E-2  -9.713087975978851E-2  -8.213992416858673E-2  -9.715674817562103E-2  -7.455986738204956E-1   6.386564970016480E-1  
 3.892000000000000E7    -7.513886690139771E-1   6.420628428459168E-1  -8.163286000490189E-2  -9.657746553421021E-2  -8.183822035789490E-2  -9.649804234504700E-2  -7.451486587524414E-1   6.396139264106751E-1  
 3.894000000000000E7    -7.511115074157715E-1   6.428930759429932E-1  -8.136330544948578E-2  -9.598765522241592E-2  -8.146934211254120E-2  -9.590850025415421E-2  -7.444267272949219E-1   6.406583786010742E-1  
 3.896000000000000E7    -7.500093579292297E-1   6.441004276275635E-1  -8.092427253723145E-2  -9.527815878391266E-2  -8.113991469144821E-2  -9.527675807476044E-2  -7.438726425170898E-1   6.415777206420898E-1  
 3.898000000000000E7    -7.494193315505981E-1   6.450392007827759E-1  -8.065731823444367E-2  -9.458289295434952E-2  -8.081886172294617E-2  -9.465373307466507E-2  -7.431638240814209E-1   6.425951719284058E-1  
 3.900000000000000E7    -7.487623691558838E-1   6.458613276481628E-1  -8.025955408811569E-2  -9.412234276533127E-2  -8.041688799858093E-2  -9.401956200599670E-2  -7.426577210426331E-1   6.436935663223267E-1  
 3.902000000000000E7    -7.481873631477356E-1   6.464779376983643E-1  -7.986662536859512E-2  -9.343668818473816E-2  -8.003717660903931E-2  -9.332235157489777E-2  -7.417412996292114E-1   6.445075273513794E-1  
 3.904000000000000E7    -7.473680377006531E-1   6.476888060569763E-1  -7.943904399871826E-2  -9.269625693559647E-2  -7.963280379772186E-2  -9.281653910875320E-2  -7.411538958549500E-1   6.451717615127564E-1  
 3.906000000000000E7    -7.469804883003235E-1   6.486659646034241E-1  -7.921905070543289E-2  -9.221378713846207E-2  -7.938079535961151E-2  -9.216053038835526E-2  -7.402969598770142E-1   6.463612318038940E-1  
 3.908000000000000E7    -7.461104393005371E-1   6.492208242416382E-1  -7.883983105421066E-2  -9.149151295423508E-2  -7.889081537723541E-2  -9.137400239706039E-2  -7.396188378334045E-1   6.469525098800659E-1  
 3.910000000000000E7    -7.452264428138733E-1   6.501982808113098E-1  -7.850770652294159E-2  -9.076300263404846E-2  -7.865078747272492E-2  -9.085062146186829E-2  -7.388978600502014E-1   6.482613086700440E-1  
 3.912000000000000E7    -7.445157170295715E-1   6.509818434715271E-1  -7.809462398290634E-2  -9.026663750410080E-2  -7.815805822610855E-2  -9.019201248884201E-2  -7.386636137962341E-1   6.492639183998108E-1  
 3.914000000000000E7    -7.437613010406494E-1   6.522133350372315E-1  -7.768197357654572E-2  -8.951815217733383E-2  -7.784219831228256E-2  -8.956505358219147E-2  -7.377853989601135E-1   6.500570178031921E-1  
 3.916000000000000E7    -7.431109547615051E-1   6.531506776809692E-1  -7.729396969079971E-2  -8.891792595386505E-2  -7.750401645898819E-2  -8.896854519844055E-2  -7.369590401649475E-1   6.506797671318054E-1  
 3.918000000000000E7    -7.423397302627564E-1   6.541575193405151E-1  -7.704463601112366E-2  -8.842134475708008E-2  -7.708857953548431E-2  -8.830376714468002E-2  -7.361501455307007E-1   6.515770554542542E-1  
 3.920000000000000E7    -7.417531609535217E-1   6.551109552383423E-1  -7.671280950307846E-2  -8.762753754854202E-2  -7.677752524614334E-2  -8.762853592634201E-2  -7.356747984886169E-1   6.526767015457153E-1  
 3.922000000000000E7    -7.410632371902466E-1   6.558682322502136E-1  -7.631996273994446E-2  -8.714787662029266E-2  -7.635323703289032E-2  -8.705832064151764E-2  -7.345412373542786E-1   6.534171104431152E-1  
 3.924000000000000E7    -7.406692504882813E-1   6.569864153862000E-1  -7.602231949567795E-2  -8.661337196826935E-2  -7.609354704618454E-2  -8.652134984731674E-2  -7.340978384017944E-1   6.546905040740967E-1  
 3.926000000000000E7    -7.399371862411499E-1   6.574414372444153E-1  -7.546593993902206E-2  -8.589996397495270E-2  -7.561593502759934E-2  -8.582362532615662E-2  -7.332568764686585E-1   6.553226709365845E-1  
 3.928000000000000E7    -7.390193343162537E-1   6.585748195648193E-1  -7.518241554498673E-2  -8.523359894752502E-2  -7.532632350921631E-2  -8.522985875606537E-2  -7.325981259346008E-1   6.562821269035339E-1  
 3.930000000000000E7    -7.386767268180847E-1   6.591190099716187E-1  -7.473410665988922E-2  -8.467099070549011E-2  -7.488314807415009E-2  -8.466117829084396E-2  -7.317640185356140E-1   6.569185256958008E-1  
 3.932000000000000E7    -7.378529906272888E-1   6.603078842163086E-1  -7.447081059217453E-2  -8.400540053844452E-2  -7.460927963256836E-2  -8.402718603610992E-2  -7.312330007553101E-1   6.578878164291382E-1  
 3.934000000000000E7    -7.371631860733032E-1   6.611300110816956E-1  -7.395692169666290E-2  -8.344440162181854E-2  -7.418083399534226E-2  -8.338014036417007E-2  -7.308428287506104E-1   6.587867736816406E-1  
 3.936000000000000E7    -7.363473773002625E-1   6.620464920997620E-1  -7.377944886684418E-2  -8.287741243839264E-2  -7.388109713792801E-2  -8.282029628753662E-2  -7.301473021507263E-1   6.600081324577332E-1  
 3.938000000000000E7    -7.353700399398804E-1   6.629288792610169E-1  -7.328200340270996E-2  -8.232296258211136E-2  -7.337041199207306E-2  -8.212895691394806E-2  -7.294183373451233E-1   6.607925891876221E-1  
 3.940000000000000E7    -7.350649833679199E-1   6.640562415122986E-1  -7.300664484500885E-2  -8.165369182825089E-2  -7.310210168361664E-2  -8.155625313520432E-2  -7.286790013313294E-1   6.617764830589294E-1  
 3.942000000000000E7    -7.345956563949585E-1   6.648755073547363E-1  -7.261696457862854E-2  -8.107598870992661E-2  -7.271623611450195E-2  -8.104812353849411E-2  -7.283170819282532E-1   6.627091169357300E-1  
 3.944000000000000E7    -7.337337732315064E-1   6.656919121742249E-1  -7.225176692008972E-2  -8.053666353225708E-2  -7.231385260820389E-2  -8.042873442173004E-2  -7.275623679161072E-1   6.636970043182373E-1  
 3.946000000000000E7    -7.329189181327820E-1   6.662294268608093E-1  -7.184549421072006E-2  -7.988853752613068E-2  -7.192137837409973E-2  -7.976562529802322E-2  -7.262713909149170E-1   6.644084453582764E-1  
 3.948000000000000E7    -7.324205636978149E-1   6.676603555679321E-1  -7.150308787822723E-2  -7.930501550436020E-2  -7.167174667119980E-2  -7.931324839591980E-2  -7.259628772735596E-1   6.657978296279907E-1  
 3.950000000000000E7    -7.311979532241821E-1   6.682267189025879E-1  -7.111133635044098E-2  -7.866313308477402E-2  -7.123853266239166E-2  -7.865498960018158E-2  -7.250617742538452E-1   6.663737297058106E-1  
 3.952000000000000E7    -7.307548522949219E-1   6.692247986793518E-1  -7.080688327550888E-2  -7.810831069946289E-2  -7.085216045379639E-2  -7.809960842132568E-2  -7.245693206787109E-1   6.671584844589233E-1  
 3.954000000000000E7    -7.300322055816650E-1   6.700179576873779E-1  -7.036750018596649E-2  -7.752781361341476E-2  -7.047049701213837E-2  -7.753837108612061E-2  -7.236474156379700E-1   6.678290963172913E-1  
 3.956000000000000E7    -7.292946577072144E-1   6.707582473754883E-1  -6.994265317916870E-2  -7.688894867897034E-2  -7.002226263284683E-2  -7.685459405183792E-2  -7.230660319328308E-1   6.688317656517029E-1  
 3.958000000000000E7    -7.285103201866150E-1   6.718834042549133E-1  -6.956870108842850E-2  -7.642704248428345E-2  -6.969244778156281E-2  -7.631657272577286E-2  -7.227823138237000E-1   6.694124341011047E-1  
 3.960000000000000E7    -7.278911471366882E-1   6.728153824806213E-1  -6.925544887781143E-2  -7.579368352890015E-2  -6.926337629556656E-2  -7.576831430196762E-2  -7.217344641685486E-1   6.701865792274475E-1  
 3.962000000000000E7    -7.271671891212463E-1   6.737857460975647E-1  -6.879970431327820E-2  -7.527566701173782E-2  -6.896617263555527E-2  -7.516908645629883E-2  -7.211769223213196E-1   6.713378429412842E-1  
 3.964000000000000E7    -7.265698313713074E-1   6.742941737174988E-1  -6.843630224466324E-2  -7.459010928869247E-2  -6.854435801506043E-2  -7.456686347723007E-2  -7.201837897300720E-1   6.716461777687073E-1  
 3.966000000000000E7    -7.256807088851929E-1   6.754122376441956E-1  -6.809671223163605E-2  -7.396633923053742E-2  -6.824793666601181E-2  -7.399618625640869E-2  -7.194653749465942E-1   6.727865338325501E-1  
 3.968000000000000E7    -7.251315712928772E-1   6.758417487144470E-1  -6.764838844537735E-2  -7.347302138805389E-2  -6.770410388708115E-2  -7.339955866336823E-2  -7.189801931381226E-1   6.737481355667114E-1  
 3.970000000000000E7    -7.245906591415405E-1   6.770359873771668E-1  -6.736355274915695E-2  -7.290646433830261E-2  -6.743860989809036E-2  -7.287240028381348E-2  -7.183129787445068E-1   6.746175885200501E-1  
 3.972000000000000E7    -7.235812544822693E-1   6.777509450912476E-1  -6.691223382949829E-2  -7.231009006500244E-2  -6.700462847948074E-2  -7.232802361249924E-2  -7.172916531562805E-1   6.754707694053650E-1  
 3.974000000000000E7    -7.230026721954346E-1   6.784506440162659E-1  -6.650298833847046E-2  -7.175558805465698E-2  -6.660740077495575E-2  -7.168396562337875E-2  -7.167671918869019E-1   6.762677431106567E-1  
 3.976000000000000E7    -7.224125862121582E-1   6.795413494110107E-1  -6.619171798229218E-2  -7.120634615421295E-2  -6.628765165805817E-2  -7.109836488962174E-2  -7.159665226936340E-1   6.773800849914551E-1  
 3.978000000000000E7    -7.217120528221130E-1   6.804463863372803E-1  -6.577285379171372E-2  -7.061709463596344E-2  -6.587032228708267E-2  -7.061152160167694E-2  -7.153068780899048E-1   6.776165366172791E-1  
 3.980000000000000E7    -7.209568023681641E-1   6.815567612648010E-1  -6.541641056537628E-2  -7.011481374502182E-2  -6.548506766557694E-2  -7.008348405361176E-2  -7.148860692977905E-1   6.788506507873535E-1  
 3.982000000000000E7    -7.203952074050903E-1   6.822574734687805E-1  -6.500514596700668E-2  -6.955230236053467E-2  -6.512047350406647E-2  -6.951133906841278E-2  -7.139753699302673E-1   6.795850396156311E-1  
 3.984000000000000E7    -7.195359468460083E-1   6.832126975059509E-1  -6.472769379615784E-2  -6.895297765731812E-2  -6.471635401248932E-2  -6.884286552667618E-2  -7.131422162055969E-1   6.804851889610291E-1  
 3.986000000000000E7    -7.186734080314636E-1   6.839517354965210E-1  -6.432139128446579E-2  -6.832525879144669E-2  -6.438709050416946E-2  -6.829459965229034E-2  -7.122766971588135E-1   6.810603737831116E-1  
 3.988000000000000E7    -7.181338667869568E-1   6.843841671943665E-1  -6.384932249784470E-2  -6.784585118293762E-2  -6.399323046207428E-2  -6.781017780303955E-2  -7.116843461990356E-1   6.819632649421692E-1  
 3.990000000000000E7    -7.171200513839722E-1   6.858048439025879E-1  -6.351105123758316E-2  -6.726142019033432E-2  -6.361508369445801E-2  -6.719923764467239E-2  -7.111043930053711E-1   6.832816600799561E-1  
 3.992000000000000E7    -7.167485356330872E-1   6.863328814506531E-1  -6.312613934278488E-2  -6.672675162553787E-2  -6.319247931241989E-2  -6.664810329675674E-2  -7.102236747741699E-1   6.838372349739075E-1  
 3.994000000000000E7    -7.161266207695007E-1   6.872954368591309E-1  -6.272701919078827E-2  -6.617285311222076E-2  -6.279869377613068E-2  -6.606206297874451E-2  -7.095145583152771E-1   6.847122311592102E-1  
 3.996000000000000E7    -7.150558829307556E-1   6.878696084022522E-1  -6.228109076619148E-2  -6.567092239856720E-2  -6.244120746850967E-2  -6.563165038824081E-2  -7.089286446571350E-1   6.856395006179810E-1  
 3.998000000000000E7    -7.145345807075501E-1   6.888062953948975E-1  -6.192914023995400E-2  -6.503963470458984E-2  -6.202550232410431E-2  -6.500173360109329E-2  -7.082222700119019E-1   6.860519051551819E-1  
 4.000000000000000E7    -7.133659720420837E-1   6.900390386581421E-1  -6.158531829714775E-2  -6.452192366123200E-2  -6.169701740145683E-2  -6.444931030273438E-2  -7.075806856155396E-1   6.870760321617127E-1  
 4.002000000000000E7    -7.131395936012268E-1   6.905472874641419E-1  -6.117047369480133E-2  -6.403277814388275E-2  -6.123950332403183E-2  -6.392929702997208E-2  -7.069048285484314E-1   6.881006360054016E-1  
 4.004000000000000E7    -7.120910286903381E-1   6.917112469673157E-1  -6.081830337643623E-2  -6.342747062444687E-2  -6.089744344353676E-2  -6.338943541049957E-2  -7.059894204139710E-1   6.887711882591248E-1  
 4.006000000000000E7    -7.115977406501770E-1   6.922004818916321E-1  -6.044753268361092E-2  -6.295327842235565E-2  -6.049522012472153E-2  -6.284897029399872E-2  -7.054145932197571E-1   6.897278428077698E-1  
 4.008000000000000E7    -7.109615802764893E-1   6.932535171508789E-1  -6.011322140693665E-2  -6.240228191018105E-2  -6.009917333722115E-2  -6.237269937992096E-2  -7.046735286712647E-1   6.905000209808350E-1  
 4.010000000000000E7    -7.103061079978943E-1   6.935769915580750E-1  -5.965315550565720E-2  -6.187329813838005E-2  -5.968885868787766E-2  -6.177778542041779E-2  -7.035921812057495E-1   6.911646127700806E-1  
 4.012000000000000E7    -7.099230289459229E-1   6.947320699691773E-1  -5.918845906853676E-2  -6.132652983069420E-2  -5.930448323488236E-2  -6.123283505439758E-2  -7.030564546585083E-1   6.921493411064148E-1  
 4.014000000000000E7    -7.086197137832642E-1   6.952928900718689E-1  -5.879383906722069E-2  -6.077444553375244E-2  -5.893990397453308E-2  -6.068788468837738E-2  -7.022344470024109E-1   6.927675604820252E-1  
 4.016000000000000E7    -7.079010605812073E-1   6.964114308357239E-1  -5.843435972929001E-2  -6.025008484721184E-2  -5.854181200265884E-2  -6.014514341950417E-2  -7.017292380332947E-1   6.934082508087158E-1  
 4.018000000000000E7    -7.068265080451965E-1   6.969722509384155E-1  -5.802962183952332E-2  -5.974454805254936E-2  -5.814065784215927E-2  -5.959948897361755E-2  -7.009204030036926E-1   6.944074630737305E-1  
 4.020000000000000E7    -7.065022587776184E-1   6.981841921806335E-1  -5.768592655658722E-2  -5.926765501499176E-2  -5.778751894831657E-2  -5.919595807790756E-2  -7.006281614303589E-1   6.954991221427918E-1  
 4.022000000000000E7    -7.060900926589966E-1   6.987161040306091E-1  -5.726900324225426E-2  -5.866422504186630E-2  -5.735757201910019E-2  -5.869797617197037E-2  -6.995782852172852E-1   6.962668895721436E-1  
 4.024000000000000E7    -7.051894664764404E-1   6.996034383773804E-1  -5.688407272100449E-2  -5.815694481134415E-2  -5.693188309669495E-2  -5.805919319391251E-2  -6.988204121589661E-1   6.970160007476807E-1  
 4.026000000000000E7    -7.042000889778137E-1   7.003428936004639E-1  -5.652266368269920E-2  -5.755179747939110E-2  -5.656879022717476E-2  -5.754774063825607E-2  -6.979969739913940E-1   6.973651051521301E-1  
 4.028000000000000E7    -7.038651108741760E-1   7.012934088706970E-1  -5.608705803751946E-2  -5.714026093482971E-2  -5.616090074181557E-2  -5.707203969359398E-2  -6.976891160011292E-1   6.982103586196899E-1  
 4.030000000000000E7    -7.029893994331360E-1   7.020543217658997E-1  -5.565315857529640E-2  -5.663494020700455E-2  -5.575729906558991E-2  -5.654153600335121E-2  -6.967305541038513E-1   6.991288661956787E-1  
 4.032000000000000E7    -7.024161219596863E-1   7.027518749237061E-1  -5.532392859458923E-2  -5.608559399843216E-2  -5.530490353703499E-2  -5.606625601649284E-2  -6.959414482116699E-1   7.000683546066284E-1  
 4.034000000000000E7    -7.017806768417358E-1   7.036640644073486E-1  -5.485077947378159E-2  -5.556368827819824E-2  -5.498674511909485E-2  -5.554290115833283E-2  -6.953732371330261E-1   7.002847790718079E-1  
 4.036000000000000E7    -7.010707855224609E-1   7.048403620719910E-1  -5.457444489002228E-2  -5.501830950379372E-2  -5.458331853151321E-2  -5.502318590879440E-2  -6.942812800407410E-1   7.016190886497498E-1  
 4.038000000000000E7    -6.999574303627014E-1   7.052213549613953E-1  -5.410543829202652E-2  -5.452512949705124E-2  -5.416569113731384E-2  -5.447278916835785E-2  -6.937925219535828E-1   7.023194432258606E-1  
 4.040000000000000E7    -6.995589733123779E-1   7.061379551887512E-1  -5.376492440700531E-2  -5.405385792255402E-2  -5.381214618682861E-2  -5.393277853727341E-2  -6.930130124092102E-1   7.031978368759155E-1  
 4.042000000000000E7    -6.984853744506836E-1   7.069149017333984E-1  -5.335140600800514E-2  -5.355484038591385E-2  -5.333993211388588E-2  -5.345867574214935E-2  -6.925337314605713E-1   7.038981914520264E-1  
 4.044000000000000E7    -6.978325247764587E-1   7.078772187232971E-1  -5.290310829877853E-2  -5.301586911082268E-2  -5.300341174006462E-2  -5.296920239925385E-2  -6.914469003677368E-1   7.047612071037293E-1  
 4.046000000000000E7    -6.970837712287903E-1   7.083941698074341E-1  -5.250745266675949E-2  -5.250681191682816E-2  -5.252709984779358E-2  -5.250675231218338E-2  -6.911873817443848E-1   7.056967020034790E-1  
 4.048000000000000E7    -6.966760158538818E-1   7.093099951744080E-1  -5.215215682983398E-2  -5.200436711311340E-2  -5.220299959182739E-2  -5.200475454330444E-2  -6.898728013038635E-1   7.063774466514587E-1  
 4.050000000000000E7    -6.958290338516235E-1   7.099404931068420E-1  -5.175330489873886E-2  -5.148692801594734E-2  -5.174556747078896E-2  -5.142177641391754E-2  -6.892969608306885E-1   7.069393396377564E-1  
 4.052000000000000E7    -6.951979994773865E-1   7.109758257865906E-1  -5.136929079890251E-2  -5.107428133487701E-2  -5.141950771212578E-2  -5.096486583352089E-2  -6.888887286186218E-1   7.079965472221375E-1  
 4.054000000000000E7    -6.942076086997986E-1   7.115782499313355E-1  -5.096789449453354E-2  -5.052815377712250E-2  -5.099396035075188E-2  -5.048189312219620E-2  -6.878970265388489E-1   7.085430026054382E-1  
 4.056000000000000E7    -6.935843825340271E-1   7.122725844383240E-1  -5.048855021595955E-2  -5.005282908678055E-2  -5.057417228817940E-2  -4.994270950555801E-2  -6.871992349624634E-1   7.094722390174866E-1  
 4.058000000000000E7    -6.929901838302612E-1   7.130060791969299E-1  -5.014474689960480E-2  -4.955483227968216E-2  -5.016352981328964E-2  -4.949109628796578E-2  -6.865369081497192E-1   7.105208635330200E-1  
 4.060000000000000E7    -6.921266317367554E-1   7.142801880836487E-1  -4.973633587360382E-2  -4.904018715023994E-2  -4.977329075336456E-2  -4.896559938788414E-2  -6.856205463409424E-1   7.108196020126343E-1  
 4.062000000000000E7    -6.912525892257690E-1   7.145215272903442E-1  -4.936122521758080E-2  -4.854174703359604E-2  -4.937966540455818E-2  -4.847078770399094E-2  -6.851907372474670E-1   7.117688059806824E-1  
 4.064000000000000E7    -6.903163194656372E-1   7.155372500419617E-1  -4.890855401754379E-2  -4.802194237709045E-2  -4.897515848278999E-2  -4.804791137576103E-2  -6.845102310180664E-1   7.123621702194214E-1  
 4.066000000000000E7    -6.899062395095825E-1   7.163091897964478E-1  -4.849766194820404E-2  -4.758258163928986E-2  -4.857945069670677E-2  -4.751709103584290E-2  -6.837508082389832E-1   7.130419015884399E-1  
 4.068000000000000E7    -6.890538930892944E-1   7.170311212539673E-1  -4.812145605683327E-2  -4.707171022891998E-2  -4.818487912416458E-2  -4.699544236063957E-2  -6.829617023468018E-1   7.138442397117615E-1  
 4.070000000000000E7    -6.882981657981873E-1   7.178152799606323E-1  -4.771444573998451E-2  -4.665141552686691E-2  -4.776427894830704E-2  -4.659061878919601E-2  -6.823523640632629E-1   7.145999073982239E-1  
 4.072000000000000E7    -6.878548860549927E-1   7.184025645256043E-1  -4.730127751827240E-2  -4.616834968328476E-2  -4.738136753439903E-2  -4.604940116405487E-2  -6.812266111373901E-1   7.158264517784119E-1  
 4.074000000000000E7    -6.872535347938538E-1   7.192311286926270E-1  -4.690542817115784E-2  -4.567537084221840E-2  -4.697726666927338E-2  -4.563202336430550E-2  -6.807504892349243E-1   7.164297103881836E-1  
 4.076000000000000E7    -6.861954927444458E-1   7.203515768051148E-1  -4.650994017720223E-2  -4.518946260213852E-2  -4.656857252120972E-2  -4.510026052594185E-2  -6.798493862152100E-1   7.167524695396423E-1  
 4.078000000000000E7    -6.853955984115601E-1   7.211003303527832E-1  -4.620458930730820E-2  -4.470681399106979E-2  -4.620046168565750E-2  -4.462681338191032E-2  -6.790915131568909E-1   7.178069949150085E-1  
 4.080000000000000E7    -6.846036314964294E-1   7.215027213096619E-1  -4.572883248329163E-2  -4.420346021652222E-2  -4.574791342020035E-2  -4.413053765892983E-2  -6.786913275718689E-1   7.186677455902100E-1  
 4.082000000000000E7    -6.842150688171387E-1   7.223476171493530E-1  -4.531738162040710E-2  -4.379213601350784E-2  -4.530495032668114E-2  -4.370806738734245E-2  -6.778619885444641E-1   7.191751003265381E-1  
 4.084000000000000E7    -6.832366585731506E-1   7.232791781425476E-1  -4.489386826753616E-2  -4.323985800147057E-2  -4.497225210070610E-2  -4.321657866239548E-2  -6.771345734596252E-1   7.202453613281250E-1  
 4.086000000000000E7    -6.823825836181641E-1   7.238594889640808E-1  -4.449450969696045E-2  -4.274823144078255E-2  -4.458379372954369E-2  -4.272546619176865E-2  -6.760587096214294E-1   7.208207845687866E-1  
 4.088000000000000E7    -6.818149089813232E-1   7.245258688926697E-1  -4.414565861225128E-2  -4.232311248779297E-2  -4.412008821964264E-2  -4.223075509071350E-2  -6.753315329551697E-1   7.212321162223816E-1  
 4.090000000000000E7    -6.810653805732727E-1   7.249579429626465E-1  -4.367971047759056E-2  -4.185213148593903E-2  -4.371453449130058E-2  -4.179155081510544E-2  -6.747403740882874E-1   7.219473123550415E-1  
 4.092000000000000E7    -6.802546381950378E-1   7.261486053466797E-1  -4.330580681562424E-2  -4.136789217591286E-2  -4.337143898010254E-2  -4.128240793943405E-2  -6.737937331199646E-1   7.231376767158508E-1  
 4.094000000000000E7    -6.795222163200378E-1   7.269474267959595E-1  -4.294686019420624E-2  -4.092179611325264E-2  -4.295673593878746E-2  -4.084483534097672E-2  -6.732878684997559E-1   7.238867282867432E-1  
 4.096000000000000E7    -6.787855625152588E-1   7.276573777198792E-1  -4.248781502246857E-2  -4.047720506787300E-2  -4.252319037914276E-2  -4.036273062229157E-2  -6.726780533790588E-1   7.244567275047302E-1  
 4.098000000000000E7    -6.780443787574768E-1   7.285169363021851E-1  -4.212114959955216E-2  -3.997360169887543E-2  -4.214314371347427E-2  -3.995795920491219E-2  -6.718521714210510E-1   7.252750992774963E-1  
 4.100000000000000E7    -6.776164174079895E-1   7.293730974197388E-1  -4.170728102326393E-2  -3.955819830298424E-2  -4.171510040760040E-2  -3.945824503898621E-2  -6.708723306655884E-1   7.259701490402222E-1  
 4.102000000000000E7    -6.765125393867493E-1   7.300574779510498E-1  -4.132174700498581E-2  -3.904483094811440E-2  -4.135622456669807E-2  -3.899442777037621E-2  -6.700029969215393E-1   7.268099188804627E-1  
 4.104000000000000E7    -6.756172180175781E-1   7.307365536689758E-1  -4.087471961975098E-2  -3.858999907970429E-2  -4.089779034256935E-2  -3.854025155305862E-2  -6.697087883949280E-1   7.274709343910217E-1  
 4.106000000000000E7    -6.749953031539917E-1   7.311458587646484E-1  -4.050744697451592E-2  -3.816375881433487E-2  -4.051040858030319E-2  -3.807834908366203E-2  -6.689800024032593E-1   7.280575633049011E-1  
 4.108000000000000E7    -6.742582917213440E-1   7.320333719253540E-1  -4.003961756825447E-2  -3.771880269050598E-2  -4.008544236421585E-2  -3.763277083635330E-2  -6.679484248161316E-1   7.288296222686768E-1  
 4.110000000000000E7    -6.732614040374756E-1   7.328708767890930E-1  -3.968098759651184E-2  -3.725254535675049E-2  -3.969084471464157E-2  -3.716209158301354E-2  -6.671856045722961E-1   7.299316525459290E-1  
 4.112000000000000E7    -6.726568937301636E-1   7.337667942047119E-1  -3.931897133588791E-2  -3.676614537835121E-2  -3.926946595311165E-2  -3.674110397696495E-2  -6.667190790176392E-1   7.306838035583496E-1  
 4.114000000000000E7    -6.717405319213867E-1   7.340597510337830E-1  -3.883692622184753E-2  -3.629327565431595E-2  -3.885718435049057E-2  -3.626627475023270E-2  -6.660331487655640E-1   7.309802770614624E-1  
 4.116000000000000E7    -6.715209484100342E-1   7.350620627403259E-1  -3.847430646419525E-2  -3.589383512735367E-2  -3.845887631177902E-2  -3.583824262022972E-2  -6.651795506477356E-1   7.316967248916626E-1  
 4.118000000000000E7    -6.704204678535461E-1   7.358474731445313E-1  -3.805825859308243E-2  -3.544738888740540E-2  -3.807428851723671E-2  -3.535761684179306E-2  -6.642577648162842E-1   7.328939437866211E-1  
 4.120000000000000E7    -6.696373820304871E-1   7.363478541374207E-1  -3.760459274053574E-2  -3.498164564371109E-2  -3.760466352105141E-2  -3.493241220712662E-2  -6.635880470275879E-1   7.330676317214966E-1  
 4.122000000000000E7    -6.691137552261353E-1   7.373480200767517E-1  -3.724984079599381E-2  -3.457174450159073E-2  -3.721290081739426E-2  -3.453071787953377E-2  -6.631035208702087E-1   7.338346242904663E-1  
 4.124000000000000E7    -6.683316230773926E-1   7.383736968040466E-1  -3.680439665913582E-2  -3.412887826561928E-2  -3.684888780117035E-2  -3.407177329063416E-2  -6.622920632362366E-1   7.344246506690979E-1  
 4.126000000000000E7    -6.675367951393127E-1   7.382335662841797E-1  -3.637687861919403E-2  -3.369290381669998E-2  -3.637435287237167E-2  -3.364588692784309E-2  -6.616852879524231E-1   7.353110909461975E-1  
 4.128000000000000E7    -6.666008830070496E-1   7.394091486930847E-1  -3.600625321269035E-2  -3.322630003094673E-2  -3.602202236652374E-2  -3.314056620001793E-2  -6.608823537826538E-1   7.361336350440979E-1  
 4.130000000000000E7    -6.661514043807983E-1   7.399293780326843E-1  -3.557888045907021E-2  -3.275073692202568E-2  -3.559289500117302E-2  -3.270917385816574E-2  -6.596826314926148E-1   7.371383309364319E-1  
 4.132000000000000E7    -6.653001904487610E-1   7.406857609748840E-1  -3.516912087798119E-2  -3.235149383544922E-2  -3.523475676774979E-2  -3.225929662585259E-2  -6.590396165847778E-1   7.374643683433533E-1  
 4.134000000000000E7    -6.641542315483093E-1   7.414467334747315E-1  -3.474760055541992E-2  -3.191483393311501E-2  -3.477842360734940E-2  -3.184460103511810E-2  -6.585228443145752E-1   7.382667064666748E-1  
 4.136000000000000E7    -6.635145545005798E-1   7.422776818275452E-1  -3.431871533393860E-2  -3.146486729383469E-2  -3.438543528318405E-2  -3.142401948571205E-2  -6.574941277503967E-1   7.389602661132813E-1  
 4.138000000000000E7    -6.629297733306885E-1   7.429628968238831E-1  -3.395396471023560E-2  -3.101903386414051E-2  -3.399942070245743E-2  -3.100710920989513E-2  -6.567341685295105E-1   7.396143674850464E-1  
 4.140000000000000E7    -6.623542904853821E-1   7.437123060226440E-1  -3.353040665388107E-2  -3.063155524432659E-2  -3.351748734712601E-2  -3.055692650377750E-2  -6.560713052749634E-1   7.403731346130371E-1  
 4.142000000000000E7    -6.612074971199036E-1   7.443604469299316E-1  -3.311273083090782E-2  -3.014823608100414E-2  -3.312772884964943E-2  -3.013222850859165E-2  -6.551145911216736E-1   7.409068942070007E-1  
 4.144000000000000E7    -6.607065796852112E-1   7.452178597450256E-1  -3.271371498703957E-2  -2.971184439957142E-2  -3.270746394991875E-2  -2.970154583454132E-2  -6.544868946075440E-1   7.417232990264893E-1  
 4.146000000000000E7    -6.597977280616760E-1   7.457687258720398E-1  -3.228373825550079E-2  -2.932358905673027E-2  -3.231096267700195E-2  -2.925854176282883E-2  -6.538529992103577E-1   7.424049973487854E-1  
 4.148000000000000E7    -6.594599485397339E-1   7.465590238571167E-1  -3.189565241336823E-2  -2.892416901886463E-2  -3.189665824174881E-2  -2.884910814464092E-2  -6.531500220298767E-1   7.432343959808350E-1  
 4.150000000000000E7    -6.588711142539978E-1   7.470179200172424E-1  -3.148387745022774E-2  -2.851204574108124E-2  -3.146499395370483E-2  -2.845821715891361E-2  -6.525170803070068E-1   7.439291477203369E-1  
 4.152000000000000E7    -6.576545834541321E-1   7.476139664649963E-1  -3.104725480079651E-2  -2.805127762258053E-2  -3.105620853602886E-2  -2.798906341195107E-2  -6.515736579895020E-1   7.447347640991211E-1  
 4.154000000000000E7    -6.571136116981506E-1   7.487910985946655E-1  -3.064784035086632E-2  -2.765312790870667E-2  -3.066449053585529E-2  -2.758383005857468E-2  -6.507241725921631E-1   7.452515959739685E-1  
 4.156000000000000E7    -6.562047600746155E-1   7.493920922279358E-1  -3.020230308175087E-2  -2.720972523093224E-2  -3.025923110544682E-2  -2.717369981110096E-2  -6.501154899597168E-1   7.459523081779480E-1  
 4.158000000000000E7    -6.557939052581787E-1   7.499267458915710E-1  -2.979481033980846E-2  -2.681038714945316E-2  -2.982508391141892E-2  -2.674563974142075E-2  -6.492925882339478E-1   7.464806437492371E-1  
 4.160000000000000E7    -6.546481847763062E-1   7.506789565086365E-1  -2.940835803747177E-2  -2.639000304043293E-2  -2.940245531499386E-2  -2.636786364018917E-2  -6.484035253524780E-1   7.472408413887024E-1  
 4.162000000000000E7    -6.539370417594910E-1   7.513307332992554E-1  -2.898698300123215E-2  -2.597375400364399E-2  -2.900989167392254E-2  -2.589371427893639E-2  -6.475475430488586E-1   7.481819391250610E-1  
 4.164000000000000E7    -6.534445881843567E-1   7.519696950912476E-1  -2.857479080557823E-2  -2.561439201235771E-2  -2.856595814228058E-2  -2.548472024500370E-2  -6.474079489707947E-1   7.487050890922546E-1  
 4.166000000000000E7    -6.524046063423157E-1   7.525209784507752E-1  -2.816173993051052E-2  -2.510647289454937E-2  -2.817084081470966E-2  -2.508378028869629E-2  -6.462613344192505E-1   7.494441866874695E-1  
 4.168000000000000E7    -6.519930958747864E-1   7.535595297813416E-1  -2.774636447429657E-2  -2.473917417228222E-2  -2.775727771222591E-2  -2.469771914184094E-2  -6.457840800285339E-1   7.500390410423279E-1  
 4.170000000000000E7    -6.507018804550171E-1   7.543947100639343E-1  -2.732244692742825E-2  -2.431399188935757E-2  -2.734312415122986E-2  -2.430740557610989E-2  -6.451641917228699E-1   7.508073449134827E-1  
 4.172000000000000E7    -6.500825285911560E-1   7.550171017646790E-1  -2.690602466464043E-2  -2.390623837709427E-2  -2.691895142197609E-2  -2.387320064008236E-2  -6.441731452941895E-1   7.516809105873108E-1  
 4.174000000000000E7    -6.491799354553223E-1   7.551504969596863E-1  -2.648253738880158E-2  -2.349895052611828E-2  -2.647268772125244E-2  -2.347964979708195E-2  -6.433984041213989E-1   7.516166567802429E-1  
 4.176000000000000E7    -6.484965085983276E-1   7.560873031616211E-1  -2.607415430247784E-2  -2.310087345540524E-2  -2.608996443450451E-2  -2.306123077869415E-2  -6.426550149917603E-1   7.526644468307495E-1  
 4.178000000000000E7    -6.480278968811035E-1   7.567076086997986E-1  -2.563688904047012E-2  -2.269157394766808E-2  -2.567856758832932E-2  -2.264798432588577E-2  -6.414785385131836E-1   7.534320950508118E-1  
 4.180000000000000E7    -6.467306017875671E-1   7.573747634887695E-1  -2.523167245090008E-2  -2.227151207625866E-2  -2.521772868931294E-2  -2.225599251687527E-2  -6.413767933845520E-1   7.538843154907227E-1  
 4.182000000000000E7    -6.466073989868164E-1   7.583020329475403E-1  -2.484713494777679E-2  -2.189643122255802E-2  -2.482753992080689E-2  -2.184759452939034E-2  -6.405279636383057E-1   7.546945810317993E-1  
 4.184000000000000E7    -6.453789472579956E-1   7.587580084800720E-1  -2.440313063561916E-2  -2.149915695190430E-2  -2.440876327455044E-2  -2.141861990094185E-2  -6.398156285285950E-1   7.553762197494507E-1  
 4.186000000000000E7    -6.447862386703491E-1   7.593345642089844E-1  -2.398787811398506E-2  -2.108474075794220E-2  -2.401654794812203E-2  -2.104068920016289E-2  -6.386968493461609E-1   7.560255527496338E-1  
 4.188000000000000E7    -6.439617276191711E-1   7.598108649253845E-1  -2.355967275798321E-2  -2.070269174873829E-2  -2.356208674609661E-2  -2.066926099359989E-2  -6.382352113723755E-1   7.566696405410767E-1  
 4.190000000000000E7    -6.433731317520142E-1   7.611951231956482E-1  -2.315069735050201E-2  -2.029628679156303E-2  -2.316993474960327E-2  -2.027117088437080E-2  -6.373397111892700E-1   7.572250962257385E-1  
 4.192000000000000E7    -6.424784660339356E-1   7.618076801300049E-1  -2.273709885776043E-2  -1.990784704685211E-2  -2.275585010647774E-2  -1.985577121376991E-2  -6.368285417556763E-1   7.580438852310181E-1  
 4.194000000000000E7    -6.414738893508911E-1   7.620979547500610E-1  -2.233847975730896E-2  -1.950839534401894E-2  -2.232953533530235E-2  -1.947322860360146E-2  -6.358083486557007E-1   7.587099075317383E-1  
 4.196000000000000E7    -6.410256624221802E-1   7.625770568847656E-1  -2.190118096768856E-2  -1.911647059023380E-2  -2.190797217190266E-2  -1.910115405917168E-2  -6.353100538253784E-1   7.594761252403259E-1  
 4.198000000000000E7    -6.402010917663574E-1   7.637099623680115E-1  -2.147320844233036E-2  -1.878128014504910E-2  -2.149075455963612E-2  -1.869921199977398E-2  -6.345020532608032E-1   7.597960233688355E-1  
 4.200000000000000E7    -6.393116712570190E-1   7.642399072647095E-1  -2.108410559594631E-2  -1.835463754832745E-2  -2.107096277177334E-2  -1.831087842583656E-2  -6.334589719772339E-1   7.606568932533264E-1  
 4.202000000000000E7    -6.385531425476074E-1   7.648276686668396E-1  -2.066260576248169E-2  -1.795367337763310E-2  -2.067536860704422E-2  -1.795415580272675E-2  -6.329495310783386E-1   7.614303827285767E-1  
 4.204000000000000E7    -6.377538442611694E-1   7.651580572128296E-1  -2.022324874997139E-2  -1.758052222430706E-2  -2.024147659540176E-2  -1.756123639643192E-2  -6.320816278457642E-1   7.619768381118774E-1  
 4.206000000000000E7    -6.369905471801758E-1   7.659222483634949E-1  -1.982024498283863E-2  -1.717477664351463E-2  -1.979703642427921E-2  -1.714199036359787E-2  -6.311696767807007E-1   7.622767090797424E-1  
 4.208000000000000E7    -6.364607214927673E-1   7.665779590606690E-1  -1.936386711895466E-2  -1.679421961307526E-2  -1.939101889729500E-2  -1.678469032049179E-2  -6.307749748229981E-1   7.628075480461121E-1  
 4.210000000000000E7    -6.358147859573364E-1   7.675840854644775E-1  -1.898648031055927E-2  -1.644189283251762E-2  -1.898038946092129E-2  -1.639510318636894E-2  -6.298961639404297E-1   7.638404369354248E-1  
 4.212000000000000E7    -6.351860165596008E-1   7.680397033691406E-1  -1.855091191828251E-2  -1.605374552309513E-2  -1.856157556176186E-2  -1.602885499596596E-2  -6.290614008903503E-1   7.645109891891480E-1  
 4.214000000000000E7    -6.337990760803223E-1   7.685342431068420E-1  -1.814290694892407E-2  -1.565132103860378E-2  -1.815598458051682E-2  -1.562193315476179E-2  -6.281183958053589E-1   7.652405500411987E-1  
 4.216000000000000E7    -6.334376335144043E-1   7.692841887474060E-1  -1.770606637001038E-2  -1.531152706593275E-2  -1.771599613130093E-2  -1.523845456540585E-2  -6.276289820671082E-1   7.658010125160217E-1  
 4.218000000000000E7    -6.323818564414978E-1   7.699763774871826E-1  -1.729849167168140E-2  -1.490582618862391E-2  -1.729247160255909E-2  -1.486689131706953E-2  -6.266000270843506E-1   7.665210962295532E-1  
 4.220000000000000E7    -6.319463253021240E-1   7.707695960998535E-1  -1.687780953943729E-2  -1.455011125653982E-2  -1.688014715909958E-2  -1.450992468744516E-2  -6.257702112197876E-1   7.669697999954224E-1  
 4.222000000000000E7    -6.307107806205750E-1   7.714727520942688E-1  -1.646005921065807E-2  -1.416456885635853E-2  -1.647026278078556E-2  -1.411719992756844E-2  -6.248844265937805E-1   7.674673795700073E-1  
 4.224000000000000E7    -6.305304765701294E-1   7.719582319259644E-1  -1.604999043047428E-2  -1.378117501735687E-2  -1.604009419679642E-2  -1.376568060368300E-2  -6.242129802703857E-1   7.681503891944885E-1  
 4.226000000000000E7    -6.294018626213074E-1   7.728188633918762E-1  -1.562855392694473E-2  -1.342408265918493E-2  -1.560832839459181E-2  -1.337403804063797E-2  -6.235434412956238E-1   7.686768770217896E-1  
 4.228000000000000E7    -6.287600398063660E-1   7.732648849487305E-1  -1.519815623760223E-2  -1.305833738297224E-2  -1.517945528030396E-2  -1.301625743508339E-2  -6.228966712951660E-1   7.693467736244202E-1  
 4.230000000000000E7    -6.277596354484558E-1   7.740800380706787E-1  -1.477990206331015E-2  -1.269256230443716E-2  -1.479055080562830E-2  -1.266055461019278E-2  -6.221047043800354E-1   7.702551484107971E-1  
 4.232000000000000E7    -6.270740032196045E-1   7.744739055633545E-1  -1.437789388000965E-2  -1.233080029487610E-2  -1.434112526476383E-2  -1.230090111494064E-2  -6.209329962730408E-1   7.706832885742188E-1  
 4.234000000000000E7    -6.262534260749817E-1   7.751273512840271E-1  -1.393136102706194E-2  -1.195036154240370E-2  -1.393433287739754E-2  -1.193134672939777E-2  -6.206017136573792E-1   7.714487314224243E-1  
 4.236000000000000E7    -6.255988478660584E-1   7.761076092720032E-1  -1.351454667747021E-2  -1.158854085952044E-2  -1.350975874811411E-2  -1.154019497334957E-2  -6.199209690093994E-1   7.721003293991089E-1  
 4.238000000000000E7    -6.247518658638001E-1   7.762223482131958E-1  -1.308567170053721E-2  -1.122805383056402E-2  -1.309288851916790E-2  -1.121459994465113E-2  -6.188912987709045E-1   7.729398608207703E-1  
 4.240000000000000E7    -6.237605214118958E-1   7.771303057670593E-1  -1.267059054225683E-2  -1.087684463709593E-2  -1.266081724315882E-2  -1.083901338279247E-2  -6.183567047119141E-1   7.729660272598267E-1  
 4.242000000000000E7    -6.229264140129089E-1   7.773649096488953E-1  -1.224073674529791E-2  -1.049034576863051E-2  -1.223076786845923E-2  -1.050356216728687E-2  -6.174985766410828E-1   7.741895318031311E-1  
 4.244000000000000E7    -6.221851706504822E-1   7.781173586845398E-1  -1.181625295430422E-2  -1.015733741223812E-2  -1.181378960609436E-2  -1.012886222451925E-2  -6.170446872711182E-1   7.744357585906982E-1  
 4.246000000000000E7    -6.214203238487244E-1   7.789226770401001E-1  -1.139531563967466E-2  -9.787102229893208E-3  -1.139940507709980E-2  -9.769809432327747E-3  -6.159645318984985E-1   7.749546766281128E-1  
 4.248000000000000E7    -6.210994720458984E-1   7.794947624206543E-1  -1.097151450812817E-2  -9.445985779166222E-3  -1.098327804356813E-2  -9.404943324625492E-3  -6.154189109802246E-1   7.755140662193298E-1  
 4.250000000000000E7    -6.203636527061462E-1   7.802435755729675E-1  -1.056998223066330E-2  -9.074155241250992E-3  -1.057702768594027E-2  -9.060714393854141E-3  -6.142401695251465E-1   7.761675119400024E-1  
 4.252000000000000E7    -6.193680763244629E-1   7.813017368316650E-1  -1.014383137226105E-2  -8.702340535819531E-3  -1.014311704784632E-2  -8.718539029359818E-3  -6.139598488807678E-1   7.772429585456848E-1  
 4.254000000000000E7    -6.185907125473023E-1   7.815991044044495E-1  -9.709211066365242E-3  -8.348643779754639E-3  -9.712223894894123E-3  -8.361750282347202E-3  -6.126372814178467E-1   7.775728106498718E-1  
 4.256000000000000E7    -6.175560355186462E-1   7.818319201469421E-1  -9.284292347729206E-3  -8.018860593438149E-3  -9.299501776695252E-3  -7.997101172804833E-3  -6.122643947601318E-1   7.780922651290894E-1  
 4.258000000000000E7    -6.170169711112976E-1   7.824985384941101E-1  -8.862669579684734E-3  -7.664491422474384E-3  -8.854113519191742E-3  -7.650840096175671E-3  -6.112066507339478E-1   7.787728905677795E-1  
 4.260000000000000E7    -6.161931157112122E-1   7.832866907119751E-1  -8.436438627541065E-3  -7.324472069740295E-3  -8.443395607173443E-3  -7.305394858121872E-3  -6.105958819389343E-1   7.792530059814453E-1  
 4.262000000000000E7    -6.156449317932129E-1   7.840142250061035E-1  -8.015897125005722E-3  -6.981357000768185E-3  -8.038703352212906E-3  -6.966231390833855E-3  -6.099918484687805E-1   7.800621986389160E-1  
 4.264000000000000E7    -6.146141290664673E-1   7.846282720565796E-1  -7.598033640533686E-3  -6.623459979891777E-3  -7.600011304020882E-3  -6.610784679651260E-3  -6.090636849403381E-1   7.808052301406860E-1  
 4.266000000000000E7    -6.138274073600769E-1   7.853476405143738E-1  -7.177533581852913E-3  -6.287083029747009E-3  -7.185486145317555E-3  -6.275105755776167E-3  -6.083545088768005E-1   7.812545895576477E-1  
 4.268000000000000E7    -6.132485866546631E-1   7.855095863342285E-1  -6.742510944604874E-3  -5.939360242336988E-3  -6.747477687895298E-3  -5.929672159254551E-3  -6.078237891197205E-1   7.818732261657715E-1  
 4.270000000000000E7    -6.124632358551025E-1   7.860150337219238E-1  -6.329393014311791E-3  -5.604458972811699E-3  -6.316819228231907E-3  -5.586796440184116E-3  -6.064261198043823E-1   7.823536396026611E-1  
 4.272000000000000E7    -6.114581823348999E-1   7.869995236396790E-1  -5.900404881685972E-3  -5.264317151159048E-3  -5.887305364012718E-3  -5.238305777311325E-3  -6.060115694999695E-1   7.832578420639038E-1  
 4.274000000000000E7    -6.108500957489014E-1   7.879441976547241E-1  -5.478380247950554E-3  -4.911397118121386E-3  -5.496030673384666E-3  -4.910199437290430E-3  -6.049463152885437E-1   7.834869623184204E-1  
 4.276000000000000E7    -6.101959943771362E-1   7.880928516387940E-1  -5.065585486590862E-3  -4.569514188915491E-3  -5.062400363385677E-3  -4.575595259666443E-3  -6.043055057525635E-1   7.845462560653687E-1  
 4.278000000000000E7    -6.092539429664612E-1   7.889786958694458E-1  -4.624118097126484E-3  -4.258233122527599E-3  -4.641039296984673E-3  -4.225979559123516E-3  -6.035761237144470E-1   7.851071953773499E-1  
 4.280000000000000E7    -6.081736087799072E-1   7.892449498176575E-1  -4.211193416267633E-3  -3.909518476575613E-3  -4.212031140923500E-3  -3.897129092365503E-3  -6.029074788093567E-1   7.855567336082459E-1  
 4.282000000000000E7    -6.078973412513733E-1   7.899885773658752E-1  -3.783241612836719E-3  -3.575759939849377E-3  -3.780492115765810E-3  -3.557428717613220E-3  -6.016957163810730E-1   7.860638499259949E-1  
 4.284000000000000E7    -6.069234013557434E-1   7.906942367553711E-1  -3.368105040863156E-3  -3.246183041483164E-3  -3.351114457473159E-3  -3.233720082789660E-3  -6.014364361763001E-1   7.865459322929382E-1  
 4.286000000000000E7    -6.062372922897339E-1   7.911095619201660E-1  -2.943755127489567E-3  -2.899943850934506E-3  -2.932427451014519E-3  -2.906791865825653E-3  -6.005859375000000E-1   7.872340679168701E-1  
 4.288000000000000E7    -6.051862835884094E-1   7.917345166206360E-1  -2.505253069102764E-3  -2.584392204880714E-3  -2.518009860068560E-3  -2.574543468654156E-3  -5.998305082321167E-1   7.877750396728516E-1  
 4.290000000000000E7    -6.046027541160584E-1   7.924867868423462E-1  -2.093173796311021E-3  -2.261413959786296E-3  -2.089526737108827E-3  -2.249660668894649E-3  -5.990570187568665E-1   7.882806658744812E-1  
 4.292000000000000E7    -6.036185622215271E-1   7.930455207824707E-1  -1.653790008276701E-3  -1.924658077768982E-3  -1.666336320340633E-3  -1.928124343976378E-3  -5.982846021652222E-1   7.890034317970276E-1  
 4.294000000000000E7    -6.030430793762207E-1   7.936754226684570E-1  -1.242832513526082E-3  -1.599360606633127E-3  -1.239065895788372E-3  -1.592684420756996E-3  -5.976123213768005E-1   7.896795272827148E-1  
 4.296000000000000E7    -6.021773219108582E-1   7.938566803932190E-1  -8.118653204292059E-4  -1.253855531103909E-3  -8.078934624791145E-4  -1.274124602787197E-3  -5.969302058219910E-1   7.902945876121521E-1  
 4.298000000000000E7    -6.013855934143066E-1   7.945786714553833E-1  -3.821459831669927E-4  -9.463786263950169E-4  -3.823628067038953E-4  -9.566965745761991E-4  -5.960645079612732E-1   7.908112406730652E-1  
 4.300000000000000E7    -6.002238988876343E-1   7.948058247566223E-1   4.133573747822084E-5  -6.157429306767881E-4   4.234926018398255E-5  -6.160928751341999E-4  -5.951414704322815E-1   7.911608219146729E-1  
 4.302000000000000E7    -6.000272035598755E-1   7.961578369140625E-1   4.750586522277445E-4  -3.136572777293623E-4   4.638010577764362E-4  -3.059597220271826E-4  -5.946196913719177E-1   7.916206717491150E-1  
 4.304000000000000E7    -5.990738272666931E-1   7.964631319046021E-1   8.952693315222859E-4   8.241905561590102E-6   8.915928774513304E-4   1.116958083002828E-5  -5.934768915176392E-1   7.922573685646057E-1  
 4.306000000000000E7    -5.982130169868469E-1   7.971873283386231E-1   1.305795740336180E-3   3.423221642151475E-4   1.301434938795865E-3   3.320224059280008E-4  -5.930582284927368E-1   7.928439378738403E-1  
 4.308000000000000E7    -5.974442362785339E-1   7.977749109268189E-1   1.747110742144287E-3   6.480306619778276E-4   1.747453585267067E-3   6.502550095319748E-4  -5.922213196754456E-1   7.934545874595642E-1  
 4.310000000000000E7    -5.964964628219605E-1   7.984965443611145E-1   2.176954178139567E-3   9.756230865605176E-4   2.166440943256021E-3   9.707115823403001E-4  -5.914301276206970E-1   7.941529750823975E-1  
 4.312000000000000E7    -5.959462523460388E-1   7.988523244857788E-1   2.597265876829624E-3   1.293810317292810E-3   2.590993884950876E-3   1.283082296140492E-3  -5.903218388557434E-1   7.946390509605408E-1  
 4.314000000000000E7    -5.950310826301575E-1   7.992770671844482E-1   3.027681726962328E-3   1.594718196429312E-3   3.025930142030120E-3   1.601984375156462E-3  -5.899431705474854E-1   7.952036857604981E-1  
 4.316000000000000E7    -5.943095684051514E-1   7.998954653739929E-1   3.453053534030914E-3   1.917213900014758E-3   3.451500087976456E-3   1.915577217005193E-3  -5.889452695846558E-1   7.954358458518982E-1  
 4.318000000000000E7    -5.935478806495667E-1   8.006221652030945E-1   3.872603876516223E-3   2.234522718936205E-3   3.869288833811879E-3   2.208520891144872E-3  -5.881822705268860E-1   7.960698008537293E-1  
 4.320000000000000E7    -5.928044319152832E-1   8.014128804206848E-1   4.300583619624376E-3   2.530886325985193E-3   4.298700019717217E-3   2.532583661377430E-3  -5.874170064926148E-1   7.970137000083923E-1  
 4.322000000000000E7    -5.917523503303528E-1   8.018069863319397E-1   4.717435687780380E-3   2.839727792888880E-3   4.713988397270441E-3   2.835520310327411E-3  -5.868026614189148E-1   7.970911860466003E-1  
 4.324000000000000E7    -5.908911824226379E-1   8.022825121879578E-1   5.153252277523279E-3   3.155052661895752E-3   5.152872297912836E-3   3.142989706248045E-3  -5.860385894775391E-1   7.981635928153992E-1  
 4.326000000000000E7    -5.904199481010437E-1   8.027734756469727E-1   5.581600125879049E-3   3.456596750766039E-3   5.570337176322937E-3   3.453882876783609E-3  -5.850442647933960E-1   7.983066439628601E-1  
 4.328000000000000E7    -5.895087718963623E-1   8.030369877815247E-1   6.002716720104218E-3   3.769565373659134E-3   6.000427994877100E-3   3.763358574360609E-3  -5.839226841926575E-1   7.991609573364258E-1  
 4.330000000000000E7    -5.891318321228027E-1   8.039219975471497E-1   6.442259531468153E-3   4.068854264914990E-3   6.428464315831661E-3   4.061084240674973E-3  -5.834398269653320E-1   7.996892333030701E-1  
 4.332000000000000E7    -5.879656672477722E-1   8.044501543045044E-1   6.859582383185625E-3   4.375363234430552E-3   6.865268573164940E-3   4.373792093247175E-3  -5.828869342803955E-1   8.003911375999451E-1  
 4.334000000000000E7    -5.873559117317200E-1   8.049215078353882E-1   7.283523678779602E-3   4.676040261983872E-3   7.281746249645948E-3   4.658375866711140E-3  -5.819997191429138E-1   8.005599379539490E-1  
 4.336000000000000E7    -5.865324735641480E-1   8.054350018501282E-1   7.711923681199551E-3   4.971609450876713E-3   7.701384834945202E-3   4.960101563483477E-3  -5.807915925979614E-1   8.013169169425964E-1  
 4.338000000000000E7    -5.854137539863586E-1   8.060083985328674E-1   8.149311877787113E-3   5.286540836095810E-3   8.137488737702370E-3   5.267934873700142E-3  -5.801483392715454E-1   8.017800450325012E-1  
 4.340000000000000E7    -5.846304297447205E-1   8.065701127052307E-1   8.580393157899380E-3   5.582254379987717E-3   8.568766526877880E-3   5.563092883676291E-3  -5.797345638275147E-1   8.023895621299744E-1  
 4.342000000000000E7    -5.840246677398682E-1   8.072178363800049E-1   8.992345072329044E-3   5.871763452887535E-3   8.985139429569244E-3   5.872749723494053E-3  -5.787912607192993E-1   8.028770685195923E-1  
 4.344000000000000E7    -5.832108855247498E-1   8.078680634498596E-1   9.428965859115124E-3   6.155008450150490E-3   9.426681324839592E-3   6.163495127111673E-3  -5.781346559524536E-1   8.037563562393189E-1  
 4.346000000000000E7    -5.823326706886292E-1   8.083302378654480E-1   9.844829328358173E-3   6.486508995294571E-3   9.842317551374435E-3   6.453437730669975E-3  -5.773161649703980E-1   8.039090037345886E-1  
 4.348000000000000E7    -5.818495154380798E-1   8.090157508850098E-1   1.028657238930464E-2   6.757026538252831E-3   1.026879996061325E-2   6.746762897819281E-3  -5.767532587051392E-1   8.046196699142456E-1  
 4.350000000000000E7    -5.809727311134338E-1   8.094764351844788E-1   1.071808952838182E-2   7.055632770061493E-3   1.070000324398279E-2   7.045966573059559E-3  -5.760577321052551E-1   8.050218820571899E-1  
 4.352000000000000E7    -5.799924731254578E-1   8.103289604187012E-1   1.113765686750412E-2   7.338251918554306E-3   1.113075111061335E-2   7.341917604207993E-3  -5.751455426216126E-1   8.059316873550415E-1  
 4.354000000000000E7    -5.791960358619690E-1   8.102126121520996E-1   1.155511103570461E-2   7.629666011780500E-3   1.154616195708513E-2   7.611292414367199E-3  -5.740084052085877E-1   8.061780929565430E-1  
 4.356000000000000E7    -5.787606239318848E-1   8.113241195678711E-1   1.197978761047125E-2   7.943115197122097E-3   1.198748592287302E-2   7.894891314208508E-3  -5.735211372375488E-1   8.068736195564270E-1  
 4.358000000000000E7    -5.778794288635254E-1   8.114332556724548E-1   1.241344958543778E-2   8.222533389925957E-3   1.239335164427757E-2   8.208120241761208E-3  -5.730047821998596E-1   8.070243000984192E-1  
 4.360000000000000E7    -5.770840644836426E-1   8.121582865715027E-1   1.282458379864693E-2   8.502424694597721E-3   1.283940020948649E-2   8.484618738293648E-3  -5.715920925140381E-1   8.074905872344971E-1  
 4.362000000000000E7    -5.762797594070435E-1   8.128903508186340E-1   1.326751150190830E-2   8.783177472651005E-3   1.326725911349058E-2   8.772266097366810E-3  -5.708505511283875E-1   8.080812692642212E-1  
 4.364000000000000E7    -5.754577517509460E-1   8.129105567932129E-1   1.369297876954079E-2   9.051039814949036E-3   1.368594728410244E-2   9.059229865670204E-3  -5.703182816505432E-1   8.089178204536438E-1  
 4.366000000000000E7    -5.746966004371643E-1   8.133959174156189E-1   1.412861701101065E-2   9.369951672852039E-3   1.410484872758389E-2   9.337290190160275E-3  -5.693362355232239E-1   8.096548914909363E-1  
 4.368000000000000E7    -5.739763379096985E-1   8.141910433769226E-1   1.454357709735632E-2   9.634464047849178E-3   1.453072391450405E-2   9.623977355659008E-3  -5.685972571372986E-1   8.097721338272095E-1  
 4.370000000000000E7    -5.727965831756592E-1   8.141589164733887E-1   1.496988721191883E-2   9.892061352729797E-3   1.496861223131418E-2   9.890433400869370E-3  -5.677312612533569E-1   8.104492425918579E-1  
 4.372000000000000E7    -5.720258951187134E-1   8.152312636375427E-1   1.539978757500649E-2   1.020093262195587E-2   1.537640485912561E-2   1.017305627465248E-2  -5.674289464950562E-1   8.107547760009766E-1  
 4.374000000000000E7    -5.713361501693726E-1   8.157726526260376E-1   1.584440469741821E-2   1.046774815768004E-2   1.582515425980091E-2   1.044839713722467E-2  -5.664815306663513E-1   8.115324974060059E-1  
 4.376000000000000E7    -5.708581805229187E-1   8.166008591651917E-1   1.627273857593536E-2   1.075780671089888E-2   1.625685952603817E-2   1.072296500205994E-2  -5.658497214317322E-1   8.123844861984253E-1  
 4.378000000000000E7    -5.698652267456055E-1   8.170243501663208E-1   1.669228076934815E-2   1.102231815457344E-2   1.667485758662224E-2   1.099991798400879E-2  -5.647058486938477E-1   8.126666545867920E-1  
 4.380000000000000E7    -5.687797069549561E-1   8.175289630889893E-1   1.711381226778030E-2   1.130489818751812E-2   1.711629889905453E-2   1.127373985946178E-2  -5.640664696693420E-1   8.132703900337219E-1  
 4.382000000000000E7    -5.684819221496582E-1   8.177890777587891E-1   1.754384487867355E-2   1.160899735987186E-2   1.752087473869324E-2   1.155314594507217E-2  -5.634019970893860E-1   8.135293126106262E-1  
 4.384000000000000E7    -5.674407482147217E-1   8.183302283287048E-1   1.796541735529900E-2   1.185549795627594E-2   1.794523745775223E-2   1.183698140084744E-2  -5.625979304313660E-1   8.143315911293030E-1  
 4.386000000000000E7    -5.669804811477661E-1   8.188141584396362E-1   1.840033382177353E-2   1.213317923247814E-2   1.839489117264748E-2   1.209518313407898E-2  -5.617058873176575E-1   8.147237300872803E-1  
 4.388000000000000E7    -5.659608244895935E-1   8.190630078315735E-1   1.882591284811497E-2   1.240082178264856E-2   1.880111359059811E-2   1.236361451447010E-2  -5.610221028327942E-1   8.153120875358582E-1  
 4.390000000000000E7    -5.649280548095703E-1   8.199955821037293E-1   1.927818357944489E-2   1.265584304928780E-2   1.925132051110268E-2   1.264259591698647E-2  -5.602284669876099E-1   8.160424232482910E-1  
 4.392000000000000E7    -5.643958449363709E-1   8.206245899200440E-1   1.968139968812466E-2   1.294870302081108E-2   1.965263858437538E-2   1.292058452963829E-2  -5.592610239982605E-1   8.157657384872437E-1  
 4.394000000000000E7    -5.631577968597412E-1   8.210387825965881E-1   2.012265287339687E-2   1.319384016096592E-2   2.009489946067333E-2   1.318323239684105E-2  -5.586742758750916E-1   8.165036439895630E-1  
 4.396000000000000E7    -5.625193119049072E-1   8.214832544326782E-1   2.052496001124382E-2   1.347362715750933E-2   2.051969245076180E-2   1.343322172760963E-2  -5.577030181884766E-1   8.171567916870117E-1  
 4.398000000000000E7    -5.615594387054443E-1   8.219922780990601E-1   2.096853777766228E-2   1.370150409638882E-2   2.096436731517315E-2   1.370858959853649E-2  -5.570143461227417E-1   8.180334568023682E-1  
 4.400000000000000E7    -5.607047677040100E-1   8.226324915885925E-1   2.140408754348755E-2   1.396851334720850E-2   2.138230390846729E-2   1.397005282342434E-2  -5.564200878143311E-1   8.180667161941528E-1  
 4.402000000000000E7    -5.601398348808289E-1   8.229656815528870E-1   2.181519940495491E-2   1.426222547888756E-2   2.182835154235363E-2   1.422563567757607E-2  -5.554296970367432E-1   8.190001845359802E-1  
 4.404000000000000E7    -5.596521496772766E-1   8.239106535911560E-1   2.227015420794487E-2   1.453163195401430E-2   2.226806245744228E-2   1.451267674565315E-2  -5.547614097595215E-1   8.193233013153076E-1  
 4.406000000000000E7    -5.586227178573608E-1   8.240370154380798E-1   2.268235385417938E-2   1.479287724941969E-2   2.266351878643036E-2   1.473950035870075E-2  -5.541313886642456E-1   8.197458386421204E-1  
 4.408000000000000E7    -5.579466819763184E-1   8.246484994888306E-1   2.312160655856133E-2   1.503844466060400E-2   2.310219034552574E-2   1.501458417624235E-2  -5.531660914421082E-1   8.200718760490418E-1  
 4.410000000000000E7    -5.573111772537231E-1   8.254892230033875E-1   2.355349063873291E-2   1.529408060014248E-2   2.351682260632515E-2   1.528929360210896E-2  -5.526391267776489E-1   8.205670118331909E-1  
 4.412000000000000E7    -5.564114451408386E-1   8.258120417594910E-1   2.399149164557457E-2   1.557970792055130E-2   2.396113052964211E-2   1.553258206695318E-2  -5.518183708190918E-1   8.211246132850647E-1  
 4.414000000000000E7    -5.555641055107117E-1   8.260554075241089E-1   2.437236160039902E-2   1.581676118075848E-2   2.436502650380135E-2   1.577733084559441E-2  -5.505214333534241E-1   8.212603330612183E-1  
 4.416000000000000E7    -5.546039342880249E-1   8.261864185333252E-1   2.480344474315643E-2   1.606265641748905E-2   2.477904409170151E-2   1.600484549999237E-2  -5.498442053794861E-1   8.219248056411743E-1  
 4.418000000000000E7    -5.535889267921448E-1   8.268051147460938E-1   2.523812651634216E-2   1.631138846278191E-2   2.523041889071465E-2   1.628013513982296E-2  -5.492993593215942E-1   8.227447867393494E-1  
 4.420000000000000E7    -5.532405972480774E-1   8.275575041770935E-1   2.567790262401104E-2   1.656189374625683E-2   2.562363445758820E-2   1.654074341058731E-2  -5.483528971672058E-1   8.229390978813171E-1  
 4.422000000000000E7    -5.525830388069153E-1   8.280167579650879E-1   2.613292075693607E-2   1.683628372848034E-2   2.608682774007320E-2   1.679292321205139E-2  -5.477138161659241E-1   8.238452076911926E-1  
 4.424000000000000E7    -5.518180727958679E-1   8.288400173187256E-1   2.654432132840157E-2   1.708394102752209E-2   2.651991881430149E-2   1.706368848681450E-2  -5.469281077384949E-1   8.242847323417664E-1  
 4.426000000000000E7    -5.509306788444519E-1   8.288243412971497E-1   2.696064673364162E-2   1.733878441154957E-2   2.692593634128571E-2   1.728691719472408E-2  -5.460650324821472E-1   8.248429298400879E-1  
 4.428000000000000E7    -5.498948693275452E-1   8.295417428016663E-1   2.737899310886860E-2   1.757162064313889E-2   2.736623585224152E-2   1.752821728587151E-2  -5.453159809112549E-1   8.250764012336731E-1  
 4.430000000000000E7    -5.492340326309204E-1   8.298767805099487E-1   2.779116854071617E-2   1.786449179053307E-2   2.777269296348095E-2   1.778450235724449E-2  -5.447512269020081E-1   8.256493806838989E-1  
 4.432000000000000E7    -5.482184886932373E-1   8.306143879890442E-1   2.826691418886185E-2   1.805298775434494E-2   2.825142070651054E-2   1.801167428493500E-2  -5.436701774597168E-1   8.262690305709839E-1  
 4.434000000000000E7    -5.472984313964844E-1   8.310855627059937E-1   2.869368344545364E-2   1.831608265638351E-2   2.866498008370400E-2   1.828985102474690E-2  -5.431206822395325E-1   8.266606926918030E-1  
 4.436000000000000E7    -5.467623472213745E-1   8.317909240722656E-1   2.911075949668884E-2   1.855182275176048E-2   2.909327298402786E-2   1.850586943328381E-2  -5.421118736267090E-1   8.269712328910828E-1  
 4.438000000000000E7    -5.456807613372803E-1   8.320174813270569E-1   2.952817082405090E-2   1.880928874015808E-2   2.949069254100323E-2   1.878513768315315E-2  -5.415000915527344E-1   8.276250958442688E-1  
 4.440000000000000E7    -5.453100204467773E-1   8.323868513107300E-1   2.995730377733707E-2   1.906205341219902E-2   2.992060966789722E-2   1.900551281869412E-2  -5.406103134155273E-1   8.276448845863342E-1  
 4.442000000000000E7    -5.441716313362122E-1   8.330072760581970E-1   3.040137514472008E-2   1.926382817327976E-2   3.035838901996613E-2   1.921829581260681E-2  -5.396863222122192E-1   8.284184336662293E-1  
 4.444000000000000E7    -5.431873202323914E-1   8.335767984390259E-1   3.082662262022495E-2   1.953151822090149E-2   3.078508004546166E-2   1.948704943060875E-2  -5.390491485595703E-1   8.289197683334351E-1  
 4.446000000000000E7    -5.428339838981628E-1   8.340672254562378E-1   3.124315664172173E-2   1.975921913981438E-2   3.122341632843018E-2   1.972530409693718E-2  -5.383635163307190E-1   8.296447396278381E-1  
 4.448000000000000E7    -5.420108437538147E-1   8.346322774887085E-1   3.171740472316742E-2   1.999694481492043E-2   3.164746239781380E-2   1.995193958282471E-2  -5.372823476791382E-1   8.305018544197083E-1  
 4.450000000000000E7    -5.414617061614990E-1   8.350251317024231E-1   3.211872652173042E-2   2.027383819222450E-2   3.210250660777092E-2   2.020046673715115E-2  -5.367938876152039E-1   8.308186531066895E-1  
 4.452000000000000E7    -5.401403307914734E-1   8.353347182273865E-1   3.254019841551781E-2   2.044723182916641E-2   3.250254690647125E-2   2.043390832841396E-2  -5.359098911285400E-1   8.313528299331665E-1  
 4.454000000000000E7    -5.400190949440002E-1   8.359792232513428E-1   3.301073983311653E-2   2.073556557297707E-2   3.295751288533211E-2   2.068231068551540E-2  -5.351094603538513E-1   8.316685557365418E-1  
 4.456000000000000E7    -5.384283661842346E-1   8.362770080566406E-1   3.339905664324760E-2   2.088829316198826E-2   3.334126248955727E-2   2.088136225938797E-2  -5.340921878814697E-1   8.319380879402161E-1  
 4.458000000000000E7    -5.380151867866516E-1   8.369187116622925E-1   3.381235897541046E-2   2.117207832634449E-2   3.379807248711586E-2   2.112280204892159E-2  -5.335538983345032E-1   8.326289057731628E-1  
 4.460000000000000E7    -5.374231338500977E-1   8.375545144081116E-1   3.426224365830421E-2   2.143443934619427E-2   3.422540798783302E-2   2.139751613140106E-2  -5.327396988868713E-1   8.327749967575073E-1  
 4.462000000000000E7    -5.363829731941223E-1   8.380869626998901E-1   3.469929099082947E-2   2.162796631455421E-2   3.466649353504181E-2   2.158134058117867E-2  -5.322350859642029E-1   8.334141969680786E-1  
 4.464000000000000E7    -5.355461835861206E-1   8.386294841766357E-1   3.513879328966141E-2   2.187268808484078E-2   3.508134558796883E-2   2.180758677423000E-2  -5.309312343597412E-1   8.338500857353210E-1  
 4.466000000000000E7    -5.347484946250916E-1   8.385427594184876E-1   3.549776598811150E-2   2.209862321615219E-2   3.550493344664574E-2   2.206134237349033E-2  -5.303488373756409E-1   8.342630267143250E-1  
 4.468000000000000E7    -5.340759754180908E-1   8.394020199775696E-1   3.599320724606514E-2   2.232463657855988E-2   3.592976927757263E-2   2.224838733673096E-2  -5.294702649116516E-1   8.349345922470093E-1  
 4.470000000000000E7    -5.332204103469849E-1   8.395171165466309E-1   3.638326749205589E-2   2.255726978182793E-2   3.633015230298042E-2   2.249005064368248E-2  -5.286827087402344E-1   8.349301815032959E-1  
 4.472000000000000E7    -5.323681831359863E-1   8.403562903404236E-1   3.683934733271599E-2   2.277647517621517E-2   3.681388497352600E-2   2.273029834032059E-2  -5.280959606170654E-1   8.358142971992493E-1  
 4.474000000000000E7    -5.318753719329834E-1   8.405450582504273E-1   3.726531937718391E-2   2.299179136753082E-2   3.722047060728073E-2   2.297577448189259E-2  -5.272723436355591E-1   8.364607095718384E-1  
 4.476000000000000E7    -5.309656858444214E-1   8.409531712532044E-1   3.766718134284020E-2   2.322922646999359E-2   3.763121366500855E-2   2.314781956374645E-2  -5.265668034553528E-1   8.366225957870483E-1  
 4.478000000000000E7    -5.300579667091370E-1   8.415723443031311E-1   3.807020187377930E-2   2.343063056468964E-2   3.808133304119110E-2   2.338020689785481E-2  -5.258842706680298E-1   8.367700576782227E-1  
 4.480000000000000E7    -5.292674303054810E-1   8.419989943504334E-1   3.855095431208611E-2   2.369342185556889E-2   3.850567340850830E-2   2.359400503337383E-2  -5.248719453811646E-1   8.381862044334412E-1  
 4.482000000000000E7    -5.285803079605103E-1   8.424724340438843E-1   3.896147385239601E-2   2.389192953705788E-2   3.895084559917450E-2   2.385523356497288E-2  -5.241658687591553E-1   8.381857872009277E-1  
 4.484000000000000E7    -5.273830890655518E-1   8.431536555290222E-1   3.942342475056648E-2   2.407940477132797E-2   3.934094682335854E-2   2.404766716063023E-2  -5.235444903373718E-1   8.385281562805176E-1  
 4.486000000000000E7    -5.270496606826782E-1   8.434689640998840E-1   3.983949124813080E-2   2.428691461682320E-2   3.980628401041031E-2   2.430243417620659E-2  -5.226746797561646E-1   8.389706015586853E-1  
 4.488000000000000E7    -5.263475775718689E-1   8.437986969947815E-1   4.026548936963081E-2   2.456469833850861E-2   4.018920660018921E-2   2.445011585950851E-2  -5.219455361366272E-1   8.394882678985596E-1  
 4.490000000000000E7    -5.251471400260925E-1   8.443900346755981E-1   4.067023843526840E-2   2.476575598120689E-2   4.063770174980164E-2   2.471290528774262E-2  -5.211898088455200E-1   8.396484851837158E-1  
 4.492000000000000E7    -5.245902538299561E-1   8.446522355079651E-1   4.105888307094574E-2   2.496129646897316E-2   4.108032584190369E-2   2.488864026963711E-2  -5.200939178466797E-1   8.402619361877441E-1  
 4.494000000000000E7    -5.236001610755920E-1   8.452329635620117E-1   4.153392091393471E-2   2.517738565802574E-2   4.152256995439529E-2   2.513054013252258E-2  -5.192381739616394E-1   8.412047624588013E-1  
 4.496000000000000E7    -5.231577754020691E-1   8.454433083534241E-1   4.194572195410729E-2   2.539341710507870E-2   4.191859811544418E-2   2.532773278653622E-2  -5.184296369552612E-1   8.412692546844482E-1  
 4.498000000000000E7    -5.222135186195374E-1   8.460965156555176E-1   4.237612709403038E-2   2.563599497079849E-2   4.231914505362511E-2   2.559477835893631E-2  -5.176060199737549E-1   8.414336442947388E-1  
 4.500000000000000E7    -5.210470557212830E-1   8.464519381523132E-1   4.280600696802139E-2   2.579971961677074E-2   4.280034080147743E-2   2.576361782848835E-2  -5.170489549636841E-1   8.420246839523315E-1  
 4.502000000000000E7    -5.205220580101013E-1   8.472347855567932E-1   4.325656220316887E-2   2.602265588939190E-2   4.321122542023659E-2   2.596323192119598E-2  -5.161173939704895E-1   8.426290750503540E-1  
 4.504000000000000E7    -5.196753740310669E-1   8.474125266075134E-1   4.368288069963455E-2   2.623808756470680E-2   4.358346015214920E-2   2.617160975933075E-2  -5.156281590461731E-1   8.427805304527283E-1  
 4.506000000000000E7    -5.191245079040527E-1   8.480573296546936E-1   4.412514716386795E-2   2.645550481975079E-2   4.406599700450897E-2   2.638967707753182E-2  -5.146354436874390E-1   8.436050415039063E-1  
 4.508000000000000E7    -5.181067585945129E-1   8.482292890548706E-1   4.452645033597946E-2   2.661600336432457E-2   4.448866844177246E-2   2.662367932498455E-2  -5.139443278312683E-1   8.440555930137634E-1  
 4.510000000000000E7    -5.171211957931519E-1   8.486191630363464E-1   4.496707767248154E-2   2.687139622867107E-2   4.489488899707794E-2   2.678823098540306E-2  -5.134019255638123E-1   8.444962501525879E-1  
 4.512000000000000E7    -5.167030692100525E-1   8.490965366363525E-1   4.540695622563362E-2   2.707663178443909E-2   4.534059762954712E-2   2.702149748802185E-2  -5.123805999755859E-1   8.452804684638977E-1  
 4.514000000000000E7    -5.156714916229248E-1   8.498852849006653E-1   4.581476002931595E-2   2.728293836116791E-2   4.580998793244362E-2   2.725434303283691E-2  -5.116398334503174E-1   8.453099131584168E-1  
 4.516000000000000E7    -5.144929289817810E-1   8.504158854484558E-1   4.626179859042168E-2   2.743547037243843E-2   4.619749262928963E-2   2.735915966331959E-2  -5.104487538337708E-1   8.457206487655640E-1  
 4.518000000000000E7    -5.140045881271362E-1   8.506633043289185E-1   4.672828689217567E-2   2.765759080648422E-2   4.662894085049629E-2   2.761321887373924E-2  -5.100294947624207E-1   8.462542295455933E-1  
 4.520000000000000E7    -5.131423473358154E-1   8.509261608123779E-1   4.708085581660271E-2   2.785083837807179E-2   4.704550653696060E-2   2.783678844571114E-2  -5.093202590942383E-1   8.463615775108337E-1  
 4.522000000000000E7    -5.124985575675964E-1   8.517368435859680E-1   4.751145467162132E-2   2.803938090801239E-2   4.751577228307724E-2   2.804693579673767E-2  -5.084189176559448E-1   8.471480011940002E-1  
 4.524000000000000E7    -5.116916894912720E-1   8.518295288085938E-1   4.795372113585472E-2   2.828375436365604E-2   4.792784899473190E-2   2.822221443057060E-2  -5.078707337379456E-1   8.476440906524658E-1  
 4.526000000000000E7    -5.107836723327637E-1   8.528057932853699E-1   4.837935417890549E-2   2.848741225898266E-2   4.836318641901016E-2   2.841613255441189E-2  -5.069266557693481E-1   8.477698564529419E-1  
 4.528000000000000E7    -5.099077820777893E-1   8.530157208442688E-1   4.882927611470223E-2   2.865445241332054E-2   4.873961582779884E-2   2.860441990196705E-2  -5.061159729957581E-1   8.481367230415344E-1  
 4.530000000000000E7    -5.089262723922730E-1   8.534795045852661E-1   4.922944679856300E-2   2.888606488704681E-2   4.920590668916702E-2   2.879193797707558E-2  -5.055589675903320E-1   8.489339947700501E-1  
 4.532000000000000E7    -5.081582665443420E-1   8.539293408393860E-1   4.968519136309624E-2   2.906059473752976E-2   4.968422651290894E-2   2.899375557899475E-2  -5.045831799507141E-1   8.493509292602539E-1  
 4.534000000000000E7    -5.074176192283630E-1   8.541274666786194E-1   5.006808042526245E-2   2.921355515718460E-2   5.008066445589066E-2   2.919914945960045E-2  -5.036661624908447E-1   8.496353030204773E-1  
 4.536000000000000E7    -5.064548254013062E-1   8.544507622718811E-1   5.049851909279823E-2   2.941708825528622E-2   5.048066750168800E-2   2.935930900275707E-2  -5.030986070632935E-1   8.500507473945618E-1  
 4.538000000000000E7    -5.060478448867798E-1   8.549239039421082E-1   5.095029622316361E-2   2.963445708155632E-2   5.086366087198257E-2   2.961355634033680E-2  -5.021569728851318E-1   8.502379655838013E-1  
 4.540000000000000E7    -5.053853392601013E-1   8.552379608154297E-1   5.137055367231369E-2   2.982230484485626E-2   5.133247375488281E-2   2.977844886481762E-2  -5.011929869651794E-1   8.510453104972839E-1  
 4.542000000000000E7    -5.045183897018433E-1   8.553549051284790E-1   5.178281664848328E-2   3.004117310047150E-2   5.170072987675667E-2   2.998092398047447E-2  -5.007219314575195E-1   8.513667583465576E-1  
 4.544000000000000E7    -5.034167766571045E-1   8.559101223945618E-1   5.223186314105988E-2   3.016538731753826E-2   5.215704813599587E-2   3.011938929557800E-2  -4.997185468673706E-1   8.516552448272705E-1  
 4.546000000000000E7    -5.027042627334595E-1   8.569199442863464E-1   5.268953740596771E-2   3.038729913532734E-2   5.261289328336716E-2   3.033676929771900E-2  -4.991625547409058E-1   8.521783351898193E-1  
 4.548000000000000E7    -5.019943118095398E-1   8.570903539657593E-1   5.310687795281410E-2   3.060402721166611E-2   5.304047465324402E-2   3.055010549724102E-2  -4.983230829238892E-1   8.525937199592590E-1  
 4.550000000000000E7    -5.013299584388733E-1   8.575310111045837E-1   5.348451435565949E-2   3.075860068202019E-2   5.349263176321983E-2   3.072045743465424E-2  -4.972581267356873E-1   8.531254529953003E-1  
 4.552000000000000E7    -5.004014968872070E-1   8.577430248260498E-1   5.396253615617752E-2   3.096451051533222E-2   5.390768125653267E-2   3.093198314309120E-2  -4.966501891613007E-1   8.535461425781250E-1  
 4.554000000000000E7    -4.998448193073273E-1   8.581510782241821E-1   5.435939133167267E-2   3.114013373851776E-2   5.429851636290550E-2   3.106218576431274E-2  -4.955361187458038E-1   8.539363145828247E-1  
 4.556000000000000E7    -4.987843930721283E-1   8.585951924324036E-1   5.480284243822098E-2   3.132956475019455E-2   5.471665412187576E-2   3.125229105353355E-2  -4.949547350406647E-1   8.544527888298035E-1  
 4.558000000000000E7    -4.982311129570007E-1   8.589608073234558E-1   5.521969497203827E-2   3.150185942649841E-2   5.515417456626892E-2   3.148303925991058E-2  -4.943253695964813E-1   8.546673655509949E-1  
 4.560000000000000E7    -4.972325563430786E-1   8.594653010368347E-1   5.565439537167549E-2   3.170260787010193E-2   5.557468160986900E-2   3.163399547338486E-2  -4.935414493083954E-1   8.551290035247803E-1  
 4.562000000000000E7    -4.965972304344177E-1   8.600895404815674E-1   5.606781318783760E-2   3.188130259513855E-2   5.604590103030205E-2   3.182996064424515E-2  -4.929294884204865E-1   8.555117845535278E-1  
 4.564000000000000E7    -4.953419566154480E-1   8.603950738906860E-1   5.651833117008209E-2   3.200897946953774E-2   5.640439689159393E-2   3.197043016552925E-2  -4.918013215065002E-1   8.556941151618958E-1  
 4.566000000000000E7    -4.947663247585297E-1   8.608477711677551E-1   5.691431835293770E-2   3.217422589659691E-2   5.682348087430000E-2   3.219031542539597E-2  -4.909949004650116E-1   8.562726378440857E-1  
 4.568000000000000E7    -4.939707815647125E-1   8.613926768302918E-1   5.738029256463051E-2   3.237452358007431E-2   5.732359364628792E-2   3.231400251388550E-2  -4.902391731739044E-1   8.568204045295715E-1  
 4.570000000000000E7    -4.931570589542389E-1   8.618825674057007E-1   5.774299055337906E-2   3.261008113622665E-2   5.772454664111137E-2   3.250592201948166E-2  -4.897297322750092E-1   8.569751977920532E-1  
 4.572000000000000E7    -4.928483664989471E-1   8.620434999465942E-1   5.819582939147949E-2   3.276091068983078E-2   5.815177410840988E-2   3.271724283695221E-2  -4.886096417903900E-1   8.574473261833191E-1  
 4.574000000000000E7    -4.917083978652954E-1   8.622523546218872E-1   5.854764208197594E-2   3.293942660093308E-2   5.855691432952881E-2   3.282732143998146E-2  -4.878420829772949E-1   8.575178384780884E-1  
 4.576000000000000E7    -4.909594953060150E-1   8.633518218994141E-1   5.908805504441261E-2   3.310563787817955E-2   5.904753133654594E-2   3.299922868609428E-2  -4.870192110538483E-1   8.584488034248352E-1  
 4.578000000000000E7    -4.902599453926086E-1   8.630067706108093E-1   5.943289771676064E-2   3.325349837541580E-2   5.938280001282692E-2   3.324157744646072E-2  -4.864653050899506E-1   8.585426211357117E-1  
 4.580000000000000E7    -4.894845187664032E-1   8.634405732154846E-1   5.988927930593491E-2   3.342104330658913E-2   5.982074141502380E-2   3.342821449041367E-2  -4.853025674819946E-1   8.587813973426819E-1  
 4.582000000000000E7    -4.884755611419678E-1   8.637285232543945E-1   6.025414913892746E-2   3.356305882334709E-2   6.031374633312225E-2   3.354721516370773E-2  -4.846873581409454E-1   8.593432903289795E-1  
 4.584000000000000E7    -4.879332184791565E-1   8.641430735588074E-1   6.068930774927139E-2   3.379599004983902E-2   6.069538369774818E-2   3.372123092412949E-2  -4.840418100357056E-1   8.598778843879700E-1  
 4.586000000000000E7    -4.866048991680145E-1   8.647352457046509E-1   6.117591634392738E-2   3.391665220260620E-2   6.107115373015404E-2   3.389059007167816E-2  -4.832077920436859E-1   8.600335717201233E-1  
 4.588000000000000E7    -4.860816895961762E-1   8.652040958404541E-1   6.159728020429611E-2   3.410913422703743E-2   6.153248995542526E-2   3.410481661558151E-2  -4.825176298618317E-1   8.604049682617188E-1  
 4.590000000000000E7    -4.851679801940918E-1   8.655284643173218E-1   6.203097105026245E-2   3.428827598690987E-2   6.196554377675057E-2   3.422627225518227E-2  -4.817012548446655E-1   8.609217405319214E-1  
 4.592000000000000E7    -4.841078817844391E-1   8.658074140548706E-1   6.243105977773666E-2   3.443345427513123E-2   6.242431700229645E-2   3.442227095365524E-2  -4.810889065265656E-1   8.617205619812012E-1  
 4.594000000000000E7    -4.835139513015747E-1   8.662917613983154E-1   6.290419399738312E-2   3.465087711811066E-2   6.281094998121262E-2   3.459331393241882E-2  -4.805681407451630E-1   8.620030879974365E-1  
 4.596000000000000E7    -4.829257130622864E-1   8.668620586395264E-1   6.334121525287628E-2   3.476145118474960E-2   6.322027742862701E-2   3.473138436675072E-2  -4.790332615375519E-1   8.624733686447144E-1  
 4.598000000000000E7    -4.820344746112824E-1   8.670349121093750E-1   6.370135396718979E-2   3.493633866310120E-2   6.369733065366745E-2   3.488710522651672E-2  -4.782778620719910E-1   8.625808954238892E-1  
 4.600000000000000E7    -4.814103543758392E-1   8.671684265136719E-1   6.415045261383057E-2   3.513117134571075E-2   6.409129500389099E-2   3.510116040706635E-2  -4.777773916721344E-1   8.632332682609558E-1  
 4.602000000000000E7    -4.804256856441498E-1   8.677066564559937E-1   6.456656008958817E-2   3.528743982315064E-2   6.449383497238159E-2   3.525725752115250E-2  -4.771778285503388E-1   8.634610176086426E-1  
 4.604000000000000E7    -4.796483814716339E-1   8.680500984191895E-1   6.496323645114899E-2   3.543284907937050E-2   6.495479494333267E-2   3.540305048227310E-2  -4.764184653759003E-1   8.640689849853516E-1  
 4.606000000000000E7    -4.786508083343506E-1   8.684999942779541E-1   6.537466496229172E-2   3.556955233216286E-2   6.534453481435776E-2   3.555202856659889E-2  -4.752282500267029E-1   8.639578819274902E-1  
 4.608000000000000E7    -4.781576991081238E-1   8.689971566200256E-1   6.584528833627701E-2   3.574586659669876E-2   6.581953912973404E-2   3.571773692965508E-2  -4.746519625186920E-1   8.649024963378906E-1  
 4.610000000000000E7    -4.773928821086884E-1   8.694807291030884E-1   6.626608222723007E-2   3.592323511838913E-2   6.619052588939667E-2   3.589130565524101E-2  -4.740013480186462E-1   8.650441765785217E-1  
 4.612000000000000E7    -4.765761196613312E-1   8.699299097061157E-1   6.671007722616196E-2   3.607936576008797E-2   6.665695458650589E-2   3.603729978203774E-2  -4.729109704494476E-1   8.657194972038269E-1  
 4.614000000000000E7    -4.755937457084656E-1   8.702911138534546E-1   6.712642312049866E-2   3.623187169432640E-2   6.710699200630188E-2   3.613840043544769E-2  -4.722144007682800E-1   8.656529784202576E-1  
 4.616000000000000E7    -4.746569991111755E-1   8.706250190734863E-1   6.754313409328461E-2   3.635402396321297E-2   6.747432053089142E-2   3.631025180220604E-2  -4.713323414325714E-1   8.659851551055908E-1  
 4.618000000000000E7    -4.736733436584473E-1   8.705395460128784E-1   6.799969822168350E-2   3.648541122674942E-2   6.785602122545242E-2   3.647864609956741E-2  -4.707111418247223E-1   8.664700388908386E-1  
 4.620000000000000E7    -4.730820953845978E-1   8.716511726379395E-1   6.844750046730042E-2   3.667770326137543E-2   6.834932416677475E-2   3.662612661719322E-2  -4.696856737136841E-1   8.668203949928284E-1  
 4.622000000000000E7    -4.722764194011688E-1   8.718780279159546E-1   6.884872168302536E-2   3.688886389136314E-2   6.879814714193344E-2   3.678636997938156E-2  -4.694156646728516E-1   8.674507141113281E-1  
 4.624000000000000E7    -4.715544879436493E-1   8.718591928482056E-1   6.921367347240448E-2   3.693332150578499E-2   6.918917596340179E-2   3.694665059447289E-2  -4.681843817234039E-1   8.678897023200989E-1  
 4.626000000000000E7    -4.705953598022461E-1   8.725543618202210E-1   6.964896619319916E-2   3.718612343072891E-2   6.963460147380829E-2   3.715831786394119E-2  -4.677501320838928E-1   8.682943582534790E-1  
 4.628000000000000E7    -4.699873030185700E-1   8.727557063102722E-1   7.007334381341934E-2   3.731878846883774E-2   7.003659009933472E-2   3.725383058190346E-2  -4.667423963546753E-1   8.686350584030151E-1  
 4.630000000000000E7    -4.691018760204315E-1   8.730970025062561E-1   7.049820572137833E-2   3.738041967153549E-2   7.044984400272369E-2   3.736742585897446E-2  -4.658175408840179E-1   8.690285086631775E-1  
 4.632000000000000E7    -4.684513807296753E-1   8.736540675163269E-1   7.091902196407318E-2   3.757497668266296E-2   7.090816646814346E-2   3.752200305461884E-2  -4.651461839675903E-1   8.691471219062805E-1  
 4.634000000000000E7    -4.679021835327148E-1   8.739339113235474E-1   7.135146856307983E-2   3.776578232645989E-2   7.132378220558167E-2   3.768596798181534E-2  -4.643221497535706E-1   8.694863915443420E-1  
 4.636000000000000E7    -4.668275713920593E-1   8.742778301239014E-1   7.178814709186554E-2   3.792732581496239E-2   7.174993306398392E-2   3.782730922102928E-2  -4.636351168155670E-1   8.700735569000244E-1  
 4.638000000000000E7    -4.660942256450653E-1   8.746787309646606E-1   7.222285866737366E-2   3.800754621624947E-2   7.208999991416931E-2   3.797847032546997E-2  -4.628879725933075E-1   8.704003095626831E-1  
 4.640000000000000E7    -4.651938974857330E-1   8.749690651893616E-1   7.261889427900314E-2   3.815804421901703E-2   7.255945354700089E-2   3.812768682837486E-2  -4.618327319622040E-1   8.709865212440491E-1  
 4.642000000000000E7    -4.645697176456451E-1   8.755024075508118E-1   7.309616357088089E-2   3.830979019403458E-2   7.302840054035187E-2   3.825041651725769E-2  -4.608035087585449E-1   8.713019490242004E-1  
 4.644000000000000E7    -4.636839628219605E-1   8.757898807525635E-1   7.345427572727203E-2   3.844688832759857E-2   7.346477359533310E-2   3.847441077232361E-2  -4.603785276412964E-1   8.714204430580139E-1  
 4.646000000000000E7    -4.627358615398407E-1   8.760300874710083E-1   7.390128821134567E-2   3.860152140259743E-2   7.380510121583939E-2   3.855181485414505E-2  -4.596385955810547E-1   8.715935945510864E-1  
 4.648000000000000E7    -4.617634713649750E-1   8.766311407089233E-1   7.433589547872543E-2   3.874087333679199E-2   7.425678521394730E-2   3.864992037415505E-2  -4.589075744152069E-1   8.720756173133850E-1  
 4.650000000000000E7    -4.613185524940491E-1   8.771410584449768E-1   7.479380816221237E-2   3.887036070227623E-2   7.472977787256241E-2   3.882095217704773E-2  -4.578981995582581E-1   8.725927472114563E-1  
 4.652000000000000E7    -4.600823819637299E-1   8.772349953651428E-1   7.517835497856140E-2   3.897841647267342E-2   7.512428611516953E-2   3.894397243857384E-2  -4.573094248771668E-1   8.727777600288391E-1  
 4.654000000000000E7    -4.592525660991669E-1   8.777514696121216E-1   7.563292980194092E-2   3.910727798938751E-2   7.557836174964905E-2   3.904573246836662E-2  -4.563421010971069E-1   8.732907176017761E-1  
 4.656000000000000E7    -4.587052166461945E-1   8.779300451278687E-1   7.600911706686020E-2   3.926146402955055E-2   7.598086446523666E-2   3.930091857910156E-2  -4.557291567325592E-1   8.734920620918274E-1  
 4.658000000000000E7    -4.580002129077911E-1   8.781760334968567E-1   7.646154612302780E-2   3.943230956792831E-2   7.641451060771942E-2   3.938644379377365E-2  -4.549432694911957E-1   8.741157650947571E-1  
 4.660000000000000E7    -4.567912817001343E-1   8.786675333976746E-1   7.689433544874191E-2   3.948464244604111E-2   7.682105898857117E-2   3.944295644760132E-2  -4.535674154758453E-1   8.743904232978821E-1  
 4.662000000000000E7    -4.565484225749970E-1   8.790419697761536E-1   7.730630785226822E-2   3.971762955188751E-2   7.723407447338104E-2   3.962969407439232E-2  -4.533653557300568E-1   8.750787973403931E-1  
 4.664000000000000E7    -4.554256498813629E-1   8.792392015457153E-1   7.767824828624725E-2   3.976267203688622E-2   7.768125087022781E-2   3.974986821413040E-2  -4.525558948516846E-1   8.749338984489441E-1  
 4.666000000000000E7    -4.547393023967743E-1   8.793533444404602E-1   7.805801182985306E-2   3.992301970720291E-2   7.806114852428436E-2   3.986927494406700E-2  -4.515356421470642E-1   8.755322694778442E-1  
 4.668000000000000E7    -4.540003836154938E-1   8.803324699401856E-1   7.858742028474808E-2   4.013058170676231E-2   7.852691411972046E-2   4.011268541216850E-2  -4.510474801063538E-1   8.758771419525147E-1  
 4.670000000000000E7    -4.532613754272461E-1   8.804458379745483E-1   7.903658598661423E-2   4.015711322426796E-2   7.890012860298157E-2   4.019798338413239E-2  -4.499748051166534E-1   8.758176565170288E-1  
 4.672000000000000E7    -4.525448679924011E-1   8.805609941482544E-1   7.938792556524277E-2   4.039402678608894E-2   7.933131605386734E-2   4.033988341689110E-2  -4.493431746959686E-1   8.767843246459961E-1  
 4.674000000000000E7    -4.515744745731354E-1   8.807357549667358E-1   7.985212653875351E-2   4.052155464887619E-2   7.977535575628281E-2   4.044312983751297E-2  -4.485810101032257E-1   8.768130540847778E-1  
 4.676000000000000E7    -4.508462250232697E-1   8.812541961669922E-1   8.023560047149658E-2   4.062382131814957E-2   8.020917326211929E-2   4.057049751281738E-2  -4.478790163993835E-1   8.772597908973694E-1  
 4.678000000000000E7    -4.500504434108734E-1   8.819782137870789E-1   8.069670200347900E-2   4.073287546634674E-2   8.065363764762878E-2   4.074273630976677E-2  -4.468491077423096E-1   8.778677582740784E-1  
 4.680000000000000E7    -4.493680298328400E-1   8.820201158523560E-1   8.112829923629761E-2   4.086672887206078E-2   8.101775497198105E-2   4.079375043511391E-2  -4.461493194103241E-1   8.781965374946594E-1  
 4.682000000000000E7    -4.482616186141968E-1   8.824279308319092E-1   8.153390884399414E-2   4.094483330845833E-2   8.151529729366303E-2   4.091291502118111E-2  -4.452069699764252E-1   8.784486055374146E-1  
 4.684000000000000E7    -4.474741816520691E-1   8.830669522285461E-1   8.198995888233185E-2   4.116185754537582E-2   8.189019560813904E-2   4.104038327932358E-2  -4.444315731525421E-1   8.787661790847778E-1  
 4.686000000000000E7    -4.469306766986847E-1   8.834468126296997E-1   8.245010673999786E-2   4.127454012632370E-2   8.230280131101608E-2   4.117132350802422E-2  -4.438839256763458E-1   8.791158795356751E-1  
 4.688000000000000E7    -4.457847476005554E-1   8.833671212196350E-1   8.271104097366333E-2   4.139874503016472E-2   8.268743008375168E-2   4.136233031749725E-2  -4.434612989425659E-1   8.790501356124878E-1  
 4.690000000000000E7    -4.454261660575867E-1   8.837582468986511E-1   8.313125371932983E-2   4.146280139684677E-2   8.315290510654450E-2   4.147349298000336E-2  -4.419678747653961E-1   8.796390891075134E-1  
 4.692000000000000E7    -4.441981613636017E-1   8.841781020164490E-1   8.363471180200577E-2   4.166286438703537E-2   8.349956572055817E-2   4.156601428985596E-2  -4.411783516407013E-1   8.798958659172058E-1  
 4.694000000000000E7    -4.439119100570679E-1   8.847021460533142E-1   8.409262448549271E-2   4.181428998708725E-2   8.402527868747711E-2   4.165928810834885E-2  -4.407960176467896E-1   8.807269930839539E-1  
 4.696000000000000E7    -4.426303803920746E-1   8.849702477455139E-1   8.445655554533005E-2   4.184432327747345E-2   8.441526442766190E-2   4.185859113931656E-2  -4.400271475315094E-1   8.803485035896301E-1  
 4.698000000000000E7    -4.421166181564331E-1   8.851577639579773E-1   8.485173434019089E-2   4.202423617243767E-2   8.474245667457581E-2   4.196788370609283E-2  -4.387564659118652E-1   8.804382085800171E-1  
 4.700000000000000E7    -4.409266114234924E-1   8.855569362640381E-1   8.530258387327194E-2   4.202954843640328E-2   8.524305373430252E-2   4.204327240586281E-2  -4.381597638130188E-1   8.813261389732361E-1  
 4.702000000000000E7    -4.403291344642639E-1   8.856595754623413E-1   8.572213351726532E-2   4.217053949832916E-2   8.559589833021164E-2   4.222005233168602E-2  -4.373478591442108E-1   8.815094828605652E-1  
 4.704000000000000E7    -4.397847354412079E-1   8.864583969116211E-1   8.617202937602997E-2   4.239204525947571E-2   8.607506752014160E-2   4.238124191761017E-2  -4.368339478969574E-1   8.820191025733948E-1  
 4.706000000000000E7    -4.387688338756561E-1   8.865593075752258E-1   8.652560412883759E-2   4.247538745403290E-2   8.647505939006805E-2   4.243789985775948E-2  -4.361038208007813E-1   8.823387026786804E-1  
 4.708000000000000E7    -4.380698204040527E-1   8.869687914848328E-1   8.700373023748398E-2   4.260510578751564E-2   8.693609386682510E-2   4.248137772083283E-2  -4.350323379039764E-1   8.829178214073181E-1  
 4.710000000000000E7    -4.371631741523743E-1   8.874367475509644E-1   8.738989382982254E-2   4.262001067399979E-2   8.738716691732407E-2   4.265876114368439E-2  -4.343923032283783E-1   8.831468820571899E-1  
 4.712000000000000E7    -4.364666640758514E-1   8.877913951873779E-1   8.780107647180557E-2   4.277891665697098E-2   8.772045373916626E-2   4.278410971164703E-2  -4.337602555751801E-1   8.831587433815002E-1  
 4.714000000000000E7    -4.357192814350128E-1   8.877590894699097E-1   8.823115378618240E-2   4.288345947861671E-2   8.818448334932327E-2   4.289469867944717E-2  -4.327312409877777E-1   8.837379813194275E-1  
 4.716000000000000E7    -4.347794651985169E-1   8.882697820663452E-1   8.865946531295776E-2   4.307010024785996E-2   8.857125788927078E-2   4.303421825170517E-2  -4.320317804813385E-1   8.839370012283325E-1  
 4.718000000000000E7    -4.339816272258759E-1   8.886277675628662E-1   8.910643309354782E-2   4.312574118375778E-2   8.898041397333145E-2   4.308918118476868E-2  -4.312576949596405E-1   8.841433525085449E-1  
 4.720000000000000E7    -4.332160055637360E-1   8.887451887130737E-1   8.949330449104309E-2   4.319696873426437E-2   8.935910463333130E-2   4.328477382659912E-2  -4.309222996234894E-1   8.847357630729675E-1  
 4.722000000000000E7    -4.324341416358948E-1   8.889331221580505E-1   8.988337963819504E-2   4.339284822344780E-2   8.982347697019577E-2   4.328980669379234E-2  -4.297893643379211E-1   8.849659562110901E-1  
 4.724000000000000E7    -4.312585294246674E-1   8.894715905189514E-1   9.035925567150116E-2   4.345426708459854E-2   9.021835774183273E-2   4.344880580902100E-2  -4.291773736476898E-1   8.851993083953857E-1  
 4.726000000000000E7    -4.308478534221649E-1   8.900339603424072E-1   9.072314202785492E-2   4.360104352235794E-2   9.070866554975510E-2   4.349002242088318E-2  -4.281329214572907E-1   8.854235410690308E-1  
 4.728000000000000E7    -4.299213886260986E-1   8.899571299552918E-1   9.120097011327744E-2   4.368009045720100E-2   9.108690917491913E-2   4.365889355540276E-2  -4.273654222488403E-1   8.858654499053955E-1  
 4.730000000000000E7    -4.293474555015564E-1   8.904091715812683E-1   9.158075600862503E-2   4.381408914923668E-2   9.149385243654251E-2   4.377105832099915E-2  -4.265227019786835E-1   8.862149119377136E-1  
 4.732000000000000E7    -4.280155897140503E-1   8.904119133949280E-1   9.189469367265701E-2   4.387350752949715E-2   9.186574816703796E-2   4.384807497262955E-2  -4.258639514446259E-1   8.864749073982239E-1  
 4.734000000000000E7    -4.279291629791260E-1   8.906056284904480E-1   9.242489933967590E-2   4.394844919443131E-2   9.237135946750641E-2   4.400876164436340E-2  -4.250960052013397E-1   8.872456550598145E-1  
 4.736000000000000E7    -4.267860352993012E-1   8.913567066192627E-1   9.284006804227829E-2   4.408925771713257E-2   9.275138378143311E-2   4.410134628415108E-2  -4.242317676544190E-1   8.871499896049500E-1  
 4.738000000000000E7    -4.262746572494507E-1   8.915818333625794E-1   9.328906983137131E-2   4.420194402337074E-2   9.319894760847092E-2   4.415160790085793E-2  -4.236227869987488E-1   8.878606557846069E-1  
 4.740000000000000E7    -4.250166416168213E-1   8.923516869544983E-1   9.374356269836426E-2   4.436949640512466E-2   9.368840605020523E-2   4.420406743884087E-2  -4.224882721900940E-1   8.880843520164490E-1  
 4.742000000000000E7    -4.244270920753479E-1   8.923780918121338E-1   9.409454464912415E-2   4.438937827944756E-2   9.402704238891602E-2   4.436922073364258E-2  -4.215722084045410E-1   8.884044289588928E-1  
 4.744000000000000E7    -4.235764443874359E-1   8.928948640823364E-1   9.456542134284973E-2   4.450971633195877E-2   9.451034665107727E-2   4.451816156506538E-2  -4.210374355316162E-1   8.887113332748413E-1  
 4.746000000000000E7    -4.229997694492340E-1   8.932445645332336E-1   9.493871033191681E-2   4.463714733719826E-2   9.481039643287659E-2   4.466433078050613E-2  -4.204164445400238E-1   8.890014290809631E-1  
 4.748000000000000E7    -4.220116436481476E-1   8.931756019592285E-1   9.540852159261704E-2   4.472735151648521E-2   9.522663056850433E-2   4.466330260038376E-2  -4.195640087127686E-1   8.890786170959473E-1  
 4.750000000000000E7    -4.213668107986450E-1   8.936679363250732E-1   9.583054482936859E-2   4.476254805922508E-2   9.574572741985321E-2   4.477230831980705E-2  -4.183911979198456E-1   8.893885612487793E-1  
 4.752000000000000E7    -4.206825196743012E-1   8.938296437263489E-1   9.619566798210144E-2   4.488248378038406E-2   9.609818458557129E-2   4.489711299538612E-2  -4.176315069198608E-1   8.899723291397095E-1  
 4.754000000000000E7    -4.194025397300720E-1   8.943583369255066E-1   9.662310034036636E-2   4.496177285909653E-2   9.653440117835999E-2   4.493771493434906E-2  -4.169709086418152E-1   8.901987671852112E-1  
 4.756000000000000E7    -4.189660847187042E-1   8.948174715042114E-1   9.694632142782211E-2   4.507381841540337E-2   9.699276089668274E-2   4.506110399961472E-2  -4.164189398288727E-1   8.901814222335815E-1  
 4.758000000000000E7    -4.181155562400818E-1   8.946536779403687E-1   9.744182974100113E-2   4.516000673174858E-2   9.735309332609177E-2   4.517666622996330E-2  -4.153347909450531E-1   8.907601833343506E-1  
 4.760000000000000E7    -4.171440005302429E-1   8.951675891876221E-1   9.789938479661942E-2   4.527800157666206E-2   9.775906801223755E-2   4.526197537779808E-2  -4.147561788558960E-1   8.909792900085449E-1  
 4.762000000000000E7    -4.168461859226227E-1   8.956045508384705E-1   9.828859567642212E-2   4.542923718690872E-2   9.825530648231506E-2   4.532494768500328E-2  -4.140250980854034E-1   8.911588191986084E-1  
 4.764000000000000E7    -4.155830442905426E-1   8.955822587013245E-1   9.866106510162354E-2   4.544090852141380E-2   9.863163530826569E-2   4.540489241480827E-2  -4.130153059959412E-1   8.916335105895996E-1  
 4.766000000000000E7    -4.146308302879334E-1   8.961744308471680E-1   9.918485581874847E-2   4.551510512828827E-2   9.909211099147797E-2   4.548480734229088E-2  -4.123215675354004E-1   8.921377658843994E-1  
 4.768000000000000E7    -4.137486219406128E-1   8.963174819946289E-1   9.959521144628525E-2   4.560504108667374E-2   9.947429597377777E-2   4.566024988889694E-2  -4.117012023925781E-1   8.924048542976379E-1  
 4.770000000000000E7    -4.133688211441040E-1   8.967808485031128E-1   9.996749460697174E-2   4.574046283960342E-2   9.984797984361649E-2   4.568739235401154E-2  -4.110802710056305E-1   8.925029635429382E-1  
 4.772000000000000E7    -4.123650193214417E-1   8.965553641319275E-1   1.002771481871605E-1   4.579118266701698E-2   1.002660691738129E-1   4.578900709748268E-2  -4.100532531738281E-1   8.923740983009338E-1  
 4.774000000000000E7    -4.115324020385742E-1   8.972668051719666E-1   1.008450910449028E-1   4.590007662773132E-2   1.007135957479477E-1   4.592618346214294E-2  -4.094468653202057E-1   8.930706381797791E-1  
 4.776000000000000E7    -4.107196033000946E-1   8.976345658302307E-1   1.011795401573181E-1   4.601917043328285E-2   1.010894253849983E-1   4.592035338282585E-2  -4.083211421966553E-1   8.932871222496033E-1  
 4.778000000000000E7    -4.097337126731873E-1   8.978736996650696E-1   1.016249209642410E-1   4.610290378332138E-2   1.015426218509674E-1   4.600741341710091E-2  -4.075079858303070E-1   8.936287760734558E-1  
 4.780000000000000E7    -4.090389013290405E-1   8.982169628143311E-1   1.020545661449432E-1   4.620065912604332E-2   1.019404828548431E-1   4.616300389170647E-2  -4.071643650531769E-1   8.939623832702637E-1  
 4.782000000000000E7    -4.084639847278595E-1   8.981317281723023E-1   1.024815440177918E-1   4.625312611460686E-2   1.022686883807182E-1   4.624959826469421E-2  -4.064519107341766E-1   8.942936062812805E-1  
 4.784000000000000E7    -4.076977670192719E-1   8.986356854438782E-1   1.029262170195580E-1   4.635318741202354E-2   1.027938872575760E-1   4.632164910435677E-2  -4.053042232990265E-1   8.949210047721863E-1  
 4.786000000000000E7    -4.069848358631134E-1   8.992004990577698E-1   1.032474488019943E-1   4.642593115568161E-2   1.031752526760101E-1   4.643194004893303E-2  -4.046937823295593E-1   8.949536681175232E-1  
 4.788000000000000E7    -4.057041406631470E-1   8.991588950157166E-1   1.036821305751801E-1   4.648242890834808E-2   1.036937758326531E-1   4.643767327070236E-2  -4.034650027751923E-1   8.952851891517639E-1  
 4.790000000000000E7    -4.049490690231323E-1   8.996763825416565E-1   1.041632592678070E-1   4.655661433935165E-2   1.040357574820519E-1   4.649788141250610E-2  -4.025878608226776E-1   8.957252502441406E-1  
 4.792000000000000E7    -4.044096767902374E-1   9.001047611236572E-1   1.045137941837311E-1   4.670627787709236E-2   1.045134142041206E-1   4.675875976681709E-2  -4.025543630123138E-1   8.961715102195740E-1  
 4.794000000000000E7    -4.038491845130920E-1   9.003591537475586E-1   1.050142943859100E-1   4.670526832342148E-2   1.049687936902046E-1   4.669217020273209E-2  -4.010619521141052E-1   8.964276313781738E-1  
 4.796000000000000E7    -4.028855562210083E-1   9.004824757575989E-1   1.053825616836548E-1   4.685596376657486E-2   1.052805185317993E-1   4.680783301591873E-2  -4.006601870059967E-1   8.966765999794006E-1  
 4.798000000000000E7    -4.021157026290894E-1   9.010921120643616E-1   1.058218330144882E-1   4.695266485214233E-2   1.056816279888153E-1   4.685451462864876E-2  -3.998440802097321E-1   8.967061638832092E-1  
 4.800000000000000E7    -4.015920162200928E-1   9.009305834770203E-1   1.062123104929924E-1   4.702112823724747E-2   1.061586067080498E-1   4.699807614088059E-2  -3.989258110523224E-1   8.973530530929565E-1  
 4.802000000000000E7    -4.005031585693359E-1   9.014189243316650E-1   1.066561937332153E-1   4.715832322835922E-2   1.065926402807236E-1   4.703884944319725E-2  -3.983549177646637E-1   8.974245786666870E-1  
 4.804000000000000E7    -3.998182415962219E-1   9.013740420341492E-1   1.070654392242432E-1   4.715618491172791E-2   1.070030331611633E-1   4.710882157087326E-2  -3.974314630031586E-1   8.978664875030518E-1  
 4.806000000000000E7    -3.988648653030396E-1   9.021664857864380E-1   1.074312925338745E-1   4.719373583793640E-2   1.073846742510796E-1   4.724026843905449E-2  -3.965597450733185E-1   8.978127241134644E-1  
 4.808000000000000E7    -3.979797363281250E-1   9.020346403121948E-1   1.079251170158386E-1   4.726956039667130E-2   1.078075021505356E-1   4.722912237048149E-2  -3.957670032978058E-1   8.986791372299194E-1  
 4.810000000000000E7    -3.976001441478729E-1   9.022428989410400E-1   1.082923859357834E-1   4.739471524953842E-2   1.082166954874992E-1   4.732127487659454E-2  -3.947290182113648E-1   8.988028168678284E-1  
 4.812000000000000E7    -3.965804576873779E-1   9.029926657676697E-1   1.087622866034508E-1   4.743658006191254E-2   1.086465716362000E-1   4.743328317999840E-2  -3.941055834293366E-1   8.990709185600281E-1  
 4.814000000000000E7    -3.957073390483856E-1   9.032444357872009E-1   1.090248227119446E-1   4.753767326474190E-2   1.091094911098480E-1   4.749452695250511E-2  -3.935144245624542E-1   8.989471197128296E-1  
 4.816000000000000E7    -3.950233459472656E-1   9.032791256904602E-1   1.095377430319786E-1   4.757187888026238E-2   1.095600649714470E-1   4.762516915798187E-2  -3.927823007106781E-1   8.994326591491699E-1  
 4.818000000000000E7    -3.943480551242828E-1   9.037544131278992E-1   1.098751500248909E-1   4.775856435298920E-2   1.098733544349670E-1   4.764503613114357E-2  -3.921180069446564E-1   8.999669551849365E-1  
 4.820000000000000E7    -3.934910893440247E-1   9.036615490913391E-1   1.103284880518913E-1   4.774804785847664E-2   1.102451831102371E-1   4.780199006199837E-2  -3.911181092262268E-1   8.998122215270996E-1  
 4.822000000000000E7    -3.924678862094879E-1   9.043018817901611E-1   1.107180044054985E-1   4.786753281950951E-2   1.106845140457153E-1   4.780331999063492E-2  -3.905149996280670E-1   9.002555608749390E-1  
 4.824000000000000E7    -3.917217850685120E-1   9.042717218399048E-1   1.112185269594193E-1   4.788829386234283E-2   1.110141575336456E-1   4.785156250000000E-2  -3.896787166595459E-1   9.006617665290833E-1  
 4.826000000000000E7    -3.909217417240143E-1   9.043127894401550E-1   1.114530563354492E-1   4.790369793772697E-2   1.113891601562500E-1   4.792811349034309E-2  -3.885185718536377E-1   9.005954265594482E-1  
 4.828000000000000E7    -3.903616070747376E-1   9.049285054206848E-1   1.119809672236443E-1   4.796791821718216E-2   1.119292154908180E-1   4.804406687617302E-2  -3.877944946289063E-1   9.013004302978516E-1  
 4.830000000000000E7    -3.890747725963593E-1   9.052415490150452E-1   1.124272719025612E-1   4.801158234477043E-2   1.123981848359108E-1   4.798702895641327E-2  -3.867760896682739E-1   9.015375375747681E-1  
 4.832000000000000E7    -3.885618746280670E-1   9.051972031593323E-1   1.127897426486015E-1   4.810738563537598E-2   1.127221584320068E-1   4.811340942978859E-2  -3.865121304988861E-1   9.015724062919617E-1  
 4.834000000000000E7    -3.878610730171204E-1   9.058970212936401E-1   1.132155656814575E-1   4.828489199280739E-2   1.131858155131340E-1   4.824863746762276E-2  -3.855375647544861E-1   9.020036458969116E-1  
 4.836000000000000E7    -3.866826593875885E-1   9.062641859054565E-1   1.136956363916397E-1   4.823251441121101E-2   1.135753020644188E-1   4.825572296977043E-2  -3.848283588886261E-1   9.021949768066406E-1  
 4.838000000000000E7    -3.861807882785797E-1   9.061909317970276E-1   1.141297146677971E-1   4.838598519563675E-2   1.139865294098854E-1   4.836431518197060E-2  -3.843782842159271E-1   9.027096033096314E-1  
 4.840000000000000E7    -3.858075737953186E-1   9.064340591430664E-1   1.144934892654419E-1   4.841557517647743E-2   1.143890619277954E-1   4.847610369324684E-2  -3.830440342426300E-1   9.029989242553711E-1  
 4.842000000000000E7    -3.843587934970856E-1   9.068046212196350E-1   1.149838417768478E-1   4.841877147555351E-2   1.147837936878204E-1   4.833184555172920E-2  -3.821777403354645E-1   9.030634164810181E-1  
 4.844000000000000E7    -3.839444518089294E-1   9.069384932518005E-1   1.152904853224754E-1   4.856512695550919E-2   1.152269318699837E-1   4.845259711146355E-2  -3.813702166080475E-1   9.033102393150330E-1  
 4.846000000000000E7    -3.828673362731934E-1   9.069592356681824E-1   1.156875491142273E-1   4.861365258693695E-2   1.156034842133522E-1   4.856762662529945E-2  -3.810209035873413E-1   9.035929441452026E-1  
 4.848000000000000E7    -3.824805617332459E-1   9.075715541839600E-1   1.161080300807953E-1   4.861855134367943E-2   1.160215139389038E-1   4.867875576019287E-2  -3.799934387207031E-1   9.037928581237793E-1  
 4.850000000000000E7    -3.812402486801148E-1   9.079857468605042E-1   1.165620759129524E-1   4.873453453183174E-2   1.165573000907898E-1   4.863458126783371E-2  -3.794296383857727E-1   9.041921496391296E-1  
 4.852000000000000E7    -3.806160390377045E-1   9.082707762718201E-1   1.169383674860001E-1   4.872242733836174E-2   1.168843433260918E-1   4.872232303023338E-2  -3.784959018230438E-1   9.043573737144470E-1  
 4.854000000000000E7    -3.798601925373077E-1   9.087249636650085E-1   1.173639297485352E-1   4.878822714090347E-2   1.173023954033852E-1   4.881771653890610E-2  -3.775133788585663E-1   9.046063423156738E-1  
 4.856000000000000E7    -3.793791830539703E-1   9.084170460700989E-1   1.177517846226692E-1   4.895381256937981E-2   1.177727654576302E-1   4.885461553931236E-2  -3.768619000911713E-1   9.051996469497681E-1  
 4.858000000000000E7    -3.786320388317108E-1   9.088266491889954E-1   1.182557269930840E-1   4.901792481541634E-2   1.181799173355103E-1   4.901504889130592E-2  -3.764575719833374E-1   9.055534005165100E-1  
 4.860000000000000E7    -3.775427937507629E-1   9.092174768447876E-1   1.186470314860344E-1   4.901045560836792E-2   1.185156181454659E-1   4.900553449988365E-2  -3.754034936428070E-1   9.055255055427551E-1  
 4.862000000000000E7    -3.768009543418884E-1   9.094421267509460E-1   1.190310195088387E-1   4.909416660666466E-2   1.189217120409012E-1   4.912082105875015E-2  -3.750816583633423E-1   9.057074189186096E-1  
 4.864000000000000E7    -3.757829070091248E-1   9.099310636520386E-1   1.194091737270355E-1   4.908829182386398E-2   1.193659976124764E-1   4.903071001172066E-2  -3.737636804580689E-1   9.058232903480530E-1  
 4.866000000000000E7    -3.752576708793640E-1   9.103006124496460E-1   1.198508441448212E-1   4.923560097813606E-2   1.197583675384522E-1   4.915652424097061E-2  -3.732354044914246E-1   9.063139557838440E-1  
 4.868000000000000E7    -3.746054470539093E-1   9.103347063064575E-1   1.202560141682625E-1   4.927588626742363E-2   1.201773881912231E-1   4.923853650689125E-2  -3.724170327186585E-1   9.067476987838745E-1  
 4.870000000000000E7    -3.736196160316467E-1   9.104065299034119E-1   1.206346154212952E-1   4.925389960408211E-2   1.205179914832115E-1   4.923333972692490E-2  -3.711864650249481E-1   9.066793322563171E-1  
 4.872000000000000E7    -3.729391396045685E-1   9.107120633125305E-1   1.210065111517906E-1   4.930568113923073E-2   1.209671348333359E-1   4.936242103576660E-2  -3.709943890571594E-1   9.070940613746643E-1  
 4.874000000000000E7    -3.724082112312317E-1   9.109175801277161E-1   1.214352473616600E-1   4.935052245855331E-2   1.212813854217529E-1   4.940405860543251E-2  -3.698937594890595E-1   9.069282412528992E-1  
 4.876000000000000E7    -3.711364567279816E-1   9.114121794700623E-1   1.218898147344589E-1   4.948282986879349E-2   1.217336654663086E-1   4.945131391286850E-2  -3.691478967666626E-1   9.073813557624817E-1  
 4.878000000000000E7    -3.702455461025238E-1   9.118449687957764E-1   1.223141252994537E-1   4.956978932023048E-2   1.222470626235008E-1   4.939033836126328E-2  -3.686644434928894E-1   9.078601002693176E-1  
 4.880000000000000E7    -3.697895407676697E-1   9.115421772003174E-1   1.226896271109581E-1   4.949043691158295E-2   1.226312965154648E-1   4.956516623497009E-2  -3.675321936607361E-1   9.080554842948914E-1  
 4.882000000000000E7    -3.687090277671814E-1   9.118471741676331E-1   1.230488792061806E-1   4.953338578343391E-2   1.229475215077400E-1   4.955591633915901E-2  -3.667549788951874E-1   9.083749651908875E-1  
 4.884000000000000E7    -3.683637380599976E-1   9.122434854507446E-1   1.235580593347549E-1   4.968221858143807E-2   1.234252303838730E-1   4.973863437771797E-2  -3.662047088146210E-1   9.087129831314087E-1  
 4.886000000000000E7    -3.674100339412689E-1   9.121140837669373E-1   1.238918751478195E-1   4.968245700001717E-2   1.237909272313118E-1   4.959559813141823E-2  -3.651908934116364E-1   9.087081551551819E-1  
 4.888000000000000E7    -3.664624392986298E-1   9.130392670631409E-1   1.243034154176712E-1   4.970586299896240E-2   1.243343651294708E-1   4.975278675556183E-2  -3.646146655082703E-1   9.090960621833801E-1  
 4.890000000000000E7    -3.657339811325073E-1   9.127969145774841E-1   1.247803568840027E-1   4.979056492447853E-2   1.247013211250305E-1   4.978457838296890E-2  -3.640547990798950E-1   9.096525907516480E-1  
 4.892000000000000E7    -3.644292950630188E-1   9.133632183074951E-1   1.252413690090179E-1   4.971704632043839E-2   1.251054406166077E-1   4.972763359546661E-2  -3.630354106426239E-1   9.096404910087585E-1  
 4.894000000000000E7    -3.640700578689575E-1   9.133594036102295E-1   1.255970597267151E-1   4.986263811588287E-2   1.254818439483643E-1   4.986747726798058E-2  -3.622547984123230E-1   9.099787473678589E-1  
 4.896000000000000E7    -3.631128966808319E-1   9.134484529495239E-1   1.259472668170929E-1   4.983360320329666E-2   1.259953230619431E-1   4.981080070137978E-2  -3.610734641551971E-1   9.105159640312195E-1  
 4.898000000000000E7    -3.626646995544434E-1   9.137036204338074E-1   1.263337135314941E-1   4.994380846619606E-2   1.262972503900528E-1   4.995327815413475E-2  -3.605728149414063E-1   9.102182984352112E-1  
 4.900000000000000E7    -3.620932400226593E-1   9.144154787063599E-1   1.266951560974121E-1   4.999460279941559E-2   1.266973763704300E-1   4.997414350509644E-2  -3.597431182861328E-1   9.103775620460510E-1  
 4.902000000000000E7    -3.613364100456238E-1   9.143095016479492E-1   1.272430121898651E-1   5.011754482984543E-2   1.271034777164459E-1   5.004569515585899E-2  -3.592341244220734E-1   9.110322594642639E-1  
 4.904000000000000E7    -3.602652847766876E-1   9.145624637603760E-1   1.275759935379028E-1   5.006830394268036E-2   1.275319457054138E-1   5.008687451481819E-2  -3.580389916896820E-1   9.110099673271179E-1  
 4.906000000000000E7    -3.591919541358948E-1   9.149196743965149E-1   1.280875951051712E-1   5.002048239111900E-2   1.280262023210526E-1   5.004944279789925E-2  -3.571636974811554E-1   9.117041230201721E-1  
 4.908000000000000E7    -3.587516844272614E-1   9.153330326080322E-1   1.284306496381760E-1   5.015179514884949E-2   1.283585280179977E-1   5.006204172968864E-2  -3.564568161964417E-1   9.116686582565308E-1  
 4.910000000000000E7    -3.573595881462097E-1   9.153650999069214E-1   1.288387924432755E-1   5.012060329318047E-2   1.287476271390915E-1   5.008572340011597E-2  -3.556123077869415E-1   9.119137525558472E-1  
 4.912000000000000E7    -3.569454848766327E-1   9.158825278282166E-1   1.293792724609375E-1   5.023225396871567E-2   1.291413158178330E-1   5.016650632023811E-2  -3.551017343997955E-1   9.122298359870911E-1  
 4.914000000000000E7    -3.561921715736389E-1   9.155224561691284E-1   1.295805126428604E-1   5.023523047566414E-2   1.294515132904053E-1   5.016440525650978E-2  -3.541953861713409E-1   9.122877120971680E-1  
 4.916000000000000E7    -3.551762700080872E-1   9.159845709800720E-1   1.300641596317291E-1   5.024861916899681E-2   1.300384849309921E-1   5.021594464778900E-2  -3.533214032649994E-1   9.128592014312744E-1  
 4.918000000000000E7    -3.547849953174591E-1   9.162013530731201E-1   1.305718123912811E-1   5.033911019563675E-2   1.304547935724258E-1   5.037647113204002E-2  -3.528667688369751E-1   9.130629897117615E-1  
 4.920000000000000E7    -3.538088202476502E-1   9.165118932723999E-1   1.308566480875015E-1   5.027508735656738E-2   1.307854503393173E-1   5.025932565331459E-2  -3.516438603401184E-1   9.130906462669373E-1  
 4.922000000000000E7    -3.529749214649200E-1   9.167081117630005E-1   1.312422603368759E-1   5.041137337684631E-2   1.312572658061981E-1   5.028842389583588E-2  -3.508629202842712E-1   9.133520722389221E-1  
 4.924000000000000E7    -3.522173166275024E-1   9.173640608787537E-1   1.316529214382172E-1   5.039744079113007E-2   1.316104680299759E-1   5.032494664192200E-2  -3.500694036483765E-1   9.134507775306702E-1  
 4.926000000000000E7    -3.516000509262085E-1   9.174619317054749E-1   1.320080906152725E-1   5.047222226858139E-2   1.321157813072205E-1   5.041042715311050E-2  -3.493475317955017E-1   9.139245748519898E-1  
 4.928000000000000E7    -3.506006300449371E-1   9.174374341964722E-1   1.325489878654480E-1   5.047549307346344E-2   1.323697865009308E-1   5.045020207762718E-2  -3.489070832729340E-1   9.142578840255737E-1  
 4.930000000000000E7    -3.499603867530823E-1   9.176802039146423E-1   1.328679323196411E-1   5.056183785200119E-2   1.328420341014862E-1   5.051017180085182E-2  -3.478608131408691E-1   9.141527414321899E-1  
 4.932000000000000E7    -3.492341339588165E-1   9.179543256759644E-1   1.333411633968353E-1   5.060373619198799E-2   1.332413554191589E-1   5.052922666072846E-2  -3.471652865409851E-1   9.146195650100708E-1  
 4.934000000000000E7    -3.483556210994721E-1   9.180049300193787E-1   1.336543262004852E-1   5.057799816131592E-2   1.336203813552856E-1   5.054828897118568E-2  -3.465228378772736E-1   9.148312211036682E-1  
 4.936000000000000E7    -3.474403917789459E-1   9.187729954719544E-1   1.341767013072968E-1   5.050003901124001E-2   1.341363489627838E-1   5.060866102576256E-2  -3.456473052501679E-1   9.150317311286926E-1  
 4.938000000000000E7    -3.466988205909729E-1   9.187918305397034E-1   1.345914751291275E-1   5.056034401059151E-2   1.343482732772827E-1   5.055040866136551E-2  -3.447624444961548E-1   9.151391386985779E-1  
 4.940000000000000E7    -3.461165130138397E-1   9.189398884773254E-1   1.349992901086807E-1   5.069490149617195E-2   1.348242312669754E-1   5.061192810535431E-2  -3.442443907260895E-1   9.155631661415100E-1  
 4.942000000000000E7    -3.453859090805054E-1   9.193796515464783E-1   1.352883577346802E-1   5.068533122539520E-2   1.352975666522980E-1   5.066591501235962E-2  -3.431536257266998E-1   9.157150983810425E-1  
 4.944000000000000E7    -3.445658385753632E-1   9.191157817840576E-1   1.357613801956177E-1   5.068581923842430E-2   1.357717365026474E-1   5.068229883909226E-2  -3.425304591655731E-1   9.159412384033203E-1  
 4.946000000000000E7    -3.436326682567596E-1   9.192100167274475E-1   1.361233890056610E-1   5.068865418434143E-2   1.360376179218292E-1   5.070174112915993E-2  -3.418653905391693E-1   9.161566495895386E-1  
 4.948000000000000E7    -3.428577184677124E-1   9.196777939796448E-1   1.366432607173920E-1   5.072511360049248E-2   1.364855319261551E-1   5.081990361213684E-2  -3.410343825817108E-1   9.164543747901917E-1  
 4.950000000000000E7    -3.423985540866852E-1   9.197872281074524E-1   1.369662582874298E-1   5.084028840065002E-2   1.368213593959808E-1   5.080788582563400E-2  -3.400861918926239E-1   9.165428280830383E-1  
 4.952000000000000E7    -3.412105739116669E-1   9.203132390975952E-1   1.373936235904694E-1   5.073691904544830E-2   1.373590230941773E-1   5.081423372030258E-2  -3.391757607460022E-1   9.168993830680847E-1  
 4.954000000000000E7    -3.404921293258667E-1   9.204642176628113E-1   1.377930045127869E-1   5.074816197156906E-2   1.377288848161697E-1   5.077308043837547E-2  -3.382058739662170E-1   9.169940948486328E-1  
 4.956000000000000E7    -3.397500514984131E-1   9.207130670547485E-1   1.382134407758713E-1   5.087040737271309E-2   1.381113976240158E-1   5.083074420690537E-2  -3.381087779998779E-1   9.172328710556030E-1  
 4.958000000000000E7    -3.386954963207245E-1   9.205833077430725E-1   1.386071592569351E-1   5.092569068074226E-2   1.384293138980866E-1   5.077225714921951E-2  -3.368610441684723E-1   9.174860119819641E-1  
 4.960000000000000E7    -3.379094898700714E-1   9.209948182106018E-1   1.388848423957825E-1   5.088154226541519E-2   1.388226002454758E-1   5.081735551357269E-2  -3.362589776515961E-1   9.170899391174316E-1  
 4.962000000000000E7    -3.376259505748749E-1   9.212872982025147E-1   1.392787843942642E-1   5.102052539587021E-2   1.393459290266037E-1   5.095984041690826E-2  -3.355554044246674E-1   9.177471995353699E-1  
 4.964000000000000E7    -3.366308212280273E-1   9.212240576744080E-1   1.397021263837814E-1   5.079366266727448E-2   1.396745294332504E-1   5.089604109525681E-2  -3.344028294086456E-1   9.177644252777100E-1  
 4.966000000000000E7    -3.357681035995483E-1   9.217509627342224E-1   1.402106434106827E-1   5.092095211148262E-2   1.400814205408096E-1   5.090384930372238E-2  -3.337013423442841E-1   9.184235334396362E-1  
 4.968000000000000E7    -3.350679278373718E-1   9.216892123222351E-1   1.405547261238098E-1   5.090104043483734E-2   1.405232548713684E-1   5.094964057207108E-2  -3.327929377555847E-1   9.186522364616394E-1  
 4.970000000000000E7    -3.344837129116058E-1   9.219597578048706E-1   1.409811675548554E-1   5.096160620450974E-2   1.408973187208176E-1   5.095691606402397E-2  -3.321009278297424E-1   9.186180233955383E-1  
 4.972000000000000E7    -3.333260118961334E-1   9.223604798316956E-1   1.413695663213730E-1   5.097597092390060E-2   1.413061916828156E-1   5.094271525740624E-2  -3.315268754959106E-1   9.187014102935791E-1  
 4.974000000000000E7    -3.324595391750336E-1   9.225583672523499E-1   1.417559981346130E-1   5.094739794731140E-2   1.417741030454636E-1   5.104542523622513E-2  -3.307321369647980E-1   9.191247224807739E-1  
 4.976000000000000E7    -3.320375978946686E-1   9.226973652839661E-1   1.422310322523117E-1   5.103889107704163E-2   1.420940905809403E-1   5.108792334794998E-2  -3.299081623554230E-1   9.195832610130310E-1  
 4.978000000000000E7    -3.312718272209168E-1   9.232035875320435E-1   1.426714360713959E-1   5.106772482395172E-2   1.425771564245224E-1   5.102498829364777E-2  -3.291161060333252E-1   9.198296666145325E-1  
 4.980000000000000E7    -3.300415277481079E-1   9.229232668876648E-1   1.428845971822739E-1   5.096472799777985E-2   1.427921056747437E-1   5.101462826132774E-2  -3.281710743904114E-1   9.197993278503418E-1  
 4.982000000000000E7    -3.291218578815460E-1   9.232012033462524E-1   1.434020847082138E-1   5.102378875017166E-2   1.433524191379547E-1   5.103458091616631E-2  -3.275686204433441E-1   9.198710918426514E-1  
 4.984000000000000E7    -3.287755548954010E-1   9.236814975738525E-1   1.437707096338272E-1   5.106271058320999E-2   1.437625586986542E-1   5.117012187838554E-2  -3.268976211547852E-1   9.200916290283203E-1  
 4.986000000000000E7    -3.282664120197296E-1   9.235814213752747E-1   1.442778408527374E-1   5.120341479778290E-2   1.441036909818649E-1   5.113616585731506E-2  -3.262378275394440E-1   9.205792546272278E-1  
 4.988000000000000E7    -3.270545303821564E-1   9.238782525062561E-1   1.446034610271454E-1   5.115732550621033E-2   1.445486843585968E-1   5.107164382934570E-2  -3.255032002925873E-1   9.206792712211609E-1  
 4.990000000000000E7    -3.260370492935181E-1   9.242852330207825E-1   1.449732780456543E-1   5.108709633350372E-2   1.449349820613861E-1   5.111419782042503E-2  -3.244883120059967E-1   9.206826686859131E-1  
 4.992000000000000E7    -3.253146111965179E-1   9.244542121887207E-1   1.455391943454742E-1   5.108627676963806E-2   1.453507691621780E-1   5.104659870266914E-2  -3.237601816654205E-1   9.212256669998169E-1  
 4.994000000000000E7    -3.248910903930664E-1   9.249388575553894E-1   1.458369344472885E-1   5.118836835026741E-2   1.457842141389847E-1   5.110109224915505E-2  -3.229993581771851E-1   9.214429855346680E-1  
 4.996000000000000E7    -3.237968683242798E-1   9.247925877571106E-1   1.462855041027069E-1   5.098795890808106E-2   1.461631804704666E-1   5.111624300479889E-2  -3.221320509910584E-1   9.215345382690430E-1  
 4.998000000000000E7    -3.232826292514801E-1   9.249300360679627E-1   1.465509533882141E-1   5.120072141289711E-2   1.464748084545136E-1   5.121462419629097E-2  -3.213929235935211E-1   9.216039776802063E-1  
 5.000000000000000E7    -3.225863277912140E-1   9.248804450035095E-1   1.469957977533341E-1   5.123016983270645E-2   1.469761133193970E-1   5.106200650334358E-2  -3.201752901077271E-1   9.219666123390198E-1  
 5.002000000000000E7    -3.216042816638947E-1   9.255173802375794E-1   1.474570780992508E-1   5.114876851439476E-2   1.474161744117737E-1   5.118433386087418E-2  -3.198048472404480E-1   9.223021268844605E-1  
 5.004000000000000E7    -3.209520578384399E-1   9.257794022560120E-1   1.478078961372376E-1   5.117338523268700E-2   1.477434337139130E-1   5.120592936873436E-2  -3.192228078842163E-1   9.223302602767944E-1  
 5.006000000000000E7    -3.196101784706116E-1   9.260948300361633E-1   1.483172178268433E-1   5.109851807355881E-2   1.481422185897827E-1   5.109754204750061E-2  -3.178473711013794E-1   9.227927327156067E-1  
 5.008000000000000E7    -3.190979659557343E-1   9.263045191764832E-1   1.486418843269348E-1   5.106331408023834E-2   1.485651135444641E-1   5.118852481245995E-2  -3.174472451210022E-1   9.225128889083862E-1  
 5.010000000000000E7    -3.185241222381592E-1   9.264147877693176E-1   1.491247415542603E-1   5.121025815606117E-2   1.490509957075119E-1   5.116739869117737E-2  -3.166364133358002E-1   9.229775071144104E-1  
 5.012000000000000E7    -3.179992139339447E-1   9.264242649078369E-1   1.494032442569733E-1   5.116406828165054E-2   1.492623984813690E-1   5.127561092376709E-2  -3.156742751598358E-1   9.230431914329529E-1  
 5.014000000000000E7    -3.168251812458038E-1   9.261646866798401E-1   1.496937274932861E-1   5.114889144897461E-2   1.496856957674027E-1   5.122531205415726E-2  -3.152852952480316E-1   9.233596920967102E-1  
 5.016000000000000E7    -3.163000047206879E-1   9.269928932189941E-1   1.501448601484299E-1   5.115719512104988E-2   1.501464992761612E-1   5.110732465982437E-2  -3.141384124755859E-1   9.233300685882568E-1  
 5.018000000000000E7    -3.150440156459808E-1   9.272964000701904E-1   1.506441235542297E-1   5.118158832192421E-2   1.504755914211273E-1   5.112469196319580E-2  -3.133803606033325E-1   9.237030148506165E-1  
 5.020000000000000E7    -3.147897422313690E-1   9.271912574768066E-1   1.510287523269653E-1   5.110918730497360E-2   1.509975492954254E-1   5.118161439895630E-2  -3.126501142978668E-1   9.238349795341492E-1  
 5.022000000000000E7    -3.137396275997162E-1   9.271070361137390E-1   1.513959467411041E-1   5.124385654926300E-2   1.512568742036820E-1   5.110986903309822E-2  -3.119094371795654E-1   9.244382381439209E-1  
 5.024000000000000E7    -3.129233121871948E-1   9.276183247566223E-1   1.517980247735977E-1   5.120982229709625E-2   1.516721546649933E-1   5.111534893512726E-2  -3.112084865570068E-1   9.241027832031250E-1  
 5.026000000000000E7    -3.118104934692383E-1   9.277086257934570E-1   1.522034406661987E-1   5.115754529833794E-2   1.521161347627640E-1   5.122348293662071E-2  -3.103965222835541E-1   9.247247576713562E-1  
 5.028000000000000E7    -3.115533590316773E-1   9.278468489646912E-1   1.527054309844971E-1   5.118370801210403E-2   1.525503396987915E-1   5.123232305049896E-2  -3.094162940979004E-1   9.248561263084412E-1  
 5.030000000000000E7    -3.104377090930939E-1   9.280505180358887E-1   1.530314981937408E-1   5.125871673226357E-2   1.529195457696915E-1   5.116485059261322E-2  -3.089736104011536E-1   9.251784682273865E-1  
 5.032000000000000E7    -3.096688985824585E-1   9.281639456748962E-1   1.534681767225266E-1   5.115464702248573E-2   1.533550620079041E-1   5.114028975367546E-2  -3.082067966461182E-1   9.254691004753113E-1  
 5.034000000000000E7    -3.091077506542206E-1   9.284428358078003E-1   1.538593173027039E-1   5.113808810710907E-2   1.537193953990936E-1   5.121899396181107E-2  -3.074181973934174E-1   9.255990982055664E-1  
 5.036000000000000E7    -3.080506324768066E-1   9.283815026283264E-1   1.541543155908585E-1   5.120439454913139E-2   1.540698260068893E-1   5.115544050931931E-2  -3.065862655639648E-1   9.254955649375916E-1  
 5.038000000000000E7    -3.075107038021088E-1   9.288160800933838E-1   1.545981168746948E-1   5.119985714554787E-2   1.544642001390457E-1   5.115846544504166E-2  -3.058452606201172E-1   9.254770874977112E-1  
 5.040000000000000E7    -3.067163527011871E-1   9.288946986198425E-1   1.549838632345200E-1   5.113168805837631E-2   1.548914462327957E-1   5.110709741711617E-2  -3.046525716781616E-1   9.258525371551514E-1  
 5.042000000000000E7    -3.060793280601502E-1   9.293967485427856E-1   1.554040461778641E-1   5.102165043354034E-2   1.552555561065674E-1   5.115814507007599E-2  -3.043631911277771E-1   9.259290099143982E-1  
 5.044000000000000E7    -3.049742281436920E-1   9.293712973594666E-1   1.557815074920654E-1   5.111672356724739E-2   1.557041853666306E-1   5.095900222659111E-2  -3.032771348953247E-1   9.261999726295471E-1  
 5.046000000000000E7    -3.044054508209229E-1   9.296464920043945E-1   1.562174856662750E-1   5.107422173023224E-2   1.562286764383316E-1   5.116328597068787E-2  -3.030360639095306E-1   9.263937473297119E-1  
 5.048000000000000E7    -3.035371899604797E-1   9.298888444900513E-1   1.566471904516220E-1   5.102513730525971E-2   1.566225290298462E-1   5.095904693007469E-2  -3.017536103725433E-1   9.266073703765869E-1  
 5.050000000000000E7    -3.026263713836670E-1   9.298047423362732E-1   1.570059806108475E-1   5.098864436149597E-2   1.568166911602020E-1   5.104157328605652E-2  -3.013288676738739E-1   9.266892075538635E-1  
 5.052000000000000E7    -3.020006716251373E-1   9.300879240036011E-1   1.572741866111755E-1   5.104380100965500E-2   1.572857648134232E-1   5.118414387106895E-2  -3.002764582633972E-1   9.267033934593201E-1  
 5.054000000000000E7    -3.010136485099793E-1   9.305131435394287E-1   1.578255593776703E-1   5.099525302648544E-2   1.576969176530838E-1   5.098445713520050E-2  -2.994942963123322E-1   9.271746277809143E-1  
 5.056000000000000E7    -3.003773093223572E-1   9.305699467658997E-1   1.582351177930832E-1   5.105563253164291E-2   1.580045968294144E-1   5.099247768521309E-2  -2.987633347511292E-1   9.274102449417114E-1  
 5.058000000000000E7    -2.998050153255463E-1   9.306581020355225E-1   1.585642546415329E-1   5.108141526579857E-2   1.584348976612091E-1   5.110261961817741E-2  -2.980541288852692E-1   9.275363683700562E-1  
 5.060000000000000E7    -2.989212274551392E-1   9.310845732688904E-1   1.590153425931931E-1   5.101551860570908E-2   1.589203327894211E-1   5.099579691886902E-2  -2.970651090145111E-1   9.278259873390198E-1  
 5.062000000000000E7    -2.983251214027405E-1   9.310623407363892E-1   1.594020426273346E-1   5.102924630045891E-2   1.592741608619690E-1   5.106709152460098E-2  -2.962446808815002E-1   9.278912544250488E-1  
 5.064000000000000E7    -2.971971929073334E-1   9.310948252677918E-1   1.597298085689545E-1   5.100786685943604E-2   1.596516817808151E-1   5.104127526283264E-2  -2.955458164215088E-1   9.278712272644043E-1  
 5.066000000000000E7    -2.964637279510498E-1   9.314430952072144E-1   1.602446436882019E-1   5.096353590488434E-2   1.601284742355347E-1   5.088649690151215E-2  -2.944786250591278E-1   9.283858537673950E-1  
 5.068000000000000E7    -2.959311008453369E-1   9.316182136535645E-1   1.605951786041260E-1   5.103084072470665E-2   1.605451107025147E-1   5.099206790328026E-2  -2.939953505992889E-1   9.285023212432861E-1  
 5.070000000000000E7    -2.949118316173554E-1   9.315497875213623E-1   1.609007865190506E-1   5.099328979849815E-2   1.608172804117203E-1   5.091924965381622E-2  -2.932909429073334E-1   9.284129738807678E-1  
 5.072000000000000E7    -2.939527034759522E-1   9.319952726364136E-1   1.613802164793015E-1   5.102185532450676E-2   1.612712740898132E-1   5.092348530888557E-2  -2.924863994121552E-1   9.289066195487976E-1  
 5.074000000000000E7    -2.931721508502960E-1   9.321935772895813E-1   1.617845743894577E-1   5.089047923684120E-2   1.616187244653702E-1   5.091203749179840E-2  -2.919958531856537E-1   9.286879897117615E-1  
 5.076000000000000E7    -2.926374375820160E-1   9.321976304054260E-1   1.622233241796494E-1   5.100839957594872E-2   1.621536016464233E-1   5.083994194865227E-2  -2.910863459110260E-1   9.294413328170776E-1  
 5.078000000000000E7    -2.922133803367615E-1   9.325074553489685E-1   1.624849289655685E-1   5.095282942056656E-2   1.624633520841599E-1   5.106063559651375E-2  -2.902881503105164E-1   9.291865229606628E-1  
 5.080000000000000E7    -2.911522388458252E-1   9.322605133056641E-1   1.628666222095490E-1   5.098962038755417E-2   1.628006845712662E-1   5.100447311997414E-2  -2.895945310592651E-1   9.294245839118958E-1  
 5.082000000000000E7    -2.901794612407684E-1   9.326086640357971E-1   1.632587462663651E-1   5.089943483471870E-2   1.632816493511200E-1   5.082581192255020E-2  -2.887432873249054E-1   9.296945333480835E-1  
 5.084000000000000E7    -2.891978323459625E-1   9.327365159988403E-1   1.637547314167023E-1   5.077776312828064E-2   1.637048721313477E-1   5.080702900886536E-2  -2.880793809890747E-1   9.302546977996826E-1  
 5.086000000000000E7    -2.886851727962494E-1   9.328801631927490E-1   1.640151739120483E-1   5.078001692891121E-2   1.639834195375443E-1   5.072664842009544E-2  -2.870197594165802E-1   9.302614331245422E-1  
 5.088000000000000E7    -2.880543768405914E-1   9.333997964859009E-1   1.644807755947113E-1   5.078533291816711E-2   1.643951237201691E-1   5.077569186687470E-2  -2.863383889198303E-1   9.300434589385986E-1  
 5.090000000000000E7    -2.875809371471405E-1   9.333133697509766E-1   1.648569405078888E-1   5.075444281101227E-2   1.647640019655228E-1   5.072767660021782E-2  -2.853437364101410E-1   9.302513003349304E-1  
 5.092000000000000E7    -2.864116132259369E-1   9.335578680038452E-1   1.653435826301575E-1   5.070035532116890E-2   1.651896238327026E-1   5.085945129394531E-2  -2.846519947052002E-1   9.305750727653503E-1  
 5.094000000000000E7    -2.857269048690796E-1   9.338607788085938E-1   1.657324433326721E-1   5.074239894747734E-2   1.656931042671204E-1   5.075398460030556E-2  -2.839463949203491E-1   9.310149550437927E-1  
 5.096000000000000E7    -2.847975790500641E-1   9.336707592010498E-1   1.660240292549133E-1   5.079414695501328E-2   1.660009324550629E-1   5.068481713533402E-2  -2.831537723541260E-1   9.311501979827881E-1  
 5.098000000000000E7    -2.841372787952423E-1   9.341912865638733E-1   1.665491312742233E-1   5.068153142929077E-2   1.664864718914032E-1   5.074901506304741E-2  -2.821335494518280E-1   9.312854409217835E-1  
 5.100000000000000E7    -2.829245626926422E-1   9.340578317642212E-1   1.668501347303391E-1   5.061202496290207E-2   1.668310910463333E-1   5.062497407197952E-2  -2.815298438072205E-1   9.313446283340454E-1  
 5.102000000000000E7    -2.825097441673279E-1   9.341672062873840E-1   1.672258079051971E-1   5.069483816623688E-2   1.670167148113251E-1   5.066366121172905E-2  -2.809042632579804E-1   9.313446283340454E-1  
 5.104000000000000E7    -2.816420197486877E-1   9.347487092018127E-1   1.675845682621002E-1   5.062890052795410E-2   1.676394790410996E-1   5.061936751008034E-2  -2.800456285476685E-1   9.314256906509399E-1  
 5.106000000000000E7    -2.803933322429657E-1   9.346665143966675E-1   1.681191027164459E-1   5.043810233473778E-2   1.679401248693466E-1   5.032728612422943E-2  -2.788805067539215E-1   9.316194653511047E-1  
 5.108000000000000E7    -2.799596488475800E-1   9.348451495170593E-1   1.684509813785553E-1   5.046608671545982E-2   1.683558970689774E-1   5.046927928924561E-2  -2.783481478691101E-1   9.319629073143005E-1  
 5.110000000000000E7    -2.791773676872253E-1   9.351609945297241E-1   1.689437329769135E-1   5.033529177308083E-2   1.687858253717423E-1   5.049714446067810E-2  -2.773443460464478E-1   9.322873950004578E-1  
 5.112000000000000E7    -2.785401940345764E-1   9.349926114082336E-1   1.691232025623322E-1   5.044850707054138E-2   1.691822409629822E-1   5.045650526881218E-2  -2.768875658512116E-1   9.320252537727356E-1  
 5.114000000000000E7    -2.778486907482147E-1   9.355908632278442E-1   1.697153449058533E-1   5.049009621143341E-2   1.695461422204971E-1   5.046632885932922E-2  -2.760172486305237E-1   9.324839711189270E-1  
 5.116000000000000E7    -2.771804332733154E-1   9.355705380439758E-1   1.700771898031235E-1   5.035306513309479E-2   1.699221730232239E-1   5.045288801193237E-2  -2.752118706703186E-1   9.327075481414795E-1  
 5.118000000000000E7    -2.764931917190552E-1   9.352596998214722E-1   1.703435629606247E-1   5.041292682290077E-2   1.702407896518707E-1   5.035134404897690E-2  -2.744355797767639E-1   9.328374862670898E-1  
 5.120000000000000E7    -2.755241394042969E-1   9.358266592025757E-1   1.709049195051193E-1   5.032124742865562E-2   1.707156747579575E-1   5.029660835862160E-2  -2.738484740257263E-1   9.327336549758911E-1  
 5.122000000000000E7    -2.748787105083466E-1   9.360299706459045E-1   1.711891591548920E-1   5.038419365882874E-2   1.710102558135986E-1   5.036403611302376E-2  -2.731964588165283E-1   9.327715635299683E-1  
 5.124000000000000E7    -2.739654481410980E-1   9.357697963714600E-1   1.715446412563324E-1   5.024148151278496E-2   1.715032011270523E-1   5.025008320808411E-2  -2.720419168472290E-1   9.332405328750610E-1  
 5.126000000000000E7    -2.726358175277710E-1   9.362080097198486E-1   1.719873398542404E-1   5.012886226177216E-2   1.717760264873505E-1   5.014937743544579E-2  -2.713337838649750E-1   9.331022500991821E-1  
 5.128000000000000E7    -2.726771235466003E-1   9.366068243980408E-1   1.724076271057129E-1   5.019097030162811E-2   1.723019778728485E-1   5.027802661061287E-2  -2.707325816154480E-1   9.335926175117493E-1  
 5.130000000000000E7    -2.716677486896515E-1   9.369035363197327E-1   1.728170812129974E-1   4.999648034572601E-2   1.727322787046433E-1   5.015223845839500E-2  -2.692843377590179E-1   9.337584376335144E-1  
 5.132000000000000E7    -2.709724307060242E-1   9.369341135025024E-1   1.731917560100555E-1   5.007082223892212E-2   1.730607151985169E-1   5.007462948560715E-2  -2.689011693000794E-1   9.336292743682861E-1  
 5.134000000000000E7    -2.701628804206848E-1   9.367418289184570E-1   1.734669059514999E-1   5.016767233610153E-2   1.733935922384262E-1   5.013842508196831E-2  -2.685482203960419E-1   9.340884089469910E-1  
 5.136000000000000E7    -2.691186368465424E-1   9.369997978210449E-1   1.739394962787628E-1   5.006833374500275E-2   1.740585118532181E-1   5.010080337524414E-2  -2.678308486938477E-1   9.343975782394409E-1  
 5.138000000000000E7    -2.684432268142700E-1   9.373130798339844E-1   1.743274033069611E-1   5.013566836714745E-2   1.742654293775559E-1   4.993851482868195E-2  -2.668129801750183E-1   9.346160292625427E-1  
 5.140000000000000E7    -2.675648033618927E-1   9.372417330741882E-1   1.746905446052551E-1   5.014619603753090E-2   1.746715605258942E-1   4.994134604930878E-2  -2.662543654441834E-1   9.345275163650513E-1  
 5.142000000000000E7    -2.672879099845886E-1   9.377247095108032E-1   1.751647889614105E-1   5.003266036510468E-2   1.749713122844696E-1   4.993891716003418E-2  -2.650808095932007E-1   9.345127940177918E-1  
 5.144000000000000E7    -2.661083340644836E-1   9.375132322311401E-1   1.754680126905441E-1   4.992611706256867E-2   1.753859370946884E-1   4.993526265025139E-2  -2.646243870258331E-1   9.346973299980164E-1  
 5.146000000000000E7    -2.652153372764587E-1   9.375482797622681E-1   1.758510172367096E-1   4.984612762928009E-2   1.756873577833176E-1   4.990421235561371E-2  -2.640150189399719E-1   9.348608255386353E-1  
 5.148000000000000E7    -2.644746303558350E-1   9.376610517501831E-1   1.762192845344544E-1   4.979325085878372E-2   1.760809719562531E-1   4.973510280251503E-2  -2.631548345088959E-1   9.348338246345520E-1  
 5.150000000000000E7    -2.639644145965576E-1   9.382909536361694E-1   1.766919195652008E-1   4.992862418293953E-2   1.765745878219605E-1   4.990548267960548E-2  -2.625904381275177E-1   9.353125095367432E-1  
 5.152000000000000E7    -2.631991207599640E-1   9.381990432739258E-1   1.771074682474136E-1   4.980109632015228E-2   1.769650280475617E-1   4.981648176908493E-2  -2.613384127616882E-1   9.357360601425171E-1  
 5.154000000000000E7    -2.626777887344360E-1   9.382722377777100E-1   1.773819178342819E-1   4.968436434864998E-2   1.774231344461441E-1   4.977150261402130E-2  -2.606703937053680E-1   9.352793693542481E-1  
 5.156000000000000E7    -2.618991434574127E-1   9.387475252151489E-1   1.778050065040588E-1   4.972221702337265E-2   1.777984499931335E-1   4.979770258069038E-2  -2.597788274288178E-1   9.353423118591309E-1  
 5.158000000000000E7    -2.607971429824829E-1   9.386810064315796E-1   1.782200932502747E-1   4.955548048019409E-2   1.780846118927002E-1   4.970690980553627E-2  -2.590056657791138E-1   9.356820583343506E-1  
 5.160000000000000E7    -2.601011693477631E-1   9.387109875679016E-1   1.785958260297775E-1   4.959736019372940E-2   1.784078627824783E-1   4.953869432210922E-2  -2.581633925437927E-1   9.360903501510620E-1  
 5.162000000000000E7    -2.592899501323700E-1   9.387657046318054E-1   1.790124922990799E-1   4.958673566579819E-2   1.789648830890656E-1   4.960845038294792E-2  -2.575986683368683E-1   9.362410306930542E-1  
 5.164000000000000E7    -2.583013474941254E-1   9.390659332275391E-1   1.793866157531738E-1   4.945939779281616E-2   1.792183667421341E-1   4.958225041627884E-2  -2.567184567451477E-1   9.360321164131165E-1  
 5.166000000000000E7    -2.579338550567627E-1   9.389513731002808E-1   1.797222197055817E-1   4.945638775825501E-2   1.795844435691834E-1   4.956647753715515E-2  -2.560057640075684E-1   9.363851547241211E-1  
 5.168000000000000E7    -2.565751671791077E-1   9.395265579223633E-1   1.801352202892304E-1   4.928499087691307E-2   1.801305115222931E-1   4.934885352849960E-2  -2.551338076591492E-1   9.364476799964905E-1  
 5.170000000000000E7    -2.562198042869568E-1   9.395171403884888E-1   1.805329024791718E-1   4.942476004362106E-2   1.804296672344208E-1   4.940386116504669E-2  -2.545179724693298E-1   9.364948868751526E-1  
 5.172000000000000E7    -2.551614642143250E-1   9.395186305046082E-1   1.809266805648804E-1   4.925164207816124E-2   1.807784885168076E-1   4.933094605803490E-2  -2.538261413574219E-1   9.366868138313294E-1  
 5.174000000000000E7    -2.545524537563324E-1   9.401454329490662E-1   1.812074333429337E-1   4.928320273756981E-2   1.812048703432083E-1   4.918598383665085E-2  -2.526370584964752E-1   9.367372393608093E-1  
 5.176000000000000E7    -2.536876499652863E-1   9.401627779006958E-1   1.816578656435013E-1   4.931175708770752E-2   1.816009879112244E-1   4.930017888545990E-2  -2.522305250167847E-1   9.370272755622864E-1  
 5.178000000000000E7    -2.531424164772034E-1   9.399611949920654E-1   1.820745021104813E-1   4.914329200983048E-2   1.818868219852448E-1   4.924187436699867E-2  -2.512075304985046E-1   9.369704127311707E-1  
 5.180000000000000E7    -2.523204386234283E-1   9.400808215141296E-1   1.823328435420990E-1   4.916026443243027E-2   1.823443919420242E-1   4.910945892333984E-2  -2.504767179489136E-1   9.372602701187134E-1  
 5.182000000000000E7    -2.515117228031158E-1   9.400746226310730E-1   1.828777939081192E-1   4.897074401378632E-2   1.827202290296555E-1   4.916144162416458E-2  -2.499064505100250E-1   9.377793073654175E-1  
 5.184000000000000E7    -2.505308985710144E-1   9.405019879341126E-1   1.832199543714523E-1   4.885500296950340E-2   1.830508559942246E-1   4.902031272649765E-2  -2.489612996578217E-1   9.372911453247070E-1  
 5.186000000000000E7    -2.499620467424393E-1   9.405598640441895E-1   1.836861968040466E-1   4.884094372391701E-2   1.835119128227234E-1   4.885851964354515E-2  -2.479843646287918E-1   9.374397993087769E-1  
 5.188000000000000E7    -2.491922825574875E-1   9.405599236488342E-1   1.839797943830490E-1   4.882103204727173E-2   1.839111149311066E-1   4.883808642625809E-2  -2.472214847803116E-1   9.379313588142395E-1  
 5.190000000000000E7    -2.482880651950836E-1   9.407883286476135E-1   1.844166368246079E-1   4.870490729808807E-2   1.843451112508774E-1   4.873228818178177E-2  -2.464802712202072E-1   9.383341670036316E-1  
 5.192000000000000E7    -2.476569265127182E-1   9.410183429718018E-1   1.847571581602097E-1   4.874286055564880E-2   1.847129166126251E-1   4.872824624180794E-2  -2.460448145866394E-1   9.381664991378784E-1  
 5.194000000000000E7    -2.465140223503113E-1   9.408718347549439E-1   1.849884241819382E-1   4.870054498314858E-2   1.849840879440308E-1   4.870712012052536E-2  -2.451916486024857E-1   9.380277991294861E-1  
 5.196000000000000E7    -2.461423575878143E-1   9.412848353385925E-1   1.856632083654404E-1   4.878199100494385E-2   1.854953914880753E-1   4.868790134787560E-2  -2.444457113742828E-1   9.383733868598938E-1  
 5.198000000000000E7    -2.450906783342362E-1   9.412066340446472E-1   1.858841776847839E-1   4.871784150600433E-2   1.859337836503983E-1   4.873817414045334E-2  -2.437316477298737E-1   9.389260411262512E-1  
 5.200000000000000E7    -2.444628775119782E-1   9.413911104202271E-1   1.864346712827683E-1   4.861705750226975E-2   1.861513406038284E-1   4.857809096574783E-2  -2.427950948476791E-1   9.385693669319153E-1  
 5.202000000000000E7    -2.437331974506378E-1   9.413541555404663E-1   1.865590065717697E-1   4.845733940601349E-2   1.865469366312027E-1   4.846343025565147E-2  -2.418531626462936E-1   9.387489557266235E-1  
 5.204000000000000E7    -2.427046298980713E-1   9.418712258338928E-1   1.870648264884949E-1   4.854738712310791E-2   1.870234608650208E-1   4.846619069576263E-2  -2.413673996925354E-1   9.388089179992676E-1  
 5.206000000000000E7    -2.422072142362595E-1   9.419047832489014E-1   1.873996257781982E-1   4.838799312710762E-2   1.873247772455216E-1   4.848738759756088E-2  -2.406154125928879E-1   9.389566183090210E-1  
 5.208000000000000E7    -2.416277974843979E-1   9.420540928840637E-1   1.877622455358505E-1   4.829461872577667E-2   1.877705007791519E-1   4.831136390566826E-2  -2.393388599157333E-1   9.389891624450684E-1  
 5.210000000000000E7    -2.407431602478027E-1   9.422702193260193E-1   1.883244216442108E-1   4.826697707176209E-2   1.881567537784576E-1   4.815533757209778E-2  -2.387910783290863E-1   9.395560622215271E-1  
 5.212000000000000E7    -2.400843054056168E-1   9.419959783554077E-1   1.886638104915619E-1   4.819243401288986E-2   1.885774135589600E-1   4.816498607397080E-2  -2.378374934196472E-1   9.398173093795776E-1  
 5.214000000000000E7    -2.386998236179352E-1   9.420627951622009E-1   1.890091896057129E-1   4.808481782674789E-2   1.888737231492996E-1   4.801619052886963E-2  -2.373200356960297E-1   9.397862553596497E-1  
 5.216000000000000E7    -2.384000122547150E-1   9.425042867660523E-1   1.893817335367203E-1   4.825386032462120E-2   1.893181204795837E-1   4.812877997756004E-2  -2.368483543395996E-1   9.394502639770508E-1  
 5.218000000000000E7    -2.377687990665436E-1   9.425262808799744E-1   1.897842437028885E-1   4.811611026525497E-2   1.897441595792770E-1   4.808449000120163E-2  -2.358880788087845E-1   9.397846460342407E-1  
 5.220000000000000E7    -2.369438111782074E-1   9.424967765808106E-1   1.901089251041412E-1   4.802485555410385E-2   1.900883018970490E-1   4.798370972275734E-2  -2.352006882429123E-1   9.398766160011292E-1  
 5.222000000000000E7    -2.360114157199860E-1   9.430372714996338E-1   1.905740052461624E-1   4.787214100360870E-2   1.904442906379700E-1   4.774423688650131E-2  -2.340097725391388E-1   9.398465156555176E-1  
 5.224000000000000E7    -2.354063391685486E-1   9.433129429817200E-1   1.910270005464554E-1   4.792187362909317E-2   1.909698545932770E-1   4.798977822065353E-2  -2.336682230234146E-1   9.402366876602173E-1  
 5.226000000000000E7    -2.344310283660889E-1   9.430257081985474E-1   1.912896335124970E-1   4.767383262515068E-2   1.911237090826035E-1   4.767282307147980E-2  -2.324350774288178E-1   9.399887323379517E-1  
 5.228000000000000E7    -2.338022440671921E-1   9.431035518646240E-1   1.916439831256867E-1   4.766641557216644E-2   1.915615946054459E-1   4.786471277475357E-2  -2.320641577243805E-1   9.400850534439087E-1  
 5.230000000000000E7    -2.330601960420609E-1   9.435185194015503E-1   1.919944584369659E-1   4.765492677688599E-2   1.919227242469788E-1   4.772426933050156E-2  -2.312170714139938E-1   9.403138756752014E-1  
 5.232000000000000E7    -2.319477796554565E-1   9.430059194564819E-1   1.923235803842545E-1   4.755226895213127E-2   1.923153996467590E-1   4.741062596440315E-2  -2.305534034967423E-1   9.405734539031982E-1  
 5.234000000000000E7    -2.313876748085022E-1   9.432674646377564E-1   1.927335262298584E-1   4.751764610409737E-2   1.926532089710236E-1   4.745193198323250E-2  -2.294884324073792E-1   9.406525492668152E-1  
 5.236000000000000E7    -2.306038439273834E-1   9.438977241516113E-1   1.932446062564850E-1   4.735872894525528E-2   1.931720674037933E-1   4.746028035879135E-2  -2.288014739751816E-1   9.408174753189087E-1  
 5.238000000000000E7    -2.298574000597000E-1   9.436440467834473E-1   1.936494112014771E-1   4.737215489149094E-2   1.935301870107651E-1   4.735607653856278E-2  -2.278431802988052E-1   9.408991932868958E-1  
 5.240000000000000E7    -2.295253574848175E-1   9.434407353401184E-1   1.939411759376526E-1   4.743001610040665E-2   1.938756704330444E-1   4.733052104711533E-2  -2.274535298347473E-1   9.413797855377197E-1  
 5.242000000000000E7    -2.280653268098831E-1   9.437516927719116E-1   1.942942142486572E-1   4.715508967638016E-2   1.941624879837036E-1   4.718311503529549E-2  -2.264893203973770E-1   9.411046504974365E-1  
 5.244000000000000E7    -2.277124822139740E-1   9.439490437507629E-1   1.946726739406586E-1   4.720458015799522E-2   1.945403963327408E-1   4.718073830008507E-2  -2.259192615747452E-1   9.411249756813049E-1  
 5.246000000000000E7    -2.267552912235260E-1   9.441189765930176E-1   1.949745416641235E-1   4.704213514924049E-2   1.949531286954880E-1   4.704183340072632E-2  -2.249476313591003E-1   9.412456154823303E-1  
 5.248000000000000E7    -2.258242815732956E-1   9.440154433250427E-1   1.955442279577255E-1   4.686025530099869E-2   1.954025030136108E-1   4.691689833998680E-2  -2.239230275154114E-1   9.417246580123901E-1  
 5.250000000000000E7    -2.252387106418610E-1   9.444316625595093E-1   1.957796066999435E-1   4.690495133399963E-2   1.958560943603516E-1   4.696430265903473E-2  -2.233628928661346E-1   9.413220882415772E-1  
 5.252000000000000E7    -2.243242710828781E-1   9.444934129714966E-1   1.961249709129334E-1   4.692242294549942E-2   1.961133778095245E-1   4.698111116886139E-2  -2.228527218103409E-1   9.417462348937988E-1  
 5.254000000000000E7    -2.237083762884140E-1   9.447534084320068E-1   1.966399550437927E-1   4.675629734992981E-2   1.968168020248413E-1   4.667191952466965E-2  -2.218444049358368E-1   9.422608017921448E-1  
 5.256000000000000E7    -2.226001024246216E-1   9.447631239891052E-1   1.970326304435730E-1   4.668397083878517E-2   1.969642639160156E-1   4.666922986507416E-2  -2.209963798522949E-1   9.421978592872620E-1  
 5.258000000000000E7    -2.222196906805039E-1   9.446891546249390E-1   1.973637193441391E-1   4.668962955474854E-2   1.972678899765015E-1   4.678686708211899E-2  -2.206548750400543E-1   9.418987631797791E-1  
 5.260000000000000E7    -2.216410636901856E-1   9.445375204086304E-1   1.975992619991303E-1   4.665878415107727E-2   1.976743936538696E-1   4.659231752157211E-2  -2.200722694396973E-1   9.423058032989502E-1  
 5.262000000000000E7    -2.206622511148453E-1   9.448941946029663E-1   1.981085091829300E-1   4.664085060358048E-2   1.980803012847900E-1   4.659128934144974E-2  -2.190722972154617E-1   9.423663020133972E-1  
 5.264000000000000E7    -2.200115919113159E-1   9.451006054878235E-1   1.984542906284332E-1   4.639453440904617E-2   1.984249353408814E-1   4.639024659991264E-2  -2.177794575691223E-1   9.424232840538025E-1  
 5.266000000000000E7    -2.193491160869598E-1   9.449435472488403E-1   1.987521052360535E-1   4.636327177286148E-2   1.987373232841492E-1   4.631103947758675E-2  -2.172454893589020E-1   9.424152970314026E-1  
 5.268000000000000E7    -2.184230983257294E-1   9.453119039535523E-1   1.992086917161942E-1   4.636097699403763E-2   1.992561221122742E-1   4.630117490887642E-2  -2.167523056268692E-1   9.426921606063843E-1  
 5.270000000000000E7    -2.174111753702164E-1   9.455309510231018E-1   1.997152566909790E-1   4.629065468907356E-2   1.995003372430801E-1   4.622378572821617E-2  -2.157187163829804E-1   9.425309896469116E-1  
 5.272000000000000E7    -2.166886478662491E-1   9.454601407051086E-1   1.999932229518890E-1   4.609170183539391E-2   1.997893005609512E-1   4.614146053791046E-2  -2.148490995168686E-1   9.425698518753052E-1  
 5.274000000000000E7    -2.161943018436432E-1   9.455088973045349E-1   2.003095299005508E-1   4.606764763593674E-2   2.003341764211655E-1   4.617929831147194E-2  -2.140845060348511E-1   9.427755475044251E-1  
 5.276000000000000E7    -2.152361869812012E-1   9.456531405448914E-1   2.007594555616379E-1   4.594816640019417E-2   2.005802392959595E-1   4.595706611871719E-2  -2.134515494108200E-1   9.431659579277039E-1  
 5.278000000000000E7    -2.143608629703522E-1   9.456204771995544E-1   2.011736035346985E-1   4.584236443042755E-2   2.009877860546112E-1   4.594364017248154E-2  -2.129416316747665E-1   9.434316754341126E-1  
 5.280000000000000E7    -2.139741927385330E-1   9.462714791297913E-1   2.016594260931015E-1   4.574733972549439E-2   2.017004042863846E-1   4.586866870522499E-2  -2.118298411369324E-1   9.432634711265564E-1  
 5.282000000000000E7    -2.130536586046219E-1   9.461064934730530E-1   2.018223106861115E-1   4.572769626975060E-2   2.019098401069641E-1   4.581265151500702E-2  -2.110999226570129E-1   9.435106515884399E-1  
 5.284000000000000E7    -2.122271806001663E-1   9.464229345321655E-1   2.022357881069183E-1   4.552076011896133E-2   2.022465467453003E-1   4.583344981074333E-2  -2.104361653327942E-1   9.435586333274841E-1  
 5.286000000000000E7    -2.116035521030426E-1   9.464498162269592E-1   2.025475502014160E-1   4.573544114828110E-2   2.025194764137268E-1   4.558247327804565E-2  -2.097482383251190E-1   9.433879852294922E-1  
 5.288000000000000E7    -2.105296403169632E-1   9.463192820549011E-1   2.031707465648651E-1   4.542973637580872E-2   2.030009925365448E-1   4.542487859725952E-2  -2.085908651351929E-1   9.435740709304810E-1  
 5.290000000000000E7    -2.098154127597809E-1   9.462953209877014E-1   2.033405900001526E-1   4.556011408567429E-2   2.034086585044861E-1   4.537975415587425E-2  -2.078993916511536E-1   9.438861012458801E-1  
 5.292000000000000E7    -2.091486155986786E-1   9.465395808219910E-1   2.036666721105576E-1   4.542211815714836E-2   2.038605213165283E-1   4.541682824492455E-2  -2.074376493692398E-1   9.439072012901306E-1  
 5.294000000000000E7    -2.084587663412094E-1   9.468104839324951E-1   2.042291462421417E-1   4.532603919506073E-2   2.041779309511185E-1   4.527813568711281E-2  -2.066558897495270E-1   9.437955021858215E-1  
 5.296000000000000E7    -2.078675925731659E-1   9.467384219169617E-1   2.046467214822769E-1   4.522013291716576E-2   2.043807059526444E-1   4.523566365242004E-2  -2.056410163640976E-1   9.439516663551331E-1  
 5.298000000000000E7    -2.068691849708557E-1   9.468754529953003E-1   2.049885690212250E-1   4.502027854323387E-2   2.047835439443588E-1   4.494843631982803E-2  -2.048176676034927E-1   9.439017176628113E-1  
 5.300000000000000E7    -2.061858028173447E-1   9.468551874160767E-1   2.052180767059326E-1   4.490986466407776E-2   2.052737325429916E-1   4.501108080148697E-2  -2.042102217674255E-1   9.441556334495544E-1  
 5.302000000000000E7    -2.051322758197784E-1   9.473361372947693E-1   2.055761367082596E-1   4.466138407588005E-2   2.056203782558441E-1   4.474880173802376E-2  -2.033128738403320E-1   9.441461563110352E-1  
 5.304000000000000E7    -2.047934383153915E-1   9.469759464263916E-1   2.059696018695831E-1   4.483858123421669E-2   2.058944255113602E-1   4.483602195978165E-2  -2.026333808898926E-1   9.441412091255188E-1  
 5.306000000000000E7    -2.040188461542130E-1   9.472779035568237E-1   2.063431292772293E-1   4.478057473897934E-2   2.063808441162109E-1   4.487195238471031E-2  -2.023113965988159E-1   9.442030191421509E-1  
 5.308000000000000E7    -2.030021101236343E-1   9.470044374465942E-1   2.065689861774445E-1   4.486364126205444E-2   2.066274583339691E-1   4.480299353599548E-2  -2.015472054481506E-1   9.444074034690857E-1  
 5.310000000000000E7    -2.022573053836823E-1   9.474770426750183E-1   2.071489393711090E-1   4.458337277173996E-2   2.070962190628052E-1   4.453965649008751E-2  -2.005118429660797E-1   9.447303414344788E-1  
 5.312000000000000E7    -2.012410908937454E-1   9.474201202392578E-1   2.075943350791931E-1   4.442805796861649E-2   2.075237780809403E-1   4.445473104715347E-2  -2.001055479049683E-1   9.449210166931152E-1  
 5.314000000000000E7    -2.006634920835495E-1   9.470773935317993E-1   2.079040706157684E-1   4.435883834958077E-2   2.077566236257553E-1   4.443517699837685E-2  -1.990296095609665E-1   9.447440505027771E-1  
 5.316000000000000E7    -2.000003755092621E-1   9.473810195922852E-1   2.082099467515945E-1   4.432826489210129E-2   2.081368863582611E-1   4.442916437983513E-2  -1.980582475662231E-1   9.450334906578064E-1  
 5.318000000000000E7    -1.990831047296524E-1   9.476546049118042E-1   2.086631804704666E-1   4.412914440035820E-2   2.087465822696686E-1   4.417162016034126E-2  -1.971955895423889E-1   9.451540112495422E-1  
 5.320000000000000E7    -1.981981992721558E-1   9.475882053375244E-1   2.089078128337860E-1   4.410844668745995E-2   2.089279294013977E-1   4.392965137958527E-2  -1.967935860157013E-1   9.450346231460571E-1  
 5.322000000000000E7    -1.974810808897018E-1   9.476649165153503E-1   2.092850953340530E-1   4.388501867651939E-2   2.093100249767304E-1   4.399922490119934E-2  -1.959349960088730E-1   9.451748728752136E-1  
 5.324000000000000E7    -1.970184296369553E-1   9.479748010635376E-1   2.096970826387405E-1   4.388267919421196E-2   2.096715569496155E-1   4.383003711700440E-2  -1.952235400676727E-1   9.450145363807678E-1  
 5.326000000000000E7    -1.962214708328247E-1   9.484233260154724E-1   2.100002914667130E-1   4.370554536581039E-2   2.100740671157837E-1   4.396070539951325E-2  -1.943885087966919E-1   9.451793432235718E-1  
 5.328000000000000E7    -1.955070644617081E-1   9.482392668724060E-1   2.106227576732636E-1   4.363537952303886E-2   2.104703187942505E-1   4.376309365034103E-2  -1.934172660112381E-1   9.455316066741943E-1  
 5.330000000000000E7    -1.945715546607971E-1   9.484090805053711E-1   2.109823226928711E-1   4.366848245263100E-2   2.109055221080780E-1   4.357080906629562E-2  -1.927796602249146E-1   9.458850026130676E-1  
 5.332000000000000E7    -1.938997954130173E-1   9.481648206710815E-1   2.110897004604340E-1   4.352812096476555E-2   2.112118005752564E-1   4.354075714945793E-2  -1.918094158172607E-1   9.457076787948608E-1  
 5.334000000000000E7    -1.928741037845612E-1   9.485330581665039E-1   2.114541977643967E-1   4.354973137378693E-2   2.115381658077240E-1   4.347219318151474E-2  -1.913078278303146E-1   9.456272125244141E-1  
 5.336000000000000E7    -1.922305673360825E-1   9.483144879341126E-1   2.119231969118118E-1   4.334411397576332E-2   2.118074595928192E-1   4.331732541322708E-2  -1.905163824558258E-1   9.456209540367127E-1  
 5.338000000000000E7    -1.914123147726059E-1   9.483566880226135E-1   2.124155312776566E-1   4.326504468917847E-2   2.122718989849091E-1   4.320381209254265E-2  -1.896987110376358E-1   9.457576870918274E-1  
 5.340000000000000E7    -1.910043507814407E-1   9.485914111137390E-1   2.126394361257553E-1   4.325272887945175E-2   2.127074599266052E-1   4.319952800869942E-2  -1.889056563377380E-1   9.459939002990723E-1  
 5.342000000000000E7    -1.899814307689667E-1   9.487429261207581E-1   2.130045294761658E-1   4.291097074747086E-2   2.130432277917862E-1   4.303961619734764E-2  -1.880691349506378E-1   9.458912014961243E-1  
 5.344000000000000E7    -1.893386989831924E-1   9.486612081527710E-1   2.132687717676163E-1   4.292213544249535E-2   2.134138941764832E-1   4.296375066041946E-2  -1.870910376310349E-1   9.460218548774719E-1  
 5.346000000000000E7    -1.886902898550034E-1   9.487749934196472E-1   2.137605845928192E-1   4.279783740639687E-2   2.136296778917313E-1   4.284542798995972E-2  -1.862666010856628E-1   9.459630250930786E-1  
 5.348000000000000E7    -1.876716762781143E-1   9.490617513656616E-1   2.142280042171478E-1   4.286727309226990E-2   2.143079042434692E-1   4.282531514763832E-2  -1.857805997133255E-1   9.462345838546753E-1  
 5.350000000000000E7    -1.872791796922684E-1   9.486635923385620E-1   2.146679013967514E-1   4.277615621685982E-2   2.144061326980591E-1   4.274917766451836E-2  -1.852125674486160E-1   9.464508891105652E-1  
 5.352000000000000E7    -1.863505542278290E-1   9.491357803344727E-1   2.149984985589981E-1   4.259737581014633E-2   2.148362994194031E-1   4.251386970281601E-2  -1.842452138662338E-1   9.461967349052429E-1  
 5.354000000000000E7    -1.855233907699585E-1   9.491176009178162E-1   2.152397334575653E-1   4.239717870950699E-2   2.151176631450653E-1   4.249094054102898E-2  -1.831997334957123E-1   9.462052583694458E-1  
 5.356000000000000E7    -1.847347319126129E-1   9.491419196128845E-1   2.155787050724030E-1   4.230290651321411E-2   2.155497372150421E-1   4.238123074173927E-2  -1.829310953617096E-1   9.462752342224121E-1  
 5.358000000000000E7    -1.841216534376144E-1   9.491969943046570E-1   2.161189615726471E-1   4.227278381586075E-2   2.160158008337021E-1   4.228776693344116E-2  -1.820659041404724E-1   9.469175338745117E-1  
 5.360000000000000E7    -1.833330839872360E-1   9.493071436882019E-1   2.163910567760468E-1   4.213256016373634E-2   2.162324041128159E-1   4.224735125899315E-2  -1.814507991075516E-1   9.465380311012268E-1  
 5.362000000000000E7    -1.823490113019943E-1   9.492279291152954E-1   2.168228030204773E-1   4.194508120417595E-2   2.166144400835037E-1   4.200542718172073E-2  -1.803264319896698E-1   9.467822313308716E-1  
 5.364000000000000E7    -1.814568638801575E-1   9.497430324554443E-1   2.170576453208923E-1   4.189528152346611E-2   2.171171456575394E-1   4.186073690652847E-2  -1.797073632478714E-1   9.462739229202271E-1  
 5.366000000000000E7    -1.807434856891632E-1   9.492745399475098E-1   2.175734937191010E-1   4.174978286027908E-2   2.174859195947647E-1   4.172786325216293E-2  -1.789788603782654E-1   9.469805955886841E-1  
 5.368000000000000E7    -1.801851987838745E-1   9.499561190605164E-1   2.178920209407806E-1   4.178779572248459E-2   2.180036604404450E-1   4.171162098646164E-2  -1.780597120523453E-1   9.471073746681213E-1  
 5.370000000000000E7    -1.792120337486267E-1   9.493536353111267E-1   2.181314677000046E-1   4.151655733585358E-2   2.181647121906281E-1   4.165191203355789E-2  -1.772562861442566E-1   9.468736648559570E-1  
 5.372000000000000E7    -1.784832626581192E-1   9.494900703430176E-1   2.186935395002365E-1   4.140767827630043E-2   2.184371650218964E-1   4.151558876037598E-2  -1.766396909952164E-1   9.469206929206848E-1  
 5.374000000000000E7    -1.778223067522049E-1   9.493654966354370E-1   2.190371155738831E-1   4.142782092094421E-2   2.186972945928574E-1   4.151673614978790E-2  -1.760185062885284E-1   9.468922615051270E-1  
 5.376000000000000E7    -1.770126074552536E-1   9.499302506446838E-1   2.194019109010696E-1   4.136521369218826E-2   2.194110006093979E-1   4.124239832162857E-2  -1.751301884651184E-1   9.469931125640869E-1  
 5.378000000000000E7    -1.762361526489258E-1   9.498380422592163E-1   2.197571843862534E-1   4.121935740113258E-2   2.196107953786850E-1   4.124053567647934E-2  -1.741147488355637E-1   9.472041130065918E-1  
 5.380000000000000E7    -1.754719167947769E-1   9.500946402549744E-1   2.201038599014282E-1   4.109457135200501E-2   2.200557887554169E-1   4.106848686933518E-2  -1.734600067138672E-1   9.470223188400269E-1  
 5.382000000000000E7    -1.745382547378540E-1   9.499711990356445E-1   2.204438298940659E-1   4.108089581131935E-2   2.203447669744492E-1   4.104656726121903E-2  -1.731743216514587E-1   9.471830725669861E-1  
 5.384000000000000E7    -1.740243583917618E-1   9.501871466636658E-1   2.208706438541412E-1   4.095625504851341E-2   2.208035737276077E-1   4.093581438064575E-2  -1.723998188972473E-1   9.475646018981934E-1  
 5.386000000000000E7    -1.733553856611252E-1   9.500364065170288E-1   2.211659848690033E-1   4.078112170100212E-2   2.212106734514237E-1   4.089810699224472E-2  -1.713858842849731E-1   9.480540156364441E-1  
 5.388000000000000E7    -1.723459661006928E-1   9.504632353782654E-1   2.216430157423019E-1   4.080831259489059E-2   2.216608524322510E-1   4.053225368261337E-2  -1.704875677824020E-1   9.479965567588806E-1  
 5.390000000000000E7    -1.715861409902573E-1   9.506905078887940E-1   2.218769192695618E-1   4.069676995277405E-2   2.218995839357376E-1   4.065003618597984E-2  -1.702482849359512E-1   9.475444555282593E-1  
 5.392000000000000E7    -1.704829186201096E-1   9.504895210266113E-1   2.223254740238190E-1   4.055313020944595E-2   2.222911715507507E-1   4.034125432372093E-2  -1.692011356353760E-1   9.477419257164002E-1  
 5.394000000000000E7    -1.701625585556030E-1   9.502739906311035E-1   2.226478606462479E-1   4.033114016056061E-2   2.225072383880615E-1   4.034866392612457E-2  -1.683616936206818E-1   9.476715922355652E-1  
 5.396000000000000E7    -1.693685203790665E-1   9.505492448806763E-1   2.231613993644714E-1   4.027447104454041E-2   2.230202853679657E-1   4.024884104728699E-2  -1.675967276096344E-1   9.482612609863281E-1  
 5.398000000000000E7    -1.686763912439346E-1   9.505019187927246E-1   2.233013957738876E-1   4.012499749660492E-2   2.233344018459320E-1   4.013254493474960E-2  -1.666714400053024E-1   9.476824998855591E-1  
 5.400000000000000E7    -1.681265980005264E-1   9.503694176673889E-1   2.237115204334259E-1   4.005496948957443E-2   2.236222177743912E-1   3.996104001998901E-2  -1.659637093544006E-1   9.479029774665833E-1  
 5.402000000000000E7    -1.667463183403015E-1   9.507563114166260E-1   2.239655107259750E-1   3.984040766954422E-2   2.239205241203308E-1   3.977096080780029E-2  -1.653107702732086E-1   9.474229812622070E-1  
 5.404000000000000E7    -1.663134545087814E-1   9.505236744880676E-1   2.244411408901215E-1   3.967419639229775E-2   2.243798375129700E-1   3.975291177630425E-2  -1.642354130744934E-1   9.480008482933044E-1  
 5.406000000000000E7    -1.659048646688461E-1   9.508821368217468E-1   2.248620837926865E-1   3.965842723846436E-2   2.247956395149231E-1   3.960861265659332E-2  -1.635660082101822E-1   9.482672810554504E-1  
 5.408000000000000E7    -1.647955775260925E-1   9.508638381958008E-1   2.251242399215698E-1   3.951284289360046E-2   2.250349968671799E-1   3.942095488309860E-2  -1.629106849431992E-1   9.482426643371582E-1  
 5.410000000000000E7    -1.640345305204392E-1   9.509779214859009E-1   2.256882190704346E-1   3.934156894683838E-2   2.254760116338730E-1   3.943851590156555E-2  -1.620425432920456E-1   9.485235214233398E-1  
 5.412000000000000E7    -1.632354408502579E-1   9.504221081733704E-1   2.258265912532806E-1   3.927340358495712E-2   2.257892787456513E-1   3.931923210620880E-2  -1.615559309720993E-1   9.485473036766052E-1  
 5.414000000000000E7    -1.625620424747467E-1   9.509595632553101E-1   2.263370454311371E-1   3.911412507295609E-2   2.261302322149277E-1   3.914986550807953E-2  -1.605410277843475E-1   9.482963681221008E-1  
 5.416000000000000E7    -1.616652160882950E-1   9.507433176040649E-1   2.264974117279053E-1   3.906993567943573E-2   2.264867275953293E-1   3.903350979089737E-2  -1.598154902458191E-1   9.482871294021606E-1  
 5.418000000000000E7    -1.611677259206772E-1   9.505157470703125E-1   2.269441336393356E-1   3.892086446285248E-2   2.267760336399078E-1   3.898079320788384E-2  -1.589538902044296E-1   9.482311010360718E-1  
 5.420000000000000E7    -1.602778732776642E-1   9.510580897331238E-1   2.274218201637268E-1   3.869155049324036E-2   2.273541688919067E-1   3.897053003311157E-2  -1.581090390682221E-1   9.487327337265015E-1  
 5.422000000000000E7    -1.595367044210434E-1   9.510613679885864E-1   2.278040051460266E-1   3.871050477027893E-2   2.276772558689117E-1   3.865742310881615E-2  -1.579011976718903E-1   9.488046169281006E-1  
 5.424000000000000E7    -1.585688889026642E-1   9.509876966476440E-1   2.280460596084595E-1   3.851987421512604E-2   2.279198914766312E-1   3.854124993085861E-2  -1.570083647966385E-1   9.485372304916382E-1  
 5.426000000000000E7    -1.579174995422363E-1   9.510926604270935E-1   2.284113913774490E-1   3.837674856185913E-2   2.283085137605667E-1   3.849187493324280E-2  -1.560838818550110E-1   9.485837817192078E-1  
 5.428000000000000E7    -1.570980399847031E-1   9.513019919395447E-1   2.288583964109421E-1   3.827939182519913E-2   2.288616746664047E-1   3.825795650482178E-2  -1.550107747316361E-1   9.488679766654968E-1  
 5.430000000000000E7    -1.564961224794388E-1   9.514219760894775E-1   2.292576134204865E-1   3.823907673358917E-2   2.289975136518478E-1   3.827797994017601E-2  -1.546330004930496E-1   9.486191868782044E-1  
 5.432000000000000E7    -1.555310636758804E-1   9.513493776321411E-1   2.294644564390183E-1   3.805694729089737E-2   2.295483350753784E-1   3.800806403160095E-2  -1.538079530000687E-1   9.488106369972229E-1  
 5.434000000000000E7    -1.551665365695953E-1   9.515469074249268E-1   2.298064231872559E-1   3.816345334053040E-2   2.300193160772324E-1   3.799720853567123E-2  -1.531264632940292E-1   9.489325284957886E-1  
 5.436000000000000E7    -1.540874987840653E-1   9.512592554092407E-1   2.300637364387512E-1   3.804910182952881E-2   2.300907522439957E-1   3.779886290431023E-2  -1.525741219520569E-1   9.487494230270386E-1  
 5.438000000000000E7    -1.534167677164078E-1   9.512366652488709E-1   2.305703759193420E-1   3.761089220643044E-2   2.304875999689102E-1   3.772788494825363E-2  -1.515915542840958E-1   9.490687847137451E-1  
 5.440000000000000E7    -1.523535996675491E-1   9.515191316604614E-1   2.309464663267136E-1   3.737361729145050E-2   2.309026271104813E-1   3.749741241335869E-2  -1.504728347063065E-1   9.491937756538391E-1  
 5.442000000000000E7    -1.518793255090714E-1   9.512854218482971E-1   2.311643064022064E-1   3.751974180340767E-2   2.312723100185394E-1   3.767049685120583E-2  -1.504337042570114E-1   9.490804672241211E-1  
 5.444000000000000E7    -1.510375887155533E-1   9.512810111045837E-1   2.315630167722702E-1   3.729382157325745E-2   2.316059023141861E-1   3.734251484274864E-2  -1.492333114147186E-1   9.490633606910706E-1  
 5.446000000000000E7    -1.503464430570602E-1   9.515779614448547E-1   2.319434583187103E-1   3.727924823760986E-2   2.317588478326798E-1   3.737098723649979E-2  -1.487056910991669E-1   9.491333961486816E-1  
 5.448000000000000E7    -1.494961529970169E-1   9.515364170074463E-1   2.322997003793716E-1   3.720324859023094E-2   2.322933673858643E-1   3.712581470608711E-2  -1.479782015085220E-1   9.491253495216370E-1  
 5.450000000000000E7    -1.484665572643280E-1   9.516775012016296E-1   2.327999323606491E-1   3.673679381608963E-2   2.326213270425797E-1   3.701505810022354E-2  -1.470682024955750E-1   9.493173360824585E-1  
 5.452000000000000E7    -1.480475813150406E-1   9.517712593078613E-1   2.331558018922806E-1   3.665652871131897E-2   2.331291437149048E-1   3.695362061262131E-2  -1.459741890430450E-1   9.492391943931580E-1  
 5.454000000000000E7    -1.475483775138855E-1   9.515253901481628E-1   2.333535999059677E-1   3.664361312985420E-2   2.333724945783615E-1   3.665650635957718E-2  -1.452922374010086E-1   9.495356082916260E-1  
 5.456000000000000E7    -1.468901485204697E-1   9.520705938339233E-1   2.338678389787674E-1   3.659668564796448E-2   2.338701337575913E-1   3.658095002174377E-2  -1.445636600255966E-1   9.492332339286804E-1  
 5.458000000000000E7    -1.457683145999908E-1   9.520356059074402E-1   2.342796921730042E-1   3.632403165102005E-2   2.342183440923691E-1   3.632463514804840E-2  -1.439078450202942E-1   9.495708942413330E-1  
 5.460000000000000E7    -1.450684219598770E-1   9.516561031341553E-1   2.343860268592835E-1   3.633613884449005E-2   2.344946265220642E-1   3.620329499244690E-2  -1.433865427970886E-1   9.494358897209168E-1  
 5.462000000000000E7    -1.442667245864868E-1   9.517186284065247E-1   2.348686903715134E-1   3.605686128139496E-2   2.349220067262650E-1   3.628771007061005E-2  -1.424348652362824E-1   9.492862820625305E-1  
 5.464000000000000E7    -1.436650454998016E-1   9.520974159240723E-1   2.355128377676010E-1   3.597067296504974E-2   2.352365851402283E-1   3.602655231952667E-2  -1.412334144115448E-1   9.494497179985046E-1  
 5.466000000000000E7    -1.429574638605118E-1   9.519230127334595E-1   2.356069535017014E-1   3.597238659858704E-2   2.356011420488358E-1   3.605981171131134E-2  -1.410155892372131E-1   9.492667913436890E-1  
 5.468000000000000E7    -1.419112086296082E-1   9.518205523490906E-1   2.360174357891083E-1   3.573729842901230E-2   2.357915639877319E-1   3.587187081575394E-2  -1.397870481014252E-1   9.493888020515442E-1  
 5.470000000000000E7    -1.413757354021072E-1   9.523191452026367E-1   2.362846285104752E-1   3.572151064872742E-2   2.364719808101654E-1   3.564813733100891E-2  -1.394107937812805E-1   9.496788978576660E-1  
 5.472000000000000E7    -1.403762400150299E-1   9.520968794822693E-1   2.364571094512940E-1   3.564108908176422E-2   2.366493493318558E-1   3.547179698944092E-2  -1.388051807880402E-1   9.494571685791016E-1  
 5.474000000000000E7    -1.399482786655426E-1   9.520881772041321E-1   2.369605451822281E-1   3.541632741689682E-2   2.369676232337952E-1   3.538318350911140E-2  -1.376099735498428E-1   9.495478272438049E-1  
 5.476000000000000E7    -1.390794813632965E-1   9.522369503974915E-1   2.374442815780640E-1   3.517288714647293E-2   2.372032701969147E-1   3.525204211473465E-2  -1.368884742259979E-1   9.492365717887878E-1  
 5.478000000000000E7    -1.381312310695648E-1   9.517003893852234E-1   2.376656383275986E-1   3.511525690555573E-2   2.378078103065491E-1   3.521151095628738E-2  -1.364598721265793E-1   9.498255252838135E-1  
 5.480000000000000E7    -1.373389065265656E-1   9.520752429962158E-1   2.381992787122726E-1   3.483041375875473E-2   2.379835695028305E-1   3.486336022615433E-2  -1.351340860128403E-1   9.497954249382019E-1  
 5.482000000000000E7    -1.367729008197784E-1   9.521898031234741E-1   2.383805960416794E-1   3.488815575838089E-2   2.384089529514313E-1   3.504452854394913E-2  -1.350596398115158E-1   9.497758746147156E-1  
 5.484000000000000E7    -1.359594911336899E-1   9.524922370910645E-1   2.387541085481644E-1   3.467783704400063E-2   2.386211603879929E-1   3.456215560436249E-2  -1.339413374662399E-1   9.496514201164246E-1  
 5.486000000000000E7    -1.354219168424606E-1   9.522169232368469E-1   2.391946017742157E-1   3.454014658927918E-2   2.389983236789703E-1   3.452039510011673E-2  -1.331600099802017E-1   9.497458338737488E-1  
 5.488000000000000E7    -1.346447169780731E-1   9.522292613983154E-1   2.395268082618713E-1   3.438660129904747E-2   2.393640726804733E-1   3.434516116976738E-2  -1.324246674776077E-1   9.500854015350342E-1  
 5.490000000000000E7    -1.338501423597336E-1   9.522027969360352E-1   2.398486435413361E-1   3.414850682020187E-2   2.397336810827255E-1   3.427548706531525E-2  -1.317427009344101E-1   9.495993256568909E-1  
 5.492000000000000E7    -1.330445706844330E-1   9.526825547218323E-1   2.402471750974655E-1   3.418180346488953E-2   2.403035610914230E-1   3.420014679431915E-2  -1.312562525272369E-1   9.500619173049927E-1  
 5.494000000000000E7    -1.327574700117111E-1   9.521938562393189E-1   2.405289858579636E-1   3.405650705099106E-2   2.405762523412705E-1   3.415486961603165E-2  -1.302731037139893E-1   9.501397609710693E-1  
 5.496000000000000E7    -1.315314173698425E-1   9.521272182464600E-1   2.409152388572693E-1   3.378199040889740E-2   2.408261746168137E-1   3.383525088429451E-2  -1.293430477380753E-1   9.503040313720703E-1  
 5.498000000000000E7    -1.312769055366516E-1   9.522967934608460E-1   2.413712888956070E-1   3.395178914070129E-2   2.410948127508164E-1   3.398288041353226E-2  -1.289196163415909E-1   9.500216841697693E-1  
 5.500000000000000E7    -1.296961009502411E-1   9.525147080421448E-1   2.416437119245529E-1   3.333385288715363E-2   2.415326088666916E-1   3.361111879348755E-2  -1.281241029500961E-1   9.498456120491028E-1  
 5.502000000000000E7    -1.291254162788391E-1   9.527547955513001E-1   2.421522289514542E-1   3.350239619612694E-2   2.420112788677216E-1   3.355117142200470E-2  -1.273171454668045E-1   9.501774311065674E-1  
 5.504000000000000E7    -1.283501386642456E-1   9.524181485176086E-1   2.422771006822586E-1   3.335242345929146E-2   2.423862665891647E-1   3.321539610624313E-2  -1.265563666820526E-1   9.500687122344971E-1  
 5.506000000000000E7    -1.274366825819016E-1   9.524856209754944E-1   2.427425533533096E-1   3.317806869745255E-2   2.426508665084839E-1   3.303094953298569E-2  -1.257772594690323E-1   9.502698779106140E-1  
 5.508000000000000E7    -1.269570589065552E-1   9.525478482246399E-1   2.431983947753906E-1   3.310073539614677E-2   2.430927306413651E-1   3.313007950782776E-2  -1.251313686370850E-1   9.501056075096130E-1  
 5.510000000000000E7    -1.262182742357254E-1   9.521230459213257E-1   2.433569878339768E-1   3.293551504611969E-2   2.431943863630295E-1   3.279958292841911E-2  -1.242894530296326E-1   9.502295255661011E-1  
 5.512000000000000E7    -1.253393888473511E-1   9.526789784431458E-1   2.438142001628876E-1   3.283244743943214E-2   2.438121289014816E-1   3.258106857538223E-2  -1.235523670911789E-1   9.504438638687134E-1  
 5.514000000000000E7    -1.248814165592194E-1   9.528107643127441E-1   2.442162334918976E-1   3.275713324546814E-2   2.442882657051086E-1   3.266660869121552E-2  -1.228912100195885E-1   9.504045248031616E-1  
 5.516000000000000E7    -1.238937154412270E-1   9.527975916862488E-1   2.446065694093704E-1   3.256616741418839E-2   2.444754838943481E-1   3.250689804553986E-2  -1.222130730748177E-1   9.504489302635193E-1  
 5.518000000000000E7    -1.234674155712128E-1   9.526409506797791E-1   2.448430061340332E-1   3.230665624141693E-2   2.445249259471893E-1   3.238975256681442E-2  -1.213925778865814E-1   9.498230814933777E-1  
 5.520000000000000E7    -1.225969940423966E-1   9.529659152030945E-1   2.452780008316040E-1   3.209934383630753E-2   2.452169954776764E-1   3.196340799331665E-2  -1.203201711177826E-1   9.502490758895874E-1  
 5.522000000000000E7    -1.217819824814796E-1   9.530720710754395E-1   2.456701695919037E-1   3.196502476930618E-2   2.456643879413605E-1   3.204131126403809E-2  -1.195706427097321E-1   9.502018094062805E-1  
 5.524000000000000E7    -1.208197772502899E-1   9.527237415313721E-1   2.457841783761978E-1   3.203555941581726E-2   2.459197342395783E-1   3.187360987067223E-2  -1.193302795290947E-1   9.502888917922974E-1  
 5.526000000000000E7    -1.204424425959587E-1   9.526411294937134E-1   2.461560815572739E-1   3.188476338982582E-2   2.459979653358460E-1   3.171175718307495E-2  -1.180400475859642E-1   9.501405358314514E-1  
 5.528000000000000E7    -1.193936169147492E-1   9.528764486312866E-1   2.465822994709015E-1   3.145881742238998E-2   2.465474605560303E-1   3.155013173818588E-2  -1.174773722887039E-1   9.503532052040100E-1  
 5.530000000000000E7    -1.185442432761192E-1   9.527212381362915E-1   2.468936294317246E-1   3.161694854497910E-2   2.468964010477066E-1   3.145115822553635E-2  -1.167653650045395E-1   9.503695368766785E-1  
 5.532000000000000E7    -1.178829446434975E-1   9.526316523551941E-1   2.472598701715469E-1   3.119937516748905E-2   2.473049908876419E-1   3.126331418752670E-2  -1.159418299794197E-1   9.505764245986939E-1  
 5.534000000000000E7    -1.171443536877632E-1   9.532055854797363E-1   2.477445602416992E-1   3.106920421123505E-2   2.478197216987610E-1   3.124862350523472E-2  -1.149883940815926E-1   9.503993391990662E-1  
 5.536000000000000E7    -1.164371296763420E-1   9.529209733009338E-1   2.480204403400421E-1   3.084729984402657E-2   2.479892373085022E-1   3.091150708496571E-2  -1.145061329007149E-1   9.503864049911499E-1  
 5.538000000000000E7    -1.155734360218048E-1   9.529351592063904E-1   2.482631951570511E-1   3.078654780983925E-2   2.482799887657166E-1   3.107930533587933E-2  -1.138148680329323E-1   9.504113793373108E-1  
 5.540000000000000E7    -1.148464828729630E-1   9.531041383743286E-1   2.488478273153305E-1   3.061803244054318E-2   2.487521022558212E-1   3.067275136709213E-2  -1.129272654652596E-1   9.506137371063232E-1  
 5.542000000000000E7    -1.143454089760780E-1   9.529505372047424E-1   2.491690367460251E-1   3.063189610838890E-2   2.490548193454742E-1   3.055723197758198E-2  -1.120913326740265E-1   9.504688978195190E-1  
 5.544000000000000E7    -1.130344048142433E-1   9.531241655349731E-1   2.495104372501373E-1   3.018482774496079E-2   2.493964135646820E-1   3.019679896533489E-2  -1.115213856101036E-1   9.502955079078674E-1  
 5.546000000000000E7    -1.128162741661072E-1   9.530512690544128E-1   2.497618943452835E-1   3.016000986099243E-2   2.496637403964996E-1   3.013008832931519E-2  -1.105494350194931E-1   9.502412676811218E-1  
 5.548000000000000E7    -1.117537096142769E-1   9.533874392509460E-1   2.501943111419678E-1   3.005800954997540E-2   2.500966489315033E-1   2.988157048821449E-2  -1.102231144905090E-1   9.503664374351502E-1  
 5.550000000000000E7    -1.113498508930206E-1   9.528772234916687E-1   2.503168880939484E-1   2.998040616512299E-2   2.503324747085571E-1   2.991042099893093E-2  -1.092181131243706E-1   9.505231380462647E-1  
 5.552000000000000E7    -1.101104468107224E-1   9.527893066406250E-1   2.507184147834778E-1   2.966838888823986E-2   2.506460547447205E-1   2.966648526489735E-2  -1.082514151930809E-1   9.506731629371643E-1  
 5.554000000000000E7    -1.093573197722435E-1   9.529954791069031E-1   2.511744201183319E-1   2.949460968375206E-2   2.510954737663269E-1   2.945222891867161E-2  -1.075892224907875E-1   9.507879018783569E-1  
 5.556000000000000E7    -1.088067069649696E-1   9.528020024299622E-1   2.514691352844238E-1   2.930784411728382E-2   2.513933181762695E-1   2.945694141089916E-2  -1.067931801080704E-1   9.506582617759705E-1  
 5.558000000000000E7    -1.077362149953842E-1   9.529368877410889E-1   2.518561184406281E-1   2.915526553988457E-2   2.519016861915588E-1   2.918698824942112E-2  -1.058875918388367E-1   9.508195519447327E-1  
 5.560000000000000E7    -1.073282286524773E-1   9.531564116477966E-1   2.524380087852478E-1   2.915122173726559E-2   2.521966993808746E-1   2.916824445128441E-2  -1.055366992950440E-1   9.505047202110291E-1  
 5.562000000000000E7    -1.067835539579392E-1   9.531437754631043E-1   2.525215446949005E-1   2.884620800614357E-2   2.525148391723633E-1   2.908341027796269E-2  -1.045841425657272E-1   9.505133032798767E-1  
 5.564000000000000E7    -1.058793589472771E-1   9.528415203094482E-1   2.529574334621429E-1   2.883935347199440E-2   2.528036832809448E-1   2.878406643867493E-2  -1.034647673368454E-1   9.505262970924377E-1  
 5.566000000000000E7    -1.052344962954521E-1   9.529820084571838E-1   2.531977295875549E-1   2.867637574672699E-2   2.529333233833313E-1   2.877216786146164E-2  -1.032628491520882E-1   9.504684209823608E-1  
 5.568000000000000E7    -1.043483763933182E-1   9.530655145645142E-1   2.534003257751465E-1   2.837382070720196E-2   2.532804906368256E-1   2.851690910756588E-2  -1.024957299232483E-1   9.503524303436279E-1  
 5.570000000000000E7    -1.037225276231766E-1   9.532124996185303E-1   2.539719939231873E-1   2.848239615559578E-2   2.538578212261200E-1   2.837353385984898E-2  -1.015890985727310E-1   9.505955576896668E-1  
 5.572000000000000E7    -1.026621311903000E-1   9.532002210617065E-1   2.542524039745331E-1   2.817481011152268E-2   2.541976869106293E-1   2.822724357247353E-2  -1.009384393692017E-1   9.504149556159973E-1  
 5.574000000000000E7    -1.021231710910797E-1   9.528331756591797E-1   2.544814944267273E-1   2.803828194737434E-2   2.545246481895447E-1   2.804273553192616E-2  -1.002058759331703E-1   9.503818154335022E-1  
 5.576000000000000E7    -1.013317033648491E-1   9.529137015342712E-1   2.551900446414948E-1   2.781069278717041E-2   2.550004720687866E-1   2.782610058784485E-2  -9.964253008365631E-2   9.508941769599915E-1  
 5.578000000000000E7    -1.007905825972557E-1   9.531786441802979E-1   2.553593516349793E-1   2.751826308667660E-2   2.551770806312561E-1   2.762596122920513E-2  -9.848450869321823E-2   9.508281350135803E-1  
 5.580000000000000E7    -9.971489757299423E-2   9.529331326484680E-1   2.554932534694672E-1   2.744763903319836E-2   2.555147707462311E-1   2.752932906150818E-2  -9.768185019493103E-2   9.506067633628845E-1  
 5.582000000000000E7    -9.920971095561981E-2   9.527246952056885E-1   2.558748722076416E-1   2.730522677302361E-2   2.557424008846283E-1   2.728747762739658E-2  -9.745230525732040E-2   9.501785635948181E-1  
 5.584000000000000E7    -9.852489829063416E-2   9.530460238456726E-1   2.563164234161377E-1   2.727807685732842E-2   2.563406527042389E-1   2.729101106524468E-2  -9.658278524875641E-2   9.504030942916870E-1  
 5.586000000000000E7    -9.746016561985016E-2   9.532403349876404E-1   2.569710910320282E-1   2.703626826405525E-2   2.568428814411163E-1   2.695831842720509E-2  -9.560093283653259E-2   9.503889679908752E-1  
 5.588000000000000E7    -9.657971560955048E-2   9.526957869529724E-1   2.568812966346741E-1   2.683483436703682E-2   2.570162117481232E-1   2.693786472082138E-2  -9.514085948467255E-2   9.504109025001526E-1  
 5.590000000000000E7    -9.617605060338974E-2   9.528136253356934E-1   2.571898102760315E-1   2.668233774602413E-2   2.572310268878937E-1   2.674631029367447E-2  -9.431592375040054E-2   9.502815008163452E-1  
 5.592000000000000E7    -9.542576223611832E-2   9.529938697814941E-1   2.576869428157806E-1   2.664355374872685E-2   2.574155628681183E-1   2.663758769631386E-2  -9.341645240783691E-2   9.503390192985535E-1  
 5.594000000000000E7    -9.458579868078232E-2   9.531795382499695E-1   2.582248151302338E-1   2.642747014760971E-2   2.580015063285828E-1   2.618364430963993E-2  -9.237948060035706E-2   9.502686262130737E-1  
 5.596000000000000E7    -9.388256072998047E-2   9.531700015068054E-1   2.582821547985077E-1   2.629873901605606E-2   2.584407329559326E-1   2.624882198870182E-2  -9.211678057909012E-2   9.504449367523193E-1  
 5.598000000000000E7    -9.297779947519302E-2   9.531276822090149E-1   2.588254213333130E-1   2.578570321202278E-2   2.589389383792877E-1   2.601076848804951E-2  -9.067078679800034E-2   9.507192373275757E-1  
 5.600000000000000E7    -9.246529638767242E-2   9.526844620704651E-1   2.590194642543793E-1   2.597448788583279E-2   2.589771747589111E-1   2.584839239716530E-2  -9.036331623792648E-2   9.507733583450317E-1  
 5.602000000000000E7    -9.136788547039032E-2   9.526286721229553E-1   2.592710852622986E-1   2.570145390927792E-2   2.593118548393250E-1   2.557039633393288E-2  -8.978544920682907E-2   9.503534436225891E-1  
 5.604000000000000E7    -9.062208235263825E-2   9.526375532150269E-1   2.595278918743134E-1   2.553703263401985E-2   2.597272396087647E-1   2.536274865269661E-2  -8.872888237237930E-2   9.504759311676025E-1  
 5.606000000000000E7    -9.003785997629166E-2   9.528895616531372E-1   2.600345909595490E-1   2.532301284372807E-2   2.599372565746307E-1   2.534812875092030E-2  -8.811777830123901E-2   9.506161808967590E-1  
 5.608000000000000E7    -8.930168300867081E-2   9.528142809867859E-1   2.604665756225586E-1   2.501267753541470E-2   2.603200376033783E-1   2.533025853335857E-2  -8.737107366323471E-2   9.503489136695862E-1  
 5.610000000000000E7    -8.844027668237686E-2   9.527864456176758E-1   2.609020173549652E-1   2.505851723253727E-2   2.607839703559876E-1   2.506971359252930E-2  -8.655037730932236E-2   9.505875706672669E-1  
 5.612000000000000E7    -8.782040327787399E-2   9.527000188827515E-1   2.609279155731201E-1   2.478942088782787E-2   2.610156536102295E-1   2.500736340880394E-2  -8.602286875247955E-2   9.501760601997376E-1  
 5.614000000000000E7    -8.748927712440491E-2   9.530822634696960E-1   2.613833844661713E-1   2.455246821045876E-2   2.615108191967011E-1   2.470421046018601E-2  -8.490237593650818E-2   9.502949118614197E-1  
 5.616000000000000E7    -8.640334010124207E-2   9.527671337127686E-1   2.615373134613037E-1   2.439930103719235E-2   2.615014016628265E-1   2.450022846460342E-2  -8.456996083259583E-2   9.499816894531250E-1  
 5.618000000000000E7    -8.550752699375153E-2   9.524136185646057E-1   2.621582448482513E-1   2.436671406030655E-2   2.619623541831970E-1   2.421930246055126E-2  -8.354190737009049E-2   9.503210186958313E-1  
 5.620000000000000E7    -8.483421802520752E-2   9.530872106552124E-1   2.624138891696930E-1   2.418296784162521E-2   2.623931765556335E-1   2.453536167740822E-2  -8.327247202396393E-2   9.504765272140503E-1  
 5.622000000000000E7    -8.426937460899353E-2   9.528938531875610E-1   2.629136145114899E-1   2.401612140238285E-2   2.628436386585236E-1   2.400072291493416E-2  -8.191972970962524E-2   9.502350091934204E-1  
 5.624000000000000E7    -8.320843428373337E-2   9.528282284736633E-1   2.629591524600983E-1   2.356246672570705E-2   2.630867063999176E-1   2.369940839707851E-2  -8.135127276182175E-2   9.499426484107971E-1  
 5.626000000000000E7    -8.244264125823975E-2   9.530176520347595E-1   2.633025348186493E-1   2.361969463527203E-2   2.633173465728760E-1   2.375185675919056E-2  -8.091972768306732E-2   9.500300884246826E-1  
 5.628000000000000E7    -8.193218708038330E-2   9.525745511054993E-1   2.638120353221893E-1   2.372722327709198E-2   2.636831402778626E-1   2.348815649747849E-2  -7.971689105033875E-2   9.503415226936340E-1  
 5.630000000000000E7    -8.109473437070847E-2   9.522176384925842E-1   2.639453113079071E-1   2.324826829135418E-2   2.638776302337647E-1   2.320957928895950E-2  -7.902314513921738E-2   9.502118229866028E-1  
 5.632000000000000E7    -8.029878139495850E-2   9.529289007186890E-1   2.645837068557739E-1   2.316287346184254E-2   2.645153403282166E-1   2.323701791465282E-2  -7.824163883924484E-2   9.501026272773743E-1  
 5.634000000000000E7    -7.971838861703873E-2   9.528167843818665E-1   2.646904289722443E-1   2.299469150602818E-2   2.646949887275696E-1   2.306007407605648E-2  -7.778257876634598E-2   9.500095248222351E-1  
 5.636000000000000E7    -7.899488508701325E-2   9.527683258056641E-1   2.651262283325195E-1   2.294170297682285E-2   2.651313245296478E-1   2.275658398866653E-2  -7.698202878236771E-2   9.503618478775024E-1  
 5.638000000000000E7    -7.815914601087570E-2   9.526889920234680E-1   2.653763890266419E-1   2.263461425900459E-2   2.653822302818298E-1   2.260614559054375E-2  -7.616225630044937E-2   9.502661228179932E-1  
 5.640000000000000E7    -7.754247635602951E-2   9.525507092475891E-1   2.657704651355743E-1   2.248873747885227E-2   2.657032310962677E-1   2.230752073228359E-2  -7.549213618040085E-2   9.499908685684204E-1  
 5.642000000000000E7    -7.676865160465241E-2   9.525727033615112E-1   2.662291526794434E-1   2.229353040456772E-2   2.660053372383118E-1   2.225054055452347E-2  -7.498152554035187E-2   9.504479169845581E-1  
 5.644000000000000E7    -7.575969398021698E-2   9.522692561149597E-1   2.663490772247315E-1   2.192463725805283E-2   2.663070261478424E-1   2.210613712668419E-2  -7.427280396223068E-2   9.499347805976868E-1  
 5.646000000000000E7    -7.503208518028259E-2   9.524208903312683E-1   2.666136026382446E-1   2.194278128445149E-2   2.666826546192169E-1   2.177048288285732E-2  -7.338098436594009E-2   9.499187469482422E-1  
 5.648000000000000E7    -7.426961511373520E-2   9.525516033172607E-1   2.671465873718262E-1   2.157273888587952E-2   2.672238647937775E-1   2.160150557756424E-2  -7.240149378776550E-2   9.503467679023743E-1  
 5.650000000000000E7    -7.382209599018097E-2   9.523414969444275E-1   2.674889862537384E-1   2.154118567705154E-2   2.674089372158051E-1   2.145804278552532E-2  -7.166422903537750E-2   9.499737620353699E-1  
 5.652000000000000E7    -7.222773879766464E-2   9.522858262062073E-1   2.677777409553528E-1   2.135283313691616E-2   2.676421105861664E-1   2.105402015149593E-2  -7.075113803148270E-2   9.498655200004578E-1  
 5.654000000000000E7    -7.214906066656113E-2   9.526510238647461E-1   2.681458294391632E-1   2.139176055788994E-2   2.682570219039917E-1   2.132662385702133E-2  -7.048966735601425E-2   9.499899148941040E-1  
 5.656000000000000E7    -7.153892517089844E-2   9.524248838424683E-1   2.684240043163300E-1   2.087029814720154E-2   2.683615982532501E-1   2.099481783807278E-2  -6.910511106252670E-2   9.499040842056274E-1  
 5.658000000000000E7    -7.078263163566589E-2   9.523515701293945E-1   2.684760093688965E-1   2.072672359645367E-2   2.686883211135864E-1   2.088372968137264E-2  -6.856604665517807E-2   9.493946433067322E-1  
 5.660000000000000E7    -6.980105489492416E-2   9.525071382522583E-1   2.690518796443939E-1   2.049831487238407E-2   2.690405845642090E-1   2.074254304170609E-2  -6.816172599792481E-2   9.495005607604981E-1  
 5.662000000000000E7    -6.936323642730713E-2   9.523491263389587E-1   2.695212662220001E-1   2.028245106339455E-2   2.694156169891357E-1   2.028352953493595E-2  -6.703484803438187E-2   9.499888420104981E-1  
 5.664000000000000E7    -6.873240321874619E-2   9.517247676849365E-1   2.697095870971680E-1   2.010417170822620E-2   2.696011364459992E-1   2.030112408101559E-2  -6.654015183448792E-2   9.499843120574951E-1  
 5.666000000000000E7    -6.791980564594269E-2   9.521095156669617E-1   2.702094912528992E-1   1.992049068212509E-2   2.700003683567047E-1   2.016283385455608E-2  -6.589603424072266E-2   9.499233961105347E-1  
 5.668000000000000E7    -6.701678037643433E-2   9.522324204444885E-1   2.706943750381470E-1   1.992689445614815E-2   2.701996266841888E-1   2.002853155136108E-2  -6.515407562255859E-2   9.498215317726135E-1  
 5.670000000000000E7    -6.654527783393860E-2   9.522594809532166E-1   2.707174122333527E-1   1.978786289691925E-2   2.706825435161591E-1   1.969069987535477E-2  -6.428486853837967E-2   9.499956965446472E-1  
 5.672000000000000E7    -6.566362082958221E-2   9.520688056945801E-1   2.711904942989349E-1   1.944576576352119E-2   2.710542976856232E-1   1.935596764087677E-2  -6.336971372365952E-2   9.497277140617371E-1  
 5.674000000000000E7    -6.476610898971558E-2   9.521708488464356E-1   2.714202404022217E-1   1.931588537991047E-2   2.716191709041596E-1   1.914720982313156E-2  -6.260836869478226E-2   9.495380520820618E-1  
 5.676000000000000E7    -6.379688531160355E-2   9.519327282905579E-1   2.717574536800385E-1   1.907044462859631E-2   2.717187702655792E-1   1.915777474641800E-2  -6.200122460722923E-2   9.497917890548706E-1  
 5.678000000000000E7    -6.342481076717377E-2   9.521109461784363E-1   2.719340324401856E-1   1.889079436659813E-2   2.720933854579926E-1   1.902406476438046E-2  -6.124003231525421E-2   9.495606422424316E-1  
 5.680000000000000E7    -6.259674578905106E-2   9.515944123268127E-1   2.723938226699829E-1   1.862563937902451E-2   2.722332179546356E-1   1.867572963237763E-2  -6.062944978475571E-2   9.496594071388245E-1  
 5.682000000000000E7    -6.196138262748718E-2   9.519578218460083E-1   2.727255225181580E-1   1.863811537623406E-2   2.727064490318298E-1   1.861105300486088E-2  -5.992140620946884E-2   9.496831297874451E-1  
 5.684000000000000E7    -6.089233979582787E-2   9.520944356918335E-1   2.731934487819672E-1   1.828876137733460E-2   2.730030417442322E-1   1.831880398094654E-2  -5.910964682698250E-2   9.494092464447022E-1  
 5.686000000000000E7    -6.011970341205597E-2   9.514887332916260E-1   2.735573053359985E-1   1.815186068415642E-2   2.733776867389679E-1   1.819303818047047E-2  -5.837846547365189E-2   9.496559500694275E-1  
 5.688000000000000E7    -5.963896587491036E-2   9.521325826644898E-1   2.738765776157379E-1   1.788457855582237E-2   2.737264931201935E-1   1.802135817706585E-2  -5.740488320589066E-2   9.492619037628174E-1  
 5.690000000000000E7    -5.857867747545242E-2   9.518697261810303E-1   2.742043733596802E-1   1.780834607779980E-2   2.742547094821930E-1   1.765167899429798E-2  -5.641729384660721E-2   9.494677186012268E-1  
 5.692000000000000E7    -5.815529078245163E-2   9.518090486526489E-1   2.743719518184662E-1   1.766790077090263E-2   2.743974924087524E-1   1.767408661544323E-2  -5.634524673223496E-2   9.493885636329651E-1  
 5.694000000000000E7    -5.727105587720871E-2   9.517186880111694E-1   2.748834192752838E-1   1.748099178075790E-2   2.747493386268616E-1   1.735365763306618E-2  -5.562681704759598E-2   9.492602348327637E-1  
 5.696000000000000E7    -5.667959526181221E-2   9.517444372177124E-1   2.751787006855011E-1   1.716406084597111E-2   2.749699056148529E-1   1.735516637563705E-2  -5.435798689723015E-2   9.493128061294556E-1  
 5.698000000000000E7    -5.572965368628502E-2   9.515415430068970E-1   2.753878831863403E-1   1.713026314973831E-2   2.754047513008118E-1   1.715521700680256E-2  -5.395331978797913E-2   9.489561319351196E-1  
 5.700000000000000E7    -5.500765889883041E-2   9.514468908309937E-1   2.756060063838959E-1   1.693624071776867E-2   2.756436169147492E-1   1.678294502198696E-2  -5.313539877533913E-2   9.489759206771851E-1  
 5.702000000000000E7    -5.452063679695129E-2   9.515685439109802E-1   2.760143876075745E-1   1.674406416714191E-2   2.760159075260162E-1   1.661560311913490E-2  -5.261785537004471E-2   9.488604068756104E-1  
 5.704000000000000E7    -5.357249081134796E-2   9.514370560646057E-1   2.763617038726807E-1   1.639794372022152E-2   2.762232422828674E-1   1.649157516658306E-2  -5.181705579161644E-2   9.488799571990967E-1  
 5.706000000000000E7    -5.289259552955627E-2   9.516080021858215E-1   2.767401039600372E-1   1.615767739713192E-2   2.767589986324310E-1   1.597089692950249E-2  -5.043436586856842E-2   9.487349390983582E-1  
 5.708000000000000E7    -5.216459184885025E-2   9.515000581741333E-1   2.769542038440704E-1   1.626332849264145E-2   2.769357562065125E-1   1.621859148144722E-2  -5.029013007879257E-2   9.489715695381165E-1  
 5.710000000000000E7    -5.147663503885269E-2   9.513257741928101E-1   2.773433923721314E-1   1.578476279973984E-2   2.774854600429535E-1   1.593677327036858E-2  -4.944073036313057E-2   9.490388035774231E-1  
 5.712000000000000E7    -5.104322358965874E-2   9.514593482017517E-1   2.777311801910400E-1   1.568812876939774E-2   2.776690423488617E-1   1.577007211744785E-2  -4.846614226698875E-2   9.485699534416199E-1  
 5.714000000000000E7    -5.010055378079414E-2   9.513894915580750E-1   2.780943810939789E-1   1.553618535399437E-2   2.780858278274536E-1   1.556566171348095E-2  -4.802181199193001E-2   9.489755630493164E-1  
 5.716000000000000E7    -4.922033846378326E-2   9.511973857879639E-1   2.781517207622528E-1   1.535355299711227E-2   2.782905101776123E-1   1.525232009589672E-2  -4.707583785057068E-2   9.485866427421570E-1  
 5.718000000000000E7    -4.838046059012413E-2   9.516133069992065E-1   2.786217331886292E-1   1.478027179837227E-2   2.786481082439423E-1   1.495532877743244E-2  -4.618714749813080E-2   9.485203623771668E-1  
 5.720000000000000E7    -4.781503230333328E-2   9.513335227966309E-1   2.789900898933411E-1   1.486650481820107E-2   2.790200710296631E-1   1.495460048317909E-2  -4.584619775414467E-2   9.486995935440064E-1  
 5.722000000000000E7    -4.674332588911057E-2   9.512370824813843E-1   2.792589664459229E-1   1.454324834048748E-2   2.793418467044830E-1   1.460327394306660E-2  -4.489582404494286E-2   9.488109946250916E-1  
 5.724000000000000E7    -4.652188718318939E-2   9.509547948837280E-1   2.796602845191956E-1   1.454197987914085E-2   2.797020971775055E-1   1.449421048164368E-2  -4.414290189743042E-2   9.485638141632080E-1  
 5.726000000000000E7    -4.559712857007980E-2   9.511594176292419E-1   2.799176573753357E-1   1.434755697846413E-2   2.799931764602661E-1   1.431044377386570E-2  -4.311195760965347E-2   9.486721754074097E-1  
 5.728000000000000E7    -4.468135908246040E-2   9.510607123374939E-1   2.803689837455750E-1   1.406618952751160E-2   2.800837159156799E-1   1.424191519618034E-2  -4.277968034148216E-2   9.485723972320557E-1  
 5.730000000000000E7    -4.381025955080986E-2   9.510905146598816E-1   2.807492613792419E-1   1.376004889607430E-2   2.805779576301575E-1   1.393750496208668E-2  -4.207003861665726E-2   9.485088586807251E-1  
 5.732000000000000E7    -4.301780834794045E-2   9.506275057792664E-1   2.810953855514526E-1   1.352551393210888E-2   2.807152569293976E-1   1.355023868381977E-2  -4.114143177866936E-2   9.486266374588013E-1  
 5.734000000000000E7    -4.222587496042252E-2   9.507251381874085E-1   2.813837230205536E-1   1.336379908025265E-2   2.813047468662262E-1   1.339385844767094E-2  -4.039610177278519E-2   9.482672810554504E-1  
 5.736000000000000E7    -4.197767376899719E-2   9.507616758346558E-1   2.815762758255005E-1   1.321824267506599E-2   2.816846370697022E-1   1.335679180920124E-2  -3.969146683812141E-2   9.484623670578003E-1  
 5.738000000000000E7    -4.083944484591484E-2   9.507874250411987E-1   2.818685173988342E-1   1.304990611970425E-2   2.818402945995331E-1   1.315013691782951E-2  -3.882384300231934E-2   9.480124711990356E-1  
 5.740000000000000E7    -4.069579020142555E-2   9.506790041923523E-1   2.821916937828064E-1   1.295345835387707E-2   2.821004688739777E-1   1.270096749067307E-2  -3.804726153612137E-2   9.480266571044922E-1  
 5.742000000000000E7    -3.946258127689362E-2   9.508242011070252E-1   2.825477719306946E-1   1.272919960319996E-2   2.823970019817352E-1   1.283189281821251E-2  -3.762274608016014E-2   9.479567408561707E-1  
 5.744000000000000E7    -3.878662362694740E-2   9.502642154693604E-1   2.827838957309723E-1   1.258721202611923E-2   2.828768193721771E-1   1.239672489464283E-2  -3.666018694639206E-2   9.478585720062256E-1  
 5.746000000000000E7    -3.789228200912476E-2   9.503743052482605E-1   2.831572592258453E-1   1.238443516194820E-2   2.831829190254211E-1   1.224142871797085E-2  -3.611842542886734E-2   9.478426575660706E-1  
 5.748000000000000E7    -3.736100345849991E-2   9.504138827323914E-1   2.836240828037262E-1   1.179154962301254E-2   2.836493253707886E-1   1.181759126484394E-2  -3.493681550025940E-2   9.480677843093872E-1  
 5.750000000000000E7    -3.664491698145866E-2   9.500217437744141E-1   2.837997972965241E-1   1.206811144948006E-2   2.837744951248169E-1   1.195386983454227E-2  -3.433156386017799E-2   9.479636549949646E-1  
 5.752000000000000E7    -3.590390086174011E-2   9.501757025718689E-1   2.842071056365967E-1   1.156511344015598E-2   2.840860784053803E-1   1.157829165458679E-2  -3.352511301636696E-2   9.479565620422363E-1  
 5.754000000000000E7    -3.516330197453499E-2   9.501658082008362E-1   2.843635976314545E-1   1.141937263309956E-2   2.843548357486725E-1   1.164312101900578E-2  -3.314584493637085E-2   9.473242163658142E-1  
 5.756000000000000E7    -3.409598022699356E-2   9.503291845321655E-1   2.848668992519379E-1   1.111449673771858E-2   2.846841812133789E-1   1.102526858448982E-2  -3.230301663279533E-2   9.476982355117798E-1  
 5.758000000000000E7    -3.369681164622307E-2   9.502664804458618E-1   2.852061092853546E-1   1.107775606215000E-2   2.849282622337341E-1   1.109652221202850E-2  -3.177304565906525E-2   9.479048252105713E-1  
 5.760000000000000E7    -3.281458839774132E-2   9.503433108329773E-1   2.855392098426819E-1   1.082588918507099E-2   2.854204773902893E-1   1.083125360310078E-2  -3.110507875680924E-2   9.475421905517578E-1  
 5.762000000000000E7    -3.244834393262863E-2   9.501951932907105E-1   2.858677506446838E-1   1.078356616199017E-2   2.858122289180756E-1   1.083696074783802E-2  -3.041564114391804E-2   9.475529193878174E-1  
 5.764000000000000E7    -3.172025457024574E-2   9.501586556434631E-1   2.861466109752655E-1   1.045437902212143E-2   2.862034440040588E-1   1.043958961963654E-2  -2.949891984462738E-2   9.472068548202515E-1  
 5.766000000000000E7    -3.082259930670261E-2   9.500445723533630E-1   2.865500152111054E-1   1.015872508287430E-2   2.863684296607971E-1   1.018439047038555E-2  -2.851201593875885E-2   9.473548531532288E-1  
 5.768000000000000E7    -2.986802905797958E-2   9.498512744903565E-1   2.869394719600678E-1   1.003482379019260E-2   2.865031957626343E-1   1.002211868762970E-2  -2.827932871878147E-2   9.472954273223877E-1  
 5.770000000000000E7    -2.907353639602661E-2   9.499506354331970E-1   2.870592474937439E-1   9.697049856185913E-3   2.869665622711182E-1   9.737607091665268E-3  -2.707638964056969E-2   9.473049044609070E-1  
 5.772000000000000E7    -2.846433967351914E-2   9.494591951370239E-1   2.873904407024384E-1   9.777158498764038E-3   2.872169911861420E-1   9.537527337670326E-3  -2.684460952877998E-2   9.471065402030945E-1  
 5.774000000000000E7    -2.775965631008148E-2   9.496796131134033E-1   2.878968417644501E-1   9.518800303339958E-3   2.875710427761078E-1   9.123537689447403E-3  -2.575807273387909E-2   9.471541047096252E-1  
 5.776000000000000E7    -2.691145986318588E-2   9.497434496879578E-1   2.879723310470581E-1   9.055014699697495E-3   2.880687415599823E-1   9.092042222619057E-3  -2.514442801475525E-2   9.469225406646729E-1  
 5.778000000000000E7    -2.666448801755905E-2   9.496548771858215E-1   2.882780432701111E-1   8.945742622017860E-3   2.881250977516174E-1   8.958436548709869E-3  -2.424476854503155E-2   9.467531442642212E-1  
 5.780000000000000E7    -2.584113180637360E-2   9.494190812110901E-1   2.888066172599793E-1   8.679039776325226E-3   2.885755300521851E-1   8.866636082530022E-3  -2.370233833789825E-2   9.468042254447937E-1  
 5.782000000000000E7    -2.516900002956390E-2   9.496679306030273E-1   2.890839576721191E-1   8.560096845030785E-3   2.891178131103516E-1   8.530320599675179E-3  -2.260260470211506E-2   9.467552900314331E-1  
 5.784000000000000E7    -2.429213561117649E-2   9.493125677108765E-1   2.893419563770294E-1   8.462928235530853E-3   2.892158329486847E-1   8.533701300621033E-3  -2.213605865836144E-2   9.467360973358154E-1  
 5.786000000000000E7    -2.321811579167843E-2   9.494485259056091E-1   2.898975014686585E-1   8.136555552482605E-3   2.896052002906799E-1   8.154395967721939E-3  -2.185519412159920E-2   9.473977088928223E-1  
 5.788000000000000E7    -2.292425930500031E-2   9.491659402847290E-1   2.899032831192017E-1   7.933272048830986E-3   2.899844944477081E-1   7.877759635448456E-3  -2.038340456783772E-2   9.465958476066589E-1  
 5.790000000000000E7    -2.214332669973373E-2   9.489763379096985E-1   2.901595830917358E-1   7.693354040384293E-3   2.901949882507324E-1   7.812740281224251E-3  -1.980217546224594E-2   9.467549324035645E-1  
 5.792000000000000E7    -2.112371288239956E-2   9.491068124771118E-1   2.905730605125427E-1   7.458651438355446E-3   2.904290258884430E-1   7.446404546499252E-3  -1.935853064060211E-2   9.465695023536682E-1  
 5.794000000000000E7    -2.053919620811939E-2   9.489503502845764E-1   2.908217012882233E-1   7.290733978152275E-3   2.909535467624664E-1   7.312498986721039E-3  -1.834258064627647E-2   9.464091658592224E-1  
 5.796000000000000E7    -2.006866410374641E-2   9.489461779594421E-1   2.910679876804352E-1   7.074791938066483E-3   2.908509969711304E-1   7.108215242624283E-3  -1.771793141961098E-2   9.464185237884522E-1  
 5.798000000000000E7    -1.902876794338226E-2   9.488912224769592E-1   2.915319204330444E-1   6.602013483643532E-3   2.913767993450165E-1   6.796810775995255E-3  -1.695058681070805E-2   9.462272524833679E-1  
 5.800000000000000E7    -1.825811713933945E-2   9.486014842987061E-1   2.917508482933044E-1   6.639385595917702E-3   2.917217910289764E-1   6.669595837593079E-3  -1.632476784288883E-2   9.462131261825562E-1  
 5.802000000000000E7    -1.736411824822426E-2   9.490691423416138E-1   2.920085787773132E-1   6.337178871035576E-3   2.921562492847443E-1   6.459940224885941E-3  -1.551298983395100E-2   9.459456205368042E-1  
 5.804000000000000E7    -1.675808057188988E-2   9.487668275833130E-1   2.921337485313416E-1   6.112635135650635E-3   2.924652695655823E-1   6.122343242168427E-3  -1.455532014369965E-2   9.460186362266541E-1  
 5.806000000000000E7    -1.608172245323658E-2   9.483460187911987E-1   2.926757335662842E-1   5.988251417875290E-3   2.927025854587555E-1   5.925349891185761E-3  -1.449999213218689E-2   9.460233449935913E-1  
 5.808000000000000E7    -1.528554502874613E-2   9.485666155815125E-1   2.930093407630920E-1   5.685439333319664E-3   2.932287454605103E-1   5.779881030321121E-3  -1.330148894339800E-2   9.457069039344788E-1  
 5.810000000000000E7    -1.450245920568705E-2   9.484255313873291E-1   2.932800352573395E-1   5.435485392808914E-3   2.932372987270355E-1   5.637902766466141E-3  -1.265163719654083E-2   9.455601572990418E-1  
 5.812000000000000E7    -1.385924592614174E-2   9.478974938392639E-1   2.937473654747009E-1   5.462242290377617E-3   2.935801744461060E-1   5.451589822769165E-3  -1.221508439630270E-2   9.458382725715637E-1  
 5.814000000000000E7    -1.283791661262512E-2   9.481941461563110E-1   2.939591705799103E-1   5.118966102600098E-3   2.939016520977020E-1   5.122162401676178E-3  -1.119192782789469E-2   9.454472064971924E-1  
 5.816000000000000E7    -1.234310865402222E-2   9.481403231620789E-1   2.944433391094208E-1   4.826629534363747E-3   2.942145168781281E-1   4.981493577361107E-3  -1.036834809929133E-2   9.457334280014038E-1  
 5.818000000000000E7    -1.178432814776897E-2   9.481978416442871E-1   2.946763634681702E-1   4.665944725275040E-3   2.943401038646698E-1   4.743032157421112E-3  -9.918266907334328E-3   9.459313750267029E-1  
 5.820000000000000E7    -1.104390155524015E-2   9.481392502784729E-1   2.951085269451141E-1   4.411894828081131E-3   2.950325310230255E-1   4.282183945178986E-3  -8.847490884363651E-3   9.455397725105286E-1  
 5.822000000000000E7    -1.042297389358282E-2   9.478446245193481E-1   2.952658236026764E-1   4.361771047115326E-3   2.951618134975433E-1   4.216006025671959E-3  -8.321944624185562E-3   9.454478025436401E-1  
 5.824000000000000E7    -9.732810780405998E-3   9.478539824485779E-1   2.954542338848114E-1   4.184840247035027E-3   2.952662110328674E-1   3.956245258450508E-3  -7.538612000644207E-3   9.452566504478455E-1  
 5.826000000000000E7    -8.479454554617405E-3   9.480151534080505E-1   2.958843111991882E-1   3.841888159513474E-3   2.959614098072052E-1   3.894515335559845E-3  -7.268100976943970E-3   9.449621438980103E-1  
 5.828000000000000E7    -7.937987335026264E-3   9.475900530815125E-1   2.961699664592743E-1   3.318041563034058E-3   2.962287366390228E-1   3.452204167842865E-3  -5.884487181901932E-3   9.453973770141602E-1  
 5.830000000000000E7    -7.101338356733322E-3   9.477524161338806E-1   2.964608073234558E-1   3.187580034136772E-3   2.962780594825745E-1   3.323201090097427E-3  -5.461533553898335E-3   9.450324773788452E-1  
 5.832000000000000E7    -6.501432508230209E-3   9.477596282958984E-1   2.967729270458221E-1   3.100996837019920E-3   2.966665327548981E-1   3.058703616261482E-3  -4.813253879547119E-3   9.447165131568909E-1  
 5.834000000000000E7    -5.861857905983925E-3   9.474525451660156E-1   2.968576848506928E-1   2.999400720000267E-3   2.969889342784882E-1   2.815445885062218E-3  -4.103960469365120E-3   9.446676373481751E-1  
 5.836000000000000E7    -5.212358199059963E-3   9.473577141761780E-1   2.972214818000794E-1   2.895262092351914E-3   2.973015904426575E-1   2.729751169681549E-3  -2.950535155832768E-3   9.445098638534546E-1  
 5.838000000000000E7    -4.568954929709435E-3   9.472466111183167E-1   2.976649999618530E-1   2.273403108119965E-3   2.976469099521637E-1   2.565294504165649E-3  -2.315457910299301E-3   9.446167945861816E-1  
 5.840000000000000E7    -3.772169351577759E-3   9.473613500595093E-1   2.980655729770660E-1   2.269525080919266E-3   2.978528738021851E-1   2.203872427344322E-3  -1.803755760192871E-3   9.445756077766419E-1  
 5.842000000000000E7    -3.219025209546089E-3   9.470573067665100E-1   2.983818054199219E-1   1.982491463422775E-3   2.980473935604096E-1   2.294171601533890E-3  -6.814515218138695E-4   9.444369077682495E-1  
 5.844000000000000E7    -2.306168898940086E-3   9.469646215438843E-1   2.985790073871613E-1   1.711724326014519E-3   2.985593080520630E-1   1.766957342624664E-3  -5.149012431502342E-4   9.443157911300659E-1  
 5.846000000000000E7    -1.547425985336304E-3   9.469671249389648E-1   2.989316880702972E-1   1.463094726204872E-3   2.987786233425140E-1   1.336593180894852E-3   5.084024742245674E-4   9.443972110748291E-1  
 5.848000000000000E7    -5.706055089831352E-4   9.469845890998840E-1   2.992969751358032E-1   1.221992075443268E-3   2.992819249629974E-1   1.165820285677910E-3   1.212872564792633E-3   9.444965124130249E-1  
 5.850000000000000E7    -2.102367579936981E-5   9.466397762298584E-1   2.995811402797699E-1   1.128027215600014E-3   2.994016110897064E-1   9.616538882255554E-4   2.068295143544674E-3   9.440487027168274E-1  
 5.852000000000000E7     3.829328343272209E-4   9.465842247009277E-1   2.997351884841919E-1   8.601453155279160E-4   2.997352480888367E-1   1.022536307573319E-3   2.889637835323811E-3   9.440726637840271E-1  
 5.854000000000000E7     1.445164903998375E-3   9.465229511260986E-1   3.000691533088684E-1   7.277522236108780E-4   2.999612689018250E-1   9.148847311735153E-4   3.169850446283817E-3   9.437684416770935E-1  
 5.856000000000000E7     1.986420713365078E-3   9.466454386711121E-1   3.007354736328125E-1   4.616696387529373E-4   3.002491593360901E-1   4.828032106161118E-4   3.913493826985359E-3   9.438537955284119E-1  
 5.858000000000000E7     2.646550536155701E-3   9.464610815048218E-1   3.007528185844421E-1   2.167560342059005E-5   3.008753359317780E-1   4.306435585021973E-5   5.306709557771683E-3   9.439322948455811E-1  
 5.860000000000000E7     3.721724264323711E-3   9.465160369873047E-1   3.010329306125641E-1  -3.547780215740204E-4   3.011542856693268E-1  -1.417566090822220E-4   5.654670298099518E-3   9.433814883232117E-1  
 5.862000000000000E7     3.955413587391377E-3   9.464973211288452E-1   3.013802766799927E-1  -2.769920974969864E-4   3.012709319591522E-1  -1.817289739847183E-4   6.513935513794422E-3   9.434653520584106E-1  
 5.864000000000000E7     4.909570328891277E-3   9.462551474571228E-1   3.016705811023712E-1  -4.639066755771637E-4   3.015155792236328E-1  -4.489067941904068E-4   6.944937631487846E-3   9.434793591499329E-1  
 5.866000000000000E7     5.690274760127068E-3   9.460771083831787E-1   3.019903004169464E-1  -6.824601441621780E-4   3.018080294132233E-1  -8.351150900125504E-4   7.609508931636810E-3   9.433431029319763E-1  
 5.868000000000000E7     6.578734144568443E-3   9.462534785270691E-1   3.023329973220825E-1  -1.148581504821777E-3   3.024208247661591E-1  -1.101244240999222E-3   8.884366601705551E-3   9.431712627410889E-1  
 5.870000000000000E7     7.156443782150745E-3   9.458981156349182E-1   3.027237057685852E-1  -1.227829605340958E-3   3.027918040752411E-1  -1.004435122013092E-3   9.505423717200756E-3   9.433764815330505E-1  
 5.872000000000000E7     7.715647108852863E-3   9.458723068237305E-1   3.028075397014618E-1  -1.308411359786987E-3   3.027790784835815E-1  -1.509252935647965E-3   1.004048995673657E-2   9.429675936698914E-1  
 5.874000000000000E7     8.379455655813217E-3   9.455001950263977E-1   3.032360970973969E-1  -1.675317063927651E-3   3.030362129211426E-1  -1.449737697839737E-3   1.056085340678692E-2   9.433033466339111E-1  
 5.876000000000000E7     9.127087891101837E-3   9.456549882888794E-1   3.035596013069153E-1  -2.078140154480934E-3   3.036379218101502E-1  -2.058604732155800E-3   1.141628809273243E-2   9.429372549057007E-1  
 5.878000000000000E7     1.012085843831301E-2   9.456256628036499E-1   3.039029538631439E-1  -2.085223793983460E-3   3.038285970687866E-1  -2.192011103034020E-3   1.237021014094353E-2   9.424560666084290E-1  
 5.880000000000000E7     1.082784123718739E-2   9.452025294303894E-1   3.041667640209198E-1  -2.421095967292786E-3   3.039617836475372E-1  -2.189053222537041E-3   1.259244419634342E-2   9.428992271423340E-1  
 5.882000000000000E7     1.080170273780823E-2   9.454234242439270E-1   3.042489588260651E-1  -2.705080434679985E-3   3.044733107089996E-1  -2.449231222271919E-3   1.378093659877777E-2   9.425544142723084E-1  
 5.884000000000000E7     1.227927114814520E-2   9.454367160797119E-1   3.047848939895630E-1  -2.874732017517090E-3   3.044652044773102E-1  -3.084316849708557E-3   1.451749913394451E-2   9.424942731857300E-1  
 5.886000000000000E7     1.309564337134361E-2   9.451891183853149E-1   3.051879107952118E-1  -3.206595778465271E-3   3.050560057163239E-1  -3.032136708498001E-3   1.474098395556212E-2   9.425137639045715E-1  
 5.888000000000000E7     1.346831489354372E-2   9.448790550231934E-1   3.053440749645233E-1  -3.282563760876656E-3   3.053025007247925E-1  -3.289023414254189E-3   1.580296084284782E-2   9.422696828842163E-1  
 5.890000000000000E7     1.426242105662823E-2   9.448275566101074E-1   3.057543933391571E-1  -3.340397030115128E-3   3.054210543632507E-1  -3.626335412263870E-3   1.662927120923996E-2   9.424408078193665E-1  
 5.892000000000000E7     1.481994241476059E-2   9.448983669281006E-1   3.056084215641022E-1  -3.664314746856690E-3   3.056322336196899E-1  -3.783769905567169E-3   1.736413314938545E-2   9.418325424194336E-1  
 5.894000000000000E7     1.581898704171181E-2   9.447776079177856E-1   3.061855733394623E-1  -4.226222634315491E-3   3.060992062091827E-1  -4.174958914518356E-3   1.788712292909622E-2   9.421738386154175E-1  
 5.896000000000000E7     1.664054207503796E-2   9.444848299026489E-1   3.064794540405273E-1  -4.316223785281181E-3   3.065291941165924E-1  -4.426237195730209E-3   1.838342472910881E-2   9.416804909706116E-1  
 5.898000000000000E7     1.729431375861168E-2   9.447272419929504E-1   3.068032562732697E-1  -4.498494789004326E-3   3.065131902694702E-1  -4.450403153896332E-3   1.931291446089745E-2   9.417460560798645E-1  
 5.900000000000000E7     1.823821291327477E-2   9.445430040359497E-1   3.070463538169861E-1  -4.840562120079994E-3   3.068779110908508E-1  -4.712602123618126E-3   1.984277367591858E-2   9.420343041419983E-1  
 5.902000000000000E7     1.861209236085415E-2   9.440557956695557E-1   3.073355853557587E-1  -5.236668512225151E-3   3.075062036514282E-1  -5.088668316602707E-3   2.104492112994194E-2   9.419011473655701E-1  
 5.904000000000000E7     1.915388181805611E-2   9.441107511520386E-1   3.077734112739563E-1  -5.297187715768814E-3   3.076544404029846E-1  -5.156807601451874E-3   2.153358422219753E-2   9.417043328285217E-1  
 5.906000000000000E7     2.016154862940311E-2   9.442786574363709E-1   3.081379234790802E-1  -5.720242857933044E-3   3.077623844146729E-1  -5.574930459260941E-3   2.241731807589531E-2   9.413359165191650E-1  
 5.908000000000000E7     2.083324082195759E-2   9.440203905105591E-1   3.084017634391785E-1  -5.488140508532524E-3   3.082838952541351E-1  -5.685767158865929E-3   2.277873456478119E-2   9.414795041084290E-1  
 5.910000000000000E7     2.165883779525757E-2   9.440103769302368E-1   3.084914088249207E-1  -5.840409547090530E-3   3.084078133106232E-1  -5.974583327770233E-3   2.365139499306679E-2   9.407069087028503E-1  
 5.912000000000000E7     2.204792946577072E-2   9.435623884201050E-1   3.091506958007813E-1  -6.148738786578178E-3   3.089533150196075E-1  -6.093904376029968E-3   2.439465746283531E-2   9.413241744041443E-1  
 5.914000000000000E7     2.313985489308834E-2   9.437971115112305E-1   3.093319833278656E-1  -6.389578804373741E-3   3.091479241847992E-1  -6.439045071601868E-3   2.505977451801300E-2   9.410077929496765E-1  
 5.916000000000000E7     2.359450794756413E-2   9.433634877204895E-1   3.094953596591950E-1  -6.416896358132362E-3   3.094837665557861E-1  -6.667336449027062E-3   2.568533644080162E-2   9.410668015480042E-1  
 5.918000000000000E7     2.457079291343689E-2   9.433720707893372E-1   3.098505437374115E-1  -7.151123136281967E-3   3.097883462905884E-1  -7.041266188025475E-3   2.652893960475922E-2   9.410623908042908E-1  
 5.920000000000000E7     2.521932125091553E-2   9.429668188095093E-1   3.099518418312073E-1  -7.288867607712746E-3   3.099424540996552E-1  -7.121691480278969E-3   2.717863209545612E-2   9.405294060707092E-1  
 5.922000000000000E7     2.591283805668354E-2   9.430872797966003E-1   3.103890120983124E-1  -7.636297494173050E-3   3.104976713657379E-1  -7.499119266867638E-3   2.787562832236290E-2   9.406692385673523E-1  
 5.924000000000000E7     2.684740722179413E-2   9.430076479911804E-1   3.106164038181305E-1  -7.406428456306458E-3   3.106239736080170E-1  -7.531877607107163E-3   2.827442064881325E-2   9.403812289237976E-1  
 5.926000000000000E7     2.705701068043709E-2   9.430351853370667E-1   3.111291527748108E-1  -7.712839171290398E-3   3.108893334865570E-1  -7.770538330078125E-3   2.929709479212761E-2   9.404888153076172E-1  
 5.928000000000000E7     2.807240001857281E-2   9.425815939903259E-1   3.111134767532349E-1  -8.313845843076706E-3   3.112742006778717E-1  -8.101904764771462E-3   3.030933812260628E-2   9.400957226753235E-1  
 5.930000000000000E7     2.880406379699707E-2   9.428625106811523E-1   3.117277622222900E-1  -8.396444842219353E-3   3.114982247352600E-1  -8.272372186183929E-3   3.098463639616966E-2   9.402810335159302E-1  
 5.932000000000000E7     2.936891093850136E-2   9.424523711204529E-1   3.118535578250885E-1  -8.714377880096436E-3   3.116148710250855E-1  -8.723160251975060E-3   3.147077560424805E-2   9.401104450225830E-1  
 5.934000000000000E7     3.017817065119743E-2   9.422758221626282E-1   3.119937777519226E-1  -9.111510589718819E-3   3.120552301406860E-1  -8.856561034917831E-3   3.244832530617714E-2   9.396998286247253E-1  
 5.936000000000000E7     3.092643618583679E-2   9.421995878219605E-1   3.123784661293030E-1  -9.069729596376419E-3   3.120869696140289E-1  -8.843487128615379E-3   3.256745636463165E-2   9.397342205047607E-1  
 5.938000000000000E7     3.171150013804436E-2   9.421613216400147E-1   3.126083612442017E-1  -9.352877736091614E-3   3.124866485595703E-1  -9.352788329124451E-3   3.352372348308563E-2   9.395487308502197E-1  
 5.940000000000000E7     3.216654434800148E-2   9.420273303985596E-1   3.130450248718262E-1  -9.775973856449127E-3   3.131034076213837E-1  -9.540759027004242E-3   3.436064720153809E-2   9.395107030868530E-1  
 5.942000000000000E7     3.275344520807266E-2   9.417600035667419E-1   3.133634924888611E-1  -9.776731953024864E-3   3.131458759307861E-1  -9.794160723686218E-3   3.515174612402916E-2   9.395022392272949E-1  
 5.944000000000000E7     3.364115208387375E-2   9.422791600227356E-1   3.135446608066559E-1  -1.010924577713013E-2   3.136228024959564E-1  -1.008866168558598E-2   3.581258654594421E-2   9.391888976097107E-1  
 5.946000000000000E7     3.438544273376465E-2   9.417575597763062E-1   3.139295279979706E-1  -1.021388545632362E-2   3.137023150920868E-1  -1.035398803651333E-2   3.657882660627365E-2   9.389504790306091E-1  
 5.948000000000000E7     3.477408364415169E-2   9.417912364006043E-1   3.144245445728302E-1  -1.069540530443192E-2   3.140932023525238E-1  -1.038873568177223E-2   3.734540194272995E-2   9.392874836921692E-1  
 5.950000000000000E7     3.583291172981262E-2   9.415349364280701E-1   3.144187927246094E-1  -1.091213524341583E-2   3.143129050731659E-1  -1.083216071128845E-2   3.778352588415146E-2   9.389792680740356E-1  
 5.952000000000000E7     3.626291826367378E-2   9.417153000831604E-1   3.149564266204834E-1  -1.098540239036083E-2   3.145219683647156E-1  -1.103627681732178E-2   3.860679268836975E-2   9.384942650794983E-1  
 5.954000000000000E7     3.716322779655457E-2   9.413565993309021E-1   3.151385188102722E-1  -1.148066110908985E-2   3.150542080402374E-1  -1.111897081136704E-2   3.921506553888321E-2   9.384877681732178E-1  
 5.956000000000000E7     3.796166181564331E-2   9.410843253135681E-1   3.152562379837036E-1  -1.167921535670757E-2   3.154015541076660E-1  -1.171534694731236E-2   4.005815833806992E-2   9.384563565254211E-1  
 5.958000000000000E7     3.860038146376610E-2   9.411337971687317E-1   3.156831562519074E-1  -1.208691298961639E-2   3.155972957611084E-1  -1.199315488338471E-2   4.103002697229385E-2   9.384063482284546E-1  
 5.960000000000000E7     3.952406719326973E-2   9.410257339477539E-1   3.159386813640595E-1  -1.225613430142403E-2   3.157984614372253E-1  -1.208910159766674E-2   4.159753769636154E-2   9.379354119300842E-1  
 5.962000000000000E7     4.036165773868561E-2   9.407480955123901E-1   3.162363469600678E-1  -1.243329420685768E-2   3.161619901657105E-1  -1.236081309616566E-2   4.221728816628456E-2   9.379756450653076E-1  
 5.964000000000000E7     4.078307375311852E-2   9.406337738037109E-1   3.164999485015869E-1  -1.254115253686905E-2   3.163703978061676E-1  -1.259447261691093E-2   4.296059161424637E-2   9.381050467491150E-1  
 5.966000000000000E7     4.150781035423279E-2   9.406073093414307E-1   3.166922926902771E-1  -1.303917355835438E-2   3.167599439620972E-1  -1.268159784376621E-2   4.360820353031158E-2   9.378873705863953E-1  
 5.968000000000000E7     4.236574843525887E-2   9.401871562004089E-1   3.172170519828796E-1  -1.319535635411739E-2   3.169718682765961E-1  -1.319822855293751E-2   4.446414485573769E-2   9.378401041030884E-1  
 5.970000000000000E7     4.312142357230187E-2   9.400994777679443E-1   3.173731565475464E-1  -1.348713040351868E-2   3.172425031661987E-1  -1.353217661380768E-2   4.500772058963776E-2   9.375708699226379E-1  
 5.972000000000000E7     4.390292614698410E-2   9.400658607482910E-1   3.177772760391235E-1  -1.370531879365444E-2   3.176933526992798E-1  -1.368268951773644E-2   4.564509913325310E-2   9.374762773513794E-1  
 5.974000000000000E7     4.446788132190704E-2   9.398106336593628E-1   3.179073035717011E-1  -1.385461725294590E-2   3.178246319293976E-1  -1.379282586276531E-2   4.606859013438225E-2   9.378766417503357E-1  
 5.976000000000000E7     4.534939676523209E-2   9.399797320365906E-1   3.182047307491303E-1  -1.447458751499653E-2   3.182803690433502E-1  -1.417756080627441E-2   4.723637551069260E-2   9.372810125350952E-1  
 5.978000000000000E7     4.604131355881691E-2   9.399454593658447E-1   3.184457421302795E-1  -1.447894051671028E-2   3.183459937572479E-1  -1.440457627177239E-2   4.779428243637085E-2   9.369205832481384E-1  
 5.980000000000000E7     4.636570811271668E-2   9.395323991775513E-1   3.191245198249817E-1  -1.456564106047154E-2   3.187875747680664E-1  -1.465577818453312E-2   4.872492328286171E-2   9.372826814651489E-1  
 5.982000000000000E7     4.716163128614426E-2   9.395441412925720E-1   3.189996480941773E-1  -1.491832360625267E-2   3.190101087093353E-1  -1.488251052796841E-2   4.928098618984222E-2   9.367769956588745E-1  
 5.984000000000000E7     4.783434793353081E-2   9.395814538002014E-1   3.194773495197296E-1  -1.531462930142880E-2   3.193304240703583E-1  -1.512868516147137E-2   5.024437606334686E-2   9.366036057472229E-1  
 5.986000000000000E7     4.802212864160538E-2   9.394357204437256E-1   3.197140991687775E-1  -1.532320119440556E-2   3.195787072181702E-1  -1.526831462979317E-2   5.090221017599106E-2   9.365586638450623E-1  
 5.988000000000000E7     4.909999296069145E-2   9.394432306289673E-1   3.200385570526123E-1  -1.561207324266434E-2   3.200967609882355E-1  -1.556424610316753E-2   5.173543840646744E-2   9.366509318351746E-1  
 5.990000000000000E7     4.998829215764999E-2   9.391503334045410E-1   3.201984465122223E-1  -1.601153612136841E-2   3.202098906040192E-1  -1.611746288836002E-2   5.288305506110191E-2   9.360970854759216E-1  
 5.992000000000000E7     5.071486905217171E-2   9.387297034263611E-1   3.204555511474609E-1  -1.643339544534683E-2   3.204611241817474E-1  -1.637445203959942E-2   5.341218784451485E-2   9.361680746078491E-1  
 5.994000000000000E7     5.164349824190140E-2   9.387785792350769E-1   3.208474516868591E-1  -1.648581773042679E-2   3.208516836166382E-1  -1.655185781419277E-2   5.360666289925575E-2   9.361072778701782E-1  
 5.996000000000000E7     5.207434296607971E-2   9.384119510650635E-1   3.210799694061279E-1  -1.688041351735592E-2   3.208600878715515E-1  -1.670407503843308E-2   5.444379150867462E-2   9.359947443008423E-1  
 5.998000000000000E7     5.273745954036713E-2   9.387951493263245E-1   3.214485347270966E-1  -1.685938611626625E-2   3.213148415088654E-1  -1.670227386057377E-2   5.463911592960358E-2   9.356605410575867E-1  
 6.000000000000000E7     5.400413647294045E-2   9.383564591407776E-1   3.218607604503632E-1  -1.733870618045330E-2   3.215078115463257E-1  -1.749381236732006E-2   5.597985908389092E-2   9.355959892272949E-1  
 6.002000000000000E7     5.429818108677864E-2   9.382861852645874E-1   3.219108283519745E-1  -1.761421374976635E-2   3.216924071311951E-1  -1.770787127315998E-2   5.652137100696564E-2   9.355462789535523E-1  
 6.004000000000000E7     5.502277985215187E-2   9.379640817642212E-1   3.222422003746033E-1  -1.758380979299545E-2   3.220972418785095E-1  -1.752649806439877E-2   5.746443569660187E-2   9.355882406234741E-1  
 6.006000000000000E7     5.566484481096268E-2   9.379572868347168E-1   3.225508630275726E-1  -1.815447583794594E-2   3.223594725131989E-1  -1.812707260251045E-2   5.811399966478348E-2   9.353281855583191E-1  
 6.008000000000000E7     5.681443959474564E-2   9.377687573432922E-1   3.229220509529114E-1  -1.847046986222267E-2   3.226230740547180E-1  -1.846252568066120E-2   5.885216221213341E-2   9.351263642311096E-1  
 6.010000000000000E7     5.704245343804359E-2   9.380451440811157E-1   3.231661617755890E-1  -1.879345625638962E-2   3.232523202896118E-1  -1.852153427898884E-2   5.972485244274139E-2   9.348443150520325E-1  
 6.012000000000000E7     5.778807774186134E-2   9.374554753303528E-1   3.233553171157837E-1  -1.884728297591209E-2   3.231519758701325E-1  -1.874510571360588E-2   6.016218289732933E-2   9.347323179244995E-1  
 6.014000000000000E7     5.871014297008514E-2   9.373914599418640E-1   3.236397206783295E-1  -1.926438882946968E-2   3.233115375041962E-1  -1.927940547466278E-2   6.087878346443176E-2   9.347850084304810E-1  
 6.016000000000000E7     5.936292186379433E-2   9.371692538261414E-1   3.239424526691437E-1  -1.940031535923481E-2   3.237023353576660E-1  -1.941148191690445E-2   6.131907179951668E-2   9.346579313278198E-1  
 6.018000000000000E7     6.005040556192398E-2   9.372364282608032E-1   3.241441845893860E-1  -1.984802819788456E-2   3.239854872226715E-1  -1.959584653377533E-2   6.231339648365974E-2   9.344624876976013E-1  
 6.020000000000000E7     6.078339740633965E-2   9.368818402290344E-1   3.242941200733185E-1  -2.008685283362865E-2   3.242664039134979E-1  -1.995381340384483E-2   6.317307054996491E-2   9.342181086540222E-1  
 6.022000000000000E7     6.152541935443878E-2   9.368047118186951E-1   3.248358070850372E-1  -2.043492347002029E-2   3.247116804122925E-1  -2.004317380487919E-2   6.362140178680420E-2   9.341026544570923E-1  
 6.024000000000000E7     6.203236803412437E-2   9.368998408317566E-1   3.250993788242340E-1  -2.062078379094601E-2   3.248074650764465E-1  -2.054018154740334E-2   6.455811858177185E-2   9.341105222702026E-1  
 6.026000000000000E7     6.294503808021545E-2   9.365826249122620E-1   3.253259062767029E-1  -2.051387913525105E-2   3.254326581954956E-1  -2.060456573963165E-2   6.492601335048676E-2   9.340640306472778E-1  
 6.028000000000000E7     6.358117610216141E-2   9.365004301071167E-1   3.255036473274231E-1  -2.082154527306557E-2   3.255136609077454E-1  -2.084003202617168E-2   6.575755029916763E-2   9.337036013603210E-1  
 6.030000000000000E7     6.437932699918747E-2   9.363295435905457E-1   3.259754776954651E-1  -2.107220888137817E-2   3.257877230644226E-1  -2.119633182883263E-2   6.641784310340881E-2   9.336164593696594E-1  
 6.032000000000000E7     6.496230512857437E-2   9.357914924621582E-1   3.261494338512421E-1  -2.128043398261070E-2   3.261256814002991E-1  -2.143563702702522E-2   6.721195578575134E-2   9.335842132568359E-1  
 6.034000000000000E7     6.556117534637451E-2   9.361699223518372E-1   3.263590931892395E-1  -2.181613631546497E-2   3.264502286911011E-1  -2.177987433969975E-2   6.803607940673828E-2   9.332589507102966E-1  
 6.036000000000000E7     6.623650342226028E-2   9.355859160423279E-1   3.267316222190857E-1  -2.191773615777493E-2   3.265094161033630E-1  -2.197455987334251E-2   6.838470697402954E-2   9.334337711334229E-1  
 6.038000000000000E7     6.715476512908936E-2   9.358115792274475E-1   3.271391391754150E-1  -2.229491621255875E-2   3.267504870891571E-1  -2.221891097724438E-2   6.903515756130219E-2   9.331439733505249E-1  
 6.040000000000000E7     6.774782389402390E-2   9.352771639823914E-1   3.272718489170075E-1  -2.266789600253105E-2   3.270117044448853E-1  -2.256291918456554E-2   6.987698376178742E-2   9.328140020370483E-1  
 6.042000000000000E7     6.864076107740402E-2   9.355339407920837E-1   3.276502192020416E-1  -2.281369641423225E-2   3.274526298046112E-1  -2.294521406292915E-2   7.075306773185730E-2   9.326461553573608E-1  
 6.044000000000000E7     6.905984878540039E-2   9.350121021270752E-1   3.277619779109955E-1  -2.317902632057667E-2   3.278112709522247E-1  -2.310800366103649E-2   7.151897251605988E-2   9.325603246688843E-1  
 6.046000000000000E7     6.986161321401596E-2   9.350218176841736E-1   3.281894326210022E-1  -2.330353856086731E-2   3.280973732471466E-1  -2.340401895344257E-2   7.202748954296112E-2   9.328756332397461E-1  
 6.048000000000000E7     7.031830400228500E-2   9.349541664123535E-1   3.284891843795776E-1  -2.372474968433380E-2   3.283077776432037E-1  -2.352822758257389E-2   7.291283458471298E-2   9.323019385337830E-1  
 6.050000000000000E7     7.105773687362671E-2   9.347828030586243E-1   3.286441862583160E-1  -2.397869527339935E-2   3.287609219551086E-1  -2.399420738220215E-2   7.384109497070313E-2   9.323687553405762E-1  
 6.052000000000000E7     7.210456579923630E-2   9.349139928817749E-1   3.290446996688843E-1  -2.415237016975880E-2   3.288728594779968E-1  -2.425595000386238E-2   7.426735013723373E-2   9.320812225341797E-1  
 6.054000000000000E7     7.239743322134018E-2   9.345972537994385E-1   3.292733430862427E-1  -2.447488158941269E-2   3.291193246841431E-1  -2.443179860711098E-2   7.483287155628204E-2   9.317259192466736E-1  
 6.056000000000000E7     7.344891130924225E-2   9.341217279434204E-1   3.292060792446137E-1  -2.497069537639618E-2   3.290304541587830E-1  -2.497680485248566E-2   7.580025494098663E-2   9.314623475074768E-1  
 6.058000000000000E7     7.402041554450989E-2   9.342381358146668E-1   3.296729028224945E-1  -2.492110989987850E-2   3.294951915740967E-1  -2.491271495819092E-2   7.643618434667587E-2   9.315672516822815E-1  
 6.060000000000000E7     7.460381090641022E-2   9.340248703956604E-1   3.298510611057282E-1  -2.524813637137413E-2   3.297793865203857E-1  -2.518276683986187E-2   7.692193984985352E-2   9.312981367111206E-1  
 6.062000000000000E7     7.523410767316818E-2   9.335823655128479E-1   3.304461240768433E-1  -2.550230734050274E-2   3.298096954822540E-1  -2.531275711953640E-2   7.755176723003388E-2   9.313310384750366E-1  
 6.064000000000000E7     7.573980093002319E-2   9.337642192840576E-1   3.308410346508026E-1  -2.574056759476662E-2   3.305152952671051E-1  -2.578968740999699E-2   7.850590348243713E-2   9.312214255332947E-1  
 6.066000000000000E7     7.674540579319000E-2   9.335675835609436E-1   3.308639526367188E-1  -2.593751065433025E-2   3.306834697723389E-1  -2.586596831679344E-2   7.881724089384079E-2   9.311495423316956E-1  
 6.068000000000000E7     7.760280370712280E-2   9.335212111473084E-1   3.310222625732422E-1  -2.639389969408512E-2   3.311148285865784E-1  -2.633760124444962E-2   7.961493730545044E-2   9.308291077613831E-1  
 6.070000000000000E7     7.839491963386536E-2   9.333577156066895E-1   3.313072323799133E-1  -2.663810737431049E-2   3.311913013458252E-1  -2.661975473165512E-2   8.044312894344330E-2   9.303159117698669E-1  
 6.072000000000000E7     7.883800566196442E-2   9.333089590072632E-1   3.318146169185638E-1  -2.691849321126938E-2   3.317247927188873E-1  -2.697129547595978E-2   8.109707385301590E-2   9.304589033126831E-1  
 6.074000000000000E7     7.971066981554031E-2   9.331981539726257E-1   3.318289220333099E-1  -2.727700024843216E-2   3.318381607532501E-1  -2.701702900230885E-2   8.201310783624649E-2   9.300847649574280E-1  
 6.076000000000000E7     8.024404942989349E-2   9.329261779785156E-1   3.321823775768280E-1  -2.753996104001999E-2   3.318811357021332E-1  -2.769187092781067E-2   8.252812922000885E-2   9.296489357948303E-1  
 6.078000000000000E7     8.085773885250092E-2   9.326143264770508E-1   3.325601220130920E-1  -2.796130627393723E-2   3.321790695190430E-1  -2.780789323151112E-2   8.334842324256897E-2   9.297134876251221E-1  
 6.080000000000000E7     8.215138316154480E-2   9.323253631591797E-1   3.327105939388275E-1  -2.801049873232842E-2   3.323870301246643E-1  -2.828858979046345E-2   8.399541676044464E-2   9.295055866241455E-1  
 6.082000000000000E7     8.260382711887360E-2   9.326148033142090E-1   3.330898582935333E-1  -2.815855294466019E-2   3.330290913581848E-1  -2.835397236049175E-2   8.440753072500229E-2   9.295001029968262E-1  
 6.084000000000000E7     8.294641226530075E-2   9.323420524597168E-1   3.332119286060333E-1  -2.865956723690033E-2   3.332630991935730E-1  -2.860807813704014E-2   8.556321263313294E-2   9.294392466545105E-1  
 6.086000000000000E7     8.390077203512192E-2   9.322397112846375E-1   3.333506584167481E-1  -2.893211133778095E-2   3.335033953189850E-1  -2.889426052570343E-2   8.605684340000153E-2   9.291781187057495E-1  
 6.088000000000000E7     8.433461934328079E-2   9.319829940795898E-1   3.339271247386932E-1  -2.927941270172596E-2   3.336799442768097E-1  -2.915146388113499E-2   8.698962628841400E-2   9.287829995155335E-1  
 6.090000000000000E7     8.517076075077057E-2   9.316737055778503E-1   3.342869877815247E-1  -2.960011549293995E-2   3.340372443199158E-1  -2.972960844635963E-2   8.760085701942444E-2   9.291734695434570E-1  
 6.092000000000000E7     8.591209352016449E-2   9.315827488899231E-1   3.342487215995789E-1  -2.986646816134453E-2   3.342792093753815E-1  -2.971041947603226E-2   8.839017152786255E-2   9.285082221031189E-1  
 6.094000000000000E7     8.674075454473496E-2   9.312588572502136E-1   3.345361948013306E-1  -3.010177239775658E-2   3.346491754055023E-1  -2.993633039295673E-2   8.897424489259720E-2   9.286501407623291E-1  
 6.096000000000000E7     8.764956891536713E-2   9.310264587402344E-1   3.347649276256561E-1  -3.052123636007309E-2   3.347785472869873E-1  -3.035148233175278E-2   8.986851572990418E-2   9.282345175743103E-1  
 6.098000000000000E7     8.804634213447571E-2   9.308597445487976E-1   3.351815938949585E-1  -3.074590303003788E-2   3.349835276603699E-1  -3.061963059008122E-2   9.030378609895706E-2   9.285366535186768E-1  
 6.100000000000000E7     8.891418576240540E-2   9.303931593894959E-1   3.353759348392487E-1  -3.090053051710129E-2   3.351201415061951E-1  -3.082403726875782E-2   9.110874682664871E-2   9.280404448509216E-1  
 6.102000000000000E7     8.943706750869751E-2   9.307807683944702E-1   3.355625271797180E-1  -3.109573572874069E-2   3.355210125446320E-1  -3.126795962452889E-2   9.179434925317764E-2   9.278319478034973E-1  
 6.104000000000000E7     9.021702408790588E-2   9.304798841476440E-1   3.358557820320129E-1  -3.160981833934784E-2   3.359164297580719E-1  -3.134554997086525E-2   9.217726439237595E-2   9.276489615440369E-1  
 6.106000000000000E7     9.065734595060349E-2   9.305298328399658E-1   3.361650109291077E-1  -3.157984465360642E-2   3.360088765621185E-1  -3.173922747373581E-2   9.303905814886093E-2   9.274920821189880E-1  
 6.108000000000000E7     9.142931550741196E-2   9.301230311393738E-1   3.363633155822754E-1  -3.207765147089958E-2   3.363188505172730E-1  -3.187436982989311E-2   9.382633864879608E-2   9.271672368049622E-1  
 6.110000000000000E7     9.219273924827576E-2   9.298368692398071E-1   3.365662097930908E-1  -3.216635435819626E-2   3.365532159805298E-1  -3.213354945182800E-2   9.422351419925690E-2   9.271609783172607E-1  
 6.112000000000000E7     9.290044754743576E-2   9.298797845840454E-1   3.373755216598511E-1  -3.235032409429550E-2   3.370333909988403E-1  -3.253592550754547E-2   9.540487825870514E-2   9.272243976593018E-1  
 6.114000000000000E7     9.370046854019165E-2   9.295847415924072E-1   3.369365930557251E-1  -3.287686407566071E-2   3.371366560459137E-1  -3.295574337244034E-2   9.593747556209564E-2   9.267253875732422E-1  
 6.116000000000000E7     9.472345560789108E-2   9.294095039367676E-1   3.374292254447937E-1  -3.333847969770432E-2   3.372519612312317E-1  -3.326473385095596E-2   9.658379852771759E-2   9.268304705619812E-1  
 6.118000000000000E7     9.505030512809753E-2   9.293987751007080E-1   3.376959562301636E-1  -3.324133157730103E-2   3.375262320041657E-1  -3.351279348134995E-2   9.699226170778275E-2   9.262026548385620E-1  
 6.120000000000000E7     9.555976092815399E-2   9.291828870773315E-1   3.380990326404572E-1  -3.377403691411018E-2   3.380951285362244E-1  -3.382639214396477E-2   9.820492565631867E-2   9.264100193977356E-1  
 6.122000000000000E7     9.628245979547501E-2   9.291347265243530E-1   3.381426036357880E-1  -3.402139991521835E-2   3.380074799060822E-1  -3.373676538467407E-2   9.856791794300079E-2   9.262546300888062E-1  
 6.124000000000000E7     9.715715050697327E-2   9.288067221641541E-1   3.384631872177124E-1  -3.422354906797409E-2   3.383706212043762E-1  -3.415153920650482E-2   9.972237795591354E-2   9.260573387145996E-1  
 6.126000000000000E7     9.782629460096359E-2   9.288647174835205E-1   3.386512696743012E-1  -3.462415561079979E-2   3.387665450572968E-1  -3.447359055280685E-2   9.979645907878876E-2   9.256700873374939E-1  
 6.128000000000000E7     9.879399091005325E-2   9.282899498939514E-1   3.392277657985687E-1  -3.493872284889221E-2   3.389396369457245E-1  -3.485325723886490E-2   1.005315706133843E-1   9.257181286811829E-1  
 6.130000000000000E7     9.904591739177704E-2   9.283418655395508E-1   3.391892313957214E-1  -3.505295515060425E-2   3.391163349151611E-1  -3.500416874885559E-2   1.015747040510178E-1   9.254018664360046E-1  
 6.132000000000000E7     9.995770454406738E-2   9.281885623931885E-1   3.396022617816925E-1  -3.542324528098106E-2   3.394147753715515E-1  -3.566986322402954E-2   1.020425558090210E-1   9.253114461898804E-1  
 6.134000000000000E7     1.007032915949822E-1   9.278203248977661E-1   3.397868275642395E-1  -3.582410514354706E-2   3.399998545646668E-1  -3.562305867671967E-2   1.026543155312538E-1   9.252882599830627E-1  
 6.136000000000000E7     1.012584343552589E-1   9.280640482902527E-1   3.400107622146606E-1  -3.586193174123764E-2   3.398787081241608E-1  -3.583496063947678E-2   1.035058051347733E-1   9.246748089790344E-1  
 6.138000000000000E7     1.019947901368141E-1   9.275801181793213E-1   3.403913080692291E-1  -3.639623895287514E-2   3.403622806072235E-1  -3.623867407441139E-2   1.044511497020721E-1   9.247326850891113E-1  
 6.140000000000000E7     1.028782576322556E-1   9.276157021522522E-1   3.403395116329193E-1  -3.658399730920792E-2   3.405314683914185E-1  -3.651916235685349E-2   1.047643870115280E-1   9.244729876518250E-1  
 6.142000000000000E7     1.034773662686348E-1   9.270804524421692E-1   3.408992886543274E-1  -3.708297386765480E-2   3.404909968376160E-1  -3.692125529050827E-2   1.052536293864250E-1   9.243211746215820E-1  
 6.144000000000000E7     1.041646525263786E-1   9.272897839546204E-1   3.410387337207794E-1  -3.726821392774582E-2   3.410029411315918E-1  -3.717739880084992E-2   1.062863469123840E-1   9.243043661117554E-1  
 6.146000000000000E7     1.047526746988297E-1   9.268206357955933E-1   3.412546217441559E-1  -3.750698268413544E-2   3.412895202636719E-1  -3.750255331397057E-2   1.069717928767204E-1   9.238921999931335E-1  
 6.148000000000000E7     1.055498793721199E-1   9.268224239349365E-1   3.416290581226349E-1  -3.786827251315117E-2   3.415465056896210E-1  -3.774829953908920E-2   1.073445826768875E-1   9.238414764404297E-1  
 6.150000000000000E7     1.059873104095459E-1   9.265213012695313E-1   3.419450223445892E-1  -3.774596005678177E-2   3.418695032596588E-1  -3.790543228387833E-2   1.079201400279999E-1   9.237458109855652E-1  
 6.152000000000000E7     1.066952645778656E-1   9.263876676559448E-1   3.420258164405823E-1  -3.824665397405624E-2   3.417837917804718E-1  -3.829216957092285E-2   1.088094264268875E-1   9.231958985328674E-1  
 6.154000000000000E7     1.073203757405281E-1   9.262735843658447E-1   3.424395918846130E-1  -3.862139955163002E-2   3.424308300018311E-1  -3.855966031551361E-2   1.097258478403091E-1   9.235637187957764E-1  
 6.156000000000000E7     1.080076545476914E-1   9.262780547142029E-1   3.425286114215851E-1  -3.899652510881424E-2   3.426377177238464E-1  -3.880099207162857E-2   1.105266958475113E-1   9.232491850852966E-1  
 6.158000000000000E7     1.088921949267387E-1   9.256758689880371E-1   3.429800271987915E-1  -3.925167396664619E-2   3.430266976356506E-1  -3.928775340318680E-2   1.111172512173653E-1   9.228913784027100E-1  
 6.160000000000000E7     1.093804761767387E-1   9.255930781364441E-1   3.432347774505615E-1  -3.942335024476051E-2   3.429485559463501E-1  -3.956414386630058E-2   1.115171760320664E-1   9.229611754417419E-1  
 6.162000000000000E7     1.101589649915695E-1   9.255161285400391E-1   3.432842195034027E-1  -3.978106752038002E-2   3.434551656246185E-1  -3.947918117046356E-2   1.124320253729820E-1   9.227001667022705E-1  
 6.164000000000000E7     1.108381524682045E-1   9.253607988357544E-1   3.434917032718658E-1  -4.016001522541046E-2   3.436813950538635E-1  -4.012737050652504E-2   1.129796281456947E-1   9.225330948829651E-1  
 6.166000000000000E7     1.113507300615311E-1   9.251545667648315E-1   3.439441025257111E-1  -4.006056115031242E-2   3.436797857284546E-1  -3.990599885582924E-2   1.136353388428688E-1   9.222369790077210E-1  
 6.168000000000000E7     1.123225092887878E-1   9.247907996177673E-1   3.441168069839478E-1  -4.048790410161018E-2   3.441341221332550E-1  -4.061441868543625E-2   1.142120584845543E-1   9.218118190765381E-1  
 6.170000000000000E7     1.129850819706917E-1   9.246191382408142E-1   3.444420993328095E-1  -4.089181497693062E-2   3.441856503486633E-1  -4.084289073944092E-2   1.149808764457703E-1   9.216877222061157E-1  
 6.172000000000000E7     1.137783154845238E-1   9.247943758964539E-1   3.448992669582367E-1  -4.134574532508850E-2   3.447436690330505E-1  -4.112813621759415E-2   1.160034984350205E-1   9.216731190681458E-1  
 6.174000000000000E7     1.141586154699326E-1   9.243218302726746E-1   3.450199365615845E-1  -4.142265021800995E-2   3.448207080364227E-1  -4.137136787176132E-2   1.164077147841454E-1   9.213022589683533E-1  
 6.176000000000000E7     1.148039326071739E-1   9.241692423820496E-1   3.450821042060852E-1  -4.173211008310318E-2   3.449653387069702E-1  -4.169199988245964E-2   1.172188818454742E-1   9.212642908096314E-1  
 6.178000000000000E7     1.155340224504471E-1   9.236990213394165E-1   3.455871343612671E-1  -4.208102449774742E-2   3.454812467098236E-1  -4.219226539134979E-2   1.181064918637276E-1   9.211577177047730E-1  
 6.180000000000000E7     1.160142123699188E-1   9.241323471069336E-1   3.456939756870270E-1  -4.246697574853897E-2   3.456088900566101E-1  -4.234652593731880E-2   1.187512427568436E-1   9.207614064216614E-1  
 6.182000000000000E7     1.170049235224724E-1   9.237571954727173E-1   3.460700511932373E-1  -4.251327365636826E-2   3.458697199821472E-1  -4.267945885658264E-2   1.193295568227768E-1   9.207713603973389E-1  
 6.184000000000000E7     1.176891922950745E-1   9.236261844635010E-1   3.460643589496613E-1  -4.306115955114365E-2   3.459775745868683E-1  -4.280149936676025E-2   1.199078708887100E-1   9.204530119895935E-1  
 6.186000000000000E7     1.186968833208084E-1   9.232933521270752E-1   3.464749157428742E-1  -4.292161017656326E-2   3.461261093616486E-1  -4.332007095217705E-2   1.205432265996933E-1   9.204221367835999E-1  
 6.188000000000000E7     1.192648857831955E-1   9.232681393623352E-1   3.467041552066803E-1  -4.362947493791580E-2   3.467030823230743E-1  -4.365125298500061E-2   1.215616464614868E-1   9.201657772064209E-1  
 6.190000000000000E7     1.196069940924645E-1   9.224438667297363E-1   3.469617664813995E-1  -4.395680502057076E-2   3.469249606132507E-1  -4.389530047774315E-2   1.220566332340241E-1   9.202748537063599E-1  
 6.192000000000000E7     1.203313544392586E-1   9.225397706031799E-1   3.472002148628235E-1  -4.410512000322342E-2   3.471409678459168E-1  -4.400034248828888E-2   1.226991787552834E-1   9.200040102005005E-1  
 6.194000000000000E7     1.210781037807465E-1   9.223816990852356E-1   3.475685715675354E-1  -4.454418271780014E-2   3.472391068935394E-1  -4.456044360995293E-2   1.233832389116287E-1   9.196028709411621E-1  
 6.196000000000000E7     1.221534460783005E-1   9.222576618194580E-1   3.477028012275696E-1  -4.496712237596512E-2   3.475647866725922E-1  -4.508203268051148E-2   1.241775080561638E-1   9.194182753562927E-1  
 6.198000000000000E7     1.225692853331566E-1   9.221556186676025E-1   3.481756746768951E-1  -4.540488123893738E-2   3.478878438472748E-1  -4.527506232261658E-2   1.247413158416748E-1   9.194352030754089E-1  
 6.200000000000000E7     1.232847422361374E-1   9.218704700469971E-1   3.480168879032135E-1  -4.560666531324387E-2   3.481382429599762E-1  -4.541671276092529E-2   1.254490017890930E-1   9.189029932022095E-1  
 6.202000000000000E7     1.240815371274948E-1   9.216069579124451E-1   3.485637307167053E-1  -4.600607603788376E-2   3.481471538543701E-1  -4.546062648296356E-2   1.262691766023636E-1   9.188865423202515E-1  
 6.204000000000000E7     1.243099644780159E-1   9.215486645698547E-1   3.489025235176086E-1  -4.578317701816559E-2   3.484531641006470E-1  -4.574160650372505E-2   1.269244402647018E-1   9.186852574348450E-1  
 6.206000000000000E7     1.256428211927414E-1   9.212731719017029E-1   3.491803407669067E-1  -4.653662815690041E-2   3.488193750381470E-1  -4.647052660584450E-2   1.275205165147781E-1   9.186449646949768E-1  
 6.208000000000000E7     1.259466260671616E-1   9.209364652633667E-1   3.492991924285889E-1  -4.674478247761726E-2   3.492488861083984E-1  -4.659026116132736E-2   1.281587481498718E-1   9.186682701110840E-1  
 6.210000000000000E7     1.263014376163483E-1   9.207596778869629E-1   3.495090305805206E-1  -4.700519144535065E-2   3.494055867195129E-1  -4.661349579691887E-2   1.290360540151596E-1   9.184036850929260E-1  
 6.212000000000000E7     1.273833066225052E-1   9.207338094711304E-1   3.495696485042572E-1  -4.735369235277176E-2   3.492349386215210E-1  -4.720177128911018E-2   1.295277774333954E-1   9.178605675697327E-1  
 6.214000000000000E7     1.280412971973419E-1   9.204191565513611E-1   3.498530089855194E-1  -4.749590903520584E-2   3.498092889785767E-1  -4.741108044981957E-2   1.302434951066971E-1   9.176969528198242E-1  
 6.216000000000000E7     1.284306943416596E-1   9.205896854400635E-1   3.499765992164612E-1  -4.786339402198792E-2   3.499348461627960E-1  -4.765003919601440E-2   1.308021843433380E-1   9.176921844482422E-1  
 6.218000000000000E7     1.290716826915741E-1   9.201106429100037E-1   3.504309654235840E-1  -4.811367020010948E-2   3.504007160663605E-1  -4.811527580022812E-2   1.315867751836777E-1   9.173796176910400E-1  
 6.220000000000000E7     1.298346668481827E-1   9.198117256164551E-1   3.507519364356995E-1  -4.834319651126862E-2   3.506717085838318E-1  -4.825834557414055E-2   1.320787221193314E-1   9.175221920013428E-1  
 6.222000000000000E7     1.304276287555695E-1   9.196546077728272E-1   3.508124947547913E-1  -4.896926134824753E-2   3.506199717521668E-1  -4.872868210077286E-2   1.331166028976440E-1   9.170491099357605E-1  
 6.224000000000000E7     1.312736272811890E-1   9.192171692848206E-1   3.510848879814148E-1  -4.927213490009308E-2   3.507788181304932E-1  -4.883924499154091E-2   1.339728832244873E-1   9.171826839447022E-1  
 6.226000000000000E7     1.321021467447281E-1   9.193258881568909E-1   3.513049185276032E-1  -4.954346641898155E-2   3.513914942741394E-1  -4.958025366067886E-2   1.347572803497315E-1   9.164933562278748E-1  
 6.228000000000000E7     1.325226277112961E-1   9.192765355110169E-1   3.516185283660889E-1  -4.955489188432694E-2   3.515827059745789E-1  -4.948140308260918E-2   1.351355910301209E-1   9.163327217102051E-1  
 6.230000000000000E7     1.331548988819122E-1   9.187021851539612E-1   3.517625629901886E-1  -5.004775524139404E-2   3.516234755516052E-1  -4.992499202489853E-2   1.361089646816254E-1   9.162093997001648E-1  
 6.232000000000000E7     1.340362280607224E-1   9.185397028923035E-1   3.521422743797302E-1  -5.037143081426621E-2   3.521839678287506E-1  -5.017100274562836E-2   1.364778280258179E-1   9.161787629127502E-1  
 6.234000000000000E7     1.346822828054428E-1   9.186872839927673E-1   3.524825274944305E-1  -5.058053135871887E-2   3.520857989788055E-1  -5.059824138879776E-2   1.368788778781891E-1   9.156571030616760E-1  
 6.236000000000000E7     1.352957338094711E-1   9.181719422340393E-1   3.525379300117493E-1  -5.081036686897278E-2   3.524155318737030E-1  -5.086017400026321E-2   1.377806514501572E-1   9.154946804046631E-1  
 6.238000000000000E7     1.362258642911911E-1   9.181046485900879E-1   3.529262542724609E-1  -5.120506137609482E-2   3.527698516845703E-1  -5.124547332525253E-2   1.383764445781708E-1   9.154878854751587E-1  
 6.240000000000000E7     1.367026269435883E-1   9.180427789688110E-1   3.528306186199188E-1  -5.128549039363861E-2   3.530832529067993E-1  -5.137243121862412E-2   1.387875974178314E-1   9.150217175483704E-1  
 6.242000000000000E7     1.373641341924667E-1   9.173743128776550E-1   3.531698286533356E-1  -5.161863565444946E-2   3.529087305068970E-1  -5.190533399581909E-2   1.392903774976730E-1   9.150173068046570E-1  
 6.244000000000000E7     1.379821747541428E-1   9.174256324768066E-1   3.535710573196411E-1  -5.203018337488174E-2   3.533035516738892E-1  -5.211646109819412E-2   1.403956860303879E-1   9.144763350486755E-1  
 6.246000000000000E7     1.387297362089157E-1   9.174693822860718E-1   3.538991212844849E-1  -5.244840681552887E-2   3.537833988666534E-1  -5.246311798691750E-2   1.411682516336441E-1   9.145147204399109E-1  
 6.248000000000000E7     1.393694877624512E-1   9.171987175941467E-1   3.540347218513489E-1  -5.290304496884346E-2   3.539031445980072E-1  -5.241642147302628E-2   1.417095214128494E-1   9.139688014984131E-1  
 6.250000000000000E7     1.401827633380890E-1   9.167485833168030E-1   3.542511165142059E-1  -5.294593423604965E-2   3.539732992649078E-1  -5.304789543151856E-2   1.421259492635727E-1   9.139205217361450E-1  
 6.252000000000000E7     1.408080011606216E-1   9.165797829627991E-1   3.543833494186401E-1  -5.348091572523117E-2   3.541819453239441E-1  -5.333621427416802E-2   1.429568380117416E-1   9.136937260627747E-1  
 6.254000000000000E7     1.411735266447067E-1   9.164518713951111E-1   3.547647595405579E-1  -5.347791314125061E-2   3.544729351997376E-1  -5.357776582241058E-2   1.435394436120987E-1   9.136009216308594E-1  
 6.256000000000000E7     1.423889249563217E-1   9.163053631782532E-1   3.548937141895294E-1  -5.418489128351212E-2   3.548851311206818E-1  -5.398023873567581E-2   1.443132311105728E-1   9.134774208068848E-1  
 6.258000000000000E7     1.430576741695404E-1   9.161903262138367E-1   3.553721904754639E-1  -5.450997501611710E-2   3.551556169986725E-1  -5.431514233350754E-2   1.449759304523468E-1   9.133619070053101E-1  
 6.260000000000000E7     1.430727988481522E-1   9.159238934516907E-1   3.555895090103149E-1  -5.458284541964531E-2   3.551953434944153E-1  -5.450179427862167E-2   1.459253877401352E-1   9.133583903312683E-1  
 6.262000000000000E7     1.441234350204468E-1   9.157274961471558E-1   3.555630743503571E-1  -5.482111871242523E-2   3.556393682956696E-1  -5.475106090307236E-2   1.464343667030335E-1   9.126396775245667E-1  
 6.264000000000000E7     1.446390151977539E-1   9.154695868492127E-1   3.558045923709869E-1  -5.552034825086594E-2   3.559534549713135E-1  -5.522819235920906E-2   1.468587219715118E-1   9.121653437614441E-1  
 6.266000000000000E7     1.453510224819183E-1   9.151710867881775E-1   3.561022579669952E-1  -5.553518235683441E-2   3.559183478355408E-1  -5.537090077996254E-2   1.477018445730209E-1   9.124013781547546E-1  
 6.268000000000000E7     1.460327208042145E-1   9.149186611175537E-1   3.566077649593353E-1  -5.563598498702049E-2   3.563622832298279E-1  -5.575998127460480E-2   1.482664942741394E-1   9.120369553565979E-1  
 6.270000000000000E7     1.469274014234543E-1   9.147961735725403E-1   3.567331731319428E-1  -5.626440793275833E-2   3.567464649677277E-1  -5.634698271751404E-2   1.491806805133820E-1   9.118072390556335E-1  
 6.272000000000000E7     1.474572867155075E-1   9.144496917724609E-1   3.568240702152252E-1  -5.640993639826775E-2   3.565762937068939E-1  -5.651026591658592E-2   1.493600904941559E-1   9.118485450744629E-1  
 6.274000000000000E7     1.481958776712418E-1   9.142001867294312E-1   3.569505214691162E-1  -5.667958408594132E-2   3.566305935382843E-1  -5.670225620269775E-2   1.503916084766388E-1   9.115110635757446E-1  
 6.276000000000000E7     1.489641666412354E-1   9.144603610038757E-1   3.575482368469238E-1  -5.697081983089447E-2   3.573452830314636E-1  -5.694739893078804E-2   1.507336497306824E-1   9.111007452011108E-1  
 6.278000000000000E7     1.490964889526367E-1   9.136070609092712E-1   3.575180470943451E-1  -5.745017528533936E-2   3.574225604534149E-1  -5.735058337450028E-2   1.519523113965988E-1   9.109786152839661E-1  
 6.280000000000000E7     1.501048803329468E-1   9.136300683021545E-1   3.578304350376129E-1  -5.791193991899490E-2   3.576166927814484E-1  -5.767127126455307E-2   1.525265425443649E-1   9.107068777084351E-1  
 6.282000000000000E7     1.507917195558548E-1   9.132941365242004E-1   3.581629991531372E-1  -5.809569358825684E-2   3.578467965126038E-1  -5.786091834306717E-2   1.531990170478821E-1   9.106041193008423E-1  
 6.284000000000000E7     1.513681411743164E-1   9.131880998611450E-1   3.579407334327698E-1  -5.821360275149345E-2   3.581025898456574E-1  -5.840338021516800E-2   1.540403515100479E-1   9.101051092147827E-1  
 6.286000000000000E7     1.521881222724915E-1   9.132897853851318E-1   3.584109544754028E-1  -5.852883309125900E-2   3.583622574806213E-1  -5.860751122236252E-2   1.541557461023331E-1   9.100401401519775E-1  
 6.288000000000000E7     1.524597108364105E-1   9.132420420646668E-1   3.588736057281494E-1  -5.902700126171112E-2   3.586756885051727E-1  -5.874962732195854E-2   1.548821777105331E-1   9.098252058029175E-1  
 6.290000000000000E7     1.533125489950180E-1   9.126183390617371E-1   3.588590919971466E-1  -5.932217836380005E-2   3.590104579925537E-1  -5.936985835433006E-2   1.556022614240646E-1   9.092630743980408E-1  
 6.292000000000000E7     1.541418582201004E-1   9.123315215110779E-1   3.594195842742920E-1  -5.950205773115158E-2   3.592050373554230E-1  -5.956348404288292E-2   1.562938094139099E-1   9.096616506576538E-1  
 6.294000000000000E7     1.543379127979279E-1   9.123423695564270E-1   3.596501946449280E-1  -5.979854613542557E-2   3.595785200595856E-1  -5.966944247484207E-2   1.570915579795837E-1   9.093326926231384E-1  
 6.296000000000000E7     1.556249558925629E-1   9.121269583702087E-1   3.597834408283234E-1  -6.021139025688171E-2   3.594755828380585E-1  -6.026919931173325E-2   1.575606018304825E-1   9.089968204498291E-1  
 6.298000000000000E7     1.560993194580078E-1   9.119285941123962E-1   3.597992658615112E-1  -6.045816466212273E-2   3.599143028259277E-1  -6.036826223134995E-2   1.584406346082687E-1   9.086337089538574E-1  
 6.300000000000000E7     1.568458527326584E-1   9.117484092712402E-1   3.602088689804077E-1  -6.092584878206253E-2   3.602268695831299E-1  -6.058486551046372E-2   1.588184684514999E-1   9.087582230567932E-1  
 6.302000000000000E7     1.578596830368042E-1   9.114279150962830E-1   3.603619635105133E-1  -6.113547831773758E-2   3.603445887565613E-1  -6.153547391295433E-2   1.595902740955353E-1   9.082202315330505E-1  
 6.304000000000000E7     1.581969708204269E-1   9.110928177833557E-1   3.604862987995148E-1  -6.176062673330307E-2   3.604235649108887E-1  -6.152314692735672E-2   1.602163463830948E-1   9.079166054725647E-1  
 6.306000000000000E7     1.588905602693558E-1   9.108298420906067E-1   3.607116341590881E-1  -6.174676492810249E-2   3.605087399482727E-1  -6.186626479029656E-2   1.608878225088120E-1   9.075798988342285E-1  
 6.308000000000000E7     1.597347557544708E-1   9.104912281036377E-1   3.609508275985718E-1  -6.228420883417130E-2   3.609383106231690E-1  -6.226247176527977E-2   1.618111878633499E-1   9.078142046928406E-1  
 6.310000000000000E7     1.601768434047699E-1   9.105849862098694E-1   3.613954186439514E-1  -6.260006874799728E-2   3.611871004104614E-1  -6.233633309602737E-2   1.621834784746170E-1   9.073858857154846E-1  
 6.312000000000000E7     1.608054637908936E-1   9.099969267845154E-1   3.615991771221161E-1  -6.282645463943481E-2   3.612358570098877E-1  -6.272345036268234E-2   1.629372388124466E-1   9.073230028152466E-1  
 6.314000000000000E7     1.613822579383850E-1   9.100830554962158E-1   3.616453111171722E-1  -6.322740018367767E-2   3.616611659526825E-1  -6.282535940408707E-2   1.636363714933395E-1   9.070575833320618E-1  
 6.316000000000000E7     1.620574593544006E-1   9.095807075500488E-1   3.618654012680054E-1  -6.337788701057434E-2   3.617512583732605E-1  -6.341583281755447E-2   1.643121987581253E-1   9.066479802131653E-1  
 6.318000000000000E7     1.630773842334747E-1   9.093502163887024E-1   3.625131249427795E-1  -6.376882642507553E-2   3.621059954166412E-1  -6.383286416530609E-2   1.652043759822846E-1   9.066169857978821E-1  
 6.320000000000000E7     1.633093506097794E-1   9.090896248817444E-1   3.623916208744049E-1  -6.417722254991531E-2   3.623830676078796E-1  -6.400102376937866E-2   1.658295691013336E-1   9.062232375144959E-1  
 6.322000000000000E7     1.640667319297791E-1   9.091707468032837E-1   3.627559244632721E-1  -6.446099281311035E-2   3.625236749649048E-1  -6.432885676622391E-2   1.664059162139893E-1   9.061932563781738E-1  
 6.324000000000000E7     1.648436486721039E-1   9.088377952575684E-1   3.627700805664063E-1  -6.470780819654465E-2   3.626880645751953E-1  -6.460108608007431E-2   1.672048270702362E-1   9.060102105140686E-1  
 6.326000000000000E7     1.652843505144119E-1   9.086927175521851E-1   3.628171086311340E-1  -6.504914164543152E-2   3.626359701156616E-1  -6.489014625549316E-2   1.674255579710007E-1   9.056216478347778E-1  
 6.328000000000000E7     1.658637523651123E-1   9.082108139991760E-1   3.631710410118103E-1  -6.526114791631699E-2   3.628503680229187E-1  -6.505284458398819E-2   1.683558672666550E-1   9.053788781166077E-1  
 6.330000000000000E7     1.667660623788834E-1   9.082288742065430E-1   3.632963299751282E-1  -6.582762300968170E-2   3.633390963077545E-1  -6.563059240579605E-2   1.686434149742127E-1   9.053967595100403E-1  
 6.332000000000000E7     1.672321408987045E-1   9.079723954200745E-1   3.637269735336304E-1  -6.609980016946793E-2   3.637353181838989E-1  -6.579567492008209E-2   1.694268286228180E-1   9.053091406822205E-1  
 6.334000000000000E7     1.681226938962936E-1   9.074493646621704E-1   3.640173971652985E-1  -6.617499887943268E-2   3.635778725147247E-1  -6.633622944355011E-2   1.702696382999420E-1   9.047347903251648E-1  
 6.336000000000000E7     1.687904298305512E-1   9.072637557983398E-1   3.639770448207855E-1  -6.674920767545700E-2   3.638801872730255E-1  -6.659706681966782E-2   1.710309386253357E-1   9.042873978614807E-1  
 6.338000000000000E7     1.693579405546188E-1   9.073131084442139E-1   3.641024529933929E-1  -6.679064035415649E-2   3.641400337219238E-1  -6.674721837043762E-2   1.716337502002716E-1   9.041300415992737E-1  
 6.340000000000000E7     1.700884997844696E-1   9.071512818336487E-1   3.645134866237640E-1  -6.744349747896195E-2   3.647245466709137E-1  -6.736454367637634E-2   1.720662713050842E-1   9.043616652488709E-1  
 6.342000000000000E7     1.706727147102356E-1   9.066951274871826E-1   3.647426366806030E-1  -6.779371201992035E-2   3.646720349788666E-1  -6.748092174530029E-2   1.728944033384323E-1   9.038228988647461E-1  
 6.344000000000000E7     1.711242496967316E-1   9.066997170448303E-1   3.647829294204712E-1  -6.812208145856857E-2   3.648392558097839E-1  -6.805210560560226E-2   1.734199523925781E-1   9.034532308578491E-1  
 6.346000000000000E7     1.721976101398468E-1   9.061072468757629E-1   3.655372262001038E-1  -6.849756091833115E-2   3.652835786342621E-1  -6.819310039281845E-2   1.744992583990097E-1   9.034308195114136E-1  
 6.348000000000000E7     1.725644618272781E-1   9.060104489326477E-1   3.654201030731201E-1  -6.850701570510864E-2   3.652813732624054E-1  -6.844665110111237E-2   1.750534772872925E-1   9.029318094253540E-1  
 6.350000000000000E7     1.732135564088821E-1   9.058864116668701E-1   3.657175004482269E-1  -6.886851787567139E-2   3.655987381935120E-1  -6.873672455549240E-2   1.754285842180252E-1   9.031891226768494E-1  
 6.352000000000000E7     1.741556674242020E-1   9.056402444839478E-1   3.656505942344666E-1  -6.939841061830521E-2   3.657860457897186E-1  -6.931716203689575E-2   1.761712282896042E-1   9.023880362510681E-1  
 6.354000000000000E7     1.747587323188782E-1   9.051980972290039E-1   3.659070432186127E-1  -6.980282068252564E-2   3.659957647323608E-1  -6.933097541332245E-2   1.770231723785400E-1   9.024229049682617E-1  
 6.356000000000000E7     1.751838177442551E-1   9.051702618598938E-1   3.662965297698975E-1  -7.026983797550201E-2   3.660692572593689E-1  -6.980746984481812E-2   1.774969100952148E-1   9.022635817527771E-1  
 6.358000000000000E7     1.757706105709076E-1   9.049181938171387E-1   3.661940395832062E-1  -7.048654556274414E-2   3.661384880542755E-1  -6.997123360633850E-2   1.783172637224197E-1   9.017693400382996E-1  
 6.360000000000000E7     1.761697530746460E-1   9.045753479003906E-1   3.666173219680786E-1  -7.066230475902557E-2   3.664997816085815E-1  -7.062099874019623E-2   1.790105551481247E-1   9.017611145973206E-1  
 6.362000000000000E7     1.770077943801880E-1   9.046664834022522E-1   3.669413328170776E-1  -7.087963819503784E-2   3.670644760131836E-1  -7.077014446258545E-2   1.795589476823807E-1   9.015130400657654E-1  
 6.364000000000000E7     1.777457743883133E-1   9.040873050689697E-1   3.670081794261932E-1  -7.147172838449478E-2   3.668109476566315E-1  -7.106471806764603E-2   1.803378909826279E-1   9.012577533721924E-1  
 6.366000000000000E7     1.787288039922714E-1   9.042293429374695E-1   3.675352632999420E-1  -7.150599360466003E-2   3.674533367156982E-1  -7.155201584100723E-2   1.805396527051926E-1   9.008963108062744E-1  
 6.368000000000000E7     1.794764846563339E-1   9.036864638328552E-1   3.673448860645294E-1  -7.200858741998673E-2   3.675401508808136E-1  -7.179757952690125E-2   1.814854741096497E-1   9.006263613700867E-1  
 6.370000000000000E7     1.800554841756821E-1   9.035935401916504E-1   3.680048882961273E-1  -7.245662063360214E-2   3.676266670227051E-1  -7.228767871856690E-2   1.822029650211334E-1   9.006170034408569E-1  
 6.372000000000000E7     1.805863678455353E-1   9.028730392456055E-1   3.681251406669617E-1  -7.264055311679840E-2   3.678911924362183E-1  -7.255885750055313E-2   1.830062419176102E-1   9.003757834434509E-1  
 6.374000000000000E7     1.813174188137054E-1   9.033479690551758E-1   3.685098588466644E-1  -7.282380759716034E-2   3.682676255702972E-1  -7.283265143632889E-2   1.832518279552460E-1   8.999187350273132E-1  
 6.376000000000000E7     1.817595809698105E-1   9.025912880897522E-1   3.684507012367249E-1  -7.317325472831726E-2   3.683069944381714E-1  -7.305053621530533E-2   1.842051595449448E-1   8.999456167221069E-1  
 6.378000000000000E7     1.824326366186142E-1   9.024212956428528E-1   3.688871860504150E-1  -7.406047731637955E-2   3.687390685081482E-1  -7.388734817504883E-2   1.845282763242722E-1   8.996362686157227E-1  
 6.380000000000000E7     1.832573264837265E-1   9.022607803344727E-1   3.688429594039917E-1  -7.405727356672287E-2   3.688456714153290E-1  -7.380039244890213E-2   1.854742765426636E-1   8.992547392845154E-1  
 6.382000000000000E7     1.836157292127609E-1   9.020234346389771E-1   3.689355254173279E-1  -7.439673691987991E-2   3.691268861293793E-1  -7.425808161497116E-2   1.863168478012085E-1   8.991732001304627E-1  
 6.384000000000000E7     1.844173073768616E-1   9.015841484069824E-1   3.691034317016602E-1  -7.495603710412979E-2   3.691249191761017E-1  -7.439317554235458E-2   1.869210451841354E-1   8.986992239952087E-1  
 6.386000000000000E7     1.850666850805283E-1   9.013503193855286E-1   3.693518638610840E-1  -7.490700483322144E-2   3.693966865539551E-1  -7.488954067230225E-2   1.874962747097015E-1   8.987640142440796E-1  
 6.388000000000000E7     1.857650876045227E-1   9.012269377708435E-1   3.696936368942261E-1  -7.566484063863754E-2   3.696527779102325E-1  -7.532937824726105E-2   1.880181580781937E-1   8.984235525131226E-1  
 6.390000000000000E7     1.866645365953445E-1   9.007486104965210E-1   3.700206279754639E-1  -7.556823641061783E-2   3.699447214603424E-1  -7.544504106044769E-2   1.886079907417297E-1   8.983886241912842E-1  
 6.392000000000000E7     1.871414035558701E-1   9.008610844612122E-1   3.699429035186768E-1  -7.589375227689743E-2   3.702178895473480E-1  -7.624529302120209E-2   1.894427239894867E-1   8.976013064384460E-1  
 6.394000000000000E7     1.877748668193817E-1   9.004326462745667E-1   3.700532615184784E-1  -7.646184414625168E-2   3.703075647354126E-1  -7.637302577495575E-2   1.898239552974701E-1   8.975750207901001E-1  
 6.396000000000000E7     1.883887946605682E-1   9.004486203193665E-1   3.703358173370361E-1  -7.668466120958328E-2   3.704293668270111E-1  -7.657308131456375E-2   1.904276013374329E-1   8.971615433692932E-1  
 6.398000000000000E7     1.888277977705002E-1   8.998947739601135E-1   3.706300258636475E-1  -7.702630758285523E-2   3.705643415451050E-1  -7.676198333501816E-2   1.911082416772842E-1   8.971668481826782E-1  
 6.400000000000000E7     1.897909790277481E-1   8.997259140014648E-1   3.711103796958923E-1  -7.730744034051895E-2   3.707056343555450E-1  -7.743027061223984E-2   1.917778700590134E-1   8.968828320503235E-1  
 6.402000000000000E7     1.902678012847900E-1   8.993859291076660E-1   3.710583746433258E-1  -7.740983366966248E-2   3.711045980453491E-1  -7.744253426790237E-2   1.921866685152054E-1   8.966127634048462E-1  
 6.404000000000000E7     1.909358203411102E-1   8.995035290718079E-1   3.713023960590363E-1  -7.784704118967056E-2   3.710595965385437E-1  -7.782452553510666E-2   1.930756270885468E-1   8.967543244361877E-1  
 6.406000000000000E7     1.914378404617310E-1   8.990243077278137E-1   3.716452419757843E-1  -7.820432633161545E-2   3.713297545909882E-1  -7.808236032724381E-2   1.937972754240036E-1   8.960347175598145E-1  
 6.408000000000000E7     1.925650835037231E-1   8.986828327178955E-1   3.718304634094238E-1  -7.867625355720520E-2   3.716070353984833E-1  -7.884935289621353E-2   1.945682018995285E-1   8.956708312034607E-1  
 6.410000000000000E7     1.928579509258270E-1   8.984401226043701E-1   3.720711171627045E-1  -7.922646403312683E-2   3.718731999397278E-1  -7.890669256448746E-2   1.953276544809341E-1   8.956141471862793E-1  
 6.412000000000000E7     1.937721520662308E-1   8.984628319740295E-1   3.721330761909485E-1  -7.952038198709488E-2   3.721126019954681E-1  -7.931693643331528E-2   1.955681145191193E-1   8.952696919441223E-1  
 6.414000000000000E7     1.940899938344955E-1   8.979977369308472E-1   3.725399672985077E-1  -7.982450723648071E-2   3.725211620330811E-1  -7.962319999933243E-2   1.968027353286743E-1   8.949910998344421E-1  
 6.416000000000000E7     1.949865370988846E-1   8.978555202484131E-1   3.726133704185486E-1  -7.992514967918396E-2   3.724755644798279E-1  -7.975542545318604E-2   1.972766369581223E-1   8.950435519218445E-1  
 6.418000000000000E7     1.955378204584122E-1   8.976081013679504E-1   3.727201521396637E-1  -8.030058443546295E-2   3.727040290832520E-1  -8.014191687107086E-2   1.975300014019013E-1   8.945646286010742E-1  
 6.420000000000000E7     1.961651593446732E-1   8.972619175910950E-1   3.731332719326019E-1  -8.063472807407379E-2   3.729443252086639E-1  -8.059006929397583E-2   1.983774453401566E-1   8.943467140197754E-1  
 6.422000000000000E7     1.966875493526459E-1   8.972419500350952E-1   3.731557726860046E-1  -8.112307637929916E-2   3.732821643352509E-1  -8.106555044651032E-2   1.986557841300964E-1   8.938394188880920E-1  
 6.424000000000000E7     1.971472352743149E-1   8.966016769409180E-1   3.732849359512329E-1  -8.110784739255905E-2   3.731397688388825E-1  -8.123315125703812E-2   1.993846148252487E-1   8.938096761703491E-1  
 6.426000000000000E7     1.977657377719879E-1   8.962697386741638E-1   3.734986484050751E-1  -8.156531304121018E-2   3.734708130359650E-1  -8.139385282993317E-2   2.002613842487335E-1   8.935964703559876E-1  
 6.428000000000000E7     1.986314803361893E-1   8.962876796722412E-1   3.734799325466156E-1  -8.231715857982636E-2   3.737661540508270E-1  -8.187641203403473E-2   2.009347528219223E-1   8.932718634605408E-1  
 6.430000000000000E7     1.993453949689865E-1   8.960476517677307E-1   3.739926517009735E-1  -8.245955407619476E-2   3.737450242042542E-1  -8.248624950647354E-2   2.017702162265778E-1   8.932116031646729E-1  
 6.432000000000000E7     1.997731924057007E-1   8.957079648971558E-1   3.742478489875794E-1  -8.286771178245544E-2   3.739366531372070E-1  -8.264791965484619E-2   2.021557986736298E-1   8.924350142478943E-1  
 6.434000000000000E7     2.004221230745316E-1   8.950109481811523E-1   3.741925060749054E-1  -8.296233415603638E-2   3.741057217121124E-1  -8.302079886198044E-2   2.027328163385391E-1   8.923112154006958E-1  
 6.436000000000000E7     2.013078182935715E-1   8.952732682228088E-1   3.746716082096100E-1  -8.326092362403870E-2   3.746352493762970E-1  -8.333474397659302E-2   2.031997144222260E-1   8.922120928764343E-1  
 6.438000000000000E7     2.018956840038300E-1   8.946995735168457E-1   3.746476173400879E-1  -8.372397720813751E-2   3.744237720966339E-1  -8.371956646442413E-2   2.040293067693710E-1   8.921055793762207E-1  
 6.440000000000000E7     2.023867368698120E-1   8.945281505584717E-1   3.750052750110626E-1  -8.419471979141235E-2   3.751175701618195E-1  -8.402293920516968E-2   2.048771679401398E-1   8.917058110237122E-1  
 6.442000000000000E7     2.034174054861069E-1   8.945372700691223E-1   3.753747344017029E-1  -8.437835425138474E-2   3.753506839275360E-1  -8.440644294023514E-2   2.049974948167801E-1   8.915137648582459E-1  
 6.444000000000000E7     2.038670182228088E-1   8.940233588218689E-1   3.752949535846710E-1  -8.474969863891602E-2   3.752516210079193E-1  -8.477285504341126E-2   2.061472833156586E-1   8.911227583885193E-1  
 6.446000000000000E7     2.044900804758072E-1   8.937265276908875E-1   3.758550882339478E-1  -8.516465127468109E-2   3.754983544349670E-1  -8.513290435075760E-2   2.065594047307968E-1   8.909724950790405E-1  
 6.448000000000000E7     2.051903307437897E-1   8.937972784042358E-1   3.757834136486054E-1  -8.533506095409393E-2   3.755699694156647E-1  -8.520837128162384E-2   2.072544693946838E-1   8.903968334197998E-1  
 6.450000000000000E7     2.055750638246536E-1   8.931627273559570E-1   3.759070336818695E-1  -8.569978922605515E-2   3.759017884731293E-1  -8.554187417030335E-2   2.076698243618012E-1   8.903534412384033E-1  
 6.452000000000000E7     2.062277644872665E-1   8.927488327026367E-1   3.760656714439392E-1  -8.584707975387573E-2   3.759283721446991E-1  -8.586564660072327E-2   2.085881829261780E-1   8.900003433227539E-1  
 6.454000000000000E7     2.071161270141602E-1   8.929197788238525E-1   3.764578402042389E-1  -8.641563355922699E-2   3.763653635978699E-1  -8.627092838287354E-2   2.088846713304520E-1   8.898357152938843E-1  
 6.456000000000000E7     2.080283910036087E-1   8.924707174301148E-1   3.762702941894531E-1  -8.703986555337906E-2   3.764369785785675E-1  -8.691832423210144E-2   2.097417116165161E-1   8.894322514533997E-1  
 6.458000000000000E7     2.086461931467056E-1   8.924051523208618E-1   3.768104016780853E-1  -8.722718060016632E-2   3.766943812370300E-1  -8.732178807258606E-2   2.106689959764481E-1   8.890974521636963E-1  
 6.460000000000000E7     2.089241296052933E-1   8.922755122184753E-1   3.768355548381805E-1  -8.741663396358490E-2   3.770832419395447E-1  -8.741093426942825E-2   2.110308706760407E-1   8.891929388046265E-1  
 6.462000000000000E7     2.097637206315994E-1   8.915004730224609E-1   3.773328065872192E-1  -8.787211775779724E-2   3.772903978824616E-1  -8.778263628482819E-2   2.117632180452347E-1   8.889972567558289E-1  
 6.464000000000000E7     2.102483958005905E-1   8.914600610733032E-1   3.772928714752197E-1  -8.835282921791077E-2   3.772832751274109E-1  -8.821469545364380E-2   2.124639451503754E-1   8.886086344718933E-1  
 6.466000000000000E7     2.108975797891617E-1   8.909378051757813E-1   3.775980174541473E-1  -8.865665644407272E-2   3.772507905960083E-1  -8.858413249254227E-2   2.135480493307114E-1   8.883135318756104E-1  
 6.468000000000000E7     2.119109332561493E-1   8.908061981201172E-1   3.776824176311493E-1  -8.914069831371307E-2   3.777629435062408E-1  -8.896249532699585E-2   2.139455080032349E-1   8.882570862770081E-1  
 6.470000000000000E7     2.122759670019150E-1   8.908643722534180E-1   3.780057430267334E-1  -8.941011130809784E-2   3.780399560928345E-1  -8.926783502101898E-2   2.142174094915390E-1   8.879140615463257E-1  
 6.472000000000000E7     2.130800336599350E-1   8.905736804008484E-1   3.781352639198303E-1  -8.938340097665787E-2   3.780656456947327E-1  -8.952841162681580E-2   2.151284962892532E-1   8.873674273490906E-1  
 6.474000000000000E7     2.130817025899887E-1   8.901870250701904E-1   3.784741759300232E-1  -8.996520936489105E-2   3.783486783504486E-1  -8.978311717510223E-2   2.159505188465118E-1   8.872846364974976E-1  
 6.476000000000000E7     2.141962200403214E-1   8.902513980865479E-1   3.786405026912689E-1  -9.007950872182846E-2   3.784115314483643E-1  -9.013156592845917E-2   2.162353098392487E-1   8.872956037521362E-1  
 6.478000000000000E7     2.146620005369186E-1   8.898745775222778E-1   3.788485229015350E-1  -9.062551707029343E-2   3.788042962551117E-1  -9.034843742847443E-2   2.171121388673782E-1   8.866856098175049E-1  
 6.480000000000000E7     2.156097143888474E-1   8.893764019012451E-1   3.788171112537384E-1  -9.109412878751755E-2   3.788024187088013E-1  -9.095978736877441E-2   2.175853103399277E-1   8.864294886589050E-1  
 6.482000000000000E7     2.157313376665115E-1   8.892796635627747E-1   3.791674673557282E-1  -9.172084927558899E-2   3.792022466659546E-1  -9.150464832782745E-2   2.186183631420136E-1   8.859921097755432E-1  
 6.484000000000000E7     2.165981978178024E-1   8.890691995620728E-1   3.793807923793793E-1  -9.182681143283844E-2   3.788773715496063E-1  -9.178706258535385E-2   2.188863605260849E-1   8.861841559410095E-1  
 6.486000000000000E7     2.174241840839386E-1   8.884258866310120E-1   3.796931803226471E-1  -9.211952239274979E-2   3.793092072010040E-1  -9.199431538581848E-2   2.192006260156632E-1   8.860388398170471E-1  
 6.488000000000000E7     2.179497182369232E-1   8.882184028625488E-1   3.798163533210754E-1  -9.244717657566071E-2   3.796411454677582E-1  -9.222017228603363E-2   2.203588038682938E-1   8.855633139610291E-1  
 6.490000000000000E7     2.184595167636871E-1   8.881946206092835E-1   3.796543478965759E-1  -9.271700680255890E-2   3.800303041934967E-1  -9.289501607418060E-2   2.205528914928436E-1   8.849251866340637E-1  
 6.492000000000000E7     2.189994603395462E-1   8.876304030418396E-1   3.800208270549774E-1  -9.309361129999161E-2   3.796774446964264E-1  -9.314274787902832E-2   2.213784605264664E-1   8.850290775299072E-1  
 6.494000000000000E7     2.198816686868668E-1   8.875009417533875E-1   3.804410994052887E-1  -9.325322508811951E-2   3.800740242004395E-1  -9.330710768699646E-2   2.221148312091827E-1   8.848887681961060E-1  
 6.496000000000000E7     2.203934192657471E-1   8.874213695526123E-1   3.802862465381622E-1  -9.362206608057022E-2   3.804544806480408E-1  -9.356732666492462E-2   2.226795852184296E-1   8.844318985939026E-1  
 6.498000000000000E7     2.210474461317062E-1   8.871376514434815E-1   3.809143304824829E-1  -9.430071711540222E-2   3.806563317775726E-1  -9.393876791000366E-2   2.233603894710541E-1   8.842407464981079E-1  
 6.500000000000000E7     2.216885685920715E-1   8.866686224937439E-1   3.805101215839386E-1  -9.453853964805603E-2   3.805137574672699E-1  -9.434887766838074E-2   2.240164130926132E-1   8.837115764617920E-1  
 6.502000000000000E7     2.221755236387253E-1   8.866209387779236E-1   3.812195062637329E-1  -9.472388029098511E-2   3.809847533702850E-1  -9.446786344051361E-2   2.246240228414536E-1   8.835774064064026E-1  
 6.504000000000000E7     2.229148745536804E-1   8.864621520042419E-1   3.811499178409576E-1  -9.506297856569290E-2   3.813745677471161E-1  -9.497256577014923E-2   2.250975072383881E-1   8.832527399063110E-1  
 6.506000000000000E7     2.232899963855743E-1   8.860436081886292E-1   3.813069164752960E-1  -9.548778831958771E-2   3.812851309776306E-1  -9.551277011632919E-2   2.257621139287949E-1   8.830795884132385E-1  
 6.508000000000000E7     2.238808125257492E-1   8.858267068862915E-1   3.816528618335724E-1  -9.606442600488663E-2   3.815063834190369E-1  -9.581267833709717E-2   2.266146540641785E-1   8.824619650840759E-1  
 6.510000000000000E7     2.248926460742950E-1   8.854222893714905E-1   3.820067048072815E-1  -9.631843864917755E-2   3.817143738269806E-1  -9.579908847808838E-2   2.266227453947067E-1   8.824214935302734E-1  
 6.512000000000000E7     2.256148606538773E-1   8.850827813148499E-1   3.817786574363709E-1  -9.678156673908234E-2   3.818070888519287E-1  -9.641891717910767E-2   2.277841567993164E-1   8.821992874145508E-1  
 6.514000000000000E7     2.263137996196747E-1   8.847592473030090E-1   3.823561966419220E-1  -9.677805006504059E-2   3.820633590221405E-1  -9.683837741613388E-2   2.282105237245560E-1   8.816519379615784E-1  
 6.516000000000000E7     2.266814708709717E-1   8.846477866172791E-1   3.823148310184479E-1  -9.732734411954880E-2   3.824427127838135E-1  -9.747964888811112E-2   2.290058284997940E-1   8.813483119010925E-1  
 6.518000000000000E7     2.274048924446106E-1   8.844187259674072E-1   3.825333714485169E-1  -9.761029481887817E-2   3.823369443416596E-1  -9.735610336065292E-2   2.293946295976639E-1   8.812033534049988E-1  
 6.520000000000000E7     2.284813821315765E-1   8.841171264648438E-1   3.827864825725555E-1  -9.810014069080353E-2   3.827360272407532E-1  -9.820762276649475E-2   2.304270118474960E-1   8.812334537506104E-1  
 6.522000000000000E7     2.285118103027344E-1   8.836697340011597E-1   3.828907310962677E-1  -9.849019348621368E-2   3.827492296695709E-1  -9.824239462614059E-2   2.306599467992783E-1   8.808737993240356E-1  
 6.524000000000000E7     2.296287119388580E-1   8.834639191627502E-1   3.831260204315186E-1  -9.868155419826508E-2   3.829839527606964E-1  -9.888310730457306E-2   2.317781448364258E-1   8.807792067527771E-1  
 6.526000000000000E7     2.299482226371765E-1   8.832181096076965E-1   3.830270469188690E-1  -9.924075007438660E-2   3.833239078521729E-1  -9.921464323997498E-2   2.323187291622162E-1   8.800776004791260E-1  
 6.528000000000000E7     2.305320352315903E-1   8.830940723419190E-1   3.831825852394104E-1  -9.939394891262054E-2   3.829962611198425E-1  -9.935630857944489E-2   2.323037534952164E-1   8.797586560249329E-1  
 6.530000000000000E7     2.308514416217804E-1   8.825976848602295E-1   3.835219740867615E-1  -9.986746311187744E-2   3.834230899810791E-1  -9.991136193275452E-2   2.333908081054688E-1   8.796672224998474E-1  
 6.532000000000000E7     2.314561456441879E-1   8.823432922363281E-1   3.836209177970886E-1  -1.000866889953613E-1   3.838846683502197E-1  -9.974186122417450E-2   2.339381277561188E-1   8.790810108184815E-1  
 6.534000000000000E7     2.320059090852737E-1   8.818298578262329E-1   3.837654888629913E-1  -1.008644551038742E-1   3.839221596717835E-1  -1.004167944192886E-1   2.345978915691376E-1   8.790435791015625E-1  
 6.536000000000000E7     2.329610139131546E-1   8.823677301406860E-1   3.839355707168579E-1  -1.006600409746170E-1   3.842830359935761E-1  -1.008931919932365E-1   2.351440638303757E-1   8.786732554435730E-1  
 6.538000000000000E7     2.335636317729950E-1   8.812863230705261E-1   3.843904733657837E-1  -1.012672856450081E-1   3.843307495117188E-1  -1.011872440576553E-1   2.358785867691040E-1   8.784506320953369E-1  
 6.540000000000000E7     2.345630824565888E-1   8.808337450027466E-1   3.847014009952545E-1  -1.016617566347122E-1   3.842466771602631E-1  -1.014243811368942E-1   2.364215552806854E-1   8.781734704971314E-1  
 6.542000000000000E7     2.344284057617188E-1   8.808138966560364E-1   3.847915530204773E-1  -1.019119322299957E-1   3.848475813865662E-1  -1.016837209463120E-1   2.370283007621765E-1   8.781725168228149E-1  
 6.544000000000000E7     2.356308251619339E-1   8.806899189949036E-1   3.847695887088776E-1  -1.022292375564575E-1   3.846861124038696E-1  -1.019837111234665E-1   2.374261021614075E-1   8.776098489761353E-1  
 6.546000000000000E7     2.361215502023697E-1   8.803409934043884E-1   3.850919008255005E-1  -1.026850566267967E-1   3.850363194942474E-1  -1.025429293513298E-1   2.383144795894623E-1   8.772833347320557E-1  
 6.548000000000000E7     2.366504818201065E-1   8.803790211677551E-1   3.854098021984100E-1  -1.029318273067474E-1   3.854205012321472E-1  -1.026198938488960E-1   2.389006614685059E-1   8.768578767776489E-1  
 6.550000000000000E7     2.374732345342636E-1   8.797597885131836E-1   3.855721652507782E-1  -1.032792478799820E-1   3.852728009223938E-1  -1.033751666545868E-1   2.394048571586609E-1   8.767524957656860E-1  
 6.552000000000000E7     2.379715144634247E-1   8.796333670616150E-1   3.854315280914307E-1  -1.038727909326553E-1   3.857353925704956E-1  -1.035248264670372E-1   2.399629354476929E-1   8.763917684555054E-1  
 6.554000000000000E7     2.384973019361496E-1   8.794191479682922E-1   3.858501315116882E-1  -1.039054393768311E-1   3.857208192348480E-1  -1.038048714399338E-1   2.408696860074997E-1   8.763533234596252E-1  
 6.556000000000000E7     2.391072958707809E-1   8.791107535362244E-1   3.859485685825348E-1  -1.045199483633041E-1   3.859038650989533E-1  -1.041897758841515E-1   2.414887845516205E-1   8.758519291877747E-1  
 6.558000000000000E7     2.396046221256256E-1   8.789051175117493E-1   3.859779834747315E-1  -1.046295762062073E-1   3.860859870910645E-1  -1.044972911477089E-1   2.420430779457092E-1   8.757134079933167E-1  
 6.560000000000000E7     2.403465807437897E-1   8.785891532897949E-1   3.864105045795441E-1  -1.050890758633614E-1   3.861432373523712E-1  -1.049781590700150E-1   2.426210939884186E-1   8.755633831024170E-1  
 6.562000000000000E7     2.410696148872376E-1   8.781722187995911E-1   3.864711523056030E-1  -1.053554862737656E-1   3.864425420761108E-1  -1.055927500128746E-1   2.431832551956177E-1   8.753473162651062E-1  
 6.564000000000000E7     2.414122372865677E-1   8.782131075859070E-1   3.865253329277039E-1  -1.058153733611107E-1   3.866279721260071E-1  -1.058319360017777E-1   2.439843863248825E-1   8.746140599250794E-1  
 6.566000000000000E7     2.425282597541809E-1   8.773917555809021E-1   3.867658376693726E-1  -1.060541570186615E-1   3.866785466670990E-1  -1.063253432512283E-1   2.446438372135162E-1   8.745155334472656E-1  
 6.568000000000000E7     2.428967505693436E-1   8.772389888763428E-1   3.871864974498749E-1  -1.068021357059479E-1   3.868317306041718E-1  -1.066721081733704E-1   2.453090995550156E-1   8.741683363914490E-1  
 6.570000000000000E7     2.436077892780304E-1   8.768327236175537E-1   3.870616853237152E-1  -1.068013757467270E-1   3.870744109153748E-1  -1.066989600658417E-1   2.456876039505005E-1   8.738980293273926E-1  
 6.572000000000000E7     2.440938651561737E-1   8.767684102058411E-1   3.875011205673218E-1  -1.072210818529129E-1   3.874605000019074E-1  -1.071472242474556E-1   2.463443428277969E-1   8.738501071929932E-1  
 6.574000000000000E7     2.448192983865738E-1   8.765025138854981E-1   3.875718414783478E-1  -1.073719859123230E-1   3.875623345375061E-1  -1.073664501309395E-1   2.467735409736633E-1   8.733273744583130E-1  
 6.576000000000000E7     2.452042102813721E-1   8.762794733047485E-1   3.876678049564362E-1  -1.082427054643631E-1   3.876337409019470E-1  -1.077684760093689E-1   2.477515786886215E-1   8.729775547981262E-1  
 6.578000000000000E7     2.458622306585312E-1   8.755510449409485E-1   3.879272341728210E-1  -1.085799485445023E-1   3.875958323478699E-1  -1.084379255771637E-1   2.482304722070694E-1   8.726909756660461E-1  
 6.580000000000000E7     2.463474422693253E-1   8.756493330001831E-1   3.880802392959595E-1  -1.085583716630936E-1   3.880368173122406E-1  -1.085676252841950E-1   2.489427775144577E-1   8.722437620162964E-1  
 6.582000000000000E7     2.472095787525177E-1   8.748914003372192E-1   3.883642256259918E-1  -1.092278882861137E-1   3.880968689918518E-1  -1.090918332338333E-1   2.491570562124252E-1   8.722660541534424E-1  
 6.584000000000000E7     2.476283013820648E-1   8.750899434089661E-1   3.884315788745880E-1  -1.095434725284576E-1   3.882974088191986E-1  -1.095401942729950E-1   2.503033280372620E-1   8.720237612724304E-1  
 6.586000000000000E7     2.483683526515961E-1   8.745969533920288E-1   3.883975446224213E-1  -1.097782701253891E-1   3.885035514831543E-1  -1.096393764019013E-1   2.503793537616730E-1   8.715185523033142E-1  
 6.588000000000000E7     2.487944364547730E-1   8.742228150367737E-1   3.886233568191528E-1  -1.103528738021851E-1   3.884949386119843E-1  -1.098870486021042E-1   2.515658140182495E-1   8.709961771965027E-1  
 6.590000000000000E7     2.493505328893662E-1   8.739097118377686E-1   3.891203701496124E-1  -1.106005832552910E-1   3.887229263782501E-1  -1.105321198701859E-1   2.523688077926636E-1   8.707970976829529E-1  
 6.592000000000000E7     2.501003742218018E-1   8.736046552658081E-1   3.887337148189545E-1  -1.112717241048813E-1   3.887470960617065E-1  -1.108134537935257E-1   2.529690563678742E-1   8.708188533782959E-1  
 6.594000000000000E7     2.507023811340332E-1   8.734775781631470E-1   3.892349898815155E-1  -1.111581772565842E-1   3.893330991268158E-1  -1.108961105346680E-1   2.532780468463898E-1   8.706671595573425E-1  
 6.596000000000000E7     2.514052987098694E-1   8.732977509498596E-1   3.892521262168884E-1  -1.117107719182968E-1   3.893710374832153E-1  -1.115190312266350E-1   2.539281547069550E-1   8.698916435241699E-1  
 6.598000000000000E7     2.520895898342133E-1   8.727976083755493E-1   3.896606862545013E-1  -1.121667027473450E-1   3.897164762020111E-1  -1.118177399039269E-1   2.546406090259552E-1   8.694327473640442E-1  
 6.600000000000000E7     2.527784705162048E-1   8.723310828208923E-1   3.899188339710236E-1  -1.124453693628311E-1   3.896484375000000E-1  -1.121250912547112E-1   2.548421323299408E-1   8.693270087242127E-1  
 6.602000000000000E7     2.535007297992706E-1   8.724256753921509E-1   3.898123800754547E-1  -1.126350462436676E-1   3.898587822914124E-1  -1.124150082468987E-1   2.553006708621979E-1   8.692026138305664E-1  
 6.604000000000000E7     2.536515295505524E-1   8.714240789413452E-1   3.901708722114563E-1  -1.131203770637512E-1   3.898163139820099E-1  -1.131442338228226E-1   2.564482986927033E-1   8.691708445549011E-1  
 6.606000000000000E7     2.547147572040558E-1   8.717589378356934E-1   3.900709748268127E-1  -1.136604174971581E-1   3.900352418422699E-1  -1.135874539613724E-1   2.568425238132477E-1   8.685993552207947E-1  
 6.608000000000000E7     2.552536725997925E-1   8.710767030715942E-1   3.904092907905579E-1  -1.138780713081360E-1   3.906528651714325E-1  -1.139233261346817E-1   2.573165297508240E-1   8.681962490081787E-1  
 6.610000000000000E7     2.558849751949310E-1   8.707879781723023E-1   3.909088373184204E-1  -1.143027395009995E-1   3.903625309467316E-1  -1.141481250524521E-1   2.582340538501740E-1   8.684459924697876E-1  
 6.612000000000000E7     2.566542327404022E-1   8.704633712768555E-1   3.906486928462982E-1  -1.147943884134293E-1   3.905746936798096E-1  -1.147669926285744E-1   2.585176229476929E-1   8.676466345787048E-1  
 6.614000000000000E7     2.566820085048676E-1   8.705230951309204E-1   3.907786011695862E-1  -1.150480061769486E-1   3.910239636898041E-1  -1.145090460777283E-1   2.597377002239227E-1   8.673335909843445E-1  
 6.616000000000000E7     2.576140463352203E-1   8.701204657554627E-1   3.911032378673554E-1  -1.153264939785004E-1   3.905445337295532E-1  -1.151931807398796E-1   2.598814070224762E-1   8.668590784072876E-1  
 6.618000000000000E7     2.578647434711456E-1   8.699935078620911E-1   3.911158144474030E-1  -1.153990030288696E-1   3.910978436470032E-1  -1.156442314386368E-1   2.605446577072144E-1   8.664813637733460E-1  
 6.620000000000000E7     2.588037848472595E-1   8.696851134300232E-1   3.912358582019806E-1  -1.159253120422363E-1   3.914117217063904E-1  -1.158439368009567E-1   2.612078189849854E-1   8.660041689872742E-1  
 6.622000000000000E7     2.595016956329346E-1   8.693041205406189E-1   3.915697634220123E-1  -1.164450794458389E-1   3.914885520935059E-1  -1.164882034063339E-1   2.618775069713593E-1   8.662379384040833E-1  
 6.624000000000000E7     2.601948082447052E-1   8.691626787185669E-1   3.915992081165314E-1  -1.169310137629509E-1   3.917137086391449E-1  -1.166917681694031E-1   2.623325884342194E-1   8.657399415969849E-1  
 6.626000000000000E7     2.608446776866913E-1   8.684797883033752E-1   3.917536437511444E-1  -1.172806844115257E-1   3.918457627296448E-1  -1.170293688774109E-1   2.629178166389465E-1   8.655683398246765E-1  
 6.628000000000000E7     2.610523998737335E-1   8.684676885604858E-1   3.919744789600372E-1  -1.175813823938370E-1   3.918553590774536E-1  -1.173394769430161E-1   2.632157206535339E-1   8.651466369628906E-1  
 6.630000000000000E7     2.617969512939453E-1   8.681302666664124E-1   3.926050364971161E-1  -1.178608834743500E-1   3.922462761402130E-1  -1.176047623157501E-1   2.641422152519226E-1   8.651330471038818E-1  
 6.632000000000000E7     2.625299990177155E-1   8.676108717918396E-1   3.924680352210999E-1  -1.182961612939835E-1   3.922209143638611E-1  -1.181401014328003E-1   2.647850513458252E-1   8.651027679443359E-1  
 6.634000000000000E7     2.631584703922272E-1   8.674809336662293E-1   3.922757208347321E-1  -1.185751259326935E-1   3.923563361167908E-1  -1.183834820985794E-1   2.654207944869995E-1   8.644602298736572E-1  
 6.636000000000000E7     2.635564208030701E-1   8.667670488357544E-1   3.927197158336639E-1  -1.189103052020073E-1   3.925407528877258E-1  -1.189788132905960E-1   2.660481631755829E-1   8.642211556434631E-1  
 6.638000000000000E7     2.641175985336304E-1   8.671756982803345E-1   3.928947150707245E-1  -1.194462552666664E-1   3.927710056304932E-1  -1.193507835268974E-1   2.665266990661621E-1   8.638111948966980E-1  
 6.640000000000000E7     2.646841108798981E-1   8.664280176162720E-1   3.930839300155640E-1  -1.198965460062027E-1   3.928851187229157E-1  -1.197392493486404E-1   2.672851085662842E-1   8.631742596626282E-1  
 6.642000000000000E7     2.651480138301849E-1   8.662444353103638E-1   3.931263089179993E-1  -1.199954599142075E-1   3.930451273918152E-1  -1.199137195944786E-1   2.678932547569275E-1   8.633193969726563E-1  
 6.644000000000000E7     2.659068405628204E-1   8.660931587219238E-1   3.933210968971252E-1  -1.206475198268890E-1   3.930773437023163E-1  -1.201939135789871E-1   2.683554589748383E-1   8.626493811607361E-1  
 6.646000000000000E7     2.666697502136231E-1   8.657557368278503E-1   3.931909799575806E-1  -1.206454113125801E-1   3.933442533016205E-1  -1.208537295460701E-1   2.688831686973572E-1   8.621122241020203E-1  
 6.648000000000000E7     2.673013508319855E-1   8.654634952545166E-1   3.935733735561371E-1  -1.214350610971451E-1   3.932331800460815E-1  -1.207077950239182E-1   2.698713243007660E-1   8.625812530517578E-1  
 6.650000000000000E7     2.676244676113129E-1   8.649377822875977E-1   3.937978744506836E-1  -1.214691251516342E-1   3.937312960624695E-1  -1.213077455759049E-1   2.702451348304749E-1   8.619498014450073E-1  
 6.652000000000000E7     2.681376934051514E-1   8.645754456520081E-1   3.937723636627197E-1  -1.217405349016190E-1   3.937250673770905E-1  -1.217407658696175E-1   2.711593806743622E-1   8.618956208229065E-1  
 6.654000000000000E7     2.692983746528626E-1   8.645974993705750E-1   3.937603235244751E-1  -1.219776943325996E-1   3.938803970813751E-1  -1.221222504973412E-1   2.711006104946137E-1   8.613581657409668E-1  
 6.656000000000000E7     2.695477306842804E-1   8.642492890357971E-1   3.943231999874115E-1  -1.227580010890961E-1   3.944312036037445E-1  -1.224512457847595E-1   2.720491290092468E-1   8.609463572502136E-1  
 6.658000000000000E7     2.705841660499573E-1   8.638406395912170E-1   3.943312168121338E-1  -1.229971349239349E-1   3.945312500000000E-1  -1.230234354734421E-1   2.723840177059174E-1   8.608587980270386E-1  
 6.660000000000000E7     2.707788646221161E-1   8.633867502212524E-1   3.943816125392914E-1  -1.232901960611343E-1   3.944038450717926E-1  -1.231182068586350E-1   2.732533812522888E-1   8.603074550628662E-1  
 6.662000000000000E7     2.711076736450195E-1   8.632194995880127E-1   3.945237398147583E-1  -1.239558160305023E-1   3.947333097457886E-1  -1.231588646769524E-1   2.737195491790772E-1   8.600461483001709E-1  
 6.664000000000000E7     2.718195617198944E-1   8.627388477325440E-1   3.947159349918366E-1  -1.242715120315552E-1   3.945258259773254E-1  -1.240413337945938E-1   2.747629880905151E-1   8.598250150680542E-1  
 6.666000000000000E7     2.721707820892334E-1   8.626042604446411E-1   3.948949575424194E-1  -1.244705542922020E-1   3.946986198425293E-1  -1.243792772293091E-1   2.748875617980957E-1   8.597830533981323E-1  
 6.668000000000000E7     2.734590470790863E-1   8.623690605163574E-1   3.949340879917145E-1  -1.248691678047180E-1   3.953419625759125E-1  -1.247816085815430E-1   2.753573656082153E-1   8.589978814125061E-1  
 6.670000000000000E7     2.737485170364380E-1   8.620374798774719E-1   3.948672711849213E-1  -1.251609921455383E-1   3.952654898166657E-1  -1.251795142889023E-1   2.762495279312134E-1   8.588929176330566E-1  
 6.672000000000000E7     2.742918431758881E-1   8.613666892051697E-1   3.950861692428589E-1  -1.257185339927673E-1   3.951504230499268E-1  -1.254192441701889E-1   2.768070101737976E-1   8.582943081855774E-1  
 6.674000000000000E7     2.748457789421082E-1   8.613436222076416E-1   3.957779407501221E-1  -1.263237893581390E-1   3.956762552261353E-1  -1.258481740951538E-1   2.778557538986206E-1   8.580946922302246E-1  
 6.676000000000000E7     2.752734124660492E-1   8.607367873191834E-1   3.957539796829224E-1  -1.263663172721863E-1   3.955290019512177E-1  -1.262765228748322E-1   2.776343524456024E-1   8.580065369606018E-1  
 6.678000000000000E7     2.761509716510773E-1   8.602454066276550E-1   3.959389328956604E-1  -1.267715990543366E-1   3.954001963138580E-1  -1.266053467988968E-1   2.783646881580353E-1   8.578057289123535E-1  
 6.680000000000000E7     2.768930196762085E-1   8.601482510566711E-1   3.961330652236939E-1  -1.271077394485474E-1   3.960842192173004E-1  -1.271116435527802E-1   2.792543470859528E-1   8.573206067085266E-1  
 6.682000000000000E7     2.775942683219910E-1   8.601765036582947E-1   3.960436582565308E-1  -1.275140345096588E-1   3.960445523262024E-1  -1.274295151233673E-1   2.796447277069092E-1   8.569268584251404E-1  
 6.684000000000000E7     2.782423198223114E-1   8.593440055847168E-1   3.962166905403137E-1  -1.278246790170670E-1   3.960255980491638E-1  -1.277875304222107E-1   2.803186476230621E-1   8.565220832824707E-1  
 6.686000000000000E7     2.786460816860199E-1   8.591084480285645E-1   3.965256214141846E-1  -1.281553804874420E-1   3.962520956993103E-1  -1.281839311122894E-1   2.806604504585266E-1   8.565452694892883E-1  
 6.688000000000000E7     2.791171371936798E-1   8.591672778129578E-1   3.968510031700134E-1  -1.285693794488907E-1   3.965467512607575E-1  -1.282646059989929E-1   2.815282344818115E-1   8.560894727706909E-1  
 6.690000000000000E7     2.798613309860230E-1   8.586357235908508E-1   3.971610665321350E-1  -1.289799511432648E-1   3.972033262252808E-1  -1.287577152252197E-1   2.819459140300751E-1   8.560624122619629E-1  
 6.692000000000000E7     2.803757786750794E-1   8.581675887107849E-1   3.968327045440674E-1  -1.295644789934158E-1   3.969207108020783E-1  -1.292915642261505E-1   2.829103171825409E-1   8.554302453994751E-1  
 6.694000000000000E7     2.809430956840515E-1   8.578897714614868E-1   3.970647454261780E-1  -1.297713667154312E-1   3.967425823211670E-1  -1.294900327920914E-1   2.833341956138611E-1   8.549543619155884E-1  
 6.696000000000000E7     2.816507220268250E-1   8.575237393379211E-1   3.973188996315002E-1  -1.300987899303436E-1   3.968868553638458E-1  -1.299135386943817E-1   2.841550707817078E-1   8.553052544593811E-1  
 6.698000000000000E7     2.818154692649841E-1   8.573068976402283E-1   3.973191082477570E-1  -1.302754729986191E-1   3.969615995883942E-1  -1.300616562366486E-1   2.843124270439148E-1   8.544165492057800E-1  
 6.700000000000000E7     2.825258970260620E-1   8.570777773857117E-1   3.973498940467835E-1  -1.308038830757141E-1   3.974264860153198E-1  -1.305845379829407E-1   2.851701080799103E-1   8.538689017295837E-1  
 6.702000000000000E7     2.831764817237854E-1   8.564883470535278E-1   3.977278470993042E-1  -1.313903927803040E-1   3.974098563194275E-1  -1.308180391788483E-1   2.859176099300385E-1   8.538272380828857E-1  
 6.704000000000000E7     2.837381958961487E-1   8.565441966056824E-1   3.975639343261719E-1  -1.316720396280289E-1   3.977897763252258E-1  -1.313444674015045E-1   2.863470613956451E-1   8.536293506622315E-1  
 6.706000000000000E7     2.845609486103058E-1   8.559629917144775E-1   3.980311155319214E-1  -1.320743560791016E-1   3.975135684013367E-1  -1.320897936820984E-1   2.869380712509155E-1   8.532791137695313E-1  
 6.708000000000000E7     2.851268351078033E-1   8.554896712303162E-1   3.984420299530029E-1  -1.325339078903198E-1   3.978281617164612E-1  -1.324326992034912E-1   2.873453199863434E-1   8.528918623924255E-1  
 6.710000000000000E7     2.856676578521729E-1   8.554612994194031E-1   3.983261585235596E-1  -1.327990889549255E-1   3.981546461582184E-1  -1.325405985116959E-1   2.879607081413269E-1   8.526598811149597E-1  
 6.712000000000000E7     2.865015864372253E-1   8.555777668952942E-1   3.984787166118622E-1  -1.330779790878296E-1   3.982722759246826E-1  -1.327859610319138E-1   2.882206737995148E-1   8.522172570228577E-1  
 6.714000000000000E7     2.870649695396423E-1   8.550925850868225E-1   3.986498713493347E-1  -1.336729526519775E-1   3.983762860298157E-1  -1.336212456226349E-1   2.890117466449738E-1   8.518478870391846E-1  
 6.716000000000000E7     2.875534296035767E-1   8.542789220809937E-1   3.988530337810516E-1  -1.336205601692200E-1   3.986690342426300E-1  -1.336115449666977E-1   2.894365489482880E-1   8.517641425132752E-1  
 6.718000000000000E7     2.880379855632782E-1   8.539850115776062E-1   3.985713124275208E-1  -1.344086527824402E-1   3.983789682388306E-1  -1.342498511075974E-1   2.903127968311310E-1   8.513479828834534E-1  
 6.720000000000000E7     2.890518903732300E-1   8.539966344833374E-1   3.988707363605499E-1  -1.346450150012970E-1   3.987960219383240E-1  -1.343584954738617E-1   2.909731268882752E-1   8.510792851448059E-1  
 6.722000000000000E7     2.894452810287476E-1   8.538383841514587E-1   3.993361592292786E-1  -1.348198503255844E-1   3.990808129310608E-1  -1.347520798444748E-1   2.915722131729126E-1   8.510608077049255E-1  
 6.724000000000000E7     2.900222539901733E-1   8.531661033630371E-1   3.991007208824158E-1  -1.357276290655136E-1   3.989936709403992E-1  -1.354635357856751E-1   2.919199168682098E-1   8.500453829765320E-1  
 6.726000000000000E7     2.905322611331940E-1   8.527697920799255E-1   3.992990553379059E-1  -1.359746456146240E-1   3.991370201110840E-1  -1.360129565000534E-1   2.926522493362427E-1   8.500511646270752E-1  
 6.728000000000000E7     2.909270226955414E-1   8.525354862213135E-1   3.995144069194794E-1  -1.361883580684662E-1   3.994235098361969E-1  -1.359626799821854E-1   2.932348549365997E-1   8.498805761337280E-1  
 6.730000000000000E7     2.914171516895294E-1   8.524512052536011E-1   3.999932110309601E-1  -1.365867853164673E-1   3.998440206050873E-1  -1.364776343107224E-1   2.940092980861664E-1   8.492947220802307E-1  
 6.732000000000000E7     2.923966050148010E-1   8.519017696380615E-1   3.997038304805756E-1  -1.368756592273712E-1   3.997437953948975E-1  -1.366063356399536E-1   2.940267026424408E-1   8.491164445877075E-1  
 6.734000000000000E7     2.931555807590485E-1   8.518021106719971E-1   3.999403417110443E-1  -1.373432576656342E-1   3.999663591384888E-1  -1.372555196285248E-1   2.949702441692352E-1   8.485658168792725E-1  
 6.736000000000000E7     2.935640513896942E-1   8.512467145919800E-1   4.001411795616150E-1  -1.378072649240494E-1   4.001480042934418E-1  -1.373952627182007E-1   2.954376935958862E-1   8.486930727958679E-1  
 6.738000000000000E7     2.943049669265747E-1   8.511965870857239E-1   4.001966416835785E-1  -1.379649937152863E-1   4.001802504062653E-1  -1.381660401821137E-1   2.965950667858124E-1   8.479676246643066E-1  
 6.740000000000000E7     2.946169078350067E-1   8.503949046134949E-1   4.005329310894013E-1  -1.382839083671570E-1   3.999744355678558E-1  -1.384693384170532E-1   2.966902852058411E-1   8.478720188140869E-1  
 6.742000000000000E7     2.952243983745575E-1   8.503083586692810E-1   4.003837704658508E-1  -1.386789083480835E-1   4.005173742771149E-1  -1.386847198009491E-1   2.972245216369629E-1   8.475475907325745E-1  
 6.744000000000000E7     2.958860397338867E-1   8.499705195426941E-1   4.005390405654907E-1  -1.391687393188477E-1   4.005910456180573E-1  -1.392022818326950E-1   2.976138293743134E-1   8.471185564994812E-1  
 6.746000000000000E7     2.962835133075714E-1   8.493747115135193E-1   4.004414677619934E-1  -1.398435980081558E-1   4.005149602890015E-1  -1.393423676490784E-1   2.986181974411011E-1   8.465728759765625E-1  
 6.748000000000000E7     2.968919575214386E-1   8.491542339324951E-1   4.009222388267517E-1  -1.397287249565125E-1   4.005923867225647E-1  -1.397781074047089E-1   2.993102967739105E-1   8.466397523880005E-1  
 6.750000000000000E7     2.972511351108551E-1   8.494111895561218E-1   4.008382856845856E-1  -1.401068270206451E-1   4.010452926158905E-1  -1.400260180234909E-1   2.996643781661987E-1   8.460268974304199E-1  
 6.752000000000000E7     2.978998422622681E-1   8.488526344299316E-1   4.011140465736389E-1  -1.407668441534042E-1   4.008565247058868E-1  -1.403991281986237E-1   3.003729581832886E-1   8.454838991165161E-1  
 6.754000000000000E7     2.988041937351227E-1   8.484722375869751E-1   4.014209210872650E-1  -1.412850767374039E-1   4.011832177639008E-1  -1.410144567489624E-1   3.009699285030365E-1   8.454882502555847E-1  
 6.756000000000000E7     2.990454137325287E-1   8.478337526321411E-1   4.015141725540161E-1  -1.414333283901215E-1   4.011229276657105E-1  -1.412623077630997E-1   3.015568256378174E-1   8.450847268104553E-1  
 6.758000000000000E7     2.995657622814179E-1   8.474560976028442E-1   4.015489220619202E-1  -1.420907080173492E-1   4.015975892543793E-1  -1.419220268726349E-1   3.021851480007172E-1   8.449404835700989E-1  
 6.760000000000000E7     2.998810112476349E-1   8.471857309341431E-1   4.019172489643097E-1  -1.421328932046890E-1   4.016840159893036E-1  -1.422577798366547E-1   3.030331134796143E-1   8.444850444793701E-1  
 6.762000000000000E7     3.010618686676025E-1   8.468603491783142E-1   4.016163051128388E-1  -1.427473425865173E-1   4.017419815063477E-1  -1.425361633300781E-1   3.035202622413635E-1   8.443243503570557E-1  
 6.764000000000000E7     3.015449345111847E-1   8.466274142265320E-1   4.022337198257446E-1  -1.431659907102585E-1   4.022183120250702E-1  -1.430988311767578E-1   3.038560152053833E-1   8.438539505004883E-1  
 6.766000000000000E7     3.018707931041718E-1   8.464199900627136E-1   4.021541476249695E-1  -1.435241401195526E-1   4.022547602653503E-1  -1.434732675552368E-1   3.045769631862640E-1   8.436620831489563E-1  
 6.768000000000000E7     3.026565313339233E-1   8.458554744720459E-1   4.023393988609314E-1  -1.438406258821487E-1   4.022115767002106E-1  -1.436809599399567E-1   3.048706352710724E-1   8.433195948600769E-1  
 6.770000000000000E7     3.033901453018189E-1   8.461374640464783E-1   4.022808670997620E-1  -1.442446112632752E-1   4.021302163600922E-1  -1.441641449928284E-1   3.054931163787842E-1   8.425895571708679E-1  
 6.772000000000000E7     3.038666844367981E-1   8.452283740043640E-1   4.026225805282593E-1  -1.444406509399414E-1   4.024465978145599E-1  -1.443678140640259E-1   3.063009083271027E-1   8.427095413208008E-1  
 6.774000000000000E7     3.041019737720490E-1   8.450829982757568E-1   4.025524258613586E-1  -1.448685526847839E-1   4.025177955627441E-1  -1.446169465780258E-1   3.066050410270691E-1   8.420944213867188E-1  
 6.776000000000000E7     3.053437173366547E-1   8.445156216621399E-1   4.027616083621979E-1  -1.453735232353210E-1   4.029653370380402E-1  -1.453733742237091E-1   3.073709309101105E-1   8.417389988899231E-1  
 6.778000000000000E7     3.053224086761475E-1   8.442285656929016E-1   4.027029871940613E-1  -1.454513669013977E-1   4.026490151882172E-1  -1.454439759254456E-1   3.077457845211029E-1   8.415248394012451E-1  
 6.780000000000000E7     3.059012889862061E-1   8.439106941223145E-1   4.030333757400513E-1  -1.461589932441711E-1   4.028335213661194E-1  -1.459331810474396E-1   3.083811402320862E-1   8.410233259201050E-1  
 6.782000000000000E7     3.067489862442017E-1   8.435577154159546E-1   4.028106033802033E-1  -1.465319097042084E-1   4.030651152133942E-1  -1.461383104324341E-1   3.091201484203339E-1   8.408075571060181E-1  
 6.784000000000000E7     3.069906830787659E-1   8.436625599861145E-1   4.032678902149200E-1  -1.465997397899628E-1   4.031459391117096E-1  -1.463981121778488E-1   3.096004128456116E-1   8.404108285903931E-1  
 6.786000000000000E7     3.078420162200928E-1   8.430823087692261E-1   4.033492505550385E-1  -1.471795439720154E-1   4.032444357872009E-1  -1.473138034343720E-1   3.104256689548492E-1   8.398731350898743E-1  
 6.788000000000000E7     3.085319399833679E-1   8.427947759628296E-1   4.035237133502960E-1  -1.476459205150604E-1   4.034584760665894E-1  -1.472272574901581E-1   3.106735944747925E-1   8.398309946060181E-1  
 6.790000000000000E7     3.092618882656097E-1   8.423005342483521E-1   4.035081267356873E-1  -1.482909321784973E-1   4.036183059215546E-1  -1.477046608924866E-1   3.116104006767273E-1   8.392633199691773E-1  
 6.792000000000000E7     3.098061680793762E-1   8.420678973197937E-1   4.038020372390747E-1  -1.481758058071137E-1   4.035628437995911E-1  -1.480751931667328E-1   3.118680715560913E-1   8.391078114509583E-1  
 6.794000000000000E7     3.100681602954865E-1   8.413560390472412E-1   4.039353430271149E-1  -1.490485817193985E-1   4.038431346416473E-1  -1.486546844244003E-1   3.125563263893127E-1   8.389891982078552E-1  
 6.796000000000000E7     3.109955191612244E-1   8.412020802497864E-1   4.038484394550324E-1  -1.493427157402039E-1   4.041542410850525E-1  -1.489204466342926E-1   3.129261434078217E-1   8.384982347488403E-1  
 6.798000000000000E7     3.112515807151794E-1   8.407659530639648E-1   4.042407870292664E-1  -1.494549214839935E-1   4.041267931461334E-1  -1.494150161743164E-1   3.136200606822968E-1   8.382169008255005E-1  
 6.800000000000000E7     3.115819692611694E-1   8.405388593673706E-1   4.041816890239716E-1  -1.499161720275879E-1   4.041327834129334E-1  -1.496600657701492E-1   3.143844902515411E-1   8.377333283424377E-1  
 6.802000000000000E7     3.125923871994019E-1   8.402544260025024E-1   4.043319225311279E-1  -1.505147665739059E-1   4.044962525367737E-1  -1.499952673912048E-1   3.149941861629486E-1   8.377384543418884E-1  
 6.804000000000000E7     3.129690289497376E-1   8.401235342025757E-1   4.047362506389618E-1  -1.506824195384979E-1   4.045306742191315E-1  -1.502279043197632E-1   3.155397474765778E-1   8.371779322624207E-1  
 6.806000000000000E7     3.135087490081787E-1   8.392158150672913E-1   4.047323167324066E-1  -1.512088179588318E-1   4.046666324138641E-1  -1.507472097873688E-1   3.158579766750336E-1   8.368071913719177E-1  
 6.808000000000000E7     3.138843476772308E-1   8.392508029937744E-1   4.047416448593140E-1  -1.514976322650909E-1   4.048770070075989E-1  -1.510045826435089E-1   3.166994452476502E-1   8.363500237464905E-1  
 6.810000000000000E7     3.147211968898773E-1   8.387243151664734E-1   4.049633443355560E-1  -1.517544388771057E-1   4.048057198524475E-1  -1.515728682279587E-1   3.170805275440216E-1   8.360924720764160E-1  
 6.812000000000000E7     3.150406479835510E-1   8.386135697364807E-1   4.051065146923065E-1  -1.522406935691834E-1   4.048875868320465E-1  -1.521217972040176E-1   3.178932070732117E-1   8.356803655624390E-1  
 6.814000000000000E7     3.155874311923981E-1   8.383386731147766E-1   4.052223563194275E-1  -1.527351588010788E-1   4.052340984344482E-1  -1.523776054382324E-1   3.184957206249237E-1   8.348831534385681E-1  
 6.816000000000000E7     3.166275024414063E-1   8.377553820610046E-1   4.052486419677734E-1  -1.530165523290634E-1   4.051012694835663E-1  -1.529402434825897E-1   3.189677894115448E-1   8.349882960319519E-1  
 6.818000000000000E7     3.170804679393768E-1   8.373631238937378E-1   4.054169952869415E-1  -1.536958664655685E-1   4.052849411964417E-1  -1.532326340675354E-1   3.194588720798492E-1   8.345937728881836E-1  
 6.820000000000000E7     3.174324631690979E-1   8.370431065559387E-1   4.053671360015869E-1  -1.537114083766937E-1   4.053711891174316E-1  -1.535874009132385E-1   3.201455473899841E-1   8.341022133827210E-1  
 6.822000000000000E7     3.185225427150726E-1   8.367268443107605E-1   4.056354761123657E-1  -1.544741839170456E-1   4.054724574089050E-1  -1.541968584060669E-1   3.204596042633057E-1   8.339806199073792E-1  
 6.824000000000000E7     3.184865117073059E-1   8.360472917556763E-1   4.057101011276245E-1  -1.548167020082474E-1   4.053560793399811E-1  -1.544162929058075E-1   3.213074803352356E-1   8.336559534072876E-1  
 6.826000000000000E7     3.194302618503571E-1   8.360984325408936E-1   4.057595729827881E-1  -1.548293083906174E-1   4.057191610336304E-1  -1.547467559576035E-1   3.215557336807251E-1   8.332605361938477E-1  
 6.828000000000000E7     3.199176192283630E-1   8.356674909591675E-1   4.059793651103973E-1  -1.553539335727692E-1   4.057625830173492E-1  -1.554445922374725E-1   3.221259415149689E-1   8.331567645072937E-1  
 6.830000000000000E7     3.204343020915985E-1   8.354222178459168E-1   4.058543443679810E-1  -1.556230187416077E-1   4.060931205749512E-1  -1.555176973342896E-1   3.225828707218170E-1   8.324251174926758E-1  
 6.832000000000000E7     3.210003077983856E-1   8.350102901458740E-1   4.060765206813812E-1  -1.561053842306137E-1   4.059550762176514E-1  -1.557372659444809E-1   3.232483267784119E-1   8.322087526321411E-1  
 6.834000000000000E7     3.213508725166321E-1   8.345548510551453E-1   4.064601063728333E-1  -1.566166430711746E-1   4.063248634338379E-1  -1.566324979066849E-1   3.240512311458588E-1   8.319356441497803E-1  
 6.836000000000000E7     3.219916224479675E-1   8.345769643783569E-1   4.064695537090302E-1  -1.569974422454834E-1   4.062103033065796E-1  -1.567482203245163E-1   3.245242238044739E-1   8.315186500549316E-1  
 6.838000000000000E7     3.223626017570496E-1   8.339793682098389E-1   4.066221117973328E-1  -1.575874388217926E-1   4.064424633979797E-1  -1.570929288864136E-1   3.251916766166687E-1   8.310541510581970E-1  
 6.840000000000000E7     3.232125341892242E-1   8.334978818893433E-1   4.066135883331299E-1  -1.579219400882721E-1   4.064295887947083E-1  -1.577135920524597E-1   3.257458806037903E-1   8.306655287742615E-1  
 6.842000000000000E7     3.234117329120636E-1   8.331497311592102E-1   4.066770374774933E-1  -1.581080704927445E-1   4.067827463150024E-1  -1.576065421104431E-1   3.264981508255005E-1   8.302032351493835E-1  
 6.844000000000000E7     3.245359361171722E-1   8.330138325691223E-1   4.071083962917328E-1  -1.587617546319962E-1   4.069403707981110E-1  -1.585999727249146E-1   3.269889652729034E-1   8.302865624427795E-1  
 6.846000000000000E7     3.250413239002228E-1   8.325619697570801E-1   4.071283340454102E-1  -1.588423550128937E-1   4.070354998111725E-1  -1.588270366191864E-1   3.271253705024719E-1   8.299335241317749E-1  
 6.848000000000000E7     3.251629173755646E-1   8.322322964668274E-1   4.068618714809418E-1  -1.588009297847748E-1   4.070031344890595E-1  -1.588422954082489E-1   3.278633654117584E-1   8.296824693679810E-1  
 6.850000000000000E7     3.260056972503662E-1   8.320202827453613E-1   4.071547985076904E-1  -1.597689390182495E-1   4.070243537425995E-1  -1.595094054937363E-1   3.285494446754456E-1   8.288521170616150E-1  
 6.852000000000000E7     3.266925513744354E-1   8.313184976577759E-1   4.074407815933228E-1  -1.602446287870407E-1   4.070827960968018E-1  -1.597630381584168E-1   3.289287090301514E-1   8.290180563926697E-1  
 6.854000000000000E7     3.270765841007233E-1   8.311207294464111E-1   4.074938297271729E-1  -1.605429500341415E-1   4.072054624557495E-1  -1.603064239025116E-1   3.295957148075104E-1   8.283636569976807E-1  
 6.856000000000000E7     3.277665376663208E-1   8.309263586997986E-1   4.074254631996155E-1  -1.610209494829178E-1   4.075199067592621E-1  -1.607462763786316E-1   3.298857510089874E-1   8.279780149459839E-1  
 6.858000000000000E7     3.284476995468140E-1   8.305975198745728E-1   4.075720906257629E-1  -1.613818258047104E-1   4.077348709106445E-1  -1.611044406890869E-1   3.308134377002716E-1   8.275779485702515E-1  
 6.860000000000000E7     3.283120989799500E-1   8.302134871482849E-1   4.075588285923004E-1  -1.617172956466675E-1   4.077043831348419E-1  -1.613529026508331E-1   3.316896557807922E-1   8.272138237953186E-1  
 6.862000000000000E7     3.296317458152771E-1   8.298563957214356E-1   4.080254435539246E-1  -1.621310710906982E-1   4.075841605663300E-1  -1.619179546833038E-1   3.318970501422882E-1   8.271080851554871E-1  
 6.864000000000000E7     3.300461471080780E-1   8.292219638824463E-1   4.079076647758484E-1  -1.623630970716476E-1   4.078512787818909E-1  -1.622208356857300E-1   3.322929739952087E-1   8.267661333084106E-1  
 6.866000000000000E7     3.308606743812561E-1   8.292049169540405E-1   4.081463515758514E-1  -1.627953052520752E-1   4.080253243446350E-1  -1.624300181865692E-1   3.326300084590912E-1   8.263235688209534E-1  
 6.868000000000000E7     3.310106396675110E-1   8.288897275924683E-1   4.082120060920715E-1  -1.631935536861420E-1   4.083214104175568E-1  -1.629669368267059E-1   3.335905969142914E-1   8.259346485137940E-1  
 6.870000000000000E7     3.316870331764221E-1   8.283871412277222E-1   4.082113206386566E-1  -1.639179438352585E-1   4.081211090087891E-1  -1.637416183948517E-1   3.341400325298309E-1   8.253498077392578E-1  
 6.872000000000000E7     3.322423696517944E-1   8.280624747276306E-1   4.081929326057434E-1  -1.641447991132736E-1   4.084471762180328E-1  -1.638424992561340E-1   3.349018394947052E-1   8.251319527626038E-1  
 6.874000000000000E7     3.321477174758911E-1   8.274814486503601E-1   4.088102579116821E-1  -1.645260006189346E-1   4.084561467170715E-1  -1.640223860740662E-1   3.354608714580536E-1   8.250981569290161E-1  
 6.876000000000000E7     3.333445787429810E-1   8.274765014648438E-1   4.086128771305084E-1  -1.647175997495651E-1   4.085235595703125E-1  -1.646468341350555E-1   3.356656432151794E-1   8.243484497070313E-1  
 6.878000000000000E7     3.338136374950409E-1   8.268172144889832E-1   4.087083041667938E-1  -1.651471853256226E-1   4.088971018791199E-1  -1.650741249322891E-1   3.364791870117188E-1   8.240543603897095E-1  
 6.880000000000000E7     3.346365392208099E-1   8.265374898910523E-1   4.087968766689301E-1  -1.655764132738113E-1   4.086996912956238E-1  -1.653386056423187E-1   3.366540968418121E-1   8.239004611968994E-1  
 6.882000000000000E7     3.346281051635742E-1   8.264247775077820E-1   4.090928435325623E-1  -1.659644842147827E-1   4.089855551719666E-1  -1.659794300794601E-1   3.374582529067993E-1   8.234428167343140E-1  
 6.884000000000000E7     3.353299200534821E-1   8.259577751159668E-1   4.089511632919312E-1  -1.662060618400574E-1   4.092439413070679E-1  -1.658347845077515E-1   3.379704654216766E-1   8.232657909393311E-1  
 6.886000000000000E7     3.359274864196777E-1   8.254218101501465E-1   4.090853035449982E-1  -1.667209416627884E-1   4.091376960277557E-1  -1.664920151233673E-1   3.385712504386902E-1   8.228808641433716E-1  
 6.888000000000000E7     3.369513750076294E-1   8.250735998153687E-1   4.092066884040833E-1  -1.672135144472122E-1   4.092816412448883E-1  -1.670788228511810E-1   3.389136195182800E-1   8.224780559539795E-1  
 6.890000000000000E7     3.370572626590729E-1   8.246020078659058E-1   4.091501533985138E-1  -1.678037643432617E-1   4.094055294990540E-1  -1.672323495149612E-1   3.393649160861969E-1   8.218671679496765E-1  
 6.892000000000000E7     3.378603458404541E-1   8.244689702987671E-1   4.091871678829193E-1  -1.679634451866150E-1   4.094350039958954E-1  -1.675678044557571E-1   3.400031328201294E-1   8.217772841453552E-1  
 6.894000000000000E7     3.383068442344666E-1   8.242394924163818E-1   4.096561074256897E-1  -1.678854227066040E-1   4.098283350467682E-1  -1.678488552570343E-1   3.402535617351532E-1   8.214926123619080E-1  
 6.896000000000000E7     3.389272093772888E-1   8.237056732177734E-1   4.099886417388916E-1  -1.685698032379150E-1   4.098832905292511E-1  -1.686032712459564E-1   3.408265113830566E-1   8.209406137466431E-1  
 6.898000000000000E7     3.393809497356415E-1   8.233755826950073E-1   4.100141525268555E-1  -1.688722074031830E-1   4.098342657089233E-1  -1.687192767858505E-1   3.416607975959778E-1   8.206533193588257E-1  
 6.900000000000000E7     3.400300145149231E-1   8.229269385337830E-1   4.099134802818298E-1  -1.694073230028153E-1   4.096651673316956E-1  -1.693073213100433E-1   3.423151671886444E-1   8.202611804008484E-1  
 6.902000000000000E7     3.402768373489380E-1   8.228148221969605E-1   4.101117849349976E-1  -1.697138696908951E-1   4.100285470485687E-1  -1.696751713752747E-1   3.429482877254486E-1   8.198043107986450E-1  
 6.904000000000000E7     3.410838246345520E-1   8.221487998962402E-1   4.101421236991882E-1  -1.706780195236206E-1   4.101523458957672E-1  -1.700163334608078E-1   3.437147736549377E-1   8.195937275886536E-1  
 6.906000000000000E7     3.416655659675598E-1   8.216117620468140E-1   4.101593494415283E-1  -1.706486940383911E-1   4.100153744220734E-1  -1.706229299306870E-1   3.439390957355499E-1   8.192518949508667E-1  
 6.908000000000000E7     3.420569896697998E-1   8.214334845542908E-1   4.104328155517578E-1  -1.707951724529266E-1   4.102384746074677E-1  -1.707226932048798E-1   3.448243737220764E-1   8.186707496643066E-1  
 6.910000000000000E7     3.426063358783722E-1   8.210633397102356E-1   4.103458523750305E-1  -1.713050007820129E-1   4.103929400444031E-1  -1.716502904891968E-1   3.452178537845612E-1   8.185051083564758E-1  
 6.912000000000000E7     3.432498872280121E-1   8.205444216728210E-1   4.106659889221191E-1  -1.716774553060532E-1   4.104549288749695E-1  -1.717189550399780E-1   3.456370234489441E-1   8.182494640350342E-1  
 6.914000000000000E7     3.435268700122833E-1   8.206133246421814E-1   4.105131924152374E-1  -1.720819771289825E-1   4.105700850486755E-1  -1.720171570777893E-1   3.465127348899841E-1   8.179348707199097E-1  
 6.916000000000000E7     3.443939089775085E-1   8.202731609344482E-1   4.108037948608398E-1  -1.727953851222992E-1   4.108777344226837E-1  -1.723674088716507E-1   3.469496965408325E-1   8.175585865974426E-1  
 6.918000000000000E7     3.446883559226990E-1   8.200052380561829E-1   4.109241366386414E-1  -1.731490790843964E-1   4.108318686485291E-1  -1.726899594068527E-1   3.475147187709808E-1   8.171512484550476E-1  
 6.920000000000000E7     3.453514873981476E-1   8.195539712905884E-1   4.108996689319611E-1  -1.733787357807159E-1   4.109356105327606E-1  -1.735024154186249E-1   3.480938673019409E-1   8.166025876998901E-1  
 6.922000000000000E7     3.459694981575012E-1   8.191346526145935E-1   4.113757312297821E-1  -1.740474551916122E-1   4.108427762985230E-1  -1.736097633838654E-1   3.487945795059204E-1   8.164494037628174E-1  
 6.924000000000000E7     3.465192019939423E-1   8.185501694679260E-1   4.110692143440247E-1  -1.744779944419861E-1   4.112080633640289E-1  -1.741131544113159E-1   3.487632274627686E-1   8.157829046249390E-1  
 6.926000000000000E7     3.465184569358826E-1   8.181815743446350E-1   4.112557768821716E-1  -1.747569590806961E-1   4.110109210014343E-1  -1.742555797100067E-1   3.499750792980194E-1   8.156750798225403E-1  
 6.928000000000000E7     3.475756645202637E-1   8.178150057792664E-1   4.113525450229645E-1  -1.751255095005035E-1   4.112392365932465E-1  -1.744542419910431E-1   3.500329256057739E-1   8.151311278343201E-1  
 6.930000000000000E7     3.482361733913422E-1   8.175314664840698E-1   4.116106629371643E-1  -1.758717596530914E-1   4.113635122776032E-1  -1.755125224590302E-1   3.508080840110779E-1   8.150699138641357E-1  
 6.932000000000000E7     3.489224314689636E-1   8.168203830718994E-1   4.114561975002289E-1  -1.762489378452301E-1   4.113821685314179E-1  -1.757788062095642E-1   3.511399030685425E-1   8.144623637199402E-1  
 6.934000000000000E7     3.492523431777954E-1   8.167992234230042E-1   4.115242660045624E-1  -1.764677911996841E-1   4.115650653839111E-1  -1.761604547500610E-1   3.515836596488953E-1   8.139806985855103E-1  
 6.936000000000000E7     3.500916659832001E-1   8.166736364364624E-1   4.118215143680573E-1  -1.767752766609192E-1   4.113946855068207E-1  -1.766085922718048E-1   3.523758649826050E-1   8.135858178138733E-1  
 6.938000000000000E7     3.501347899436951E-1   8.160762190818787E-1   4.115893542766571E-1  -1.771527081727982E-1   4.117540121078491E-1  -1.767521202564240E-1   3.530212044715881E-1   8.132674098014832E-1  
 6.940000000000000E7     3.506146073341370E-1   8.160209655761719E-1   4.119786918163300E-1  -1.774939000606537E-1   4.118595421314240E-1  -1.771417558193207E-1   3.536561131477356E-1   8.129994869232178E-1  
 6.942000000000000E7     3.513229787349701E-1   8.154155611991882E-1   4.118377864360809E-1  -1.778781414031982E-1   4.119298756122589E-1  -1.772994995117188E-1   3.540306389331818E-1   8.126505613327026E-1  
 6.944000000000000E7     3.515255749225617E-1   8.150053024291992E-1   4.120147824287415E-1  -1.780997067689896E-1   4.121049940586090E-1  -1.779458224773407E-1   3.542682528495789E-1   8.121775388717651E-1  
 6.946000000000000E7     3.524649739265442E-1   8.147227764129639E-1   4.120252430438995E-1  -1.787542402744293E-1   4.120599627494812E-1  -1.784717738628388E-1   3.551501333713532E-1   8.117408752441406E-1  
 6.948000000000000E7     3.527034819126129E-1   8.141788244247437E-1   4.121110141277313E-1  -1.792374551296234E-1   4.120700359344482E-1  -1.786321401596069E-1   3.553538918495178E-1   8.117969036102295E-1  
 6.950000000000000E7     3.537094295024872E-1   8.137736320495606E-1   4.122696816921234E-1  -1.796698123216629E-1   4.121976196765900E-1  -1.794337779283524E-1   3.560567796230316E-1   8.110668659210205E-1  
 6.952000000000000E7     3.539490699768066E-1   8.136271238327026E-1   4.129096567630768E-1  -1.795755773782730E-1   4.127113223075867E-1  -1.795033365488052E-1   3.567552566528320E-1   8.110720515251160E-1  
 6.954000000000000E7     3.541329503059387E-1   8.131746649742127E-1   4.123188257217407E-1  -1.802031993865967E-1   4.123875498771668E-1  -1.798759847879410E-1   3.571440279483795E-1   8.103595972061157E-1  
 6.956000000000000E7     3.551015853881836E-1   8.130891919136047E-1   4.124317765235901E-1  -1.806665211915970E-1   4.127225875854492E-1  -1.800850331783295E-1   3.573860228061676E-1   8.098911643028259E-1  
 6.958000000000000E7     3.554832637310028E-1   8.123996257781982E-1   4.126839041709900E-1  -1.812557578086853E-1   4.125238955020905E-1  -1.806422621011734E-1   3.582400381565094E-1   8.094266057014465E-1  
 6.960000000000000E7     3.565388917922974E-1   8.121337890625000E-1   4.124853014945984E-1  -1.815423965454102E-1   4.127038419246674E-1  -1.812919825315476E-1   3.585416376590729E-1   8.092656731605530E-1  
 6.962000000000000E7     3.564946949481964E-1   8.119418621063232E-1   4.127179086208344E-1  -1.820895075798035E-1   4.128979742527008E-1  -1.817622929811478E-1   3.594205677509308E-1   8.087771534919739E-1  
 6.964000000000000E7     3.572102189064026E-1   8.115516901016235E-1   4.128153026103973E-1  -1.824063956737518E-1   4.130497574806213E-1  -1.819978356361389E-1   3.600577116012573E-1   8.085479736328125E-1  
 6.966000000000000E7     3.575068712234497E-1   8.109996914863586E-1   4.128349721431732E-1  -1.827463507652283E-1   4.131671786308289E-1  -1.821977794170380E-1   3.603357672691345E-1   8.080930709838867E-1  
 6.968000000000000E7     3.580974042415619E-1   8.103955984115601E-1   4.131893515586853E-1  -1.833404600620270E-1   4.130811393260956E-1  -1.827474534511566E-1   3.611457645893097E-1   8.076393604278565E-1  
 6.970000000000000E7     3.586710691452026E-1   8.098586201667786E-1   4.132598340511322E-1  -1.833691149950028E-1   4.131578803062439E-1  -1.830841749906540E-1   3.613389730453491E-1   8.073930144309998E-1  
 6.972000000000000E7     3.593598902225494E-1   8.099052906036377E-1   4.133635759353638E-1  -1.842307150363922E-1   4.129547476768494E-1  -1.836638748645783E-1   3.619494140148163E-1   8.069212436676025E-1  
 6.974000000000000E7     3.600368499755859E-1   8.095328807830811E-1   4.135038256645203E-1  -1.842108517885208E-1   4.134225845336914E-1  -1.841589510440826E-1   3.625196218490601E-1   8.067561388015747E-1  
 6.976000000000000E7     3.602453470230103E-1   8.090850114822388E-1   4.133600890636444E-1  -1.848744451999664E-1   4.134137928485870E-1  -1.845310330390930E-1   3.631080389022827E-1   8.064254522323608E-1  
 6.978000000000000E7     3.609551191329956E-1   8.085648417472839E-1   4.140292406082153E-1  -1.850969046354294E-1   4.138323664665222E-1  -1.849860846996307E-1   3.635883331298828E-1   8.058930635452271E-1  
 6.980000000000000E7     3.615535199642181E-1   8.080944418907166E-1   4.134062230587006E-1  -1.858080923557282E-1   4.134414494037628E-1  -1.853106021881104E-1   3.641253113746643E-1   8.057116866111755E-1  
 6.982000000000000E7     3.620681464672089E-1   8.081604242324829E-1   4.136072397232056E-1  -1.857292205095291E-1   4.137320816516876E-1  -1.853793710470200E-1   3.646589219570160E-1   8.051123023033142E-1  
 6.984000000000000E7     3.626272380352020E-1   8.075239062309265E-1   4.136221706867218E-1  -1.864360123872757E-1   4.138450622558594E-1  -1.859540641307831E-1   3.653680086135864E-1   8.046271800994873E-1  
 6.986000000000000E7     3.634920418262482E-1   8.073754906654358E-1   4.142594039440155E-1  -1.867095828056335E-1   4.139113724231720E-1  -1.865144371986389E-1   3.655638396739960E-1   8.045927286148071E-1  
 6.988000000000000E7     3.635492324829102E-1   8.063933849334717E-1   4.138492643833160E-1  -1.870448887348175E-1   4.138977825641632E-1  -1.869775652885437E-1   3.664079010486603E-1   8.041076660156250E-1  
 6.990000000000000E7     3.644593060016632E-1   8.063162565231323E-1   4.140065312385559E-1  -1.875396072864533E-1   4.139456152915955E-1  -1.873408108949661E-1   3.669468164443970E-1   8.036501407623291E-1  
 6.992000000000000E7     3.651649951934815E-1   8.060339689254761E-1   4.142452180385590E-1  -1.877144277095795E-1   4.140474200248718E-1  -1.875899434089661E-1   3.673174381256104E-1   8.032378554344177E-1  
 6.994000000000000E7     3.655304312705994E-1   8.057007789611816E-1   4.140328168869019E-1  -1.883061826229096E-1   4.143013656139374E-1  -1.880787909030914E-1   3.679316639900208E-1   8.027207255363464E-1  
 6.996000000000000E7     3.659483790397644E-1   8.051333427429199E-1   4.144753813743591E-1  -1.886688321828842E-1   4.143849611282349E-1  -1.885674595832825E-1   3.682730197906494E-1   8.023886680603027E-1  
 6.998000000000000E7     3.664658665657044E-1   8.047209382057190E-1   4.140641987323761E-1  -1.890819221735001E-1   4.143775701522827E-1  -1.889442354440689E-1   3.689354956150055E-1   8.021205067634583E-1  
 7.000000000000000E7     3.667843639850617E-1   8.044784069061279E-1   4.144059717655182E-1  -1.893124133348465E-1   4.144831597805023E-1  -1.893019378185272E-1   3.696773052215576E-1   8.020640015602112E-1  
