#  HZ   S   RI   R     50.00 
! Rohde & Schwarz ZVT8 8Ports - Version 4.11 - 1300.0000k08 SN: 100242
! Date: 2026-07-13 13:52:56
! Measurements: S11 S21 S12 S22 
! 
 1.000000000000000E7    -8.532898426055908E-1   4.331051409244537E-1   1.113892719149590E-1   2.198015898466110E-1   1.117242574691773E-1   2.196130603551865E-1  -8.508260846138001E-1   4.301844239234924E-1  
 1.002000000000000E7    -8.527250289916992E-1   4.338896870613098E-1   1.116986721754074E-1   2.204071432352066E-1   1.119778603315353E-1   2.203568220138550E-1  -8.505628108978272E-1   4.303808212280273E-1  
 1.004000000000000E7    -8.518888950347900E-1   4.344863891601563E-1   1.123709753155708E-1   2.209223061800003E-1   1.125220879912376E-1   2.204923331737518E-1  -8.499403595924377E-1   4.315906465053558E-1  
 1.006000000000000E7    -8.516530394554138E-1   4.356107711791992E-1   1.126501113176346E-1   2.209744453430176E-1   1.131180599331856E-1   2.210485935211182E-1  -8.493353724479675E-1   4.325314462184906E-1  
 1.008000000000000E7    -8.512088656425476E-1   4.365333914756775E-1   1.131696179509163E-1   2.214044481515884E-1   1.134217083454132E-1   2.213461548089981E-1  -8.487377166748047E-1   4.330565333366394E-1  
 1.010000000000000E7    -8.506398200988770E-1   4.371034801006317E-1   1.134795397520065E-1   2.218464612960815E-1   1.136481538414955E-1   2.217107266187668E-1  -8.484262824058533E-1   4.334866106510162E-1  
 1.012000000000000E7    -8.504124283790588E-1   4.373034834861755E-1   1.139730140566826E-1   2.222047597169876E-1   1.144139468669891E-1   2.218829840421677E-1  -8.474341034889221E-1   4.347674250602722E-1  
 1.014000000000000E7    -8.495552539825440E-1   4.385965764522553E-1   1.146778911352158E-1   2.224200218915939E-1   1.149524152278900E-1   2.222850918769836E-1  -8.468354344367981E-1   4.352821409702301E-1  
 1.016000000000000E7    -8.488063812255859E-1   4.389390349388123E-1   1.149196401238442E-1   2.230051755905151E-1   1.152977496385574E-1   2.226936668157578E-1  -8.467295169830322E-1   4.362894594669342E-1  
 1.018000000000000E7    -8.486425876617432E-1   4.401545822620392E-1   1.154318079352379E-1   2.234139740467072E-1   1.157968193292618E-1   2.232160121202469E-1  -8.466214537620544E-1   4.365984201431274E-1  
 1.020000000000000E7    -8.478183150291443E-1   4.408036172389984E-1   1.158854663372040E-1   2.234409004449844E-1   1.160109713673592E-1   2.232704758644104E-1  -8.454533219337463E-1   4.374505877494812E-1  
 1.022000000000000E7    -8.471499085426331E-1   4.417870938777924E-1   1.161847561597824E-1   2.240093648433685E-1   1.164800673723221E-1   2.236156761646271E-1  -8.450181484222412E-1   4.379903972148895E-1  
 1.024000000000000E7    -8.466640710830689E-1   4.425989389419556E-1   1.169321835041046E-1   2.242705076932907E-1   1.173354610800743E-1   2.238939255475998E-1  -8.444008231163025E-1   4.395685493946075E-1  
 1.026000000000000E7    -8.462015390396118E-1   4.430065751075745E-1   1.171786263585091E-1   2.248510420322418E-1   1.173745468258858E-1   2.244192808866501E-1  -8.440906405448914E-1   4.394960999488831E-1  
 1.028000000000000E7    -8.453994989395142E-1   4.438157081604004E-1   1.176323294639587E-1   2.251369655132294E-1   1.180573254823685E-1   2.247271239757538E-1  -8.433222770690918E-1   4.401977360248566E-1  
 1.030000000000000E7    -8.452680110931397E-1   4.446333646774292E-1   1.184259802103043E-1   2.253820300102234E-1   1.186281591653824E-1   2.252104729413986E-1  -8.426191210746765E-1   4.416938424110413E-1  
 1.032000000000000E7    -8.446398377418518E-1   4.451884329319000E-1   1.187553554773331E-1   2.257877737283707E-1   1.190267056226730E-1   2.255982309579849E-1  -8.423961997032166E-1   4.422692656517029E-1  
 1.034000000000000E7    -8.442394733428955E-1   4.462429285049439E-1   1.192207634449005E-1   2.262061685323715E-1   1.194661036133766E-1   2.259674966335297E-1  -8.417387604713440E-1   4.429189562797546E-1  
 1.036000000000000E7    -8.436129689216614E-1   4.465703368186951E-1   1.196796745061874E-1   2.264368683099747E-1   1.197293624281883E-1   2.262291610240936E-1  -8.411012887954712E-1   4.433511197566986E-1  
 1.038000000000000E7    -8.426771759986877E-1   4.474948942661285E-1   1.200147718191147E-1   2.267903983592987E-1   1.205273792147636E-1   2.266383171081543E-1  -8.405252099037170E-1   4.444206655025482E-1  
 1.040000000000000E7    -8.420799970626831E-1   4.482463300228119E-1   1.205547749996185E-1   2.271603941917419E-1   1.209265515208244E-1   2.268954664468765E-1  -8.400721549987793E-1   4.450722038745880E-1  
 1.042000000000000E7    -8.416051864624023E-1   4.486894607543945E-1   1.210186555981636E-1   2.274040877819061E-1   1.213362142443657E-1   2.273068726062775E-1  -8.391019105911255E-1   4.458871483802795E-1  
 1.044000000000000E7    -8.411257266998291E-1   4.497583210468292E-1   1.216254457831383E-1   2.277126014232636E-1   1.219731494784355E-1   2.275368720293045E-1  -8.385000228881836E-1   4.466438889503479E-1  
 1.046000000000000E7    -8.408692479133606E-1   4.502007663249970E-1   1.221345290541649E-1   2.281429618597031E-1   1.220156624913216E-1   2.280100435018539E-1  -8.381962180137634E-1   4.470142126083374E-1  
 1.048000000000000E7    -8.401377797126770E-1   4.512473344802856E-1   1.224489659070969E-1   2.286616265773773E-1   1.227301731705666E-1   2.282594591379166E-1  -8.380028009414673E-1   4.478447437286377E-1  
 1.050000000000000E7    -8.396208286285400E-1   4.523630142211914E-1   1.230101883411408E-1   2.291471660137177E-1   1.234038174152374E-1   2.287213802337647E-1  -8.370194435119629E-1   4.488907158374786E-1  
 1.052000000000000E7    -8.394786119461060E-1   4.529567360877991E-1   1.236106604337692E-1   2.293790131807327E-1   1.237693727016449E-1   2.290907055139542E-1  -8.363345265388489E-1   4.495995640754700E-1  
 1.054000000000000E7    -8.385743498802185E-1   4.535538852214813E-1   1.240092962980270E-1   2.298390418291092E-1   1.240893602371216E-1   2.296274900436401E-1  -8.361383676528931E-1   4.501401484012604E-1  
 1.056000000000000E7    -8.383057713508606E-1   4.543390274047852E-1   1.242286488413811E-1   2.301267534494400E-1   1.243992298841476E-1   2.297000139951706E-1  -8.353479504585266E-1   4.505962133407593E-1  
 1.058000000000000E7    -8.373459577560425E-1   4.549633562564850E-1   1.249979808926582E-1   2.304268032312393E-1   1.251713335514069E-1   2.302666753530502E-1  -8.352488279342651E-1   4.517344236373901E-1  
 1.060000000000000E7    -8.367986083030701E-1   4.558218419551849E-1   1.252570301294327E-1   2.306272685527802E-1   1.257298141717911E-1   2.304499596357346E-1  -8.344206213951111E-1   4.524696767330170E-1  
 1.062000000000000E7    -8.359422683715820E-1   4.566300213336945E-1   1.260465979576111E-1   2.312619686126709E-1   1.264143139123917E-1   2.308379113674164E-1  -8.338088989257813E-1   4.535789489746094E-1  
 1.064000000000000E7    -8.356658816337585E-1   4.572472870349884E-1   1.266653686761856E-1   2.312692105770111E-1   1.266492754220963E-1   2.311749011278153E-1  -8.329579234123230E-1   4.539089500904083E-1  
 1.066000000000000E7    -8.352286219596863E-1   4.580518603324890E-1   1.269407719373703E-1   2.316835820674896E-1   1.272735446691513E-1   2.315837144851685E-1  -8.326856493949890E-1   4.550988972187042E-1  
 1.068000000000000E7    -8.347353935241699E-1   4.588931500911713E-1   1.272109299898148E-1   2.322436720132828E-1   1.275054961442947E-1   2.319017201662064E-1  -8.323190808296204E-1   4.555607736110687E-1  
 1.070000000000000E7    -8.339211344718933E-1   4.595825076103210E-1   1.275683790445328E-1   2.322790473699570E-1   1.279596090316773E-1   2.321285605430603E-1  -8.312851786613464E-1   4.556745886802673E-1  
 1.072000000000000E7    -8.335930705070496E-1   4.604310691356659E-1   1.282564997673035E-1   2.329952120780945E-1   1.285656839609146E-1   2.326025664806366E-1  -8.308719992637634E-1   4.567652046680450E-1  
 1.074000000000000E7    -8.327260017395020E-1   4.610756039619446E-1   1.290915459394455E-1   2.331497222185135E-1   1.291717737913132E-1   2.328703105449677E-1  -8.300998806953430E-1   4.580964148044586E-1  
 1.076000000000000E7    -8.320206403732300E-1   4.618744850158691E-1   1.295888274908066E-1   2.332997769117355E-1   1.295563578605652E-1   2.333434075117111E-1  -8.297023177146912E-1   4.582791030406952E-1  
 1.078000000000000E7    -8.318030238151550E-1   4.622824192047119E-1   1.298654526472092E-1   2.338574528694153E-1   1.299904137849808E-1   2.336075305938721E-1  -8.286928534507752E-1   4.591866135597229E-1  
 1.080000000000000E7    -8.310127258300781E-1   4.630219042301178E-1   1.301461607217789E-1   2.339841127395630E-1   1.303056776523590E-1   2.338060736656189E-1  -8.282909393310547E-1   4.596483409404755E-1  
 1.082000000000000E7    -8.307878971099854E-1   4.642925560474396E-1   1.307375133037567E-1   2.344250082969666E-1   1.309499740600586E-1   2.341889441013336E-1  -8.275277018547058E-1   4.603528678417206E-1  
 1.084000000000000E7    -8.299446105957031E-1   4.646217226982117E-1   1.313938945531845E-1   2.348415851593018E-1   1.317607015371323E-1   2.344145774841309E-1  -8.270854353904724E-1   4.615337252616882E-1  
 1.086000000000000E7    -8.290500044822693E-1   4.651680290699005E-1   1.319587975740433E-1   2.350524812936783E-1   1.319896429777145E-1   2.346893548965454E-1  -8.265919089317322E-1   4.620914459228516E-1  
 1.088000000000000E7    -8.287183046340942E-1   4.657520949840546E-1   1.324077844619751E-1   2.355686277151108E-1   1.325327157974243E-1   2.351503670215607E-1  -8.262611031532288E-1   4.630664885044098E-1  
 1.090000000000000E7    -8.277606964111328E-1   4.663293063640595E-1   1.325971484184265E-1   2.358954846858978E-1   1.327803134918213E-1   2.358721494674683E-1  -8.260858058929443E-1   4.632020592689514E-1  
 1.092000000000000E7    -8.273226022720337E-1   4.678609967231751E-1   1.334051191806793E-1   2.361468076705933E-1   1.336418986320496E-1   2.359682619571686E-1  -8.249512314796448E-1   4.641501307487488E-1  
 1.094000000000000E7    -8.263927698135376E-1   4.686153233051300E-1   1.337799280881882E-1   2.363575100898743E-1   1.340703219175339E-1   2.361140996217728E-1  -8.245195150375366E-1   4.649199247360230E-1  
 1.096000000000000E7    -8.263393640518189E-1   4.691251218318939E-1   1.344282925128937E-1   2.367781102657318E-1   1.344428509473801E-1   2.365762293338776E-1  -8.237091302871704E-1   4.655223190784454E-1  
 1.098000000000000E7    -8.255724906921387E-1   4.699875712394714E-1   1.350775808095932E-1   2.370618581771851E-1   1.348325759172440E-1   2.367765754461289E-1  -8.231909275054932E-1   4.660315811634064E-1  
 1.100000000000000E7    -8.253864645957947E-1   4.708755910396576E-1   1.355278939008713E-1   2.376535683870316E-1   1.358182430267334E-1   2.373829483985901E-1  -8.223770856857300E-1   4.669533073902130E-1  
 1.102000000000000E7    -8.245471715927124E-1   4.715260267257690E-1   1.358660459518433E-1   2.378067374229431E-1   1.360266953706741E-1   2.376458793878555E-1  -8.219202160835266E-1   4.676512777805328E-1  
 1.104000000000000E7    -8.232453465461731E-1   4.719197750091553E-1   1.363505721092224E-1   2.379921227693558E-1   1.364263594150543E-1   2.376767396926880E-1  -8.213245868682861E-1   4.687129557132721E-1  
 1.106000000000000E7    -8.230211138725281E-1   4.723677337169647E-1   1.368838250637054E-1   2.385123968124390E-1   1.371364891529083E-1   2.382101863622665E-1  -8.207961916923523E-1   4.698078930377960E-1  
 1.108000000000000E7    -8.227521777153015E-1   4.729671180248261E-1   1.374028623104096E-1   2.386110275983810E-1   1.374752223491669E-1   2.385336309671402E-1  -8.194426298141480E-1   4.700711369514465E-1  
 1.110000000000000E7    -8.216897249221802E-1   4.739120602607727E-1   1.375048011541367E-1   2.391059696674347E-1   1.379998773336411E-1   2.390242815017700E-1  -8.196273446083069E-1   4.710188806056976E-1  
 1.112000000000000E7    -8.211405277252197E-1   4.747249186038971E-1   1.383811980485916E-1   2.394880354404450E-1   1.384927779436112E-1   2.392069697380066E-1  -8.188877701759338E-1   4.713690578937531E-1  
 1.114000000000000E7    -8.205823898315430E-1   4.755223691463471E-1   1.389719098806381E-1   2.399446517229080E-1   1.391309499740601E-1   2.395290732383728E-1  -8.184621930122376E-1   4.721202552318573E-1  
 1.116000000000000E7    -8.199007511138916E-1   4.759363532066345E-1   1.393841356039047E-1   2.398127615451813E-1   1.395772099494934E-1   2.397981137037277E-1  -8.176999688148499E-1   4.728675186634064E-1  
 1.118000000000000E7    -8.193884491920471E-1   4.770835340023041E-1   1.396955996751785E-1   2.403098493814468E-1   1.398532092571259E-1   2.403685301542282E-1  -8.171024918556213E-1   4.738430678844452E-1  
 1.120000000000000E7    -8.189199566841126E-1   4.778999090194702E-1   1.404759436845779E-1   2.407438308000565E-1   1.405205130577087E-1   2.402485609054565E-1  -8.160483837127686E-1   4.743143022060394E-1  
 1.122000000000000E7    -8.186517357826233E-1   4.784610271453857E-1   1.409349590539932E-1   2.410441339015961E-1   1.411124020814896E-1   2.409437149763107E-1  -8.155390024185181E-1   4.753544628620148E-1  
 1.124000000000000E7    -8.177682161331177E-1   4.792931377887726E-1   1.410898715257645E-1   2.414980232715607E-1   1.415430754423142E-1   2.412425726652145E-1  -8.151452541351318E-1   4.752145111560822E-1  
 1.126000000000000E7    -8.171830773353577E-1   4.796935021877289E-1   1.419614106416702E-1   2.418510615825653E-1   1.423236727714539E-1   2.414491921663284E-1  -8.143561482429504E-1   4.765997529029846E-1  
 1.128000000000000E7    -8.166786432266235E-1   4.803097248077393E-1   1.424326002597809E-1   2.421094477176666E-1   1.427363455295563E-1   2.420354634523392E-1  -8.138027191162109E-1   4.773026704788208E-1  
 1.130000000000000E7    -8.156667947769165E-1   4.811497926712036E-1   1.429210305213928E-1   2.423000633716583E-1   1.433830112218857E-1   2.424177080392838E-1  -8.132603764533997E-1   4.781230688095093E-1  
 1.132000000000000E7    -8.149240612983704E-1   4.825911521911621E-1   1.435823291540146E-1   2.425718009471893E-1   1.438971459865570E-1   2.422478497028351E-1  -8.122903108596802E-1   4.782881736755371E-1  
 1.134000000000000E7    -8.149369955062866E-1   4.826530218124390E-1   1.441014856100082E-1   2.432451695203781E-1   1.442178338766098E-1   2.428609877824783E-1  -8.117879629135132E-1   4.788085222244263E-1  
 1.136000000000000E7    -8.138732314109802E-1   4.837942421436310E-1   1.445658653974533E-1   2.434383034706116E-1   1.446527540683746E-1   2.432729899883270E-1  -8.115713596343994E-1   4.800095260143280E-1  
 1.138000000000000E7    -8.132838606834412E-1   4.839377403259277E-1   1.448648124933243E-1   2.433928549289703E-1   1.452038586139679E-1   2.435787916183472E-1  -8.108653426170349E-1   4.807341992855072E-1  
 1.140000000000000E7    -8.129089474678040E-1   4.848193228244782E-1   1.452424526214600E-1   2.442141622304916E-1   1.454910188913345E-1   2.437617778778076E-1  -8.103288412094116E-1   4.813342988491058E-1  
 1.142000000000000E7    -8.120005726814270E-1   4.854786098003388E-1   1.459082961082459E-1   2.443060576915741E-1   1.462442874908447E-1   2.440247982740402E-1  -8.093996644020081E-1   4.819572567939758E-1  
 1.144000000000000E7    -8.110675811767578E-1   4.863448441028595E-1   1.465853899717331E-1   2.445735782384872E-1   1.468669474124908E-1   2.443485707044601E-1  -8.094130158424377E-1   4.829662144184113E-1  
 1.146000000000000E7    -8.107961416244507E-1   4.869308769702911E-1   1.469700932502747E-1   2.450442910194397E-1   1.473533362150192E-1   2.449737936258316E-1  -8.086946606636047E-1   4.833456575870514E-1  
 1.148000000000000E7    -8.101674914360046E-1   4.880107641220093E-1   1.475817859172821E-1   2.451928108930588E-1   1.480138301849365E-1   2.448826581239700E-1  -8.075245022773743E-1   4.844923317432404E-1  
 1.150000000000000E7    -8.091120719909668E-1   4.883107244968414E-1   1.479893028736115E-1   2.455688118934631E-1   1.483285278081894E-1   2.452039718627930E-1  -8.069078326225281E-1   4.850282967090607E-1  
 1.152000000000000E7    -8.087030649185181E-1   4.889048337936401E-1   1.486206948757172E-1   2.458682358264923E-1   1.488391607999802E-1   2.457595616579056E-1  -8.067339658737183E-1   4.855839610099793E-1  
 1.154000000000000E7    -8.080161213874817E-1   4.897170960903168E-1   1.490631848573685E-1   2.459136396646500E-1   1.491802781820297E-1   2.458055168390274E-1  -8.056529760360718E-1   4.864882826805115E-1  
 1.156000000000000E7    -8.076660037040710E-1   4.905858933925629E-1   1.498873978853226E-1   2.464505136013031E-1   1.500632166862488E-1   2.464774101972580E-1  -8.054670095443726E-1   4.870185256004334E-1  
 1.158000000000000E7    -8.067093491554260E-1   4.911021292209625E-1   1.501447856426239E-1   2.467535436153412E-1   1.503582596778870E-1   2.466619908809662E-1  -8.047149181365967E-1   4.878291785717011E-1  
 1.160000000000000E7    -8.059406876564026E-1   4.916138648986816E-1   1.505208015441895E-1   2.471246272325516E-1   1.509689688682556E-1   2.470095753669739E-1  -8.041687011718750E-1   4.880236983299255E-1  
 1.162000000000000E7    -8.053389191627502E-1   4.927879571914673E-1   1.511621177196503E-1   2.475284337997437E-1   1.515532433986664E-1   2.472620457410812E-1  -8.029783964157105E-1   4.891597628593445E-1  
 1.164000000000000E7    -8.048052191734314E-1   4.935706853866577E-1   1.517670750617981E-1   2.478435337543488E-1   1.522741317749023E-1   2.476712018251419E-1  -8.026146292686462E-1   4.895972907543182E-1  
 1.166000000000000E7    -8.042697906494141E-1   4.940419793128967E-1   1.525558233261108E-1   2.482225447893143E-1   1.525509059429169E-1   2.481092214584351E-1  -8.024656772613525E-1   4.904201626777649E-1  
 1.168000000000000E7    -8.039290904998779E-1   4.946403205394745E-1   1.529998034238815E-1   2.487757056951523E-1   1.531646400690079E-1   2.482049167156220E-1  -8.020727634429932E-1   4.915032982826233E-1  
 1.170000000000000E7    -8.029614090919495E-1   4.957434833049774E-1   1.536245197057724E-1   2.485778182744980E-1   1.538309454917908E-1   2.486143112182617E-1  -8.003119826316834E-1   4.921143949031830E-1  
 1.172000000000000E7    -8.021339178085327E-1   4.959331750869751E-1   1.538635641336441E-1   2.489641457796097E-1   1.543091833591461E-1   2.487682402133942E-1  -8.002629280090332E-1   4.930996596813202E-1  
 1.174000000000000E7    -8.014907240867615E-1   4.968160688877106E-1   1.543805897235870E-1   2.494460642337799E-1   1.547166854143143E-1   2.493171244859695E-1  -7.999747395515442E-1   4.930456280708313E-1  
 1.176000000000000E7    -8.014279007911682E-1   4.975307285785675E-1   1.548362672328949E-1   2.496669739484787E-1   1.552263498306274E-1   2.493518292903900E-1  -7.987119555473328E-1   4.939513504505158E-1  
 1.178000000000000E7    -8.006895184516907E-1   4.985095262527466E-1   1.557862907648087E-1   2.500247359275818E-1   1.561410874128342E-1   2.498600482940674E-1  -7.985169291496277E-1   4.947395324707031E-1  
 1.180000000000000E7    -8.001958131790161E-1   4.988740980625153E-1   1.560537368059158E-1   2.502819299697876E-1   1.563789248466492E-1   2.500940263271332E-1  -7.974446415901184E-1   4.953482151031494E-1  
 1.182000000000000E7    -7.989470958709717E-1   5.002107620239258E-1   1.566095054149628E-1   2.506515681743622E-1   1.568657457828522E-1   2.501495480537415E-1  -7.969576120376587E-1   4.961208999156952E-1  
 1.184000000000000E7    -7.985858917236328E-1   5.006448626518250E-1   1.574074327945709E-1   2.505819797515869E-1   1.576290428638458E-1   2.504635453224182E-1  -7.960575819015503E-1   4.970467984676361E-1  
 1.186000000000000E7    -7.980710864067078E-1   5.012428164482117E-1   1.579387187957764E-1   2.512554824352264E-1   1.581628322601318E-1   2.511710226535797E-1  -7.958729267120361E-1   4.976380765438080E-1  
 1.188000000000000E7    -7.965772151947022E-1   5.021246075630188E-1   1.584240049123764E-1   2.515695095062256E-1   1.585742235183716E-1   2.512409687042236E-1  -7.950299978256226E-1   4.984690546989441E-1  
 1.190000000000000E7    -7.961623668670654E-1   5.024918913841248E-1   1.585669666528702E-1   2.517931163311005E-1   1.589988172054291E-1   2.514107823371887E-1  -7.946894764900208E-1   4.987266659736633E-1  
 1.192000000000000E7    -7.959848046302795E-1   5.028942227363586E-1   1.591151803731918E-1   2.519145607948303E-1   1.594691425561905E-1   2.518531382083893E-1  -7.940341830253601E-1   4.994723200798035E-1  
 1.194000000000000E7    -7.952432036399841E-1   5.037170648574829E-1   1.599756032228470E-1   2.523818910121918E-1   1.602139174938202E-1   2.521273493766785E-1  -7.931870222091675E-1   5.003732442855835E-1  
 1.196000000000000E7    -7.946819067001343E-1   5.047482848167419E-1   1.603750735521317E-1   2.525354623794556E-1   1.606511622667313E-1   2.523709535598755E-1  -7.920852899551392E-1   5.006769299507141E-1  
 1.198000000000000E7    -7.941366434097290E-1   5.053231120109558E-1   1.611486971378326E-1   2.531743049621582E-1   1.613150686025620E-1   2.528011202812195E-1  -7.920019626617432E-1   5.018734335899353E-1  
 1.200000000000000E7    -7.931146621704102E-1   5.060377717018127E-1   1.614140570163727E-1   2.535301446914673E-1   1.617915481328964E-1   2.530365288257599E-1  -7.910087108612061E-1   5.024877786636353E-1  
 1.202000000000000E7    -7.922665476799011E-1   5.067737698554993E-1   1.621200889348984E-1   2.532812058925629E-1   1.627068817615509E-1   2.535263895988464E-1  -7.904494404792786E-1   5.033702254295349E-1  
 1.204000000000000E7    -7.918165326118469E-1   5.078215599060059E-1   1.624375730752945E-1   2.537967562675476E-1   1.628562361001968E-1   2.537366747856140E-1  -7.897581458091736E-1   5.038787722587585E-1  
 1.206000000000000E7    -7.910954952239990E-1   5.079202055931091E-1   1.631312221288681E-1   2.540815770626068E-1   1.636373847723007E-1   2.538762092590332E-1  -7.891384959220886E-1   5.042239427566528E-1  
 1.208000000000000E7    -7.901635766029358E-1   5.088655948638916E-1   1.638940423727036E-1   2.541178464889526E-1   1.642757505178452E-1   2.543857395648956E-1  -7.884908318519592E-1   5.051546692848206E-1  
 1.210000000000000E7    -7.902748584747315E-1   5.091754794120789E-1   1.641878187656403E-1   2.551698088645935E-1   1.645139157772064E-1   2.545800805091858E-1  -7.880594730377197E-1   5.057915449142456E-1  
 1.212000000000000E7    -7.893078923225403E-1   5.101090669631958E-1   1.649985462427139E-1   2.550490796566010E-1   1.651513576507568E-1   2.548359930515289E-1  -7.868512868881226E-1   5.061926841735840E-1  
 1.214000000000000E7    -7.887418866157532E-1   5.111617445945740E-1   1.653280407190323E-1   2.553665339946747E-1   1.657484173774719E-1   2.553589046001434E-1  -7.869372963905335E-1   5.067134499549866E-1  
 1.216000000000000E7    -7.877199649810791E-1   5.116872191429138E-1   1.660212278366089E-1   2.557854652404785E-1   1.664011031389237E-1   2.555006146430969E-1  -7.861981391906738E-1   5.082722306251526E-1  
 1.218000000000000E7    -7.875621914863586E-1   5.121578574180603E-1   1.664495170116425E-1   2.559740543365479E-1   1.666462123394013E-1   2.555089592933655E-1  -7.850760221481323E-1   5.084229707717896E-1  
 1.220000000000000E7    -7.868201136589050E-1   5.129511952400208E-1   1.671645790338516E-1   2.562450766563416E-1   1.676753163337708E-1   2.560246586799622E-1  -7.844497561454773E-1   5.094981789588928E-1  
 1.222000000000000E7    -7.859155535697937E-1   5.136780142784119E-1   1.675995141267777E-1   2.564178705215454E-1   1.678980439901352E-1   2.563641965389252E-1  -7.833913564682007E-1   5.093887448310852E-1  
 1.224000000000000E7    -7.853680253028870E-1   5.145421624183655E-1   1.684640496969223E-1   2.567854523658752E-1   1.687129586935043E-1   2.564075887203217E-1  -7.830669283866882E-1   5.108376741409302E-1  
 1.226000000000000E7    -7.844203114509583E-1   5.148431062698364E-1   1.692601591348648E-1   2.572072744369507E-1   1.692228764295578E-1   2.570248842239380E-1  -7.824263572692871E-1   5.115698575973511E-1  
 1.228000000000000E7    -7.836608290672302E-1   5.155698657035828E-1   1.694520711898804E-1   2.573510408401489E-1   1.698301434516907E-1   2.571404576301575E-1  -7.817736268043518E-1   5.121709108352661E-1  
 1.230000000000000E7    -7.834824323654175E-1   5.161847472190857E-1   1.699381023645401E-1   2.576280236244202E-1   1.702672839164734E-1   2.576334774494171E-1  -7.810983657836914E-1   5.128274559974670E-1  
 1.232000000000000E7    -7.825261354446411E-1   5.170339345932007E-1   1.705608665943146E-1   2.581053972244263E-1   1.710726022720337E-1   2.579167485237122E-1  -7.805586457252502E-1   5.133416056632996E-1  
 1.234000000000000E7    -7.819811701774597E-1   5.178125500679016E-1   1.708476245403290E-1   2.581437826156616E-1   1.713233739137650E-1   2.578831315040588E-1  -7.796864509582520E-1   5.136515498161316E-1  
 1.236000000000000E7    -7.808832526206970E-1   5.178066492080689E-1   1.715098321437836E-1   2.586660087108612E-1   1.717767864465714E-1   2.584651410579681E-1  -7.794936895370483E-1   5.146845579147339E-1  
 1.238000000000000E7    -7.808020114898682E-1   5.195692181587219E-1   1.720585823059082E-1   2.590311467647553E-1   1.726893335580826E-1   2.590351402759552E-1  -7.785243988037109E-1   5.155538320541382E-1  
 1.240000000000000E7    -7.800443172454834E-1   5.201050043106079E-1   1.729368865489960E-1   2.591011226177216E-1   1.730990707874298E-1   2.589847743511200E-1  -7.775309085845947E-1   5.156040787696838E-1  
 1.242000000000000E7    -7.788764238357544E-1   5.201745629310608E-1   1.731746643781662E-1   2.594830095767975E-1   1.737007200717926E-1   2.592149674892426E-1  -7.770957350730896E-1   5.166857242584229E-1  
 1.244000000000000E7    -7.779436707496643E-1   5.211392641067505E-1   1.739117354154587E-1   2.598637044429779E-1   1.741987019777298E-1   2.596507072448731E-1  -7.764877080917358E-1   5.173977017402649E-1  
 1.246000000000000E7    -7.778175473213196E-1   5.215382575988770E-1   1.745756864547730E-1   2.601489424705505E-1   1.746550798416138E-1   2.600125670433044E-1  -7.755292057991028E-1   5.180700421333313E-1  
 1.248000000000000E7    -7.769433856010437E-1   5.225887894630432E-1   1.753255128860474E-1   2.601099014282227E-1   1.753857433795929E-1   2.602166831493378E-1  -7.750944495201111E-1   5.187054276466370E-1  
 1.250000000000000E7    -7.762333750724793E-1   5.230371952056885E-1   1.755089908838272E-1   2.604700028896332E-1   1.757222712039948E-1   2.605631947517395E-1  -7.743137478828430E-1   5.193504691123962E-1  
 1.252000000000000E7    -7.755234837532044E-1   5.242165327072144E-1   1.763481497764587E-1   2.607648372650147E-1   1.766956597566605E-1   2.606052756309509E-1  -7.735575437545776E-1   5.202106237411499E-1  
 1.254000000000000E7    -7.746502757072449E-1   5.244688987731934E-1   1.769971102476120E-1   2.607626616954804E-1   1.770900487899780E-1   2.607644498348236E-1  -7.727786302566528E-1   5.209863185882568E-1  
 1.256000000000000E7    -7.741330862045288E-1   5.253913402557373E-1   1.771272271871567E-1   2.614841759204865E-1   1.777551770210266E-1   2.613448202610016E-1  -7.721369862556458E-1   5.211551189422607E-1  
 1.258000000000000E7    -7.732515335083008E-1   5.260421633720398E-1   1.779010146856308E-1   2.615715265274048E-1   1.782094091176987E-1   2.615229487419128E-1  -7.714722752571106E-1   5.218466520309448E-1  
 1.260000000000000E7    -7.728711366653442E-1   5.264146924018860E-1   1.783100962638855E-1   2.619535624980927E-1   1.787531822919846E-1   2.620444297790527E-1  -7.707121968269348E-1   5.226653814315796E-1  
 1.262000000000000E7    -7.723079323768616E-1   5.270770192146301E-1   1.789805889129639E-1   2.622116506099701E-1   1.794430166482925E-1   2.621266841888428E-1  -7.703282237052918E-1   5.232954025268555E-1  
 1.264000000000000E7    -7.714885473251343E-1   5.274398922920227E-1   1.796311736106873E-1   2.625822424888611E-1   1.799059063196182E-1   2.624658048152924E-1  -7.695642709732056E-1   5.244017839431763E-1  
 1.266000000000000E7    -7.711697220802307E-1   5.279581546783447E-1   1.802362352609634E-1   2.628748416900635E-1   1.802513152360916E-1   2.626449763774872E-1  -7.686454057693481E-1   5.248775482177734E-1  
 1.268000000000000E7    -7.708389759063721E-1   5.294108390808106E-1   1.809934973716736E-1   2.633740305900574E-1   1.810532659292221E-1   2.630841732025147E-1  -7.679828405380249E-1   5.248970389366150E-1  
 1.270000000000000E7    -7.693470716476440E-1   5.299581289291382E-1   1.812726110219955E-1   2.634394168853760E-1   1.817816197872162E-1   2.631864249706268E-1  -7.674436569213867E-1   5.255382061004639E-1  
 1.272000000000000E7    -7.687727212905884E-1   5.301285386085510E-1   1.819949448108673E-1   2.637966275215149E-1   1.824362725019455E-1   2.637254595756531E-1  -7.670062780380249E-1   5.269376039505005E-1  
 1.274000000000000E7    -7.678477168083191E-1   5.308462381362915E-1   1.824020445346832E-1   2.640408277511597E-1   1.827720403671265E-1   2.637686431407929E-1  -7.662648558616638E-1   5.270555019378662E-1  
 1.276000000000000E7    -7.675121426582336E-1   5.315773487091065E-1   1.834802031517029E-1   2.643002867698669E-1   1.836301237344742E-1   2.639932930469513E-1  -7.649839520454407E-1   5.282056927680969E-1  
 1.278000000000000E7    -7.669156193733215E-1   5.326299071311951E-1   1.840609461069107E-1   2.646009624004364E-1   1.841890364885330E-1   2.643206119537354E-1  -7.645848989486694E-1   5.289109349250794E-1  
 1.280000000000000E7    -7.658339738845825E-1   5.332871675491333E-1   1.844697147607803E-1   2.647306025028229E-1   1.845584213733673E-1   2.645267844200134E-1  -7.637839317321777E-1   5.290498137474060E-1  
 1.282000000000000E7    -7.651404142379761E-1   5.335550308227539E-1   1.847911030054092E-1   2.649181187152863E-1   1.852212846279144E-1   2.650971114635468E-1  -7.633990049362183E-1   5.299629569053650E-1  
 1.284000000000000E7    -7.644301056861877E-1   5.345500111579895E-1   1.854292005300522E-1   2.656358480453491E-1   1.857802420854569E-1   2.650368511676788E-1  -7.626709342002869E-1   5.308589339256287E-1  
 1.286000000000000E7    -7.637040019035339E-1   5.347445011138916E-1   1.860896944999695E-1   2.657131552696228E-1   1.864124387502670E-1   2.654896974563599E-1  -7.617703676223755E-1   5.313816070556641E-1  
 1.288000000000000E7    -7.629742622375488E-1   5.357808470726013E-1   1.865040361881256E-1   2.659939825534821E-1   1.870024949312210E-1   2.655771970748901E-1  -7.613664269447327E-1   5.321133136749268E-1  
 1.290000000000000E7    -7.625722885131836E-1   5.357844829559326E-1   1.869682967662811E-1   2.662856876850128E-1   1.873933076858521E-1   2.659031748771668E-1  -7.604571580886841E-1   5.324326753616333E-1  
 1.292000000000000E7    -7.615885734558106E-1   5.367172956466675E-1   1.873991638422012E-1   2.663650810718536E-1   1.876890808343887E-1   2.662771642208099E-1  -7.598729729652405E-1   5.329591631889343E-1  
 1.294000000000000E7    -7.611331343650818E-1   5.376743078231812E-1   1.881720125675201E-1   2.668403685092926E-1   1.888164430856705E-1   2.665164470672607E-1  -7.589904665946960E-1   5.341603755950928E-1  
 1.296000000000000E7    -7.599930167198181E-1   5.382847785949707E-1   1.891202777624130E-1   2.672790884971619E-1   1.895390599966049E-1   2.667266726493835E-1  -7.587474584579468E-1   5.346519947052002E-1  
 1.298000000000000E7    -7.595894932746887E-1   5.390638709068298E-1   1.901065409183502E-1   2.670668959617615E-1   1.900302171707153E-1   2.669931352138519E-1  -7.574797868728638E-1   5.350090265274048E-1  
 1.300000000000000E7    -7.587776184082031E-1   5.396717786788940E-1   1.903376579284668E-1   2.675442695617676E-1   1.903380751609802E-1   2.673092484474182E-1  -7.565169930458069E-1   5.355058312416077E-1  
 1.302000000000000E7    -7.578409910202026E-1   5.407175421714783E-1   1.910512149333954E-1   2.674029469490051E-1   1.911464929580689E-1   2.673201858997345E-1  -7.558740973472595E-1   5.365428328514099E-1  
 1.304000000000000E7    -7.573741674423218E-1   5.412229895591736E-1   1.912164092063904E-1   2.682572007179260E-1   1.916824728250504E-1   2.677090167999268E-1  -7.553300261497498E-1   5.367013812065125E-1  
 1.306000000000000E7    -7.565926313400269E-1   5.421137213706970E-1   1.926851272583008E-1   2.680712938308716E-1   1.926157623529434E-1   2.680144309997559E-1  -7.545191645622253E-1   5.378785729408264E-1  
 1.308000000000000E7    -7.562372684478760E-1   5.424854159355164E-1   1.927384883165360E-1   2.683390676975250E-1   1.930882036685944E-1   2.683489024639130E-1  -7.538989782333374E-1   5.384678244590759E-1  
 1.310000000000000E7    -7.551053166389465E-1   5.427618622779846E-1   1.933264136314392E-1   2.687836289405823E-1   1.936834007501602E-1   2.684128284454346E-1  -7.532101869583130E-1   5.391548275947571E-1  
 1.312000000000000E7    -7.544329166412354E-1   5.436694622039795E-1   1.938326656818390E-1   2.690303325653076E-1   1.941545307636261E-1   2.690521180629730E-1  -7.530007362365723E-1   5.397742390632629E-1  
 1.314000000000000E7    -7.536811232566834E-1   5.446128845214844E-1   1.949262171983719E-1   2.695356905460358E-1   1.947247385978699E-1   2.693814039230347E-1  -7.521687150001526E-1   5.402408838272095E-1  
 1.316000000000000E7    -7.529577016830444E-1   5.452262759208679E-1   1.950785219669342E-1   2.698286473751068E-1   1.954777836799622E-1   2.693851888179779E-1  -7.513045072555542E-1   5.409330129623413E-1  
 1.318000000000000E7    -7.522482275962830E-1   5.457692146301270E-1   1.960662752389908E-1   2.700427770614624E-1   1.962841004133225E-1   2.700243592262268E-1  -7.509109377861023E-1   5.421462655067444E-1  
 1.320000000000000E7    -7.514733076095581E-1   5.461896657943726E-1   1.965084075927734E-1   2.701449990272522E-1   1.966460794210434E-1   2.697180509567261E-1  -7.495373487472534E-1   5.424683690071106E-1  
 1.322000000000000E7    -7.504374384880066E-1   5.468232035636902E-1   1.970719099044800E-1   2.704992890357971E-1   1.973412930965424E-1   2.701258361339569E-1  -7.488357424736023E-1   5.431634187698364E-1  
 1.324000000000000E7    -7.502484321594238E-1   5.476170778274536E-1   1.976744979619980E-1   2.706006765365601E-1   1.979913860559464E-1   2.702965438365936E-1  -7.478643655776978E-1   5.435550808906555E-1  
 1.326000000000000E7    -7.495597600936890E-1   5.483245253562927E-1   1.984891593456268E-1   2.708897590637207E-1   1.985222101211548E-1   2.709809541702271E-1  -7.476859688758850E-1   5.443527698516846E-1  
 1.328000000000000E7    -7.486699819564819E-1   5.490090250968933E-1   1.989159435033798E-1   2.712925970554352E-1   1.990588158369064E-1   2.709802985191345E-1  -7.469072341918945E-1   5.449513196945190E-1  
 1.330000000000000E7    -7.480044364929199E-1   5.493870377540588E-1   1.994502097368240E-1   2.715198993682861E-1   1.998219788074493E-1   2.713698446750641E-1  -7.463756799697876E-1   5.455158948898315E-1  
 1.332000000000000E7    -7.471252679824829E-1   5.503090620040894E-1   1.999887228012085E-1   2.719866335391998E-1   2.005165815353394E-1   2.714484333992004E-1  -7.453926801681519E-1   5.463656187057495E-1  
 1.334000000000000E7    -7.467702627182007E-1   5.505135059356690E-1   2.006601095199585E-1   2.724418044090271E-1   2.008980959653854E-1   2.718762755393982E-1  -7.447253465652466E-1   5.471618175506592E-1  
 1.336000000000000E7    -7.457134723663330E-1   5.513666868209839E-1   2.013819515705109E-1   2.724584639072418E-1   2.012325227260590E-1   2.720242440700531E-1  -7.440729141235352E-1   5.475913286209106E-1  
 1.338000000000000E7    -7.451459765434265E-1   5.521757602691650E-1   2.019079178571701E-1   2.725555002689362E-1   2.023935765028000E-1   2.724688947200775E-1  -7.432933449745178E-1   5.484131574630737E-1  
 1.340000000000000E7    -7.443076372146606E-1   5.526133179664612E-1   2.028371840715408E-1   2.729278206825256E-1   2.029982507228851E-1   2.726606726646423E-1  -7.421307563781738E-1   5.491416454315186E-1  
 1.342000000000000E7    -7.432280182838440E-1   5.532507300376892E-1   2.033511102199554E-1   2.731093764305115E-1   2.035809010267258E-1   2.728201448917389E-1  -7.420144677162170E-1   5.495544672012329E-1  
 1.344000000000000E7    -7.429695129394531E-1   5.541321635246277E-1   2.036892324686050E-1   2.731130123138428E-1   2.038214653730393E-1   2.729183137416840E-1  -7.405203580856323E-1   5.498584508895874E-1  
 1.346000000000000E7    -7.421933412551880E-1   5.551638007164002E-1   2.046154588460922E-1   2.735400497913361E-1   2.048266083002091E-1   2.733742594718933E-1  -7.402215003967285E-1   5.503173470497131E-1  
 1.348000000000000E7    -7.410204410552979E-1   5.555290579795837E-1   2.050101011991501E-1   2.734946608543396E-1   2.054651379585266E-1   2.734525203704834E-1  -7.397435307502747E-1   5.514083504676819E-1  
 1.350000000000000E7    -7.405522465705872E-1   5.555940866470337E-1   2.054534852504730E-1   2.738986015319824E-1   2.061675637960434E-1   2.735722661018372E-1  -7.382828593254089E-1   5.521187186241150E-1  
 1.352000000000000E7    -7.396738529205322E-1   5.566561222076416E-1   2.065560668706894E-1   2.740406394004822E-1   2.065422832965851E-1   2.739016115665436E-1  -7.377293109893799E-1   5.524747371673584E-1  
 1.354000000000000E7    -7.389352321624756E-1   5.572876334190369E-1   2.070965170860291E-1   2.741524577140808E-1   2.073057293891907E-1   2.741188108921051E-1  -7.366791963577271E-1   5.529637336730957E-1  
 1.356000000000000E7    -7.382153868675232E-1   5.577636957168579E-1   2.073660343885422E-1   2.744859755039215E-1   2.077064812183380E-1   2.742992639541626E-1  -7.360672950744629E-1   5.538199543952942E-1  
 1.358000000000000E7    -7.375786900520325E-1   5.584941506385803E-1   2.084287256002426E-1   2.750456631183624E-1   2.086957097053528E-1   2.748597562313080E-1  -7.356935739517212E-1   5.547400712966919E-1  
 1.360000000000000E7    -7.367823123931885E-1   5.595838427543640E-1   2.089969217777252E-1   2.754228115081787E-1   2.091566026210785E-1   2.752765417098999E-1  -7.347651720046997E-1   5.551654100418091E-1  
 1.362000000000000E7    -7.364563941955566E-1   5.599598884582520E-1   2.094256132841110E-1   2.756740748882294E-1   2.101960480213165E-1   2.756215929985046E-1  -7.340541481971741E-1   5.558710694313049E-1  
 1.364000000000000E7    -7.354521155357361E-1   5.603201389312744E-1   2.099788337945938E-1   2.756637036800385E-1   2.101443558931351E-1   2.753877937793732E-1  -7.330987453460693E-1   5.560758709907532E-1  
 1.366000000000000E7    -7.346266508102417E-1   5.611670017242432E-1   2.106060087680817E-1   2.760411798954010E-1   2.111005634069443E-1   2.760386168956757E-1  -7.328780293464661E-1   5.568302273750305E-1  
 1.368000000000000E7    -7.337293028831482E-1   5.619593262672424E-1   2.113410085439682E-1   2.760789096355438E-1   2.117615938186646E-1   2.760518193244934E-1  -7.321425080299377E-1   5.575038194656372E-1  
 1.370000000000000E7    -7.328827977180481E-1   5.623073577880859E-1   2.121025770902634E-1   2.765987515449524E-1   2.124075889587402E-1   2.761777043342590E-1  -7.309830784797669E-1   5.583015680313110E-1  
 1.372000000000000E7    -7.326362729072571E-1   5.627759695053101E-1   2.123026400804520E-1   2.768561542034149E-1   2.128589302301407E-1   2.764757871627808E-1  -7.305363416671753E-1   5.586718916893005E-1  
 1.374000000000000E7    -7.315126061439514E-1   5.633827447891235E-1   2.132205516099930E-1   2.769422233104706E-1   2.132483869791031E-1   2.767382562160492E-1  -7.297651767730713E-1   5.592064857482910E-1  
 1.376000000000000E7    -7.309652566909790E-1   5.641835331916809E-1   2.139143645763397E-1   2.774533927440643E-1   2.144534736871719E-1   2.768986523151398E-1  -7.289541363716126E-1   5.601972937583923E-1  
 1.378000000000000E7    -7.300886511802673E-1   5.649595856666565E-1   2.143605649471283E-1   2.770478129386902E-1   2.147082239389420E-1   2.771355807781220E-1  -7.277596592903137E-1   5.602983832359314E-1  
 1.380000000000000E7    -7.291201949119568E-1   5.655290484428406E-1   2.152284830808640E-1   2.776192426681519E-1   2.154199331998825E-1   2.772733569145203E-1  -7.271932959556580E-1   5.613765716552734E-1  
 1.382000000000000E7    -7.283191680908203E-1   5.661271810531616E-1   2.158573865890503E-1   2.777749896049500E-1   2.159843295812607E-1   2.775838077068329E-1  -7.264977097511292E-1   5.616277456283569E-1  
 1.384000000000000E7    -7.276981472969055E-1   5.667860507965088E-1   2.163329720497131E-1   2.780444324016571E-1   2.168231755495071E-1   2.781926393508911E-1  -7.257084250450134E-1   5.623071193695068E-1  
 1.386000000000000E7    -7.272927165031433E-1   5.676004886627197E-1   2.172689437866211E-1   2.783429920673370E-1   2.173635959625244E-1   2.783051729202271E-1  -7.250685691833496E-1   5.631037950515747E-1  
 1.388000000000000E7    -7.263111472129822E-1   5.677207112312317E-1   2.175181806087494E-1   2.786703407764435E-1   2.179693430662155E-1   2.782720923423767E-1  -7.241852879524231E-1   5.640168786048889E-1  
 1.390000000000000E7    -7.250061035156250E-1   5.690189599990845E-1   2.185849249362946E-1   2.788936197757721E-1   2.189356535673142E-1   2.787990570068359E-1  -7.238141894340515E-1   5.643684267997742E-1  
 1.392000000000000E7    -7.248796820640564E-1   5.691573023796082E-1   2.189960032701492E-1   2.790112197399139E-1   2.192306071519852E-1   2.790286540985107E-1  -7.230409979820252E-1   5.649805665016174E-1  
 1.394000000000000E7    -7.237066626548767E-1   5.702269077301025E-1   2.200050950050354E-1   2.789047658443451E-1   2.204298973083496E-1   2.787996232509613E-1  -7.217413783073425E-1   5.657129287719727E-1  
 1.396000000000000E7    -7.227686047554016E-1   5.708504915237427E-1   2.205671817064285E-1   2.796217799186707E-1   2.209635674953461E-1   2.792260646820068E-1  -7.216953039169312E-1   5.665203928947449E-1  
 1.398000000000000E7    -7.223645448684692E-1   5.710863471031189E-1   2.207974642515183E-1   2.796674072742462E-1   2.213852256536484E-1   2.794461548328400E-1  -7.207099795341492E-1   5.668760538101196E-1  
 1.400000000000000E7    -7.219830155372620E-1   5.715641975402832E-1   2.215086817741394E-1   2.799528539180756E-1   2.220294773578644E-1   2.798125743865967E-1  -7.197574377059937E-1   5.676032900810242E-1  
 1.402000000000000E7    -7.209865450859070E-1   5.723434090614319E-1   2.225852608680725E-1   2.801525890827179E-1   2.225909531116486E-1   2.798780500888825E-1  -7.189053297042847E-1   5.679402947425842E-1  
 1.404000000000000E7    -7.201441526412964E-1   5.729707479476929E-1   2.231940627098084E-1   2.806847691535950E-1   2.230374217033386E-1   2.801346480846405E-1  -7.182497382164002E-1   5.690579414367676E-1  
 1.406000000000000E7    -7.191297411918640E-1   5.736470818519592E-1   2.234538048505783E-1   2.805857658386231E-1   2.238806486129761E-1   2.805745601654053E-1  -7.172632813453674E-1   5.697368383407593E-1  
 1.408000000000000E7    -7.188420891761780E-1   5.744117498397827E-1   2.243925929069519E-1   2.808192670345306E-1   2.248924523591995E-1   2.807207703590393E-1  -7.165387272834778E-1   5.702027678489685E-1  
 1.410000000000000E7    -7.176662683486939E-1   5.746251344680786E-1   2.249981164932251E-1   2.812042832374573E-1   2.251762151718140E-1   2.807850539684296E-1  -7.156172394752502E-1   5.710136890411377E-1  
 1.412000000000000E7    -7.167364954948425E-1   5.754646658897400E-1   2.255821377038956E-1   2.811064720153809E-1   2.261150181293488E-1   2.811928689479828E-1  -7.153703570365906E-1   5.714655518531799E-1  
 1.414000000000000E7    -7.160731554031372E-1   5.757617950439453E-1   2.265205979347229E-1   2.814504206180573E-1   2.267720997333527E-1   2.810589671134949E-1  -7.140359282493591E-1   5.721501111984253E-1  
 1.416000000000000E7    -7.152099609375000E-1   5.761681199073792E-1   2.271524369716644E-1   2.816534340381622E-1   2.273185849189758E-1   2.814161777496338E-1  -7.132350206375122E-1   5.729587078094482E-1  
 1.418000000000000E7    -7.142727971076965E-1   5.768584609031677E-1   2.275750190019608E-1   2.818531095981598E-1   2.277552038431168E-1   2.818968892097473E-1  -7.129353880882263E-1   5.730675458908081E-1  
 1.420000000000000E7    -7.137570381164551E-1   5.775989294052124E-1   2.284871190786362E-1   2.825304865837097E-1   2.285644114017487E-1   2.818478643894196E-1  -7.123275399208069E-1   5.741730332374573E-1  
 1.422000000000000E7    -7.129409909248352E-1   5.782705545425415E-1   2.289800047874451E-1   2.823293805122376E-1   2.293180823326111E-1   2.825643718242645E-1  -7.114016413688660E-1   5.742069482803345E-1  
 1.424000000000000E7    -7.120797038078308E-1   5.789944529533386E-1   2.294632494449616E-1   2.828088402748108E-1   2.297154963016510E-1   2.823547124862671E-1  -7.105881571769714E-1   5.748862028121948E-1  
 1.426000000000000E7    -7.112382054328919E-1   5.797389745712280E-1   2.301681786775589E-1   2.826980948448181E-1   2.306542843580246E-1   2.825789749622345E-1  -7.093738913536072E-1   5.757490992546082E-1  
 1.428000000000000E7    -7.106351852416992E-1   5.804277062416077E-1   2.307391017675400E-1   2.829671204090118E-1   2.314074635505676E-1   2.825810909271240E-1  -7.086018919944763E-1   5.760689973831177E-1  
 1.430000000000000E7    -7.099770307540894E-1   5.807973146438599E-1   2.316973805427551E-1   2.831974923610687E-1   2.321076989173889E-1   2.830044627189636E-1  -7.076650261878967E-1   5.764288902282715E-1  
 1.432000000000000E7    -7.085602283477783E-1   5.816038250923157E-1   2.323430329561234E-1   2.837713360786438E-1   2.328187972307205E-1   2.832037806510925E-1  -7.077933549880981E-1   5.771393179893494E-1  
 1.434000000000000E7    -7.079222798347473E-1   5.822544097900391E-1   2.331814765930176E-1   2.838492691516876E-1   2.335025817155838E-1   2.836007177829742E-1  -7.067346572875977E-1   5.783199071884155E-1  
 1.436000000000000E7    -7.078276276588440E-1   5.823798775672913E-1   2.333718240261078E-1   2.840912640094757E-1   2.338293194770813E-1   2.835567891597748E-1  -7.056497931480408E-1   5.787048339843750E-1  
 1.438000000000000E7    -7.064004540443420E-1   5.827693343162537E-1   2.342704534530640E-1   2.838612794876099E-1   2.342279404401779E-1   2.838744819164276E-1  -7.049220204353333E-1   5.792954564094544E-1  
 1.440000000000000E7    -7.058386802673340E-1   5.836618542671204E-1   2.348031997680664E-1   2.842950820922852E-1   2.352980822324753E-1   2.836973965167999E-1  -7.041807770729065E-1   5.797197818756104E-1  
 1.442000000000000E7    -7.051550745964050E-1   5.844130516052246E-1   2.359555363655090E-1   2.845227122306824E-1   2.362534850835800E-1   2.845240235328674E-1  -7.034586071968079E-1   5.806924700737000E-1  
 1.444000000000000E7    -7.043451070785523E-1   5.852655768394470E-1   2.364283800125122E-1   2.847969233989716E-1   2.366332709789276E-1   2.842861413955689E-1  -7.026002407073975E-1   5.808575749397278E-1  
 1.446000000000000E7    -7.032835483551025E-1   5.854259729385376E-1   2.367592006921768E-1   2.851467132568359E-1   2.370516061782837E-1   2.847046852111816E-1  -7.018660306930542E-1   5.810882449150085E-1  
 1.448000000000000E7    -7.023628950119019E-1   5.863930583000183E-1   2.373358458280563E-1   2.851444482803345E-1   2.378600686788559E-1   2.850084602832794E-1  -7.007944583892822E-1   5.818879008293152E-1  
 1.450000000000000E7    -7.018090486526489E-1   5.870051980018616E-1   2.384386211633682E-1   2.856350243091583E-1   2.385931164026260E-1   2.853873074054718E-1  -7.003491520881653E-1   5.826061964035034E-1  
 1.452000000000000E7    -7.010140419006348E-1   5.875354409217835E-1   2.389865964651108E-1   2.856197655200958E-1   2.394444942474365E-1   2.851714193820953E-1  -6.995434761047363E-1   5.828605294227600E-1  
 1.454000000000000E7    -6.999196410179138E-1   5.879040956497192E-1   2.398227751255035E-1   2.858889997005463E-1   2.402108311653137E-1   2.854018211364746E-1  -6.986876726150513E-1   5.838475823402405E-1  
 1.456000000000000E7    -6.993933916091919E-1   5.882123112678528E-1   2.401627898216248E-1   2.861521244049072E-1   2.403661012649536E-1   2.856383025646210E-1  -6.976189017295837E-1   5.841881036758423E-1  
 1.458000000000000E7    -6.983773708343506E-1   5.889323353767395E-1   2.410993874073029E-1   2.858963608741760E-1   2.413327693939209E-1   2.857284843921661E-1  -6.967854499816895E-1   5.848923325538635E-1  
 1.460000000000000E7    -6.977773904800415E-1   5.898569822311401E-1   2.417858392000198E-1   2.865108847618103E-1   2.420378625392914E-1   2.856642901897430E-1  -6.959158778190613E-1   5.855026245117188E-1  
 1.462000000000000E7    -6.967345476150513E-1   5.902501940727234E-1   2.425927966833115E-1   2.863847017288208E-1   2.429160326719284E-1   2.860036492347717E-1  -6.951200366020203E-1   5.861346721649170E-1  
 1.464000000000000E7    -6.964719891548157E-1   5.907007455825806E-1   2.434014976024628E-1   2.867054343223572E-1   2.434614300727844E-1   2.866663634777069E-1  -6.944372057914734E-1   5.869837999343872E-1  
 1.466000000000000E7    -6.949256658554077E-1   5.911196470260620E-1   2.436769306659699E-1   2.869679629802704E-1   2.440571188926697E-1   2.868756055831909E-1  -6.938192844390869E-1   5.871134400367737E-1  
 1.468000000000000E7    -6.945570707321167E-1   5.922011733055115E-1   2.446020394563675E-1   2.870881259441376E-1   2.449317425489426E-1   2.871492505073547E-1  -6.931126713752747E-1   5.874047279357910E-1  
 1.470000000000000E7    -6.935148239135742E-1   5.926675200462341E-1   2.453670948743820E-1   2.871444821357727E-1   2.457504868507385E-1   2.870259881019592E-1  -6.919677853584290E-1   5.881103873252869E-1  
 1.472000000000000E7    -6.929203867912293E-1   5.927916169166565E-1   2.458405941724777E-1   2.873898148536682E-1   2.463967949151993E-1   2.874312698841095E-1  -6.912540793418884E-1   5.889549255371094E-1  
 1.474000000000000E7    -6.919140815734863E-1   5.934894680976868E-1   2.467942088842392E-1   2.874143421649933E-1   2.471085190773010E-1   2.873960733413696E-1  -6.900421977043152E-1   5.896185040473938E-1  
 1.476000000000000E7    -6.910570263862610E-1   5.945091247558594E-1   2.474134564399719E-1   2.881314456462860E-1   2.477965503931046E-1   2.877454459667206E-1  -6.900241374969482E-1   5.903660655021668E-1  
 1.478000000000000E7    -6.903623938560486E-1   5.948789119720459E-1   2.478544861078262E-1   2.880311012268066E-1   2.480581402778626E-1   2.878499329090118E-1  -6.887574791908264E-1   5.907068252563477E-1  
 1.480000000000000E7    -6.891980171203613E-1   5.955601334571838E-1   2.486225515604019E-1   2.882767617702484E-1   2.487909048795700E-1   2.882248461246491E-1  -6.880896091461182E-1   5.913816690444946E-1  
 1.482000000000000E7    -6.887928247451782E-1   5.963014364242554E-1   2.496764957904816E-1   2.887809276580811E-1   2.497476935386658E-1   2.883975803852081E-1  -6.874691843986511E-1   5.918974876403809E-1  
 1.484000000000000E7    -6.880786418914795E-1   5.970161557197571E-1   2.503572702407837E-1   2.888941168785095E-1   2.507121562957764E-1   2.882736623287201E-1  -6.860606670379639E-1   5.928923487663269E-1  
 1.486000000000000E7    -6.873316168785095E-1   5.973068475723267E-1   2.508105635643005E-1   2.889827787876129E-1   2.510669827461243E-1   2.888807058334351E-1  -6.855921149253845E-1   5.927146673202515E-1  
 1.488000000000000E7    -6.864142417907715E-1   5.978422760963440E-1   2.514691650867462E-1   2.891756594181061E-1   2.519066333770752E-1   2.886601090431213E-1  -6.847928762435913E-1   5.933064222335815E-1  
 1.490000000000000E7    -6.851997971534729E-1   5.984188914299011E-1   2.521378397941589E-1   2.891864180564880E-1   2.526920437812805E-1   2.890194952487946E-1  -6.837949752807617E-1   5.939542055130005E-1  
 1.492000000000000E7    -6.842322945594788E-1   5.987996459007263E-1   2.528156042098999E-1   2.894503772258759E-1   2.534083724021912E-1   2.888025939464569E-1  -6.831110119819641E-1   5.948779582977295E-1  
 1.494000000000000E7    -6.839265823364258E-1   5.999689698219299E-1   2.539659738540649E-1   2.895858585834503E-1   2.541073560714722E-1   2.892262041568756E-1  -6.820178627967835E-1   5.952456593513489E-1  
 1.496000000000000E7    -6.827873587608337E-1   6.000326871871948E-1   2.543632686138153E-1   2.897830009460449E-1   2.548530399799347E-1   2.895049154758453E-1  -6.814929246902466E-1   5.958389043807983E-1  
 1.498000000000000E7    -6.820212602615356E-1   6.005236506462097E-1   2.547690570354462E-1   2.898974120616913E-1   2.555492818355560E-1   2.896744608879089E-1  -6.805244684219360E-1   5.966433286666870E-1  
 1.500000000000000E7    -6.814863681793213E-1   6.011618971824646E-1   2.559822499752045E-1   2.902379035949707E-1   2.561389207839966E-1   2.900741696357727E-1  -6.797996163368225E-1   5.973996520042419E-1  
 1.502000000000000E7    -6.804685592651367E-1   6.018157005310059E-1   2.565963268280029E-1   2.905141115188599E-1   2.564918398857117E-1   2.899689674377441E-1  -6.789372563362122E-1   5.979158282279968E-1  
 1.504000000000000E7    -6.795839667320252E-1   6.027338504791260E-1   2.575026154518127E-1   2.907305955886841E-1   2.579780817031860E-1   2.903906106948853E-1  -6.784220337867737E-1   5.985603332519531E-1  
 1.506000000000000E7    -6.789734959602356E-1   6.027314066886902E-1   2.581081092357636E-1   2.907237410545349E-1   2.580599784851074E-1   2.904807925224304E-1  -6.770425438880920E-1   5.990013480186462E-1  
 1.508000000000000E7    -6.781324148178101E-1   6.036076545715332E-1   2.587594389915466E-1   2.911840081214905E-1   2.588674724102020E-1   2.905857264995575E-1  -6.762962937355042E-1   5.996312499046326E-1  
 1.510000000000000E7    -6.771316528320313E-1   6.040192246437073E-1   2.594324648380280E-1   2.911453545093536E-1   2.597541213035584E-1   2.909275889396668E-1  -6.757453680038452E-1   6.000704169273377E-1  
 1.512000000000000E7    -6.762511134147644E-1   6.043387055397034E-1   2.604393064975739E-1   2.910960316658020E-1   2.606317400932312E-1   2.909577786922455E-1  -6.747684478759766E-1   6.010342240333557E-1  
 1.514000000000000E7    -6.757287383079529E-1   6.054811477661133E-1   2.607022821903229E-1   2.914539277553558E-1   2.613744139671326E-1   2.914633452892304E-1  -6.746438145637512E-1   6.007644534111023E-1  
 1.516000000000000E7    -6.744534969329834E-1   6.058052182197571E-1   2.617456018924713E-1   2.915301620960236E-1   2.616320550441742E-1   2.917403578758240E-1  -6.734756827354431E-1   6.016421914100647E-1  
 1.518000000000000E7    -6.739498972892761E-1   6.057416200637817E-1   2.621212601661682E-1   2.921075224876404E-1   2.624014317989349E-1   2.916347086429596E-1  -6.722366213798523E-1   6.026772856712341E-1  
 1.520000000000000E7    -6.726686954498291E-1   6.069750785827637E-1   2.631773948669434E-1   2.916674911975861E-1   2.635003328323364E-1   2.917963564395905E-1  -6.712226271629334E-1   6.027070283889771E-1  
 1.522000000000000E7    -6.720991730690002E-1   6.077201366424561E-1   2.638926804065704E-1   2.922089397907257E-1   2.640649974346161E-1   2.917668819427490E-1  -6.705821752548218E-1   6.035860776901245E-1  
 1.524000000000000E7    -6.709573864936829E-1   6.079908609390259E-1   2.641897499561310E-1   2.923131585121155E-1   2.646724581718445E-1   2.919222414493561E-1  -6.698049902915955E-1   6.041630506515503E-1  
 1.526000000000000E7    -6.704611182212830E-1   6.089059710502625E-1   2.655471861362457E-1   2.924650311470032E-1   2.655727565288544E-1   2.922260463237763E-1  -6.689959764480591E-1   6.048275232315064E-1  
 1.528000000000000E7    -6.694156527519226E-1   6.096064448356628E-1   2.661133706569672E-1   2.926582694053650E-1   2.666424512863159E-1   2.926104366779327E-1  -6.682782769203186E-1   6.055073738098145E-1  
 1.530000000000000E7    -6.688427329063416E-1   6.099321246147156E-1   2.664323449134827E-1   2.927642166614533E-1   2.670150101184845E-1   2.924141585826874E-1  -6.665405035018921E-1   6.053899526596069E-1  
 1.532000000000000E7    -6.679168343544006E-1   6.099599003791809E-1   2.671567797660828E-1   2.927929162979126E-1   2.676427960395813E-1   2.926842570304871E-1  -6.659951210021973E-1   6.061568856239319E-1  
 1.534000000000000E7    -6.667693853378296E-1   6.109730005264282E-1   2.679814100265503E-1   2.931843101978302E-1   2.682576179504395E-1   2.928716838359833E-1  -6.660082340240479E-1   6.064507961273193E-1  
 1.536000000000000E7    -6.662512421607971E-1   6.115093827247620E-1   2.687083780765533E-1   2.933931648731232E-1   2.692003846168518E-1   2.932057082653046E-1  -6.644556522369385E-1   6.073755621910095E-1  
 1.538000000000000E7    -6.652594804763794E-1   6.123656034469605E-1   2.697359919548035E-1   2.934353351593018E-1   2.699159383773804E-1   2.930622100830078E-1  -6.635636687278748E-1   6.077443361282349E-1  
 1.540000000000000E7    -6.643157601356506E-1   6.125823259353638E-1   2.701494693756104E-1   2.933686375617981E-1   2.705638706684113E-1   2.931541502475739E-1  -6.624253392219544E-1   6.083469986915588E-1  
 1.542000000000000E7    -6.632784605026245E-1   6.128172278404236E-1   2.711116969585419E-1   2.934771776199341E-1   2.713476717472076E-1   2.934164404869080E-1  -6.613134741783142E-1   6.090926527976990E-1  
 1.544000000000000E7    -6.627872586250305E-1   6.139934659004211E-1   2.719653248786926E-1   2.936860620975494E-1   2.720840871334076E-1   2.935387790203095E-1  -6.609722375869751E-1   6.093170642852783E-1  
 1.546000000000000E7    -6.619775295257568E-1   6.139713525772095E-1   2.725886106491089E-1   2.937330901622772E-1   2.731772363185883E-1   2.937655746936798E-1  -6.600300669670105E-1   6.099761128425598E-1  
 1.548000000000000E7    -6.608995795249939E-1   6.149016618728638E-1   2.733987569808960E-1   2.945252954959869E-1   2.737021446228027E-1   2.940494120121002E-1  -6.594020128250122E-1   6.107831597328186E-1  
 1.550000000000000E7    -6.599485874176025E-1   6.152503490447998E-1   2.739322781562805E-1   2.943706214427948E-1   2.741161882877350E-1   2.939076721668243E-1  -6.583729982376099E-1   6.111030578613281E-1  
 1.552000000000000E7    -6.592143177986145E-1   6.159394383430481E-1   2.749214172363281E-1   2.945298254489899E-1   2.751981616020203E-1   2.942881584167481E-1  -6.577998399734497E-1   6.115380525588989E-1  
 1.554000000000000E7    -6.587757468223572E-1   6.166473627090454E-1   2.749986946582794E-1   2.950251400470734E-1   2.761635482311249E-1   2.944040596485138E-1  -6.566407084465027E-1   6.125006675720215E-1  
 1.556000000000000E7    -6.575261950492859E-1   6.167108416557312E-1   2.761299312114716E-1   2.949088215827942E-1   2.763161063194275E-1   2.946864366531372E-1  -6.559556722640991E-1   6.124557852745056E-1  
 1.558000000000000E7    -6.572466492652893E-1   6.176052689552307E-1   2.769214212894440E-1   2.953320145606995E-1   2.777106761932373E-1   2.949062883853912E-1  -6.548197269439697E-1   6.134831309318543E-1  
 1.560000000000000E7    -6.556776165962219E-1   6.179915666580200E-1   2.775473892688751E-1   2.950164675712585E-1   2.782812416553497E-1   2.950282990932465E-1  -6.543327569961548E-1   6.140564680099487E-1  
 1.562000000000000E7    -6.548656821250916E-1   6.184281110763550E-1   2.783513069152832E-1   2.951158285140991E-1   2.782751321792603E-1   2.949226498603821E-1  -6.527791023254395E-1   6.136992573738098E-1  
 1.564000000000000E7    -6.541927456855774E-1   6.189113259315491E-1   2.790298163890839E-1   2.956714928150177E-1   2.794413566589356E-1   2.951395809650421E-1  -6.526363492012024E-1   6.142313480377197E-1  
 1.566000000000000E7    -6.531766057014465E-1   6.201111674308777E-1   2.800476849079132E-1   2.955778837203980E-1   2.802349925041199E-1   2.952659130096436E-1  -6.518459320068359E-1   6.145595312118530E-1  
 1.568000000000000E7    -6.523357629776001E-1   6.202900409698486E-1   2.808948457241058E-1   2.955174148082733E-1   2.809919714927673E-1   2.953351140022278E-1  -6.504887342453003E-1   6.158769726753235E-1  
 1.570000000000000E7    -6.514236330986023E-1   6.210232377052307E-1   2.817921638488770E-1   2.959787845611572E-1   2.818710505962372E-1   2.955635786056519E-1  -6.492990255355835E-1   6.166396141052246E-1  
 1.572000000000000E7    -6.502488255500794E-1   6.217506527900696E-1   2.821206152439117E-1   2.958567738533020E-1   2.831152677536011E-1   2.957505285739899E-1  -6.491342186927795E-1   6.167717576026917E-1  
 1.574000000000000E7    -6.496604084968567E-1   6.217002272605896E-1   2.829857468605042E-1   2.963843047618866E-1   2.833513319492340E-1   2.959139943122864E-1  -6.479330062866211E-1   6.175350546836853E-1  
 1.576000000000000E7    -6.488630175590515E-1   6.227577924728394E-1   2.839850485324860E-1   2.962384223937988E-1   2.842940390110016E-1   2.960330843925476E-1  -6.468828916549683E-1   6.177106499671936E-1  
 1.578000000000000E7    -6.479524970054627E-1   6.227434873580933E-1   2.842139005661011E-1   2.966737449169159E-1   2.843177318572998E-1   2.960631549358368E-1  -6.460721492767334E-1   6.184641122817993E-1  
 1.580000000000000E7    -6.467564105987549E-1   6.232515573501587E-1   2.853710651397705E-1   2.968076467514038E-1   2.856069803237915E-1   2.963759899139404E-1  -6.455372571945190E-1   6.192819476127625E-1  
 1.582000000000000E7    -6.458879113197327E-1   6.239323019981384E-1   2.858699262142181E-1   2.967053949832916E-1   2.864144444465637E-1   2.962017655372620E-1  -6.445751786231995E-1   6.198548078536987E-1  
 1.584000000000000E7    -6.450579166412354E-1   6.240069866180420E-1   2.866433262825012E-1   2.968723773956299E-1   2.870707511901856E-1   2.966817617416382E-1  -6.435437202453613E-1   6.202641725540161E-1  
 1.586000000000000E7    -6.443766355514526E-1   6.250283122062683E-1   2.875459790229797E-1   2.971282303333283E-1   2.877430915832520E-1   2.966735064983368E-1  -6.426224112510681E-1   6.205049157142639E-1  
 1.588000000000000E7    -6.432915925979614E-1   6.252382993698120E-1   2.883869409561157E-1   2.970710396766663E-1   2.887163460254669E-1   2.968547940254211E-1  -6.421843767166138E-1   6.210799217224121E-1  
 1.590000000000000E7    -6.424084901809692E-1   6.256681084632874E-1   2.889677882194519E-1   2.973997592926025E-1   2.892290353775024E-1   2.968046367168427E-1  -6.407912373542786E-1   6.214104890823364E-1  
 1.592000000000000E7    -6.412643790245056E-1   6.269900202751160E-1   2.899060845375061E-1   2.970500588417053E-1   2.901326119899750E-1   2.967634797096252E-1  -6.400395035743713E-1   6.220095753669739E-1  
 1.594000000000000E7    -6.403910517692566E-1   6.273453235626221E-1   2.905467152595520E-1   2.971739470958710E-1   2.911664843559265E-1   2.970020174980164E-1  -6.388923525810242E-1   6.222670674324036E-1  
 1.596000000000000E7    -6.399417519569397E-1   6.271575689315796E-1   2.915063202381134E-1   2.973263263702393E-1   2.910426557064056E-1   2.973772287368774E-1  -6.383864879608154E-1   6.232885718345642E-1  
 1.598000000000000E7    -6.384424567222595E-1   6.278886795043945E-1   2.920551896095276E-1   2.977903485298157E-1   2.921754419803619E-1   2.972287535667419E-1  -6.373922228813171E-1   6.242610216140747E-1  
 1.600000000000000E7    -6.381435394287109E-1   6.278453469276428E-1   2.929030656814575E-1   2.978088855743408E-1   2.929626703262329E-1   2.974466085433960E-1  -6.362761855125427E-1   6.244899034500122E-1  
 1.602000000000000E7    -6.374012827873230E-1   6.291087269783020E-1   2.937198877334595E-1   2.980535328388214E-1   2.941104769706726E-1   2.979421019554138E-1  -6.356092095375061E-1   6.251516342163086E-1  
 1.604000000000000E7    -6.359969973564148E-1   6.296862959861755E-1   2.943730354309082E-1   2.974368929862976E-1   2.945152223110199E-1   2.974631488323212E-1  -6.344555616378784E-1   6.248787045478821E-1  
 1.606000000000000E7    -6.350490450859070E-1   6.302324533462524E-1   2.951901555061340E-1   2.978823781013489E-1   2.956122457981110E-1   2.981270551681519E-1  -6.335871815681458E-1   6.258919835090637E-1  
 1.608000000000000E7    -6.345142126083374E-1   6.307805180549622E-1   2.957130968570709E-1   2.989385128021240E-1   2.961845993995667E-1   2.979837954044342E-1  -6.330556273460388E-1   6.259927749633789E-1  
 1.610000000000000E7    -6.338065266609192E-1   6.310235857963562E-1   2.970832288265228E-1   2.984595298767090E-1   2.973885238170624E-1   2.984758019447327E-1  -6.318330764770508E-1   6.270179748535156E-1  
 1.612000000000000E7    -6.325821280479431E-1   6.318784952163696E-1   2.975336313247681E-1   2.984587550163269E-1   2.980574667453766E-1   2.981865108013153E-1  -6.308059096336365E-1   6.271538138389587E-1  
 1.614000000000000E7    -6.317890286445618E-1   6.319525837898254E-1   2.979606688022614E-1   2.987379729747772E-1   2.984430789947510E-1   2.984417676925659E-1  -6.301482319831848E-1   6.278262138366699E-1  
 1.616000000000000E7    -6.305778026580811E-1   6.325061917304993E-1   2.990624308586121E-1   2.989755868911743E-1   2.995297312736511E-1   2.983191609382629E-1  -6.291970610618591E-1   6.285935640335083E-1  
 1.618000000000000E7    -6.297169327735901E-1   6.335428953170776E-1   2.998636960983276E-1   2.990720570087433E-1   3.006018102169037E-1   2.983796596527100E-1  -6.281210780143738E-1   6.290621161460877E-1  
 1.620000000000000E7    -6.286502480506897E-1   6.339005231857300E-1   3.009541630744934E-1   2.991693317890167E-1   3.012931048870087E-1   2.984812557697296E-1  -6.274905204772949E-1   6.293238997459412E-1  
 1.622000000000000E7    -6.282731294631958E-1   6.342402100563049E-1   3.014054000377655E-1   2.992929816246033E-1   3.018616735935211E-1   2.989476919174194E-1  -6.261008381843567E-1   6.299701929092407E-1  
 1.624000000000000E7    -6.270505189895630E-1   6.348837018013001E-1   3.025041818618774E-1   2.994716763496399E-1   3.026255071163178E-1   2.988367974758148E-1  -6.256445050239563E-1   6.304451823234558E-1  
 1.626000000000000E7    -6.257554888725281E-1   6.350451111793518E-1   3.028208315372467E-1   2.993655204772949E-1   3.032908737659454E-1   2.988237738609314E-1  -6.247260570526123E-1   6.313883662223816E-1  
 1.628000000000000E7    -6.252298355102539E-1   6.355617642402649E-1   3.037838935852051E-1   2.994485199451447E-1   3.039434254169464E-1   2.995986938476563E-1  -6.238065958023071E-1   6.314535140991211E-1  
 1.630000000000000E7    -6.243676543235779E-1   6.357100605964661E-1   3.045491278171539E-1   2.993496656417847E-1   3.050775825977325E-1   2.992239594459534E-1  -6.227340698242188E-1   6.318946480751038E-1  
 1.632000000000000E7    -6.234980821609497E-1   6.366487145423889E-1   3.051826357841492E-1   2.998167872428894E-1   3.053544163703919E-1   2.996720671653748E-1  -6.219934225082398E-1   6.319973468780518E-1  
 1.634000000000000E7    -6.227213740348816E-1   6.374291777610779E-1   3.063761889934540E-1   2.996913790702820E-1   3.063468337059021E-1   2.995243668556213E-1  -6.204886436462402E-1   6.324837207794190E-1  
 1.636000000000000E7    -6.212467551231384E-1   6.375795602798462E-1   3.070461452007294E-1   2.999587357044220E-1   3.072156906127930E-1   2.994823455810547E-1  -6.201181411743164E-1   6.336104869842529E-1  
 1.638000000000000E7    -6.206355690956116E-1   6.379597783088684E-1   3.076795339584351E-1   3.001078963279724E-1   3.079115450382233E-1   2.995118796825409E-1  -6.192293167114258E-1   6.335031986236572E-1  
 1.640000000000000E7    -6.195828318595886E-1   6.384224891662598E-1   3.082849979400635E-1   2.999743521213532E-1   3.088010549545288E-1   2.999810278415680E-1  -6.183524727821350E-1   6.348389387130737E-1  
 1.642000000000000E7    -6.185095310211182E-1   6.394272446632385E-1   3.094792962074280E-1   2.998678982257843E-1   3.099372982978821E-1   2.995949983596802E-1  -6.168172359466553E-1   6.349154710769653E-1  
 1.644000000000000E7    -6.175647974014282E-1   6.396610736846924E-1   3.100208640098572E-1   3.002346456050873E-1   3.109514117240906E-1   2.998993992805481E-1  -6.168873906135559E-1   6.352869868278503E-1  
 1.646000000000000E7    -6.167305707931519E-1   6.402075290679932E-1   3.105833530426025E-1   2.998831868171692E-1   3.110697865486145E-1   2.998278141021729E-1  -6.149192452430725E-1   6.351951360702515E-1  
 1.648000000000000E7    -6.158265471458435E-1   6.406400799751282E-1   3.113712966442108E-1   3.005701005458832E-1   3.121166825294495E-1   3.002790510654450E-1  -6.146777272224426E-1   6.361020207405090E-1  
 1.650000000000000E7    -6.150491833686829E-1   6.412844657897949E-1   3.127430975437164E-1   3.006092309951782E-1   3.130851686000824E-1   3.002623915672302E-1  -6.140788197517395E-1   6.366067528724670E-1  
 1.652000000000000E7    -6.143494248390198E-1   6.415789723396301E-1   3.135383725166321E-1   3.007624447345734E-1   3.136416971683502E-1   3.002403378486633E-1  -6.126857995986939E-1   6.372637152671814E-1  
 1.654000000000000E7    -6.133025884628296E-1   6.423150897026062E-1   3.140002489089966E-1   3.008762300014496E-1   3.144562542438507E-1   3.002534806728363E-1  -6.115393638610840E-1   6.378908753395081E-1  
 1.656000000000000E7    -6.118599176406860E-1   6.425653696060181E-1   3.148030042648315E-1   3.008431792259216E-1   3.151141405105591E-1   3.003706634044647E-1  -6.107042431831360E-1   6.378746628761292E-1  
 1.658000000000000E7    -6.109485030174255E-1   6.431822776794434E-1   3.152097463607788E-1   3.007321357727051E-1   3.160611391067505E-1   3.005013763904572E-1  -6.100080013275147E-1   6.387013196945190E-1  
 1.660000000000000E7    -6.102157235145569E-1   6.431304812431335E-1   3.161360323429108E-1   3.008087277412415E-1   3.164745569229126E-1   3.002548217773438E-1  -6.089415550231934E-1   6.392402052879334E-1  
 1.662000000000000E7    -6.091089844703674E-1   6.442285776138306E-1   3.174423575401306E-1   3.009872138500214E-1   3.178254961967468E-1   3.007943332195282E-1  -6.079986691474915E-1   6.396217942237854E-1  
 1.664000000000000E7    -6.083254218101502E-1   6.441380977630615E-1   3.177329599857330E-1   3.009834885597229E-1   3.187806308269501E-1   3.006827235221863E-1  -6.069802641868591E-1   6.399408578872681E-1  
 1.666000000000000E7    -6.074206829071045E-1   6.449966430664063E-1   3.188815414905548E-1   3.011524081230164E-1   3.191433250904083E-1   3.008092343807221E-1  -6.061171293258667E-1   6.403221487998962E-1  
 1.668000000000000E7    -6.068435907363892E-1   6.457336544990540E-1   3.199982047080994E-1   3.009513020515442E-1   3.199482262134552E-1   3.005362451076508E-1  -6.051553487777710E-1   6.409863233566284E-1  
 1.670000000000000E7    -6.052461862564087E-1   6.455497145652771E-1   3.205989003181458E-1   3.012579679489136E-1   3.207014501094818E-1   3.007671236991882E-1  -6.044623851776123E-1   6.412931084632874E-1  
 1.672000000000000E7    -6.045885682106018E-1   6.461089849472046E-1   3.214299082756043E-1   3.012512624263763E-1   3.216753602027893E-1   3.012372255325317E-1  -6.032828092575073E-1   6.419513821601868E-1  
 1.674000000000000E7    -6.036024689674377E-1   6.465929746627808E-1   3.221535384654999E-1   3.016009926795960E-1   3.226506710052490E-1   3.010738790035248E-1  -6.023977398872376E-1   6.425271630287170E-1  
 1.676000000000000E7    -6.028087139129639E-1   6.473684310913086E-1   3.231694996356964E-1   3.015011250972748E-1   3.232281506061554E-1   3.008734583854675E-1  -6.011101007461548E-1   6.427994966506958E-1  
 1.678000000000000E7    -6.016933917999268E-1   6.476581692695618E-1   3.232000172138214E-1   3.016437292098999E-1   3.238021433353424E-1   3.014625012874603E-1  -6.006737351417542E-1   6.434451341629028E-1  
 1.680000000000000E7    -6.006189584732056E-1   6.481827497482300E-1   3.247618377208710E-1   3.014543354511261E-1   3.248158395290375E-1   3.012765347957611E-1  -5.994688868522644E-1   6.438956260681152E-1  
 1.682000000000000E7    -6.000000834465027E-1   6.484979987144470E-1   3.257726728916168E-1   3.017361760139465E-1   3.256464004516602E-1   3.014709949493408E-1  -5.987877249717712E-1   6.441268324851990E-1  
 1.684000000000000E7    -5.988937616348267E-1   6.492367386817932E-1   3.263949751853943E-1   3.017092347145081E-1   3.264544308185577E-1   3.016330301761627E-1  -5.976902842521668E-1   6.448268890380859E-1  
 1.686000000000000E7    -5.979474186897278E-1   6.494402289390564E-1   3.271325230598450E-1   3.015128076076508E-1   3.272882401943207E-1   3.018304407596588E-1  -5.970867872238159E-1   6.450755000114441E-1  
 1.688000000000000E7    -5.968993306159973E-1   6.502222418785095E-1   3.279355764389038E-1   3.021399676799774E-1   3.284607529640198E-1   3.015226423740387E-1  -5.959913730621338E-1   6.460758447647095E-1  
 1.690000000000000E7    -5.963568687438965E-1   6.503278017044067E-1   3.284970223903656E-1   3.022949099540710E-1   3.288952112197876E-1   3.020965754985809E-1  -5.947882533073425E-1   6.460373401641846E-1  
 1.692000000000000E7    -5.952360033988953E-1   6.505676507949829E-1   3.296135663986206E-1   3.021708130836487E-1   3.298034667968750E-1   3.017272353172302E-1  -5.935990810394287E-1   6.470350027084351E-1  
 1.694000000000000E7    -5.945576429367065E-1   6.515352725982666E-1   3.304737508296967E-1   3.022448718547821E-1   3.309397101402283E-1   3.018407821655273E-1  -5.926139950752258E-1   6.469880342483521E-1  
 1.696000000000000E7    -5.933123230934143E-1   6.520254611968994E-1   3.311338126659393E-1   3.026147186756134E-1   3.315076529979706E-1   3.020430207252502E-1  -5.918271541595459E-1   6.474030017852783E-1  
 1.698000000000000E7    -5.921359658241272E-1   6.521922349929810E-1   3.320176899433136E-1   3.020927608013153E-1   3.326906561851502E-1   3.017662763595581E-1  -5.909414291381836E-1   6.475492119789124E-1  
 1.700000000000000E7    -5.918037891387940E-1   6.528418064117432E-1   3.328585922718048E-1   3.021831214427948E-1   3.332118988037109E-1   3.020617961883545E-1  -5.899215936660767E-1   6.481933593750000E-1  
 1.702000000000000E7    -5.903640389442444E-1   6.535231471061707E-1   3.339413106441498E-1   3.024158179759979E-1   3.340387344360352E-1   3.025766909122467E-1  -5.891187191009522E-1   6.493243575096130E-1  
 1.704000000000000E7    -5.893217921257019E-1   6.537216901779175E-1   3.344328999519348E-1   3.021635115146637E-1   3.348567187786102E-1   3.021228909492493E-1  -5.884749293327332E-1   6.492039561271668E-1  
 1.706000000000000E7    -5.879980325698853E-1   6.540725827217102E-1   3.352701067924500E-1   3.027378320693970E-1   3.357347846031189E-1   3.018200695514679E-1  -5.874142646789551E-1   6.501217484474182E-1  
 1.708000000000000E7    -5.876638293266296E-1   6.546471714973450E-1   3.366477787494659E-1   3.024895489215851E-1   3.363938331604004E-1   3.021528720855713E-1  -5.858231186866760E-1   6.502448916435242E-1  
 1.710000000000000E7    -5.863748192787170E-1   6.546403765678406E-1   3.370352387428284E-1   3.028175234794617E-1   3.370363414287567E-1   3.024783730506897E-1  -5.856428742408752E-1   6.511231064796448E-1  
 1.712000000000000E7    -5.856116414070129E-1   6.557880640029907E-1   3.380878269672394E-1   3.026997745037079E-1   3.382039368152618E-1   3.025676608085632E-1  -5.840455293655396E-1   6.510656476020813E-1  
 1.714000000000000E7    -5.843487977981567E-1   6.558434963226318E-1   3.384548425674439E-1   3.024384677410126E-1   3.389592170715332E-1   3.023660480976105E-1  -5.833810567855835E-1   6.517946720123291E-1  
 1.716000000000000E7    -5.834031701087952E-1   6.563289761543274E-1   3.400252461433411E-1   3.027901649475098E-1   3.396736979484558E-1   3.024844825267792E-1  -5.825099945068359E-1   6.523832678794861E-1  
 1.718000000000000E7    -5.827217102050781E-1   6.566854119300842E-1   3.403248786926270E-1   3.030323386192322E-1   3.405092060565949E-1   3.027847409248352E-1  -5.810089707374573E-1   6.522628068923950E-1  
 1.720000000000000E7    -5.815985798835754E-1   6.568518877029419E-1   3.410480916500092E-1   3.025813102722168E-1   3.412948250770569E-1   3.024290204048157E-1  -5.803139805793762E-1   6.530037522315979E-1  
 1.722000000000000E7    -5.805030465126038E-1   6.575378179550171E-1   3.420992195606232E-1   3.026640713214874E-1   3.424524664878845E-1   3.026631176471710E-1  -5.789133906364441E-1   6.535472273826599E-1  
 1.724000000000000E7    -5.791950225830078E-1   6.581926941871643E-1   3.429211378097534E-1   3.030909895896912E-1   3.430639207363129E-1   3.023716509342194E-1  -5.786452889442444E-1   6.532912850379944E-1  
 1.726000000000000E7    -5.784299969673157E-1   6.587731242179871E-1   3.436353504657745E-1   3.029890954494476E-1   3.438087105751038E-1   3.023903369903565E-1  -5.772790312767029E-1   6.541065573692322E-1  
 1.728000000000000E7    -5.776292681694031E-1   6.585758924484253E-1   3.446199893951416E-1   3.030068576335907E-1   3.445860147476196E-1   3.027171492576599E-1  -5.761104226112366E-1   6.546062231063843E-1  
 1.730000000000000E7    -5.761547684669495E-1   6.593343019485474E-1   3.454180657863617E-1   3.030678033828735E-1   3.454179763793945E-1   3.028479516506195E-1  -5.755481719970703E-1   6.549062132835388E-1  
 1.732000000000000E7    -5.753833055496216E-1   6.597602367401123E-1   3.460600376129150E-1   3.031762838363648E-1   3.469245731830597E-1   3.026974499225617E-1  -5.748326778411865E-1   6.556984186172485E-1  
 1.734000000000000E7    -5.750766992568970E-1   6.600614190101624E-1   3.471589386463165E-1   3.029668033123016E-1   3.475495278835297E-1   3.029429316520691E-1  -5.734814405441284E-1   6.557471752166748E-1  
 1.736000000000000E7    -5.738005042076111E-1   6.604608297348023E-1   3.476574420928955E-1   3.031919300556183E-1   3.480659425258637E-1   3.026161789894104E-1  -5.724494457244873E-1   6.567462086677551E-1  
 1.738000000000000E7    -5.722659826278687E-1   6.610317230224609E-1   3.486890792846680E-1   3.032484352588654E-1   3.490548431873322E-1   3.021008074283600E-1  -5.711818337440491E-1   6.565023064613342E-1  
 1.740000000000000E7    -5.719223618507385E-1   6.615999341011047E-1   3.499569892883301E-1   3.031229376792908E-1   3.494742512702942E-1   3.026906251907349E-1  -5.700346231460571E-1   6.571360230445862E-1  
 1.742000000000000E7    -5.704931020736694E-1   6.614226698875427E-1   3.505918383598328E-1   3.032541573047638E-1   3.503503799438477E-1   3.025661706924439E-1  -5.695735812187195E-1   6.575422286987305E-1  
 1.744000000000000E7    -5.699391365051270E-1   6.622134447097778E-1   3.517879843711853E-1   3.029111623764038E-1   3.513643145561218E-1   3.027153909206390E-1  -5.680169463157654E-1   6.576371192932129E-1  
 1.746000000000000E7    -5.691918134689331E-1   6.628227233886719E-1   3.524630665779114E-1   3.031356036663055E-1   3.523302078247070E-1   3.032561540603638E-1  -5.676061511039734E-1   6.583928465843201E-1  
 1.748000000000000E7    -5.673767924308777E-1   6.633526682853699E-1   3.530562818050385E-1   3.031348288059235E-1   3.534832894802094E-1   3.028784990310669E-1  -5.663855671882629E-1   6.586779952049255E-1  
 1.750000000000000E7    -5.666218400001526E-1   6.640423536300659E-1   3.535749316215515E-1   3.031850755214691E-1   3.537154197692871E-1   3.029189109802246E-1  -5.655848383903503E-1   6.588318943977356E-1  
 1.752000000000000E7    -5.657619237899780E-1   6.646027565002441E-1   3.548267483711243E-1   3.032170236110687E-1   3.550696671009064E-1   3.028972446918488E-1  -5.645413398742676E-1   6.595999002456665E-1  
 1.754000000000000E7    -5.649501681327820E-1   6.644876599311829E-1   3.559387624263763E-1   3.032860755920410E-1   3.557628393173218E-1   3.028379082679749E-1  -5.635270476341248E-1   6.603587269783020E-1  
 1.756000000000000E7    -5.636615753173828E-1   6.650303602218628E-1   3.565174639225006E-1   3.035058677196503E-1   3.569824099540710E-1   3.025833070278168E-1  -5.623483061790466E-1   6.603605151176453E-1  
 1.758000000000000E7    -5.627864003181458E-1   6.651814579963684E-1   3.570346534252167E-1   3.036339879035950E-1   3.574478030204773E-1   3.027954697608948E-1  -5.615574717521668E-1   6.606968045234680E-1  
 1.760000000000000E7    -5.619710683822632E-1   6.659795045852661E-1   3.581870198249817E-1   3.034622371196747E-1   3.586701750755310E-1   3.028795719146729E-1  -5.604454278945923E-1   6.612200736999512E-1  
 1.762000000000000E7    -5.607118010520935E-1   6.654849052429199E-1   3.592554330825806E-1   3.032814562320709E-1   3.593699932098389E-1   3.026828765869141E-1  -5.592429637908936E-1   6.615642309188843E-1  
 1.764000000000000E7    -5.597604513168335E-1   6.665997505187988E-1   3.602006435394287E-1   3.032891154289246E-1   3.599743843078613E-1   3.031038045883179E-1  -5.585761666297913E-1   6.620683670043945E-1  
 1.766000000000000E7    -5.588307976722717E-1   6.669922471046448E-1   3.609226942062378E-1   3.035059869289398E-1   3.610280156135559E-1   3.032961487770081E-1  -5.574496984481812E-1   6.624501943588257E-1  
 1.768000000000000E7    -5.578376054763794E-1   6.671736240386963E-1   3.614923954010010E-1   3.033959567546845E-1   3.618366420269013E-1   3.033280074596405E-1  -5.560877323150635E-1   6.628586649894714E-1  
 1.770000000000000E7    -5.565569400787354E-1   6.676368117332459E-1   3.623753190040588E-1   3.037475049495697E-1   3.628151416778565E-1   3.032124340534210E-1  -5.553089976310730E-1   6.632127761840820E-1  
 1.772000000000000E7    -5.558503270149231E-1   6.679800748825073E-1   3.632117509841919E-1   3.035612702369690E-1   3.636982738971710E-1   3.029730021953583E-1  -5.540606379508972E-1   6.633990406990051E-1  
 1.774000000000000E7    -5.542607307434082E-1   6.687569618225098E-1   3.641922473907471E-1   3.033851981163025E-1   3.650663495063782E-1   3.029567897319794E-1  -5.531900525093079E-1   6.638713479042053E-1  
 1.776000000000000E7    -5.534864068031311E-1   6.687203645706177E-1   3.650489449501038E-1   3.035170435905457E-1   3.652679324150085E-1   3.028452992439270E-1  -5.524283647537231E-1   6.645300388336182E-1  
 1.778000000000000E7    -5.526253581047058E-1   6.693078279495239E-1   3.658629655838013E-1   3.031655848026276E-1   3.660781979560852E-1   3.027966022491455E-1  -5.513070821762085E-1   6.647263169288635E-1  
 1.780000000000000E7    -5.515211820602417E-1   6.697435379028320E-1   3.665966391563416E-1   3.033381402492523E-1   3.672987520694733E-1   3.030013442039490E-1  -5.503593683242798E-1   6.652848720550537E-1  
 1.782000000000000E7    -5.506038069725037E-1   6.701031923294067E-1   3.676359355449677E-1   3.033270835876465E-1   3.676830530166626E-1   3.029842078685761E-1  -5.490058660507202E-1   6.653680205345154E-1  
 1.784000000000000E7    -5.495185852050781E-1   6.701166629791260E-1   3.688481450080872E-1   3.032046854496002E-1   3.688924908638001E-1   3.030177354812622E-1  -5.481988787651062E-1   6.663687229156494E-1  
 1.786000000000000E7    -5.482020378112793E-1   6.709920167922974E-1   3.695082664489746E-1   3.034787774085999E-1   3.695337772369385E-1   3.027281165122986E-1  -5.473445057868958E-1   6.660121083259583E-1  
 1.788000000000000E7    -5.475213527679443E-1   6.707912087440491E-1   3.704812228679657E-1   3.028810620307922E-1   3.704334199428558E-1   3.032209575176239E-1  -5.465119481086731E-1   6.672780513763428E-1  
 1.790000000000000E7    -5.466234683990479E-1   6.714940071105957E-1   3.710966706275940E-1   3.027976453304291E-1   3.716680407524109E-1   3.031179308891296E-1  -5.449756383895874E-1   6.675060391426086E-1  
 1.792000000000000E7    -5.454310178756714E-1   6.718770265579224E-1   3.720766305923462E-1   3.032365143299103E-1   3.723540902137756E-1   3.027881681919098E-1  -5.444163680076599E-1   6.673311591148377E-1  
 1.794000000000000E7    -5.445042848587036E-1   6.723089814186096E-1   3.728763759136200E-1   3.031114339828491E-1   3.734546899795532E-1   3.026147484779358E-1  -5.433913469314575E-1   6.678707003593445E-1  
 1.796000000000000E7    -5.432537198066711E-1   6.727806925773621E-1   3.737558424472809E-1   3.034672439098358E-1   3.743236660957336E-1   3.025918602943420E-1  -5.421660542488098E-1   6.684888005256653E-1  
 1.798000000000000E7    -5.428005456924439E-1   6.733163595199585E-1   3.748854994773865E-1   3.031884431838989E-1   3.751713037490845E-1   3.034383058547974E-1  -5.410146117210388E-1   6.685729622840881E-1  
 1.800000000000000E7    -5.412218570709229E-1   6.732271313667297E-1   3.759608268737793E-1   3.031851649284363E-1   3.760018944740295E-1   3.030529022216797E-1  -5.403751134872437E-1   6.693001985549927E-1  
 1.802000000000000E7    -5.407347679138184E-1   6.734318137168884E-1   3.762117326259613E-1   3.032090365886688E-1   3.769866526126862E-1   3.029706180095673E-1  -5.387826561927795E-1   6.692615747451782E-1  
 1.804000000000000E7    -5.386173725128174E-1   6.737129688262940E-1   3.773746192455292E-1   3.027039170265198E-1   3.776282072067261E-1   3.023895919322968E-1  -5.378995537757874E-1   6.693902015686035E-1  
 1.806000000000000E7    -5.383371710777283E-1   6.744482517242432E-1   3.780017793178558E-1   3.028598427772522E-1   3.783701956272125E-1   3.030593693256378E-1  -5.366558432579041E-1   6.697663068771362E-1  
 1.808000000000000E7    -5.375261902809143E-1   6.749089956283569E-1   3.791842460632324E-1   3.031979203224182E-1   3.792375326156616E-1   3.028598725795746E-1  -5.360002517700195E-1   6.703913211822510E-1  
 1.810000000000000E7    -5.362453460693359E-1   6.753367781639099E-1   3.803132772445679E-1   3.032465577125549E-1   3.800819814205170E-1   3.028042912483215E-1  -5.354472994804382E-1   6.705030202865601E-1  
 1.812000000000000E7    -5.354040265083313E-1   6.755270361900330E-1   3.807751536369324E-1   3.030754327774048E-1   3.813080191612244E-1   3.028199672698975E-1  -5.342077612876892E-1   6.715525984764099E-1  
 1.814000000000000E7    -5.340879559516907E-1   6.761307716369629E-1   3.822094202041626E-1   3.025254011154175E-1   3.821138143539429E-1   3.028450012207031E-1  -5.327308773994446E-1   6.717541813850403E-1  
 1.816000000000000E7    -5.330153107643127E-1   6.763982772827148E-1   3.828555643558502E-1   3.029569983482361E-1   3.829116225242615E-1   3.026426136493683E-1  -5.313919186592102E-1   6.721556782722473E-1  
 1.818000000000000E7    -5.317140817642212E-1   6.767217516899109E-1   3.834839463233948E-1   3.024234473705292E-1   3.838176727294922E-1   3.022440671920776E-1  -5.306199193000794E-1   6.721218228340149E-1  
 1.820000000000000E7    -5.306331515312195E-1   6.768004894256592E-1   3.843077421188355E-1   3.027828633785248E-1   3.849119246006012E-1   3.023233413696289E-1  -5.296331048011780E-1   6.723337173461914E-1  
 1.822000000000000E7    -5.301391482353210E-1   6.772098541259766E-1   3.854545056819916E-1   3.029515445232391E-1   3.855502307415009E-1   3.026831150054932E-1  -5.286127328872681E-1   6.726199984550476E-1  
 1.824000000000000E7    -5.281453728675842E-1   6.775108575820923E-1   3.861482143402100E-1   3.028116524219513E-1   3.866939246654511E-1   3.020095527172089E-1  -5.273211002349854E-1   6.731941103935242E-1  
 1.826000000000000E7    -5.279098749160767E-1   6.783372759819031E-1   3.873238563537598E-1   3.028771281242371E-1   3.874234557151794E-1   3.022082746028900E-1  -5.265400409698486E-1   6.735061407089233E-1  
 1.828000000000000E7    -5.269879102706909E-1   6.785888075828552E-1   3.880339264869690E-1   3.026549518108368E-1   3.886865377426148E-1   3.024002611637116E-1  -5.256019234657288E-1   6.740164160728455E-1  
 1.830000000000000E7    -5.252845883369446E-1   6.787056326866150E-1   3.891631364822388E-1   3.028769195079804E-1   3.891789019107819E-1   3.023911118507385E-1  -5.246012806892395E-1   6.744640469551086E-1  
 1.832000000000000E7    -5.244494676589966E-1   6.791505217552185E-1   3.900747895240784E-1   3.023363947868347E-1   3.899610340595245E-1   3.021903634071350E-1  -5.235133767127991E-1   6.748272776603699E-1  
 1.834000000000000E7    -5.233073830604553E-1   6.794115304946899E-1   3.908449113368988E-1   3.027758598327637E-1   3.908763229846954E-1   3.019326329231262E-1  -5.224073529243469E-1   6.750475764274597E-1  
 1.836000000000000E7    -5.224436521530151E-1   6.801106333732605E-1   3.917320668697357E-1   3.023773729801178E-1   3.920579552650452E-1   3.025451600551605E-1  -5.212867259979248E-1   6.752399206161499E-1  
 1.838000000000000E7    -5.215168595314026E-1   6.803235411643982E-1   3.930445015430450E-1   3.023569285869598E-1   3.928298056125641E-1   3.019179105758667E-1  -5.204597711563110E-1   6.757125854492188E-1  
 1.840000000000000E7    -5.200132727622986E-1   6.800702810287476E-1   3.933925926685333E-1   3.024884164333344E-1   3.934106528759003E-1   3.016883730888367E-1  -5.193803906440735E-1   6.758264899253845E-1  
 1.842000000000000E7    -5.189314484596252E-1   6.806582808494568E-1   3.949589729309082E-1   3.021419048309326E-1   3.947463929653168E-1   3.018114566802979E-1  -5.182401537895203E-1   6.762610673904419E-1  
 1.844000000000000E7    -5.182539224624634E-1   6.809135675430298E-1   3.951882123947144E-1   3.021945059299469E-1   3.950920701026917E-1   3.017037808895111E-1  -5.171758532524109E-1   6.765196919441223E-1  
 1.846000000000000E7    -5.170140266418457E-1   6.814997196197510E-1   3.958647251129150E-1   3.021698296070099E-1   3.962717354297638E-1   3.017422556877136E-1  -5.156279802322388E-1   6.766334772109985E-1  
 1.848000000000000E7    -5.158145427703857E-1   6.814179420471191E-1   3.968503475189209E-1   3.020865321159363E-1   3.973012864589691E-1   3.014349639415741E-1  -5.153082013130188E-1   6.769261956214905E-1  
 1.850000000000000E7    -5.153934359550476E-1   6.822454929351807E-1   3.980320990085602E-1   3.019973337650299E-1   3.982674181461334E-1   3.017576932907105E-1  -5.137065649032593E-1   6.771690845489502E-1  
 1.852000000000000E7    -5.138132572174072E-1   6.821237802505493E-1   3.988108336925507E-1   3.025386035442352E-1   3.992282748222351E-1   3.015875220298767E-1  -5.132863521575928E-1   6.781702637672424E-1  
 1.854000000000000E7    -5.129640102386475E-1   6.825800538063049E-1   4.002053439617157E-1   3.016554415225983E-1   4.003756642341614E-1   3.017703890800476E-1  -5.119792222976685E-1   6.785836219787598E-1  
 1.856000000000000E7    -5.115909576416016E-1   6.829206943511963E-1   4.011065065860748E-1   3.012551665306091E-1   4.011251628398895E-1   3.011085093021393E-1  -5.110017061233521E-1   6.789733171463013E-1  
 1.858000000000000E7    -5.111130475997925E-1   6.835178732872009E-1   4.019491076469421E-1   3.013581633567810E-1   4.022811651229858E-1   3.012870252132416E-1  -5.096824169158936E-1   6.787422895431519E-1  
 1.860000000000000E7    -5.098376274108887E-1   6.834180355072022E-1   4.027552306652069E-1   3.016470074653626E-1   4.029384255409241E-1   3.013955354690552E-1  -5.090077519416809E-1   6.794641613960266E-1  
 1.862000000000000E7    -5.085728168487549E-1   6.842049360275269E-1   4.039018750190735E-1   3.020326197147369E-1   4.039549529552460E-1   3.013539910316467E-1  -5.082082152366638E-1   6.796215772628784E-1  
 1.864000000000000E7    -5.071650147438049E-1   6.842530965805054E-1   4.048450589179993E-1   3.012831509113312E-1   4.046328067779541E-1   3.012374043464661E-1  -5.066197514533997E-1   6.802735328674316E-1  
 1.866000000000000E7    -5.064452886581421E-1   6.848993897438049E-1   4.054402112960815E-1   3.013829588890076E-1   4.059672057628632E-1   3.010507225990295E-1  -5.055775642395020E-1   6.802825331687927E-1  
 1.868000000000000E7    -5.054916739463806E-1   6.848407983779907E-1   4.063406288623810E-1   3.007982671260834E-1   4.063840210437775E-1   3.008626997470856E-1  -5.040031075477600E-1   6.800372600555420E-1  
 1.870000000000000E7    -5.041410326957703E-1   6.850955486297607E-1   4.071514606475830E-1   3.010013401508331E-1   4.077460169792175E-1   3.010018467903137E-1  -5.029901266098023E-1   6.807559132575989E-1  
 1.872000000000000E7    -5.028504133224487E-1   6.856861710548401E-1   4.080772399902344E-1   3.010657727718353E-1   4.083379507064819E-1   3.009622395038605E-1  -5.022424459457398E-1   6.812634468078613E-1  
 1.874000000000000E7    -5.018547177314758E-1   6.857864260673523E-1   4.091888368129730E-1   3.009809255599976E-1   4.091699719429016E-1   3.004718124866486E-1  -5.012925863265991E-1   6.814157366752625E-1  
 1.876000000000000E7    -5.007681250572205E-1   6.857616305351257E-1   4.101226925849915E-1   3.007586896419525E-1   4.099191725254059E-1   3.001770675182343E-1  -4.998625516891480E-1   6.818547248840332E-1  
 1.878000000000000E7    -4.999395310878754E-1   6.862543821334839E-1   4.111218452453613E-1   3.010666072368622E-1   4.110173285007477E-1   3.006788790225983E-1  -4.985531270503998E-1   6.826131939888001E-1  
 1.880000000000000E7    -4.987024068832398E-1   6.867461204528809E-1   4.120574891567230E-1   3.003132343292236E-1   4.120737910270691E-1   3.002517521381378E-1  -4.981216192245483E-1   6.822314858436585E-1  
 1.882000000000000E7    -4.973124265670776E-1   6.872242689132690E-1   4.133711755275726E-1   3.008319139480591E-1   4.130159616470337E-1   3.005244135856628E-1  -4.965291321277618E-1   6.829105019569397E-1  
 1.884000000000000E7    -4.966180324554443E-1   6.871617436408997E-1   4.137884974479675E-1   3.006884753704071E-1   4.139728546142578E-1   3.001920878887177E-1  -4.955157935619354E-1   6.833436489105225E-1  
 1.886000000000000E7    -4.956470429897308E-1   6.881775856018066E-1   4.148778915405273E-1   3.004985749721527E-1   4.148149192333221E-1   3.001897633075714E-1  -4.949549734592438E-1   6.831640005111694E-1  
 1.888000000000000E7    -4.944790303707123E-1   6.883360743522644E-1   4.155524969100952E-1   3.005338907241821E-1   4.160433113574982E-1   3.001745343208313E-1  -4.937601387500763E-1   6.834279298782349E-1  
 1.890000000000000E7    -4.933227896690369E-1   6.880633234977722E-1   4.163916110992432E-1   3.002755939960480E-1   4.167234599590302E-1   2.998849153518677E-1  -4.924473762512207E-1   6.842122077941895E-1  
 1.892000000000000E7    -4.923826456069946E-1   6.885241270065308E-1   4.174410104751587E-1   2.998944520950317E-1   4.172395467758179E-1   2.998007237911224E-1  -4.909938871860504E-1   6.844406723976135E-1  
 1.894000000000000E7    -4.910206794738770E-1   6.887022852897644E-1   4.186565577983856E-1   3.000069260597229E-1   4.183975756168366E-1   2.996701300144196E-1  -4.901091754436493E-1   6.844196319580078E-1  
 1.896000000000000E7    -4.903131127357483E-1   6.892195940017700E-1   4.193301498889923E-1   2.996066808700562E-1   4.191998541355133E-1   2.995124161243439E-1  -4.889466464519501E-1   6.845912337303162E-1  
 1.898000000000000E7    -4.891906976699829E-1   6.892228722572327E-1   4.200768768787384E-1   2.997364103794098E-1   4.205841720104218E-1   2.996255457401276E-1  -4.877558648586273E-1   6.852053403854370E-1  
 1.900000000000000E7    -4.883677959442139E-1   6.894123554229736E-1   4.212938845157623E-1   2.997069954872131E-1   4.212302863597870E-1   2.998637259006500E-1  -4.870616793632507E-1   6.849673986434937E-1  
 1.902000000000000E7    -4.868498444557190E-1   6.898155808448792E-1   4.223251938819885E-1   2.991133034229279E-1   4.223938882350922E-1   2.993321120738983E-1  -4.859398007392883E-1   6.854469180107117E-1  
 1.904000000000000E7    -4.858773052692413E-1   6.901363730430603E-1   4.236392974853516E-1   2.992791235446930E-1   4.233089089393616E-1   2.990375459194183E-1  -4.842019379138947E-1   6.854301691055298E-1  
 1.906000000000000E7    -4.845976531505585E-1   6.905265450477600E-1   4.245131015777588E-1   2.992430031299591E-1   4.241855740547180E-1   2.992951273918152E-1  -4.835742115974426E-1   6.863442063331604E-1  
 1.908000000000000E7    -4.837307035923004E-1   6.911919116973877E-1   4.247463941574097E-1   2.993046939373016E-1   4.256116151809692E-1   2.992691099643707E-1  -4.828270077705383E-1   6.861876845359802E-1  
 1.910000000000000E7    -4.825800061225891E-1   6.910886764526367E-1   4.260215163230896E-1   2.989051640033722E-1   4.260577559471130E-1   2.987549006938934E-1  -4.815749526023865E-1   6.868200898170471E-1  
 1.912000000000000E7    -4.808891117572784E-1   6.913536787033081E-1   4.270465075969696E-1   2.991659343242645E-1   4.273862242698669E-1   2.985152304172516E-1  -4.807103276252747E-1   6.865033507347107E-1  
 1.914000000000000E7    -4.802185595035553E-1   6.914622187614441E-1   4.274361431598663E-1   2.983995676040649E-1   4.280125498771668E-1   2.982746958732605E-1  -4.792366921901703E-1   6.874764561653137E-1  
 1.916000000000000E7    -4.790643155574799E-1   6.917629241943359E-1   4.289594590663910E-1   2.992137670516968E-1   4.292501211166382E-1   2.985316812992096E-1  -4.782278537750244E-1   6.874980330467224E-1  
 1.918000000000000E7    -4.777572154998779E-1   6.921849250793457E-1   4.296217262744904E-1   2.985715866088867E-1   4.299806654453278E-1   2.983053624629974E-1  -4.769721031188965E-1   6.876862049102783E-1  
 1.920000000000000E7    -4.768023788928986E-1   6.921070218086243E-1   4.310922026634216E-1   2.981512248516083E-1   4.311563670635223E-1   2.982313632965088E-1  -4.760040342807770E-1   6.876932978630066E-1  
 1.922000000000000E7    -4.752468466758728E-1   6.925456523895264E-1   4.317772984504700E-1   2.982754111289978E-1   4.318098425865173E-1   2.974480092525482E-1  -4.746854305267334E-1   6.884285807609558E-1  
 1.924000000000000E7    -4.745861291885376E-1   6.930257081985474E-1   4.326027631759644E-1   2.980453372001648E-1   4.329421818256378E-1   2.976505756378174E-1  -4.738515913486481E-1   6.881365776062012E-1  
 1.926000000000000E7    -4.734537899494171E-1   6.933388113975525E-1   4.336340427398682E-1   2.977718114852905E-1   4.334877431392670E-1   2.975111901760101E-1  -4.728056490421295E-1   6.884326338768005E-1  
 1.928000000000000E7    -4.724009931087494E-1   6.933763027191162E-1   4.345104098320007E-1   2.979314923286438E-1   4.343056678771973E-1   2.976566851139069E-1  -4.719852805137634E-1   6.886377930641174E-1  
 1.930000000000000E7    -4.715954661369324E-1   6.935019493103027E-1   4.356997311115265E-1   2.978679537773132E-1   4.353317320346832E-1   2.975903451442719E-1  -4.706678390502930E-1   6.891454458236694E-1  
 1.932000000000000E7    -4.704645574092865E-1   6.933307051658630E-1   4.367145001888275E-1   2.972474992275238E-1   4.365980625152588E-1   2.970526218414307E-1  -4.690156877040863E-1   6.895399689674377E-1  
 1.934000000000000E7    -4.691260755062103E-1   6.941940188407898E-1   4.376729726791382E-1   2.974292933940888E-1   4.376193583011627E-1   2.969730496406555E-1  -4.685423076152802E-1   6.894400715827942E-1  
 1.936000000000000E7    -4.681346118450165E-1   6.942425370216370E-1   4.383753538131714E-1   2.970775663852692E-1   4.384754896163940E-1   2.972491383552551E-1  -4.668411016464233E-1   6.899734735488892E-1  
 1.938000000000000E7    -4.669426083564758E-1   6.946641802787781E-1   4.396388828754425E-1   2.967987656593323E-1   4.392579197883606E-1   2.966480255126953E-1  -4.660219848155975E-1   6.900075674057007E-1  
 1.940000000000000E7    -4.660898447036743E-1   6.949149370193481E-1   4.400165379047394E-1   2.970557510852814E-1   4.405574202537537E-1   2.967597246170044E-1  -4.646900892257690E-1   6.905933618545532E-1  
 1.942000000000000E7    -4.646151661872864E-1   6.949834227561951E-1   4.411076605319977E-1   2.968718707561493E-1   4.412840902805328E-1   2.963826060295105E-1  -4.641494154930115E-1   6.903897523880005E-1  
 1.944000000000000E7    -4.633308649063110E-1   6.954867839813232E-1   4.422286152839661E-1   2.962879538536072E-1   4.425201714038849E-1   2.959680557250977E-1  -4.626331627368927E-1   6.906409263610840E-1  
 1.946000000000000E7    -4.623417258262634E-1   6.951500773429871E-1   4.431641697883606E-1   2.961426377296448E-1   4.430430531501770E-1   2.958241701126099E-1  -4.614405930042267E-1   6.912422180175781E-1  
 1.948000000000000E7    -4.610700607299805E-1   6.956098675727844E-1   4.446513354778290E-1   2.960397899150848E-1   4.444383084774017E-1   2.956379055976868E-1  -4.604700505733490E-1   6.912859082221985E-1  
 1.950000000000000E7    -4.603492021560669E-1   6.961508393287659E-1   4.447925090789795E-1   2.959146201610565E-1   4.450574815273285E-1   2.954346835613251E-1  -4.591651856899262E-1   6.909695863723755E-1  
 1.952000000000000E7    -4.590751230716705E-1   6.965971589088440E-1   4.462286233901978E-1   2.961550354957581E-1   4.461163878440857E-1   2.955326735973358E-1  -4.582785069942474E-1   6.917017698287964E-1  
 1.954000000000000E7    -4.576592743396759E-1   6.965929865837097E-1   4.466880559921265E-1   2.961341142654419E-1   4.472051858901978E-1   2.951299548149109E-1  -4.575914144515991E-1   6.918428540229797E-1  
 1.956000000000000E7    -4.568298459053040E-1   6.967985033988953E-1   4.480297565460205E-1   2.956779599189758E-1   4.486185014247894E-1   2.951391339302063E-1  -4.558004140853882E-1   6.919584274291992E-1  
 1.958000000000000E7    -4.556839466094971E-1   6.969551444053650E-1   4.491325020790100E-1   2.957493662834168E-1   4.494049549102783E-1   2.950288355350494E-1  -4.547401964664459E-1   6.924345493316650E-1  
 1.960000000000000E7    -4.540793895721436E-1   6.971567869186401E-1   4.500811696052551E-1   2.952467203140259E-1   4.507074356079102E-1   2.946338951587677E-1  -4.539245069026947E-1   6.928366422653198E-1  
 1.962000000000000E7    -4.532484412193298E-1   6.973648071289063E-1   4.509503245353699E-1   2.951988577842712E-1   4.508989453315735E-1   2.950058877468109E-1  -4.525051116943359E-1   6.930348873138428E-1  
 1.964000000000000E7    -4.524146914482117E-1   6.975775957107544E-1   4.516432285308838E-1   2.945002615451813E-1   4.522576630115509E-1   2.944995760917664E-1  -4.512142539024353E-1   6.931770443916321E-1  
 1.966000000000000E7    -4.509476721286774E-1   6.977949142456055E-1   4.532735943794251E-1   2.949281334877014E-1   4.533181488513947E-1   2.941345572471619E-1  -4.500046968460083E-1   6.930211186408997E-1  
 1.968000000000000E7    -4.498398602008820E-1   6.977487802505493E-1   4.538198709487915E-1   2.949939370155335E-1   4.540222287178040E-1   2.948614060878754E-1  -4.489422142505646E-1   6.936675906181335E-1  
 1.970000000000000E7    -4.485689997673035E-1   6.975962519645691E-1   4.551510810852051E-1   2.943358719348908E-1   4.547251760959625E-1   2.940835058689117E-1  -4.477997422218323E-1   6.937400698661804E-1  
 1.972000000000000E7    -4.479032158851624E-1   6.985200047492981E-1   4.559652209281921E-1   2.942889034748077E-1   4.563061594963074E-1   2.940641641616821E-1  -4.469287395477295E-1   6.935434341430664E-1  
 1.974000000000000E7    -4.461820423603058E-1   6.981654763221741E-1   4.567150473594666E-1   2.936163842678070E-1   4.568991959095001E-1   2.934196591377258E-1  -4.454636275768280E-1   6.942402720451355E-1  
 1.976000000000000E7    -4.451961815357208E-1   6.985050439834595E-1   4.575712084770203E-1   2.935094833374023E-1   4.581708908081055E-1   2.934398949146271E-1  -4.444707930088043E-1   6.939995884895325E-1  
 1.978000000000000E7    -4.441059827804565E-1   6.988973021507263E-1   4.590677917003632E-1   2.937976419925690E-1   4.589285552501679E-1   2.932177782058716E-1  -4.433633089065552E-1   6.939464211463928E-1  
 1.980000000000000E7    -4.429731667041779E-1   6.986160278320313E-1   4.600459337234497E-1   2.934936881065369E-1   4.596616625785828E-1   2.930290400981903E-1  -4.421340525150299E-1   6.947680115699768E-1  
 1.982000000000000E7    -4.422354400157929E-1   6.988235116004944E-1   4.609920382499695E-1   2.931574285030365E-1   4.607857763767242E-1   2.927837371826172E-1  -4.412548243999481E-1   6.949924230575562E-1  
 1.984000000000000E7    -4.407107830047607E-1   6.992571353912354E-1   4.612064659595490E-1   2.932701706886292E-1   4.619094431400299E-1   2.926214039325714E-1  -4.400232732295990E-1   6.945815682411194E-1  
 1.986000000000000E7    -4.394623339176178E-1   6.994311213493347E-1   4.622497558593750E-1   2.929886281490326E-1   4.629746675491333E-1   2.925001978874207E-1  -4.390355944633484E-1   6.947043538093567E-1  
 1.988000000000000E7    -4.381807744503021E-1   6.996418237686157E-1   4.643509089946747E-1   2.924636900424957E-1   4.637618064880371E-1   2.917324006557465E-1  -4.381604194641113E-1   6.955161094665527E-1  
 1.990000000000000E7    -4.372629225254059E-1   7.003436684608460E-1   4.643720388412476E-1   2.920905053615570E-1   4.647284448146820E-1   2.917915582656860E-1  -4.368633031845093E-1   6.955030560493469E-1  
 1.992000000000000E7    -4.359481632709503E-1   7.003202438354492E-1   4.655724167823792E-1   2.918971478939056E-1   4.660697877407074E-1   2.915372848510742E-1  -4.352057278156281E-1   6.961540579795837E-1  
 1.994000000000000E7    -4.347503483295441E-1   7.001859545707703E-1   4.668794870376587E-1   2.920742034912109E-1   4.667004942893982E-1   2.911171019077301E-1  -4.347369670867920E-1   6.961085200309753E-1  
 1.996000000000000E7    -4.339153766632080E-1   7.000586390495300E-1   4.674015939235687E-1   2.913061380386353E-1   4.676513373851776E-1   2.911664247512817E-1  -4.329548180103302E-1   6.963128447532654E-1  
 1.998000000000000E7    -4.328038692474365E-1   7.004618644714356E-1   4.684860110282898E-1   2.916356325149536E-1   4.685319662094116E-1   2.911189794540405E-1  -4.321998953819275E-1   6.964569687843323E-1  
 2.000000000000000E7    -4.313780069351196E-1   7.004488110542297E-1   4.696381986141205E-1   2.911166250705719E-1   4.692787230014801E-1   2.905253469944000E-1  -4.306099116802216E-1   6.968203783035278E-1  
 2.002000000000000E7    -4.316006302833557E-1   6.992529630661011E-1   4.698529541492462E-1   2.917744517326355E-1   4.696437716484070E-1   2.915868461132050E-1  -4.312972724437714E-1   6.948095560073853E-1  
 2.004000000000000E7    -4.304121434688568E-1   6.999155282974243E-1   4.706783294677734E-1   2.915695011615753E-1   4.702450931072235E-1   2.913584709167481E-1  -4.298811554908752E-1   6.949803829193115E-1  
 2.006000000000000E7    -4.286156296730042E-1   6.997256875038147E-1   4.715572893619537E-1   2.914717793464661E-1   4.716469645500183E-1   2.912271320819855E-1  -4.289726912975311E-1   6.947535872459412E-1  
 2.008000000000000E7    -4.278987050056458E-1   6.999112367630005E-1   4.726788401603699E-1   2.911926805973053E-1   4.721783399581909E-1   2.908342778682709E-1  -4.273274838924408E-1   6.954602599143982E-1  
 2.010000000000000E7    -4.268960356712341E-1   6.999989748001099E-1   4.733818173408508E-1   2.905762791633606E-1   4.733109772205353E-1   2.909452021121979E-1  -4.262316524982452E-1   6.955689787864685E-1  
 2.012000000000000E7    -4.255365133285523E-1   7.001699209213257E-1   4.743564724922180E-1   2.906689941883087E-1   4.742580056190491E-1   2.905006408691406E-1  -4.251022040843964E-1   6.957759857177734E-1  
 2.014000000000000E7    -4.239839613437653E-1   7.002449035644531E-1   4.756011068820953E-1   2.907755970954895E-1   4.753252267837524E-1   2.903264462947846E-1  -4.242238700389862E-1   6.959599852561951E-1  
 2.016000000000000E7    -4.230176806449890E-1   7.004134654998779E-1   4.767935574054718E-1   2.904947400093079E-1   4.764993488788605E-1   2.899702191352844E-1  -4.230177402496338E-1   6.961987018585205E-1  
 2.018000000000000E7    -4.222357869148254E-1   7.005034685134888E-1   4.778836369514465E-1   2.894533276557922E-1   4.774404466152191E-1   2.895895242691040E-1  -4.218339622020721E-1   6.963060498237610E-1  
 2.020000000000000E7    -4.208718240261078E-1   7.005326151847839E-1   4.788547158241272E-1   2.900138199329376E-1   4.783418774604797E-1   2.893951535224915E-1  -4.202059209346771E-1   6.959642767906189E-1  
 2.022000000000000E7    -4.197258055210114E-1   7.010216116905212E-1   4.803154766559601E-1   2.895174026489258E-1   4.791338145732880E-1   2.891111075878143E-1  -4.194625914096832E-1   6.967887282371521E-1  
 2.024000000000000E7    -4.188732504844666E-1   7.012299895286560E-1   4.804162085056305E-1   2.892529070377350E-1   4.806736707687378E-1   2.891955077648163E-1  -4.180743396282196E-1   6.970574259757996E-1  
 2.026000000000000E7    -4.173378944396973E-1   7.018250823020935E-1   4.815079867839813E-1   2.888400554656982E-1   4.818921089172363E-1   2.892047166824341E-1  -4.170882105827332E-1   6.970717906951904E-1  
 2.028000000000000E7    -4.166268408298492E-1   7.017809748649597E-1   4.827213883399963E-1   2.886826097965241E-1   4.825559258460999E-1   2.885130047798157E-1  -4.156626164913178E-1   6.970985531806946E-1  
 2.030000000000000E7    -4.153796732425690E-1   7.019804716110230E-1   4.831550717353821E-1   2.885532975196838E-1   4.837922453880310E-1   2.883107960224152E-1  -4.150770604610443E-1   6.967016458511353E-1  
 2.032000000000000E7    -4.140650629997253E-1   7.016211152076721E-1   4.847828745841980E-1   2.887395620346069E-1   4.848608970642090E-1   2.879798114299774E-1  -4.133500456809998E-1   6.973851323127747E-1  
 2.034000000000000E7    -4.124258756637573E-1   7.018219828605652E-1   4.861991703510284E-1   2.884082794189453E-1   4.857347607612610E-1   2.879991531372070E-1  -4.125647842884064E-1   6.976893544197083E-1  
 2.036000000000000E7    -4.116089940071106E-1   7.021989822387695E-1   4.864935874938965E-1   2.880560159683228E-1   4.864104986190796E-1   2.874973118305206E-1  -4.115322828292847E-1   6.976101398468018E-1  
 2.038000000000000E7    -4.102342426776886E-1   7.019245624542236E-1   4.877755939960480E-1   2.875553369522095E-1   4.878993928432465E-1   2.873101532459259E-1  -4.100034832954407E-1   6.976701617240906E-1  
 2.040000000000000E7    -4.089183509349823E-1   7.028294801712036E-1   4.884798228740692E-1   2.868652045726776E-1   4.884451627731323E-1   2.869243025779724E-1  -4.091551005840302E-1   6.974353790283203E-1  
 2.042000000000000E7    -4.071942865848541E-1   7.028082609176636E-1   4.898797571659088E-1   2.871944308280945E-1   4.890995919704437E-1   2.863425314426422E-1  -4.085141718387604E-1   6.980969309806824E-1  
 2.044000000000000E7    -4.064880013465881E-1   7.026895880699158E-1   4.907882511615753E-1   2.869448065757752E-1   4.904289841651917E-1   2.865880429744721E-1  -4.065460264682770E-1   6.980422735214233E-1  
 2.046000000000000E7    -4.053588509559631E-1   7.030296921730042E-1   4.918569624423981E-1   2.864354252815247E-1   4.917830228805542E-1   2.858417630195618E-1  -4.056571722030640E-1   6.977349519729614E-1  
 2.048000000000000E7    -4.046221375465393E-1   7.033281326293945E-1   4.928693175315857E-1   2.859468758106232E-1   4.930419027805328E-1   2.858971953392029E-1  -4.043398499488831E-1   6.978938579559326E-1  
 2.050000000000000E7    -4.032991826534271E-1   7.030522823333740E-1   4.940024912357330E-1   2.859111130237579E-1   4.940629601478577E-1   2.857374250888825E-1  -4.031779170036316E-1   6.981697082519531E-1  
 2.052000000000000E7    -4.019592106342316E-1   7.028940320014954E-1   4.948877394199371E-1   2.853253781795502E-1   4.945203363895416E-1   2.850504815578461E-1  -4.019482433795929E-1   6.982555985450745E-1  
 2.054000000000000E7    -4.007313549518585E-1   7.032580971717835E-1   4.957257807254791E-1   2.852002680301666E-1   4.954343140125275E-1   2.850889861583710E-1  -4.008276760578156E-1   6.983927488327026E-1  
 2.056000000000000E7    -3.996399343013763E-1   7.032619714736939E-1   4.966873526573181E-1   2.850953042507172E-1   4.965063929557800E-1   2.847441434860230E-1  -3.998267650604248E-1   6.989112496376038E-1  
 2.058000000000000E7    -3.982761800289154E-1   7.039498090744019E-1   4.974229335784912E-1   2.849311530590057E-1   4.973569810390472E-1   2.843655645847321E-1  -3.986639380455017E-1   6.986241936683655E-1  
 2.060000000000000E7    -3.974631130695343E-1   7.037476897239685E-1   4.985083341598511E-1   2.842724919319153E-1   4.987669885158539E-1   2.839667797088623E-1  -3.972806036472321E-1   6.988718509674072E-1  
 2.062000000000000E7    -3.961765468120575E-1   7.033440470695496E-1   4.999155104160309E-1   2.840760648250580E-1   4.996165633201599E-1   2.837747335433960E-1  -3.961048722267151E-1   6.991141438484192E-1  
 2.064000000000000E7    -3.948293626308441E-1   7.037040591239929E-1   5.008902549743652E-1   2.835759818553925E-1   5.008688569068909E-1   2.831825017929077E-1  -3.948160111904144E-1   6.991101503372192E-1  
 2.066000000000000E7    -3.935736417770386E-1   7.039852142333984E-1   5.018628239631653E-1   2.836743593215942E-1   5.016061663627625E-1   2.834374010562897E-1  -3.933459520339966E-1   6.990891695022583E-1  
 2.068000000000000E7    -3.924458622932434E-1   7.039828300476074E-1   5.030530095100403E-1   2.832727432250977E-1   5.027406215667725E-1   2.827533483505249E-1  -3.925678133964539E-1   6.998934745788574E-1  
 2.070000000000000E7    -3.912766277790070E-1   7.043098807334900E-1   5.036754608154297E-1   2.826761603355408E-1   5.040425062179565E-1   2.824567258358002E-1  -3.911795616149902E-1   6.994299292564392E-1  
 2.072000000000000E7    -3.899166584014893E-1   7.036442756652832E-1   5.053132772445679E-1   2.828246951103210E-1   5.047231316566467E-1   2.825693786144257E-1  -3.903179764747620E-1   7.001183032989502E-1  
 2.074000000000000E7    -3.889544308185577E-1   7.037152051925659E-1   5.064233541488648E-1   2.823631763458252E-1   5.060175061225891E-1   2.818394005298615E-1  -3.884568512439728E-1   6.999323368072510E-1  
 2.076000000000000E7    -3.875107169151306E-1   7.040986418724060E-1   5.069575309753418E-1   2.820678949356079E-1   5.070719122886658E-1   2.814925312995911E-1  -3.882060348987579E-1   6.996158957481384E-1  
 2.078000000000000E7    -3.861898481845856E-1   7.045760154724121E-1   5.080910921096802E-1   2.814835011959076E-1   5.083900094032288E-1   2.812866568565369E-1  -3.864024281501770E-1   6.997258067131043E-1  
 2.080000000000000E7    -3.856448829174042E-1   7.043132781982422E-1   5.093757510185242E-1   2.811035513877869E-1   5.092226266860962E-1   2.809364795684815E-1  -3.853947222232819E-1   7.000269889831543E-1  
 2.082000000000000E7    -3.837763667106628E-1   7.041764259338379E-1   5.104985237121582E-1   2.810277044773102E-1   5.100048780441284E-1   2.807812690734863E-1  -3.843331336975098E-1   7.002774477005005E-1  
 2.084000000000000E7    -3.828840851783752E-1   7.042054533958435E-1   5.112748146057129E-1   2.806718945503235E-1   5.108609199523926E-1   2.803738713264465E-1  -3.828709423542023E-1   7.000394463539124E-1  
 2.086000000000000E7    -3.814531564712524E-1   7.046197056770325E-1   5.123493671417236E-1   2.800335288047791E-1   5.123915672302246E-1   2.800926566123962E-1  -3.814235925674439E-1   7.001123428344727E-1  
 2.088000000000000E7    -3.805786371231079E-1   7.049780488014221E-1   5.128012299537659E-1   2.800382375717163E-1   5.131766200065613E-1   2.796586453914642E-1  -3.805722594261169E-1   7.001883387565613E-1  
 2.090000000000000E7    -3.791556656360626E-1   7.048624753952026E-1   5.144446492195129E-1   2.798433899879456E-1   5.140150189399719E-1   2.790846228599548E-1  -3.797717392444611E-1   7.003692388534546E-1  
 2.092000000000000E7    -3.780926764011383E-1   7.049035429954529E-1   5.155951380729675E-1   2.787886559963226E-1   5.154988765716553E-1   2.790740430355072E-1  -3.781795203685761E-1   7.001488804817200E-1  
 2.094000000000000E7    -3.764327764511108E-1   7.050144076347351E-1   5.166597366333008E-1   2.788321077823639E-1   5.163298249244690E-1   2.785181403160095E-1  -3.772900700569153E-1   7.006360292434692E-1  
 2.096000000000000E7    -3.752944767475128E-1   7.045965194702148E-1   5.174123644828796E-1   2.784706950187683E-1   5.171735882759094E-1   2.782980799674988E-1  -3.755195736885071E-1   7.004467844963074E-1  
 2.098000000000000E7    -3.744036853313446E-1   7.046814560890198E-1   5.185173153877258E-1   2.778414785861969E-1   5.183217525482178E-1   2.776325941085815E-1  -3.742980360984802E-1   7.008849978446960E-1  
 2.100000000000000E7    -3.731710016727448E-1   7.049974799156189E-1   5.192017555236816E-1   2.776719331741333E-1   5.193848013877869E-1   2.774337232112885E-1  -3.733519613742828E-1   7.006710171699524E-1  
 2.102000000000000E7    -3.718945980072022E-1   7.055701613426209E-1   5.206812620162964E-1   2.773090600967407E-1   5.205905437469482E-1   2.773037850856781E-1  -3.717072010040283E-1   7.007321119308472E-1  
 2.104000000000000E7    -3.705213963985443E-1   7.051596045494080E-1   5.213903784751892E-1   2.774973213672638E-1   5.214819908142090E-1   2.770301699638367E-1  -3.704801499843597E-1   7.012431621551514E-1  
 2.106000000000000E7    -3.696645498275757E-1   7.050507664680481E-1   5.229197144508362E-1   2.767981290817261E-1   5.229103565216065E-1   2.766089141368866E-1  -3.695250153541565E-1   7.004771232604981E-1  
 2.108000000000000E7    -3.683868646621704E-1   7.047342658042908E-1   5.241847038269043E-1   2.762480080127716E-1   5.239015817642212E-1   2.760792076587677E-1  -3.682184815406799E-1   7.008016109466553E-1  
 2.110000000000000E7    -3.669831454753876E-1   7.057633996009827E-1   5.244786739349365E-1   2.764190435409546E-1   5.247079730033875E-1   2.758377194404602E-1  -3.671748340129852E-1   7.009334564208984E-1  
 2.112000000000000E7    -3.661659359931946E-1   7.052474617958069E-1   5.259403586387634E-1   2.757576704025269E-1   5.257335305213928E-1   2.755777537822723E-1  -3.658628463745117E-1   7.009748220443726E-1  
 2.114000000000000E7    -3.650002777576447E-1   7.051914334297180E-1   5.267621874809265E-1   2.750051915645599E-1   5.267816781997681E-1   2.750840783119202E-1  -3.643063604831696E-1   7.010992169380188E-1  
 2.116000000000000E7    -3.636657595634460E-1   7.049701213836670E-1   5.279763936996460E-1   2.748185098171234E-1   5.279340744018555E-1   2.745789587497711E-1  -3.636120259761810E-1   7.009366750717163E-1  
 2.118000000000000E7    -3.623024225234985E-1   7.053780555725098E-1   5.287581682205200E-1   2.749094963073731E-1   5.286536216735840E-1   2.740207314491272E-1  -3.628627359867096E-1   7.009965777397156E-1  
 2.120000000000000E7    -3.609731793403626E-1   7.052680253982544E-1   5.302822589874268E-1   2.740459740161896E-1   5.298040509223938E-1   2.740335464477539E-1  -3.610416650772095E-1   7.013189792633057E-1  
 2.122000000000000E7    -3.599361479282379E-1   7.052530050277710E-1   5.309083461761475E-1   2.739854454994202E-1   5.308431982994080E-1   2.737928032875061E-1  -3.595815300941467E-1   7.010363936424255E-1  
 2.124000000000000E7    -3.585149347782135E-1   7.057470083236694E-1   5.321798920631409E-1   2.736261487007141E-1   5.320041179656982E-1   2.733393907546997E-1  -3.588801026344299E-1   7.011647820472717E-1  
 2.126000000000000E7    -3.573741316795349E-1   7.054019570350647E-1   5.332990884780884E-1   2.727013826370239E-1   5.331642031669617E-1   2.724837660789490E-1  -3.576398789882660E-1   7.008526921272278E-1  
 2.128000000000000E7    -3.561736643314362E-1   7.056740522384644E-1   5.342066884040833E-1   2.728419303894043E-1   5.337361097335815E-1   2.720164656639099E-1  -3.563808798789978E-1   7.011974453926086E-1  
 2.130000000000000E7    -3.547548949718475E-1   7.056711316108704E-1   5.352494120597839E-1   2.723064422607422E-1   5.353557467460632E-1   2.718315720558167E-1  -3.549821972846985E-1   7.007737755775452E-1  
 2.132000000000000E7    -3.534311950206757E-1   7.052533030509949E-1   5.364971160888672E-1   2.720935642719269E-1   5.361926555633545E-1   2.717314660549164E-1  -3.539870381355286E-1   7.009608149528503E-1  
 2.134000000000000E7    -3.525782525539398E-1   7.053794264793396E-1   5.374427437782288E-1   2.709775567054749E-1   5.371109843254089E-1   2.710273265838623E-1  -3.520358204841614E-1   7.011948823928833E-1  
 2.136000000000000E7    -3.511695563793182E-1   7.051736712455750E-1   5.385023355484009E-1   2.711002528667450E-1   5.379527807235718E-1   2.706688344478607E-1  -3.512147665023804E-1   7.010526657104492E-1  
 2.138000000000000E7    -3.499453663825989E-1   7.056864500045776E-1   5.389932394027710E-1   2.706907987594605E-1   5.390837192535400E-1   2.704008519649506E-1  -3.500161170959473E-1   7.007941603660584E-1  
 2.140000000000000E7    -3.488833308219910E-1   7.052624225616455E-1   5.408734679222107E-1   2.699343562126160E-1   5.401421785354614E-1   2.696838080883026E-1  -3.487227857112885E-1   7.006044983863831E-1  
 2.142000000000000E7    -3.476501107215881E-1   7.053806185722351E-1   5.414633154869080E-1   2.694634795188904E-1   5.414354205131531E-1   2.693485021591187E-1  -3.473447263240814E-1   7.006326317787170E-1  
 2.144000000000000E7    -3.460580408573151E-1   7.051050662994385E-1   5.429266691207886E-1   2.694250941276550E-1   5.425544381141663E-1   2.690516114234924E-1  -3.465742766857147E-1   7.014079689979553E-1  
 2.146000000000000E7    -3.448120951652527E-1   7.050708532333374E-1   5.438591837882996E-1   2.687605023384094E-1   5.433259606361389E-1   2.684079706668854E-1  -3.452478647232056E-1   7.009884119033814E-1  
 2.148000000000000E7    -3.439741432666779E-1   7.053135633468628E-1   5.443333387374878E-1   2.685519456863403E-1   5.447577834129334E-1   2.682261466979981E-1  -3.441523909568787E-1   7.007398009300232E-1  
 2.150000000000000E7    -3.425357937812805E-1   7.052336931228638E-1   5.461855530738831E-1   2.681421041488648E-1   5.453229546546936E-1   2.678905725479126E-1  -3.426103293895721E-1   7.012811899185181E-1  
 2.152000000000000E7    -3.412780761718750E-1   7.053471207618713E-1   5.466589927673340E-1   2.676870226860046E-1   5.467230081558228E-1   2.669277489185333E-1  -3.417152464389801E-1   7.003209590911865E-1  
 2.154000000000000E7    -3.404650390148163E-1   7.053971886634827E-1   5.480432510375977E-1   2.670015096664429E-1   5.478550195693970E-1   2.670029997825623E-1  -3.400852084159851E-1   7.007874250411987E-1  
 2.156000000000000E7    -3.385745584964752E-1   7.053021788597107E-1   5.482484698295593E-1   2.672510147094727E-1   5.488680005073547E-1   2.666593194007874E-1  -3.389186859130859E-1   7.006255388259888E-1  
 2.158000000000000E7    -3.377952575683594E-1   7.054280042648315E-1   5.500841140747070E-1   2.663117647171021E-1   5.499320626258850E-1   2.661113440990448E-1  -3.376996219158173E-1   7.008554935455322E-1  
 2.160000000000000E7    -3.363168537616730E-1   7.050751447677612E-1   5.510569810867310E-1   2.658009529113770E-1   5.506705641746521E-1   2.655569016933441E-1  -3.365494012832642E-1   7.008937001228333E-1  
 2.162000000000000E7    -3.350247442722321E-1   7.055498957633972E-1   5.519981980323792E-1   2.653394341468811E-1   5.515543818473816E-1   2.647617757320404E-1  -3.356734812259674E-1   7.006992101669312E-1  
 2.164000000000000E7    -3.339606523513794E-1   7.051651477813721E-1   5.532346963882446E-1   2.652201056480408E-1   5.530235767364502E-1   2.643190324306488E-1  -3.338758349418640E-1   7.008436322212219E-1  
 2.166000000000000E7    -3.324636220932007E-1   7.049176692962647E-1   5.543205738067627E-1   2.642593383789063E-1   5.544567108154297E-1   2.642662525177002E-1  -3.325657248497009E-1   7.006154060363770E-1  
 2.168000000000000E7    -3.314538300037384E-1   7.052509188652039E-1   5.549384355545044E-1   2.637377083301544E-1   5.551864504814148E-1   2.634752392768860E-1  -3.316079080104828E-1   7.007609009742737E-1  
 2.170000000000000E7    -3.300596475601196E-1   7.045794129371643E-1   5.568118095397949E-1   2.638719081878662E-1   5.561392903327942E-1   2.634672224521637E-1  -3.303534686565399E-1   7.013221979141235E-1  
 2.172000000000000E7    -3.287321031093597E-1   7.045702934265137E-1   5.573226809501648E-1   2.632248997688294E-1   5.574221611022949E-1   2.633234560489655E-1  -3.288659155368805E-1   7.007625699043274E-1  
 2.174000000000000E7    -3.275957703590393E-1   7.046145200729370E-1   5.583440065383911E-1   2.626025378704071E-1   5.582672357559204E-1   2.624232769012451E-1  -3.278589546680450E-1   7.005155682563782E-1  
 2.176000000000000E7    -3.265314400196075E-1   7.043805122375488E-1   5.599941611289978E-1   2.620456814765930E-1   5.595287084579468E-1   2.621307075023651E-1  -3.264050781726837E-1   7.004011273384094E-1  
 2.178000000000000E7    -3.249683678150177E-1   7.045450806617737E-1   5.608311891555786E-1   2.620129585266113E-1   5.604719519615173E-1   2.610408961772919E-1  -3.251863121986389E-1   7.006615996360779E-1  
 2.180000000000000E7    -3.238333165645599E-1   7.042051553726196E-1   5.616487264633179E-1   2.609574496746063E-1   5.612871050834656E-1   2.609928846359253E-1  -3.239686787128449E-1   7.004438638687134E-1  
 2.182000000000000E7    -3.226485252380371E-1   7.043082714080811E-1   5.629359483718872E-1   2.609210610389710E-1   5.622854828834534E-1   2.603126764297485E-1  -3.223869502544403E-1   7.000983357429504E-1  
 2.184000000000000E7    -3.213937580585480E-1   7.044089436531067E-1   5.641152858734131E-1   2.607013583183289E-1   5.634182095527649E-1   2.601440548896790E-1  -3.221249580383301E-1   6.999502182006836E-1  
 2.186000000000000E7    -3.200561702251434E-1   7.045445442199707E-1   5.646510720252991E-1   2.599461078643799E-1   5.644024610519409E-1   2.600773274898529E-1  -3.201693296432495E-1   6.998943090438843E-1  
 2.188000000000000E7    -3.188538253307343E-1   7.040485739707947E-1   5.659736990928650E-1   2.594822347164154E-1   5.651246309280396E-1   2.592933773994446E-1  -3.189038038253784E-1   7.002152800559998E-1  
 2.190000000000000E7    -3.174089491367340E-1   7.039898633956909E-1   5.670274496078491E-1   2.588807344436646E-1   5.668190717697144E-1   2.585927248001099E-1  -3.175736665725708E-1   6.998668313026428E-1  
 2.192000000000000E7    -3.164457678794861E-1   7.042993307113648E-1   5.682998299598694E-1   2.582815289497376E-1   5.680904984474182E-1   2.580595016479492E-1  -3.165080249309540E-1   6.996102929115295E-1  
 2.194000000000000E7    -3.148017525672913E-1   7.042424678802490E-1   5.692144632339478E-1   2.579503059387207E-1   5.690633654594421E-1   2.575329840183258E-1  -3.152346611022949E-1   6.993174552917481E-1  
 2.196000000000000E7    -3.134076893329620E-1   7.037253379821777E-1   5.700768232345581E-1   2.574236989021301E-1   5.701231956481934E-1   2.570368945598602E-1  -3.136675953865051E-1   6.998425722122192E-1  
 2.198000000000000E7    -3.124022185802460E-1   7.037013173103333E-1   5.713199973106384E-1   2.570862770080566E-1   5.707895159721375E-1   2.568991482257843E-1  -3.127929270267487E-1   6.993634700775147E-1  
 2.200000000000000E7    -3.114198744297028E-1   7.033687829971314E-1   5.728516578674316E-1   2.567059397697449E-1   5.726365447044373E-1   2.563967108726502E-1  -3.114474415779114E-1   6.991946697235107E-1  
 2.202000000000000E7    -3.099840879440308E-1   7.038743495941162E-1   5.734568834304810E-1   2.558743357658386E-1   5.733120441436768E-1   2.555136978626251E-1  -3.103284537792206E-1   6.991013884544373E-1  
 2.204000000000000E7    -3.087953925132752E-1   7.035279273986816E-1   5.745264887809753E-1   2.556406259536743E-1   5.742322206497192E-1   2.553194761276245E-1  -3.089555203914642E-1   6.991657614707947E-1  
 2.206000000000000E7    -3.075469136238098E-1   7.033038735389710E-1   5.754922628402710E-1   2.547044754028320E-1   5.751759409904480E-1   2.546664178371429E-1  -3.074517250061035E-1   6.994268894195557E-1  
 2.208000000000000E7    -3.057965636253357E-1   7.032819986343384E-1   5.766220092773438E-1   2.543506026268005E-1   5.763196349143982E-1   2.538816928863525E-1  -3.065153062343597E-1   6.988222599029541E-1  
 2.210000000000000E7    -3.052835464477539E-1   7.030271291732788E-1   5.777924060821533E-1   2.539561688899994E-1   5.774384737014771E-1   2.531760334968567E-1  -3.050836622714996E-1   6.987529993057251E-1  
 2.212000000000000E7    -3.036557137966156E-1   7.031064629554749E-1   5.782841444015503E-1   2.534010708332062E-1   5.784543156623840E-1   2.530419826507568E-1  -3.037423193454742E-1   6.986509561538696E-1  
 2.214000000000000E7    -3.019378781318665E-1   7.025219202041626E-1   5.802480578422546E-1   2.529578804969788E-1   5.800574421882629E-1   2.523504495620728E-1  -3.026474714279175E-1   6.986988186836243E-1  
 2.216000000000000E7    -3.008840084075928E-1   7.024266719818115E-1   5.811654329299927E-1   2.523191869258881E-1   5.801404714584351E-1   2.517303824424744E-1  -3.014858365058899E-1   6.985998749732971E-1  
 2.218000000000000E7    -2.993047833442688E-1   7.021090388298035E-1   5.821761488914490E-1   2.518930137157440E-1   5.819226503372192E-1   2.512494325637817E-1  -2.999963164329529E-1   6.983216404914856E-1  
 2.220000000000000E7    -2.982909977436066E-1   7.021307945251465E-1   5.831657052040100E-1   2.509745657444000E-1   5.832601189613342E-1   2.507555782794952E-1  -2.990355789661408E-1   6.984145641326904E-1  
 2.222000000000000E7    -2.971616983413696E-1   7.023159265518189E-1   5.840754508972168E-1   2.505153119564056E-1   5.839375853538513E-1   2.498947083950043E-1  -2.973957061767578E-1   6.978503465652466E-1  
 2.224000000000000E7    -2.960801720619202E-1   7.016305923461914E-1   5.851668119430542E-1   2.499204725027084E-1   5.850537419319153E-1   2.495615184307098E-1  -2.962773442268372E-1   6.977331638336182E-1  
 2.226000000000000E7    -2.944812774658203E-1   7.017562389373779E-1   5.862036943435669E-1   2.495183050632477E-1   5.858775377273560E-1   2.492984235286713E-1  -2.948957979679108E-1   6.977036595344544E-1  
 2.228000000000000E7    -2.928868532180786E-1   7.017023563385010E-1   5.872796177864075E-1   2.491075396537781E-1   5.869297981262207E-1   2.485319972038269E-1  -2.941629290580750E-1   6.972242593765259E-1  
 2.230000000000000E7    -2.919130325317383E-1   7.017835974693298E-1   5.884671807289124E-1   2.485980093479157E-1   5.879583358764648E-1   2.480871230363846E-1  -2.927765250205994E-1   6.972365975379944E-1  
 2.232000000000000E7    -2.909108400344849E-1   7.016542553901672E-1   5.896291136741638E-1   2.477650940418243E-1   5.892264842987061E-1   2.479791790246964E-1  -2.911467552185059E-1   6.972668766975403E-1  
 2.234000000000000E7    -2.899633646011353E-1   7.015448808670044E-1   5.906307697296143E-1   2.468208521604538E-1   5.903747081756592E-1   2.466704994440079E-1  -2.897022068500519E-1   6.967728137969971E-1  
 2.236000000000000E7    -2.886172831058502E-1   7.014517784118652E-1   5.915308594703674E-1   2.464371770620346E-1   5.915201902389526E-1   2.463215887546539E-1  -2.884260416030884E-1   6.968163847923279E-1  
 2.238000000000000E7    -2.871398031711578E-1   7.012009620666504E-1   5.924490690231323E-1   2.466326057910919E-1   5.925824046134949E-1   2.456096857786179E-1  -2.875081300735474E-1   6.963611245155335E-1  
 2.240000000000000E7    -2.858994603157044E-1   7.007918357849121E-1   5.937276482582092E-1   2.457793802022934E-1   5.932945013046265E-1   2.451610416173935E-1  -2.860857844352722E-1   6.963394284248352E-1  
 2.242000000000000E7    -2.845126986503601E-1   7.007077336311340E-1   5.947600007057190E-1   2.446461319923401E-1   5.948096513748169E-1   2.449758350849152E-1  -2.850425541400909E-1   6.959984898567200E-1  
 2.244000000000000E7    -2.831871211528778E-1   7.007496953010559E-1   5.957044959068298E-1   2.441244125366211E-1   5.957318544387817E-1   2.445049136877060E-1  -2.830630838871002E-1   6.957467198371887E-1  
 2.246000000000000E7    -2.822183966636658E-1   7.003946900367737E-1   5.967357158660889E-1   2.439767122268677E-1   5.969300270080566E-1   2.434637546539307E-1  -2.819273769855499E-1   6.959595084190369E-1  
 2.248000000000000E7    -2.808043062686920E-1   7.005013227462769E-1   5.979525446891785E-1   2.431674450635910E-1   5.976998209953308E-1   2.431212216615677E-1  -2.810816168785095E-1   6.958819627761841E-1  
 2.250000000000000E7    -2.792456150054932E-1   6.997764706611633E-1   5.994849205017090E-1   2.426496446132660E-1   5.988120436668396E-1   2.426446229219437E-1  -2.799729108810425E-1   6.960219740867615E-1  
 2.252000000000000E7    -2.784834206104279E-1   7.001278996467590E-1   5.997115373611450E-1   2.421196997165680E-1   5.999100804328919E-1   2.419352084398270E-1  -2.779324054718018E-1   6.955653429031372E-1  
 2.254000000000000E7    -2.769810557365418E-1   6.996055245399475E-1   6.013204455375671E-1   2.415068000555039E-1   6.011892557144165E-1   2.412480115890503E-1  -2.772828936576843E-1   6.952028274536133E-1  
 2.256000000000000E7    -2.753089368343353E-1   6.992363929748535E-1   6.021821498870850E-1   2.411292344331741E-1   6.023040413856506E-1   2.406485378742218E-1  -2.761321961879730E-1   6.949194073677063E-1  
 2.258000000000000E7    -2.743908464908600E-1   6.990455985069275E-1   6.036812663078308E-1   2.405655980110169E-1   6.031533479690552E-1   2.402490973472595E-1  -2.749584317207336E-1   6.946785449981690E-1  
 2.260000000000000E7    -2.730701863765717E-1   6.986129283905029E-1   6.044992804527283E-1   2.397087812423706E-1   6.043299436569214E-1   2.394030988216400E-1  -2.735503613948822E-1   6.945301294326782E-1  
 2.262000000000000E7    -2.716072499752045E-1   6.987606287002564E-1   6.054708361625671E-1   2.392865419387817E-1   6.057956814765930E-1   2.396212816238403E-1  -2.719565331935883E-1   6.943428516387940E-1  
 2.264000000000000E7    -2.704219222068787E-1   6.982391476631165E-1   6.067656874656677E-1   2.388641834259033E-1   6.066201925277710E-1   2.384086251258850E-1  -2.707291841506958E-1   6.940256953239441E-1  
 2.266000000000000E7    -2.688198089599609E-1   6.976649165153503E-1   6.079735159873962E-1   2.379735857248306E-1   6.077231764793396E-1   2.376765906810761E-1  -2.699982821941376E-1   6.939817070960999E-1  
 2.268000000000000E7    -2.677074968814850E-1   6.978590488433838E-1   6.091495752334595E-1   2.375412434339523E-1   6.088699698448181E-1   2.371963560581207E-1  -2.680840790271759E-1   6.937727928161621E-1  
 2.270000000000000E7    -2.665384709835053E-1   6.977701783180237E-1   6.098139286041260E-1   2.368509769439697E-1   6.095476150512695E-1   2.363713383674622E-1  -2.669231891632080E-1   6.935932636260986E-1  
 2.272000000000000E7    -2.655243873596191E-1   6.972733139991760E-1   6.109282970428467E-1   2.357330024242401E-1   6.106602549552918E-1   2.358556389808655E-1  -2.658610343933106E-1   6.930443644523621E-1  
 2.274000000000000E7    -2.638509273529053E-1   6.970080137252808E-1   6.118801236152649E-1   2.359262406826019E-1   6.116594076156616E-1   2.352595627307892E-1  -2.644517123699188E-1   6.928834319114685E-1  
 2.276000000000000E7    -2.625231444835663E-1   6.969178915023804E-1   6.125966906547546E-1   2.345265448093414E-1   6.131191849708557E-1   2.346573472023010E-1  -2.633449137210846E-1   6.926921010017395E-1  
 2.278000000000000E7    -2.609813809394836E-1   6.965419650077820E-1   6.143420934677124E-1   2.342400252819061E-1   6.138332486152649E-1   2.335321903228760E-1  -2.622953355312347E-1   6.926113367080689E-1  
 2.280000000000000E7    -2.603789269924164E-1   6.962441802024841E-1   6.153839230537415E-1   2.336383312940598E-1   6.144818663597107E-1   2.333713471889496E-1  -2.607612907886505E-1   6.925553679466248E-1  
 2.282000000000000E7    -2.591394782066345E-1   6.963491439819336E-1   6.161593794822693E-1   2.334579378366470E-1   6.160934567451477E-1   2.328082025051117E-1  -2.589650750160217E-1   6.919475197792053E-1  
 2.284000000000000E7    -2.576799988746643E-1   6.958274841308594E-1   6.174905896186829E-1   2.323473691940308E-1   6.173921823501587E-1   2.320698946714401E-1  -2.580687701702118E-1   6.919029951095581E-1  
 2.286000000000000E7    -2.560677528381348E-1   6.956601738929749E-1   6.187134981155396E-1   2.320020496845245E-1   6.181422472000122E-1   2.315813153982163E-1  -2.569001019001007E-1   6.916339993476868E-1  
 2.288000000000000E7    -2.550347149372101E-1   6.951496005058289E-1   6.197207570075989E-1   2.313022315502167E-1   6.192170977592468E-1   2.309615761041641E-1  -2.553369700908661E-1   6.913663744926453E-1  
 2.290000000000000E7    -2.540422677993774E-1   6.951949596405029E-1   6.210073232650757E-1   2.304899990558624E-1   6.204341053962708E-1   2.302304804325104E-1  -2.542882859706879E-1   6.917658448219299E-1  
 2.292000000000000E7    -2.522255778312683E-1   6.949225068092346E-1   6.218194961547852E-1   2.295129597187042E-1   6.211585998535156E-1   2.295173555612564E-1  -2.533399164676666E-1   6.911270022392273E-1  
 2.294000000000000E7    -2.512368857860565E-1   6.944012641906738E-1   6.230484843254089E-1   2.291431128978729E-1   6.223418116569519E-1   2.285927683115006E-1  -2.523637115955353E-1   6.907938122749329E-1  
 2.296000000000000E7    -2.501924037933350E-1   6.942582130432129E-1   6.240330934524536E-1   2.284681797027588E-1   6.239770650863648E-1   2.285209447145462E-1  -2.499272227287293E-1   6.903479099273682E-1  
 2.298000000000000E7    -2.488134056329727E-1   6.942610740661621E-1   6.252026557922363E-1   2.280704081058502E-1   6.248288750648499E-1   2.275761216878891E-1  -2.493135333061218E-1   6.901243329048157E-1  
 2.300000000000000E7    -2.477148175239563E-1   6.936745643615723E-1   6.260325908660889E-1   2.274347096681595E-1   6.259465813636780E-1   2.263768911361694E-1  -2.481874525547028E-1   6.900410056114197E-1  
 2.302000000000000E7    -2.462108284235001E-1   6.935654878616333E-1   6.274268031120300E-1   2.264891564846039E-1   6.269283294677734E-1   2.263927608728409E-1  -2.461842149496079E-1   6.897563338279724E-1  
 2.304000000000000E7    -2.449424862861633E-1   6.932869553565979E-1   6.284251213073731E-1   2.255825847387314E-1   6.277348995208740E-1   2.255117297172546E-1  -2.450577616691589E-1   6.892876029014587E-1  
 2.306000000000000E7    -2.436583936214447E-1   6.925272941589356E-1   6.291161179542542E-1   2.247269749641419E-1   6.290957331657410E-1   2.245662212371826E-1  -2.438775300979614E-1   6.893275976181030E-1  
 2.308000000000000E7    -2.420908510684967E-1   6.928176283836365E-1   6.302912831306458E-1   2.245751023292542E-1   6.301477551460266E-1   2.245397567749023E-1  -2.425118088722229E-1   6.887551546096802E-1  
 2.310000000000000E7    -2.411176860332489E-1   6.925305724143982E-1   6.310006976127625E-1   2.233905196189880E-1   6.312248110771179E-1   2.236931622028351E-1  -2.412308305501938E-1   6.881517767906189E-1  
 2.312000000000000E7    -2.399478703737259E-1   6.919862031936646E-1   6.321869492530823E-1   2.232361733913422E-1   6.323702931404114E-1   2.224274724721909E-1  -2.399200350046158E-1   6.877516508102417E-1  
 2.314000000000000E7    -2.384122610092163E-1   6.913540959358215E-1   6.335054039955139E-1   2.220031619071960E-1   6.334456801414490E-1   2.219793647527695E-1  -2.390332818031311E-1   6.876935362815857E-1  
 2.316000000000000E7    -2.371142506599426E-1   6.917129755020142E-1   6.348358392715454E-1   2.216958105564117E-1   6.350980401039124E-1   2.212295532226563E-1  -2.373164743185043E-1   6.871777772903442E-1  
 2.318000000000000E7    -2.355004251003265E-1   6.911112070083618E-1   6.361170411109924E-1   2.211189419031143E-1   6.357197165489197E-1   2.206119149923325E-1  -2.365689575672150E-1   6.872316598892212E-1  
 2.320000000000000E7    -2.343837320804596E-1   6.905459761619568E-1   6.370106935501099E-1   2.201357185840607E-1   6.370674967765808E-1   2.197558879852295E-1  -2.348770201206207E-1   6.866111755371094E-1  
 2.322000000000000E7    -2.336633354425430E-1   6.902318596839905E-1   6.377593874931335E-1   2.190581560134888E-1   6.377257704734802E-1   2.192590683698654E-1  -2.338415086269379E-1   6.864221096038818E-1  
 2.324000000000000E7    -2.317917495965958E-1   6.900255680084229E-1   6.393079161643982E-1   2.186587154865265E-1   6.384292244911194E-1   2.181755006313324E-1  -2.326599657535553E-1   6.862962245941162E-1  
 2.326000000000000E7    -2.304480075836182E-1   6.896821856498718E-1   6.398292779922485E-1   2.180791497230530E-1   6.397045254707336E-1   2.178738564252853E-1  -2.314693629741669E-1   6.862452030181885E-1  
 2.328000000000000E7    -2.285526245832443E-1   6.895846724510193E-1   6.410966515541077E-1   2.180141955614090E-1   6.409671902656555E-1   2.171308100223541E-1  -2.301994413137436E-1   6.855459809303284E-1  
 2.330000000000000E7    -2.279004156589508E-1   6.893200874328613E-1   6.420347690582275E-1   2.169056683778763E-1   6.418655514717102E-1   2.160137891769409E-1  -2.287904620170593E-1   6.849800944328308E-1  
 2.332000000000000E7    -2.263889610767365E-1   6.886972188949585E-1   6.432767510414124E-1   2.168606519699097E-1   6.432022452354431E-1   2.156606018543243E-1  -2.271693646907806E-1   6.846359372138977E-1  
 2.334000000000000E7    -2.251149415969849E-1   6.883388757705689E-1   6.445932388305664E-1   2.155938446521759E-1   6.438735127449036E-1   2.148786932229996E-1  -2.264622598886490E-1   6.844546794891357E-1  
 2.336000000000000E7    -2.239352762699127E-1   6.878408789634705E-1   6.455392837524414E-1   2.150320261716843E-1   6.448956727981567E-1   2.145884931087494E-1  -2.247189581394196E-1   6.844328045845032E-1  
 2.338000000000000E7    -2.226540744304657E-1   6.877376437187195E-1   6.465438008308411E-1   2.141556143760681E-1   6.462060809135437E-1   2.133249193429947E-1  -2.236694544553757E-1   6.835560202598572E-1  
 2.340000000000000E7    -2.216688394546509E-1   6.878685951232910E-1   6.474549174308777E-1   2.130692452192307E-1   6.473966836929321E-1   2.128193825483322E-1  -2.222705930471420E-1   6.832216978073120E-1  
 2.342000000000000E7    -2.207466065883637E-1   6.865991950035095E-1   6.489071846008301E-1   2.120507359504700E-1   6.482530236244202E-1   2.118138670921326E-1  -2.210222035646439E-1   6.830507516860962E-1  
 2.344000000000000E7    -2.189034819602966E-1   6.861188411712647E-1   6.500926613807678E-1   2.114701569080353E-1   6.497177481651306E-1   2.107618153095245E-1  -2.197358012199402E-1   6.827396750450134E-1  
 2.346000000000000E7    -2.176948487758637E-1   6.859403848648071E-1   6.511986255645752E-1   2.109401226043701E-1   6.501306295394898E-1   2.107222825288773E-1  -2.182065099477768E-1   6.826981902122498E-1  
 2.348000000000000E7    -2.165760695934296E-1   6.854707002639771E-1   6.516450047492981E-1   2.101119756698608E-1   6.514154076576233E-1   2.095345854759216E-1  -2.168549001216888E-1   6.821131706237793E-1  
 2.350000000000000E7    -2.154686450958252E-1   6.846110224723816E-1   6.532007455825806E-1   2.090948820114136E-1   6.524316072463989E-1   2.090819180011749E-1  -2.155603170394898E-1   6.818825602531433E-1  
 2.352000000000000E7    -2.136851549148560E-1   6.850227117538452E-1   6.539617776870728E-1   2.084673941135407E-1   6.535555720329285E-1   2.086045742034912E-1  -2.139620184898377E-1   6.811811923980713E-1  
 2.354000000000000E7    -2.122332453727722E-1   6.844722628593445E-1   6.554479598999023E-1   2.076462507247925E-1   6.546742916107178E-1   2.078260183334351E-1  -2.133599519729614E-1   6.813816428184509E-1  
 2.356000000000000E7    -2.111431956291199E-1   6.843087673187256E-1   6.561836004257202E-1   2.069536000490189E-1   6.560037136077881E-1   2.065658271312714E-1  -2.119394540786743E-1   6.805354356765747E-1  
 2.358000000000000E7    -2.100192308425903E-1   6.835164427757263E-1   6.572068929672241E-1   2.061743438243866E-1   6.569980978965759E-1   2.061529457569122E-1  -2.102123498916626E-1   6.802669763565064E-1  
 2.360000000000000E7    -2.089143693447113E-1   6.835778355598450E-1   6.585077643394470E-1   2.051377296447754E-1   6.582764387130737E-1   2.051482647657394E-1  -2.093217223882675E-1   6.796628236770630E-1  
 2.362000000000000E7    -2.076613008975983E-1   6.830487251281738E-1   6.595168709754944E-1   2.045517265796661E-1   6.598281860351563E-1   2.043049633502960E-1  -2.083688527345657E-1   6.790599822998047E-1  
 2.364000000000000E7    -2.060606181621552E-1   6.826039552688599E-1   6.605387926101685E-1   2.038416564464569E-1   6.599858999252319E-1   2.036350667476654E-1  -2.066156417131424E-1   6.789658665657044E-1  
 2.366000000000000E7    -2.047756314277649E-1   6.828365921974182E-1   6.611759662628174E-1   2.032448649406433E-1   6.612921357154846E-1   2.026687562465668E-1  -2.053232192993164E-1   6.781473159790039E-1  
 2.368000000000000E7    -2.037144005298615E-1   6.817910075187683E-1   6.628702878952026E-1   2.022302150726318E-1   6.625915765762329E-1   2.021145373582840E-1  -2.039260268211365E-1   6.777983903884888E-1  
 2.370000000000000E7    -2.023803740739822E-1   6.816378235816956E-1   6.637964248657227E-1   2.015391886234283E-1   6.636227369308472E-1   2.014829814434052E-1  -2.027430236339569E-1   6.776794195175171E-1  
 2.372000000000000E7    -2.008247673511505E-1   6.809973120689392E-1   6.650301218032837E-1   2.006686031818390E-1   6.644545793533325E-1   2.006014585494995E-1  -2.018137872219086E-1   6.771563887596130E-1  
 2.374000000000000E7    -1.991771012544632E-1   6.804960966110230E-1   6.659871935844421E-1   2.001497000455856E-1   6.658229827880859E-1   1.994789242744446E-1  -2.007336020469666E-1   6.765772700309753E-1  
 2.376000000000000E7    -1.984096318483353E-1   6.800311207771301E-1   6.671344041824341E-1   1.992645710706711E-1   6.666387915611267E-1   1.989991813898087E-1  -1.989985704421997E-1   6.762630343437195E-1  
 2.378000000000000E7    -1.968093216419220E-1   6.796916723251343E-1   6.681466102600098E-1   1.986458301544190E-1   6.677094101905823E-1   1.977148950099945E-1  -1.980545222759247E-1   6.757812500000000E-1  
 2.380000000000000E7    -1.959844380617142E-1   6.793266534805298E-1   6.694427132606506E-1   1.974258273839951E-1   6.689460277557373E-1   1.973674744367600E-1  -1.967728286981583E-1   6.757163405418396E-1  
 2.382000000000000E7    -1.945906281471252E-1   6.787157058715820E-1   6.705805063247681E-1   1.970342397689819E-1   6.704189777374268E-1   1.965459138154984E-1  -1.951682418584824E-1   6.748418807983398E-1  
 2.384000000000000E7    -1.930209249258041E-1   6.784386634826660E-1   6.712028384208679E-1   1.960822045803070E-1   6.709851026535034E-1   1.953648030757904E-1  -1.942155659198761E-1   6.748977303504944E-1  
 2.386000000000000E7    -1.920842379331589E-1   6.774755120277405E-1   6.730199456214905E-1   1.948106139898300E-1   6.724342703819275E-1   1.943874061107636E-1  -1.929342746734619E-1   6.741379499435425E-1  
 2.388000000000000E7    -1.905409693717957E-1   6.770359277725220E-1   6.734367012977600E-1   1.944819688796997E-1   6.736225485801697E-1   1.941131204366684E-1  -1.914645284414291E-1   6.735026836395264E-1  
 2.390000000000000E7    -1.893521249294281E-1   6.765728592872620E-1   6.748160719871521E-1   1.931733191013336E-1   6.745241284370422E-1   1.927953362464905E-1  -1.902443021535873E-1   6.728197336196899E-1  
 2.392000000000000E7    -1.880866140127182E-1   6.764304041862488E-1   6.759853363037109E-1   1.926648765802383E-1   6.756002306938171E-1   1.922506690025330E-1  -1.889620721340179E-1   6.726706027984619E-1  
 2.394000000000000E7    -1.870739907026291E-1   6.762199401855469E-1   6.763924956321716E-1   1.915418803691864E-1   6.764910817146301E-1   1.916935145854950E-1  -1.871749758720398E-1   6.718662381172180E-1  
 2.396000000000000E7    -1.853657513856888E-1   6.755477190017700E-1   6.779423952102661E-1   1.911658644676209E-1   6.776568889617920E-1   1.907034814357758E-1  -1.863131821155548E-1   6.716817021369934E-1  
 2.398000000000000E7    -1.843875050544739E-1   6.747883558273315E-1   6.786288619041443E-1   1.896281093358994E-1   6.786091923713684E-1   1.892340630292893E-1  -1.847582906484604E-1   6.715754270553589E-1  
 2.400000000000000E7    -1.829228401184082E-1   6.742833256721497E-1   6.799234151840210E-1   1.890958547592163E-1   6.796420216560364E-1   1.891642212867737E-1  -1.836052238941193E-1   6.710695624351502E-1  
 2.402000000000000E7    -1.817962378263474E-1   6.739455461502075E-1   6.813980340957642E-1   1.880881786346436E-1   6.808204054832459E-1   1.882636696100235E-1  -1.822845637798309E-1   6.704651713371277E-1  
 2.404000000000000E7    -1.803626120090485E-1   6.731809973716736E-1   6.823033690452576E-1   1.876581311225891E-1   6.821410059928894E-1   1.876523196697235E-1  -1.807289719581604E-1   6.698445677757263E-1  
 2.406000000000000E7    -1.788510084152222E-1   6.730136275291443E-1   6.831406950950623E-1   1.866423487663269E-1   6.831350922584534E-1   1.864563524723053E-1  -1.797972619533539E-1   6.693271994590759E-1  
 2.408000000000000E7    -1.770824939012528E-1   6.727390885353088E-1   6.841301918029785E-1   1.858970224857330E-1   6.835802197456360E-1   1.856353878974915E-1  -1.782587319612503E-1   6.688421964645386E-1  
 2.410000000000000E7    -1.762482821941376E-1   6.724713444709778E-1   6.851868629455566E-1   1.848914325237274E-1   6.853962540626526E-1   1.842839866876602E-1  -1.775542944669724E-1   6.680186390876770E-1  
 2.412000000000000E7    -1.747145950794220E-1   6.712448000907898E-1   6.866123676300049E-1   1.840271204710007E-1   6.858506798744202E-1   1.833441555500031E-1  -1.761921048164368E-1   6.680399179458618E-1  
 2.414000000000000E7    -1.736162453889847E-1   6.706935167312622E-1   6.876416206359863E-1   1.832193732261658E-1   6.873435974121094E-1   1.820065826177597E-1  -1.749002337455750E-1   6.676949262619019E-1  
 2.416000000000000E7    -1.726297140121460E-1   6.706226468086243E-1   6.890944838523865E-1   1.820550262928009E-1   6.886515021324158E-1   1.820224225521088E-1  -1.736855208873749E-1   6.672523021697998E-1  
 2.418000000000000E7    -1.714224517345429E-1   6.703279614448547E-1   6.896792054176331E-1   1.811777949333191E-1   6.896632909774780E-1   1.813159435987473E-1  -1.718921363353729E-1   6.662808656692505E-1  
 2.420000000000000E7    -1.700047254562378E-1   6.694017648696899E-1   6.909649968147278E-1   1.803093552589417E-1   6.903927922248840E-1   1.799265742301941E-1  -1.711260229349136E-1   6.665480136871338E-1  
 2.422000000000000E7    -1.686711460351944E-1   6.685860157012940E-1   6.918820738792419E-1   1.794252842664719E-1   6.916386485099793E-1   1.788718849420548E-1  -1.701282113790512E-1   6.654156446456909E-1  
 2.424000000000000E7    -1.672653853893280E-1   6.683388948440552E-1   6.930456161499023E-1   1.788033843040466E-1   6.927042007446289E-1   1.781144738197327E-1  -1.683859676122665E-1   6.647533178329468E-1  
 2.426000000000000E7    -1.662175953388214E-1   6.677225828170776E-1   6.938138604164124E-1   1.778234392404556E-1   6.930239796638489E-1   1.773689091205597E-1  -1.672405302524567E-1   6.642634868621826E-1  
 2.428000000000000E7    -1.651650965213776E-1   6.670945286750794E-1   6.947893500328064E-1   1.767391562461853E-1   6.947346329689026E-1   1.760324388742447E-1  -1.661323010921478E-1   6.636531949043274E-1  
 2.430000000000000E7    -1.636622995138168E-1   6.670457124710083E-1   6.960503458976746E-1   1.760814189910889E-1   6.953303813934326E-1   1.752892732620239E-1  -1.643225550651550E-1   6.631518602371216E-1  
 2.432000000000000E7    -1.626598685979843E-1   6.662502288818359E-1   6.970770359039307E-1   1.750340759754181E-1   6.966589093208313E-1   1.746397465467453E-1  -1.634391695261002E-1   6.624865531921387E-1  
 2.434000000000000E7    -1.609838902950287E-1   6.653726696968079E-1   6.983110904693604E-1   1.745637655258179E-1   6.972674131393433E-1   1.742021143436432E-1  -1.618958413600922E-1   6.620443463325501E-1  
 2.436000000000000E7    -1.602634489536285E-1   6.651899814605713E-1   6.992323994636536E-1   1.728931814432144E-1   6.991229057312012E-1   1.723303943872452E-1  -1.606859862804413E-1   6.614006757736206E-1  
 2.438000000000000E7    -1.585051119327545E-1   6.646211147308350E-1   7.004511952400208E-1   1.724228560924530E-1   6.997811198234558E-1   1.719768941402435E-1  -1.592665612697601E-1   6.613026857376099E-1  
 2.440000000000000E7    -1.574653089046478E-1   6.641929149627686E-1   7.015039324760437E-1   1.710065007209778E-1   7.011380791664124E-1   1.708503365516663E-1  -1.578726172447205E-1   6.600670218467712E-1  
 2.442000000000000E7    -1.563384979963303E-1   6.636843681335449E-1   7.023715376853943E-1   1.706282347440720E-1   7.020606398582459E-1   1.700804233551025E-1  -1.563877761363983E-1   6.602430939674377E-1  
 2.444000000000000E7    -1.547518074512482E-1   6.633989214897156E-1   7.033810019493103E-1   1.693511307239533E-1   7.036856412887573E-1   1.690570116043091E-1  -1.554412543773651E-1   6.589239239692688E-1  
 2.446000000000000E7    -1.536637097597122E-1   6.624027490615845E-1   7.048665285110474E-1   1.678856760263443E-1   7.044337987899780E-1   1.674424409866333E-1  -1.546517908573151E-1   6.586858034133911E-1  
 2.448000000000000E7    -1.519267261028290E-1   6.619055867195129E-1   7.060961127281189E-1   1.674992442131043E-1   7.054531574249268E-1   1.667328774929047E-1  -1.532108783721924E-1   6.580675840377808E-1  
 2.450000000000000E7    -1.506237536668778E-1   6.617042422294617E-1   7.066609263420105E-1   1.665699332952499E-1   7.065258026123047E-1   1.663513183593750E-1  -1.518238782882690E-1   6.579049229621887E-1  
 2.452000000000000E7    -1.489802896976471E-1   6.611902713775635E-1   7.078166604042053E-1   1.659593582153320E-1   7.077830433845520E-1   1.648682057857513E-1  -1.505611240863800E-1   6.568771600723267E-1  
 2.454000000000000E7    -1.485321521759033E-1   6.594408154487610E-1   7.091948986053467E-1   1.641709804534912E-1   7.088227868080139E-1   1.643421202898026E-1  -1.490941792726517E-1   6.563042402267456E-1  
 2.456000000000000E7    -1.471991837024689E-1   6.594964265823364E-1   7.101130485534668E-1   1.635318845510483E-1   7.093645334243774E-1   1.633690297603607E-1  -1.478736102581024E-1   6.558183431625366E-1  
 2.458000000000000E7    -1.457703411579132E-1   6.582294702529907E-1   7.111774086952210E-1   1.622385680675507E-1   7.107154130935669E-1   1.624919623136520E-1  -1.466200649738312E-1   6.551698446273804E-1  
 2.460000000000000E7    -1.448124945163727E-1   6.581513285636902E-1   7.121787071228027E-1   1.614248156547546E-1   7.116920351982117E-1   1.609946191310883E-1  -1.451102942228317E-1   6.540499329566956E-1  
 2.462000000000000E7    -1.429914534091950E-1   6.577117443084717E-1   7.124885916709900E-1   1.605207622051239E-1   7.120836377143860E-1   1.599262505769730E-1  -1.443578302860260E-1   6.539843678474426E-1  
 2.464000000000000E7    -1.422318369150162E-1   6.572382450103760E-1   7.138770818710327E-1   1.595450043678284E-1   7.139213681221008E-1   1.596616357564926E-1  -1.423507928848267E-1   6.533156037330627E-1  
 2.466000000000000E7    -1.404937207698822E-1   6.559975147247315E-1   7.152885794639587E-1   1.589332818984985E-1   7.146695852279663E-1   1.585709899663925E-1  -1.412734687328339E-1   6.522974967956543E-1  
 2.468000000000000E7    -1.393563747406006E-1   6.558696031570435E-1   7.161300778388977E-1   1.575635075569153E-1   7.157471179962158E-1   1.575531661510468E-1  -1.403635740280151E-1   6.522402763366699E-1  
 2.470000000000000E7    -1.383156776428223E-1   6.551305055618286E-1   7.171792984008789E-1   1.564200818538666E-1   7.164738178253174E-1   1.565947234630585E-1  -1.387849897146225E-1   6.514969468116760E-1  
 2.472000000000000E7    -1.370605081319809E-1   6.544217467308044E-1   7.182074785232544E-1   1.553805172443390E-1   7.184331417083740E-1   1.550568491220474E-1  -1.375301778316498E-1   6.503564119338989E-1  
 2.474000000000000E7    -1.355383396148682E-1   6.539194583892822E-1   7.192801833152771E-1   1.548092514276505E-1   7.186537981033325E-1   1.545911580324173E-1  -1.366739422082901E-1   6.499355435371399E-1  
 2.476000000000000E7    -1.339698135852814E-1   6.530408859252930E-1   7.202752232551575E-1   1.535099148750305E-1   7.199672460556030E-1   1.534216701984406E-1  -1.351021826267242E-1   6.491963863372803E-1  
 2.478000000000000E7    -1.331311762332916E-1   6.525062322616577E-1   7.215875983238220E-1   1.525811254978180E-1   7.209295034408569E-1   1.521104872226715E-1  -1.336983889341354E-1   6.487371921539307E-1  
 2.480000000000000E7    -1.325564682483673E-1   6.517916321754456E-1   7.226925492286682E-1   1.514669954776764E-1   7.221370339393616E-1   1.516209691762924E-1  -1.328360736370087E-1   6.488071680068970E-1  
 2.482000000000000E7    -1.306935548782349E-1   6.514807939529419E-1   7.230242490768433E-1   1.507185399532318E-1   7.230149507522583E-1   1.500644087791443E-1  -1.317334324121475E-1   6.475858688354492E-1  
 2.484000000000000E7    -1.293682605028153E-1   6.500974297523499E-1   7.246956229209900E-1   1.497432887554169E-1   7.240348458290100E-1   1.494383811950684E-1  -1.301058381795883E-1   6.474155783653259E-1  
 2.486000000000000E7    -1.285308897495270E-1   6.499793529510498E-1   7.254580855369568E-1   1.482689678668976E-1   7.253805398941040E-1   1.484131813049316E-1  -1.286133974790573E-1   6.459912657737732E-1  
 2.488000000000000E7    -1.266316771507263E-1   6.491892337799072E-1   7.267841100692749E-1   1.476145088672638E-1   7.265202403068543E-1   1.473433971405029E-1  -1.277252882719040E-1   6.456276774406433E-1  
 2.490000000000000E7    -1.252368092536926E-1   6.486918926239014E-1   7.274618148803711E-1   1.464444398880005E-1   7.272137999534607E-1   1.461071223020554E-1  -1.265819668769836E-1   6.451392173767090E-1  
 2.492000000000000E7    -1.243024840950966E-1   6.479611396789551E-1   7.288811206817627E-1   1.454282999038696E-1   7.289388179779053E-1   1.453037708997726E-1  -1.249979883432388E-1   6.441062688827515E-1  
 2.494000000000000E7    -1.228557378053665E-1   6.470578312873840E-1   7.302102446556091E-1   1.442453265190125E-1   7.296987175941467E-1   1.439032256603241E-1  -1.239593625068665E-1   6.436576247215271E-1  
 2.496000000000000E7    -1.215128153562546E-1   6.460304856300354E-1   7.310469746589661E-1   1.432226151227951E-1   7.303347587585449E-1   1.431307494640350E-1  -1.228470355272293E-1   6.430347561836243E-1  
 2.498000000000000E7    -1.203619688749313E-1   6.457551121711731E-1   7.313250899314880E-1   1.424587666988373E-1   7.313176989555359E-1   1.423428803682327E-1  -1.212111860513687E-1   6.423395872116089E-1  
 2.500000000000000E7    -1.192824468016625E-1   6.451839208602905E-1   7.326041460037231E-1   1.412278711795807E-1   7.323376536369324E-1   1.412358731031418E-1  -1.202654987573624E-1   6.414314508438110E-1  
 2.502000000000000E7    -1.181237399578095E-1   6.440393924713135E-1   7.342888116836548E-1   1.403174847364426E-1   7.334772348403931E-1   1.398783624172211E-1  -1.188561320304871E-1   6.406635046005249E-1  
 2.504000000000000E7    -1.165565177798271E-1   6.434077620506287E-1   7.346597909927368E-1   1.395064890384674E-1   7.343944311141968E-1   1.389749348163605E-1  -1.177821233868599E-1   6.398316025733948E-1  
 2.506000000000000E7    -1.157939285039902E-1   6.425878405570984E-1   7.361887097358704E-1   1.378381848335266E-1   7.351266145706177E-1   1.374535262584686E-1  -1.161752790212631E-1   6.398653984069824E-1  
 2.508000000000000E7    -1.142423301935196E-1   6.421938538551331E-1   7.371590733528137E-1   1.365768909454346E-1   7.366640567779541E-1   1.365654766559601E-1  -1.150590479373932E-1   6.385309100151062E-1  
 2.510000000000000E7    -1.129135936498642E-1   6.411697268486023E-1   7.383404970169067E-1   1.355272680521011E-1   7.377950549125671E-1   1.353383362293243E-1  -1.144035980105400E-1   6.377461552619934E-1  
 2.512000000000000E7    -1.116144508123398E-1   6.404803395271301E-1   7.392817139625549E-1   1.350056827068329E-1   7.385699152946472E-1   1.342512667179108E-1  -1.126145422458649E-1   6.373586654663086E-1  
 2.514000000000000E7    -1.105967462062836E-1   6.395945549011231E-1   7.402218580245972E-1   1.339146643877029E-1   7.399685978889465E-1   1.334154307842255E-1  -1.114272773265839E-1   6.364771723747253E-1  
 2.516000000000000E7    -1.095130071043968E-1   6.390562057495117E-1   7.414065599441528E-1   1.325969249010086E-1   7.411202192306519E-1   1.323975473642349E-1  -1.101133227348328E-1   6.355993151664734E-1  
 2.518000000000000E7    -1.079166829586029E-1   6.386103630065918E-1   7.420582175254822E-1   1.310761868953705E-1   7.412546277046204E-1   1.309711635112763E-1  -1.091178730130196E-1   6.349481344223023E-1  
 2.520000000000000E7    -1.067233383655548E-1   6.381086707115173E-1   7.430264353752136E-1   1.302710324525833E-1   7.426030039787293E-1   1.298854053020477E-1  -1.076136827468872E-1   6.343041062355042E-1  
 2.522000000000000E7    -1.058616936206818E-1   6.374171972274780E-1   7.434695363044739E-1   1.289945691823959E-1   7.436094880104065E-1   1.285023093223572E-1  -1.062353104352951E-1   6.334885358810425E-1  
 2.524000000000000E7    -1.042222827672958E-1   6.360913515090942E-1   7.453686594963074E-1   1.280350983142853E-1   7.445325255393982E-1   1.276644319295883E-1  -1.054205745458603E-1   6.330532431602478E-1  
 2.526000000000000E7    -1.029281169176102E-1   6.348575949668884E-1   7.461283802986145E-1   1.269798427820206E-1   7.456612586975098E-1   1.266847848892212E-1  -1.036855652928352E-1   6.322110295295715E-1  
 2.528000000000000E7    -1.024942398071289E-1   6.342632174491882E-1   7.471737265586853E-1   1.254246383905411E-1   7.466628551483154E-1   1.254264414310455E-1  -1.025164276361466E-1   6.313319206237793E-1  
 2.530000000000000E7    -1.005853265523911E-1   6.340215802192688E-1   7.480903863906860E-1   1.243416219949722E-1   7.476111650466919E-1   1.242688447237015E-1  -1.018183827400208E-1   6.303882002830505E-1  
 2.532000000000000E7    -9.912287443876267E-2   6.330561041831970E-1   7.492358088493347E-1   1.234895288944244E-1   7.487017512321472E-1   1.231590434908867E-1  -1.003321260213852E-1   6.297299265861511E-1  
 2.534000000000000E7    -9.775651991367340E-2   6.321124434471130E-1   7.501443624496460E-1   1.224240809679031E-1   7.498064637184143E-1   1.221976131200790E-1  -9.903873503208160E-2   6.291103363037109E-1  
 2.536000000000000E7    -9.710386395454407E-2   6.309910416603088E-1   7.511280775070190E-1   1.212157756090164E-1   7.505935430526733E-1   1.209795773029327E-1  -9.776216745376587E-2   6.281859874725342E-1  
 2.538000000000000E7    -9.576322138309479E-2   6.308771967887878E-1   7.524266839027405E-1   1.198023259639740E-1   7.513710260391235E-1   1.196384876966476E-1  -9.656751900911331E-2   6.274419426918030E-1  
 2.540000000000000E7    -9.478753805160523E-2   6.299948096275330E-1   7.533715963363648E-1   1.189341172575951E-1   7.525811195373535E-1   1.190633550286293E-1  -9.508416056632996E-2   6.267424225807190E-1  
 2.542000000000000E7    -9.335266798734665E-2   6.288078427314758E-1   7.542670369148254E-1   1.177755594253540E-1   7.538666129112244E-1   1.176719516515732E-1  -9.409438073635101E-2   6.260224580764771E-1  
 2.544000000000000E7    -9.203785657882690E-2   6.279366016387940E-1   7.550912499427795E-1   1.163041293621063E-1   7.546355724334717E-1   1.163180246949196E-1  -9.290835261344910E-2   6.249747276306152E-1  
 2.546000000000000E7    -9.086208790540695E-2   6.275371313095093E-1   7.562476396560669E-1   1.151779592037201E-1   7.556570768356323E-1   1.148785948753357E-1  -9.203648567199707E-2   6.242935061454773E-1  
 2.548000000000000E7    -8.950440585613251E-2   6.269208788871765E-1   7.572073936462402E-1   1.141909062862396E-1   7.564705014228821E-1   1.142259389162064E-1  -9.020216763019562E-2   6.239768266677856E-1  
 2.550000000000000E7    -8.834339678287506E-2   6.254302859306335E-1   7.587616443634033E-1   1.129509359598160E-1   7.575933933258057E-1   1.126376911997795E-1  -8.904263377189636E-2   6.224281787872315E-1  
 2.552000000000000E7    -8.720873296260834E-2   6.249042749404907E-1   7.591800093650818E-1   1.116715446114540E-1   7.585939764976502E-1   1.115041300654411E-1  -8.799450844526291E-2   6.218696236610413E-1  
 2.554000000000000E7    -8.545267581939697E-2   6.240894198417664E-1   7.602069973945618E-1   1.110925301909447E-1   7.596083283424377E-1   1.106233000755310E-1  -8.685240149497986E-2   6.210491061210632E-1  
 2.556000000000000E7    -8.470773696899414E-2   6.236841082572937E-1   7.612621188163757E-1   1.097165197134018E-1   7.608132958412170E-1   1.092819571495056E-1  -8.554261922836304E-2   6.199027299880981E-1  
 2.558000000000000E7    -8.324696868658066E-2   6.227520108222961E-1   7.618874907493591E-1   1.082452982664108E-1   7.614421248435974E-1   1.084091067314148E-1  -8.419814705848694E-2   6.191718578338623E-1  
 2.560000000000000E7    -8.220501244068146E-2   6.213285326957703E-1   7.634163498878479E-1   1.070791184902191E-1   7.624540925025940E-1   1.070406734943390E-1  -8.313946425914764E-2   6.186454296112061E-1  
 2.562000000000000E7    -8.108423650264740E-2   6.210123300552368E-1   7.642917037010193E-1   1.058590710163117E-1   7.634014487266541E-1   1.057143583893776E-1  -8.215464651584625E-2   6.173288822174072E-1  
 2.564000000000000E7    -8.006995916366577E-2   6.195822954177856E-1   7.650497555732727E-1   1.043003797531128E-1   7.649517655372620E-1   1.048073619604111E-1  -8.034330606460571E-2   6.170020699501038E-1  
 2.566000000000000E7    -7.844194769859314E-2   6.191145777702332E-1   7.664690017700195E-1   1.036681756377220E-1   7.659881711006165E-1   1.030130386352539E-1  -7.978209853172302E-2   6.160958409309387E-1  
 2.568000000000000E7    -7.696716487407684E-2   6.185073852539063E-1   7.667229175567627E-1   1.025153100490570E-1   7.668961882591248E-1   1.017360165715218E-1  -7.872828841209412E-2   6.148639321327210E-1  
 2.570000000000000E7    -7.614924758672714E-2   6.175530552864075E-1   7.677334547042847E-1   1.009776368737221E-1   7.670553326606751E-1   1.005899459123612E-1  -7.779657840728760E-2   6.147481203079224E-1  
 2.572000000000000E7    -7.545121014118195E-2   6.164791584014893E-1   7.689273357391357E-1   9.945261478424072E-2   7.686505913734436E-1   9.969118237495422E-2  -7.566327601671219E-2   6.137355566024780E-1  
 2.574000000000000E7    -7.353519648313522E-2   6.157252192497253E-1   7.701306939125061E-1   9.847185015678406E-2   7.694224119186401E-1   9.842475503683090E-2  -7.483640313148499E-2   6.125482916831970E-1  
 2.576000000000000E7    -7.288095355033875E-2   6.145768165588379E-1   7.710285186767578E-1   9.718100726604462E-2   7.707166671752930E-1   9.692277014255524E-2  -7.356484234333038E-2   6.117814183235169E-1  
 2.578000000000000E7    -7.126930356025696E-2   6.139224171638489E-1   7.716993093490601E-1   9.582123160362244E-2   7.714343667030335E-1   9.591674804687500E-2  -7.205647230148315E-2   6.109960675239563E-1  
 2.580000000000000E7    -7.015162706375122E-2   6.126496791839600E-1   7.731153964996338E-1   9.541352838277817E-2   7.721270322799683E-1   9.467669576406479E-2  -7.111449539661408E-2   6.100604534149170E-1  
 2.582000000000000E7    -6.892244517803192E-2   6.121141314506531E-1   7.739390730857849E-1   9.368319809436798E-2   7.735246419906616E-1   9.308299422264099E-2  -7.005272805690765E-2   6.086860299110413E-1  
 2.584000000000000E7    -6.800398230552673E-2   6.104270815849304E-1   7.752946615219116E-1   9.212775528430939E-2   7.745597958564758E-1   9.250453114509583E-2  -6.874160468578339E-2   6.084754467010498E-1  
 2.586000000000000E7    -6.675682961940765E-2   6.098787784576416E-1   7.762914299964905E-1   9.077352285385132E-2   7.756619453430176E-1   9.054429829120636E-2  -6.768586486577988E-2   6.072299480438232E-1  
 2.588000000000000E7    -6.574270129203796E-2   6.099090576171875E-1   7.766700983047485E-1   8.975428342819214E-2   7.763255238533020E-1   8.968733251094818E-2  -6.659398972988129E-2   6.062350869178772E-1  
 2.590000000000000E7    -6.400445848703384E-2   6.082280874252319E-1   7.782354950904846E-1   8.871310949325562E-2   7.776145935058594E-1   8.830098807811737E-2  -6.573559343814850E-2   6.052947044372559E-1  
 2.592000000000000E7    -6.316662579774857E-2   6.075383424758911E-1   7.788847684860230E-1   8.702999353408814E-2   7.784445881843567E-1   8.691297471523285E-2  -6.407909840345383E-2   6.045928001403809E-1  
 2.594000000000000E7    -6.222245097160339E-2   6.066772341728210E-1   7.795103192329407E-1   8.584780991077423E-2   7.791637182235718E-1   8.545151352882385E-2  -6.266933679580689E-2   6.037763357162476E-1  
 2.596000000000000E7    -6.065381690859795E-2   6.058936119079590E-1   7.809886336326599E-1   8.491611480712891E-2   7.799902558326721E-1   8.463090658187866E-2  -6.171232089400291E-2   6.028775572776794E-1  
 2.598000000000000E7    -5.968215689063072E-2   6.045279502868652E-1   7.818663716316223E-1   8.331357687711716E-2   7.813826203346252E-1   8.311691880226135E-2  -6.066790595650673E-2   6.017013788223267E-1  
 2.600000000000000E7    -5.870026722550392E-2   6.035265326499939E-1   7.826417088508606E-1   8.179134130477905E-2   7.823673486709595E-1   8.151118457317352E-2  -5.965914577245712E-2   6.010369062423706E-1  
 2.602000000000000E7    -5.724788829684258E-2   6.028890609741211E-1   7.837385535240173E-1   8.087404072284699E-2   7.832993865013123E-1   8.032178878784180E-2  -5.801450461149216E-2   6.000469923019409E-1  
 2.604000000000000E7    -5.604496598243713E-2   6.023804545402527E-1   7.845129370689392E-1   7.977595925331116E-2   7.840722799301148E-1   7.939738035202026E-2  -5.668158829212189E-2   5.989890098571777E-1  
 2.606000000000000E7    -5.501665174961090E-2   6.009835600852966E-1   7.856226563453674E-1   7.841945439577103E-2   7.853163480758667E-1   7.764901965856552E-2  -5.597627162933350E-2   5.980401635169983E-1  
 2.608000000000000E7    -5.406588688492775E-2   5.996218919754028E-1   7.865867018699646E-1   7.638249546289444E-2   7.861415743827820E-1   7.682332396507263E-2  -5.498157069087029E-2   5.969510674476624E-1  
 2.610000000000000E7    -5.250381305813789E-2   5.993155241012573E-1   7.876122593879700E-1   7.572801411151886E-2   7.866185903549194E-1   7.500528544187546E-2  -5.356562882661820E-2   5.960748791694641E-1  
 2.612000000000000E7    -5.124811083078384E-2   5.975403785705566E-1   7.886387705802918E-1   7.404228299856186E-2   7.875299453735352E-1   7.388214021921158E-2  -5.237463116645813E-2   5.954042673110962E-1  
 2.614000000000000E7    -5.020754784345627E-2   5.969966650009155E-1   7.891482710838318E-1   7.293881475925446E-2   7.890890836715698E-1   7.241757959127426E-2  -5.151408910751343E-2   5.939561128616333E-1  
 2.616000000000000E7    -4.859891906380653E-2   5.961333513259888E-1   7.901961207389832E-1   7.162003964185715E-2   7.898145914077759E-1   7.093404978513718E-2  -5.063762515783310E-2   5.927063226699829E-1  
 2.618000000000000E7    -4.798042029142380E-2   5.948446989059448E-1   7.913911342620850E-1   7.007848471403122E-2   7.905530929565430E-1   6.954820454120636E-2  -4.877834022045136E-2   5.924935936927795E-1  
 2.620000000000000E7    -4.682052135467529E-2   5.943825244903565E-1   7.918518185615540E-1   6.869693100452423E-2   7.912989258766174E-1   6.887719035148621E-2  -4.753633961081505E-2   5.911255478858948E-1  
 2.622000000000000E7    -4.609301686286926E-2   5.932884216308594E-1   7.926704883575440E-1   6.735280901193619E-2   7.923477292060852E-1   6.736117601394653E-2  -4.641352966427803E-2   5.904315710067749E-1  
 2.624000000000000E7    -4.441499337553978E-2   5.919795036315918E-1   7.939227819442749E-1   6.607572734355927E-2   7.935907840728760E-1   6.592431664466858E-2  -4.602180793881416E-2   5.892677307128906E-1  
 2.626000000000000E7    -4.357235506176949E-2   5.913066267967224E-1   7.951136231422424E-1   6.446009874343872E-2   7.943412065505981E-1   6.443662196397781E-2  -4.445590823888779E-2   5.879616737365723E-1  
 2.628000000000000E7    -4.291668534278870E-2   5.897169113159180E-1   7.958193421363831E-1   6.297951936721802E-2   7.951894998550415E-1   6.312751024961472E-2  -4.304587841033936E-2   5.877747535705566E-1  
 2.630000000000000E7    -4.139225184917450E-2   5.894981622695923E-1   7.967070937156677E-1   6.196453794836998E-2   7.961879372596741E-1   6.213350594043732E-2  -4.184931144118309E-2   5.858350992202759E-1  
 2.632000000000000E7    -3.933255374431610E-2   5.873563885688782E-1   7.978419065475464E-1   6.094021722674370E-2   7.969077825546265E-1   6.041178107261658E-2  -4.153513163328171E-2   5.853791236877441E-1  
 2.634000000000000E7    -3.886355459690094E-2   5.870658159255981E-1   7.984499931335449E-1   5.930034071207047E-2   7.981845736503601E-1   5.921472609043121E-2  -3.970080614089966E-2   5.845159292221069E-1  
 2.636000000000000E7    -3.735841810703278E-2   5.859203338623047E-1   7.997983098030090E-1   5.785439535975456E-2   7.988820075988770E-1   5.803038924932480E-2  -3.902871906757355E-2   5.834503173828125E-1  
 2.638000000000000E7    -3.673286736011505E-2   5.849896669387817E-1   8.000684976577759E-1   5.626893043518066E-2   7.998115420341492E-1   5.650767311453819E-2  -3.741394728422165E-2   5.819454193115234E-1  
 2.640000000000000E7    -3.493564575910568E-2   5.834628939628601E-1   8.012888431549072E-1   5.512643977999687E-2   8.005658984184265E-1   5.493167042732239E-2  -3.652292490005493E-2   5.814501047134399E-1  
 2.642000000000000E7    -3.417315334081650E-2   5.828980803489685E-1   8.018233776092529E-1   5.383154749870300E-2   8.017306327819824E-1   5.356757342815399E-2  -3.503017127513886E-2   5.802903175354004E-1  
 2.644000000000000E7    -3.297961503267288E-2   5.821030139923096E-1   8.029279708862305E-1   5.242808163166046E-2   8.025055527687073E-1   5.262257903814316E-2  -3.421684354543686E-2   5.791491270065308E-1  
 2.646000000000000E7    -3.165190294384956E-2   5.806772112846375E-1   8.044413328170776E-1   5.091585591435432E-2   8.035029172897339E-1   5.122536420822144E-2  -3.325116634368897E-2   5.782573223114014E-1  
 2.648000000000000E7    -3.071346506476402E-2   5.795588493347168E-1   8.049526214599609E-1   4.934082552790642E-2   8.040821552276611E-1   4.913990944623947E-2  -3.258261829614639E-2   5.771133899688721E-1  
 2.650000000000000E7    -2.957375533878803E-2   5.782423615455627E-1   8.057225346565247E-1   4.799447208642960E-2   8.046709299087524E-1   4.802161455154419E-2  -3.150509297847748E-2   5.763964653015137E-1  
 2.652000000000000E7    -2.805492654442787E-2   5.779405832290649E-1   8.065618872642517E-1   4.723460599780083E-2   8.057857155799866E-1   4.644275456666946E-2  -3.016932681202889E-2   5.749778151512146E-1  
 2.654000000000000E7    -2.811194211244583E-2   5.765008330345154E-1   8.075895309448242E-1   4.505429789423943E-2   8.070998191833496E-1   4.544790089130402E-2  -2.851463295519352E-2   5.743182301521301E-1  
 2.656000000000000E7    -2.605606801807880E-2   5.756420493125916E-1   8.081670403480530E-1   4.425418376922607E-2   8.077677488327026E-1   4.402871802449226E-2  -2.790867350995541E-2   5.730167627334595E-1  
 2.658000000000000E7    -2.548944950103760E-2   5.739210844039917E-1   8.091890811920166E-1   4.242436587810516E-2   8.087369799613953E-1   4.221738874912262E-2  -2.625025063753128E-2   5.722736716270447E-1  
 2.660000000000000E7    -2.462811022996903E-2   5.729464888572693E-1   8.102024793624878E-1   4.153944179415703E-2   8.095524311065674E-1   4.102940112352371E-2  -2.525459229946137E-2   5.709315538406372E-1  
 2.662000000000000E7    -2.333855070173740E-2   5.720592737197876E-1   8.108467459678650E-1   3.924808278679848E-2   8.102049827575684E-1   3.937616944313049E-2  -2.424632199108601E-2   5.698761343955994E-1  
 2.664000000000000E7    -2.207249775528908E-2   5.709117054939270E-1   8.119292855262756E-1   3.790873289108276E-2   8.118309974670410E-1   3.786637634038925E-2  -2.352234907448292E-2   5.682528018951416E-1  
 2.666000000000000E7    -2.088420838117600E-2   5.700366497039795E-1   8.124567270278931E-1   3.647070378065109E-2   8.120078444480896E-1   3.681279346346855E-2  -2.198699489235878E-2   5.677099227905273E-1  
 2.668000000000000E7    -1.956957392394543E-2   5.688699483871460E-1   8.133978247642517E-1   3.534591197967529E-2   8.125796318054199E-1   3.543504700064659E-2  -2.065040171146393E-2   5.666592121124268E-1  
 2.670000000000000E7    -1.849674619734287E-2   5.675989389419556E-1   8.145813941955566E-1   3.347395732998848E-2   8.136917948722839E-1   3.369998931884766E-2  -2.045198343694210E-2   5.650420188903809E-1  
 2.672000000000000E7    -1.735711842775345E-2   5.664205551147461E-1   8.155093193054199E-1   3.223922848701477E-2   8.147427439689636E-1   3.212184086441994E-2  -1.945581473410130E-2   5.640619993209839E-1  
 2.674000000000000E7    -1.671084202826023E-2   5.653026103973389E-1   8.166112899780273E-1   3.084772266447544E-2   8.157210946083069E-1   3.119708597660065E-2  -1.726203225553036E-2   5.627859830856323E-1  
 2.676000000000000E7    -1.561770588159561E-2   5.642918944358826E-1   8.169304728507996E-1   2.933265268802643E-2   8.164714574813843E-1   2.976398356258869E-2  -1.665965840220451E-2   5.620810389518738E-1  
 2.678000000000000E7    -1.496225222945213E-2   5.634883642196655E-1   8.180187344551086E-1   2.743936702609062E-2   8.172354698181152E-1   2.778492867946625E-2  -1.518142782151699E-2   5.605316758155823E-1  
 2.680000000000000E7    -1.348722726106644E-2   5.623813867568970E-1   8.184475898742676E-1   2.592138573527336E-2   8.178779482841492E-1   2.630973793566227E-2  -1.431219279766083E-2   5.596598386764526E-1  
 2.682000000000000E7    -1.199460402131081E-2   5.610154867172241E-1   8.198526501655579E-1   2.472395077347755E-2   8.185722827911377E-1   2.459735237061977E-2  -1.431828550994396E-2   5.587412714958191E-1  
 2.684000000000000E7    -1.104097813367844E-2   5.599850416183472E-1   8.209115266799927E-1   2.317992970347405E-2   8.196184635162354E-1   2.342987060546875E-2  -1.276347413659096E-2   5.576584935188294E-1  
 2.686000000000000E7    -9.897643700242043E-3   5.586233735084534E-1   8.214987516403198E-1   2.214243076741695E-2   8.204212188720703E-1   2.213579230010510E-2  -1.096209324896336E-2   5.563760995864868E-1  
 2.688000000000000E7    -8.738759905099869E-3   5.578478574752808E-1   8.221054077148438E-1   2.057229727506638E-2   8.216128945350647E-1   2.043679729104042E-2  -1.085302047431469E-2   5.549835562705994E-1  
 2.690000000000000E7    -7.912779226899147E-3   5.565727353096008E-1   8.228080272674561E-1   1.891631633043289E-2   8.221775293350220E-1   1.854809746146202E-2  -9.539611637592316E-3   5.542805790901184E-1  
 2.692000000000000E7    -7.384110242128372E-3   5.551192760467529E-1   8.237139582633972E-1   1.720387488603592E-2   8.234039545059204E-1   1.750976592302322E-2  -7.555855438113213E-3   5.524957776069641E-1  
 2.694000000000000E7    -6.073426455259323E-3   5.540111660957336E-1   8.248246908187866E-1   1.586763560771942E-2   8.237599134445190E-1   1.575202867388725E-2  -7.106896489858627E-3   5.517553091049194E-1  
 2.696000000000000E7    -4.980633035302162E-3   5.529462099075317E-1   8.253203034400940E-1   1.406591758131981E-2   8.248224258422852E-1   1.389903761446476E-2  -6.324594840407372E-3   5.504680275917053E-1  
 2.698000000000000E7    -3.930736333131790E-3   5.514143109321594E-1   8.263487219810486E-1   1.289192680269480E-2   8.253461718559265E-1   1.281081140041351E-2  -5.065547302365303E-3   5.501095056533814E-1  
 2.700000000000000E7    -2.864923328161240E-3   5.513925552368164E-1   8.263072967529297E-1   1.097341161221266E-2   8.259422779083252E-1   1.117996033281088E-2  -4.283590242266655E-3   5.484778881072998E-1  
 2.702000000000000E7    -1.453982666134834E-3   5.499297380447388E-1   8.276364207267761E-1   9.900951758027077E-3   8.275226354598999E-1   9.597133845090866E-3  -3.465047106146812E-3   5.465036630630493E-1  
 2.704000000000000E7    -1.076754182577133E-3   5.484138131141663E-1   8.288621306419373E-1   8.045599795877934E-3   8.280768394470215E-1   8.047394454479218E-3  -2.044836059212685E-3   5.458334088325501E-1  
 2.706000000000000E7    -1.599695533514023E-4   5.472846031188965E-1   8.297930955886841E-1   6.510193459689617E-3   8.292432427406311E-1   6.819419562816620E-3  -3.603473305702210E-4   5.443691611289978E-1  
 2.708000000000000E7     8.079633116722107E-4   5.458964109420776E-1   8.303341865539551E-1   4.673358984291554E-3   8.299330472946167E-1   4.813669249415398E-3   2.986862964462489E-4   5.433276891708374E-1  
 2.710000000000000E7     2.019029110670090E-3   5.443383455276489E-1   8.311595916748047E-1   3.110841847956181E-3   8.303970694541931E-1   3.571814857423306E-3   1.065293326973915E-3   5.425704717636108E-1  
 2.712000000000000E7     3.281574696302414E-3   5.434544086456299E-1   8.325787186622620E-1   2.048205584287643E-3   8.316502571105957E-1   1.833084039390087E-3   1.947540789842606E-3   5.411173105239868E-1  
 2.714000000000000E7     4.755787551403046E-3   5.428752899169922E-1   8.324826955795288E-1   7.396088913083077E-4   8.318856954574585E-1   5.688806995749474E-4   3.169503062963486E-3   5.399970412254334E-1  
 2.716000000000000E7     5.025664344429970E-3   5.413993597030640E-1   8.335744142532349E-1  -9.400593116879463E-4   8.329623341560364E-1  -9.198784828186035E-4   4.099678248167038E-3   5.383597612380981E-1  
 2.718000000000000E7     6.594687700271606E-3   5.397040843963623E-1   8.342137932777405E-1  -2.178126946091652E-3   8.339583873748779E-1  -2.768771722912788E-3   5.237651988863945E-3   5.371913313865662E-1  
 2.720000000000000E7     7.462365552783012E-3   5.384157896041870E-1   8.351642489433289E-1  -4.389313049614430E-3   8.346197605133057E-1  -4.120977595448494E-3   6.158331409096718E-3   5.363599061965942E-1  
 2.722000000000000E7     8.282497525215149E-3   5.377179384231567E-1   8.356750011444092E-1  -5.676425993442535E-3   8.352971673011780E-1  -5.158541724085808E-3   7.945923134684563E-3   5.348331332206726E-1  
 2.724000000000000E7     9.614929556846619E-3   5.357953310012817E-1   8.365878462791443E-1  -7.228978443890810E-3   8.363518714904785E-1  -7.468115538358688E-3   7.846325635910034E-3   5.337084531784058E-1  
 2.726000000000000E7     9.951116517186165E-3   5.347616076469421E-1   8.378359079360962E-1  -9.257020428776741E-3   8.364734053611755E-1  -8.735731244087219E-3   8.945068344473839E-3   5.324730873107910E-1  
 2.728000000000000E7     1.093459874391556E-2   5.335379242897034E-1   8.381366729736328E-1  -1.083789020776749E-2   8.377822637557983E-1  -1.053644809871912E-2   1.047003082931042E-2   5.313427448272705E-1  
 2.730000000000000E7     1.263046264648438E-2   5.325830578804016E-1   8.389866948127747E-1  -1.220387872308493E-2   8.384098410606384E-1  -1.205100025981665E-2   1.138705015182495E-2   5.298304557800293E-1  
 2.732000000000000E7     1.335942186415196E-2   5.317153334617615E-1   8.394036889076233E-1  -1.415209751576185E-2   8.395296931266785E-1  -1.421042997390032E-2   1.148048229515553E-2   5.282612442970276E-1  
 2.734000000000000E7     1.394947804510593E-2   5.306161046028137E-1   8.402857184410095E-1  -1.551954448223114E-2   8.393484354019165E-1  -1.534719206392765E-2   1.312021352350712E-2   5.275903940200806E-1  
 2.736000000000000E7     1.547029800713062E-2   5.287592411041260E-1   8.406816124916077E-1  -1.718779280781746E-2   8.403106927871704E-1  -1.720811240375042E-2   1.407407969236374E-2   5.270395278930664E-1  
 2.738000000000000E7     1.618207618594170E-2   5.269235372543335E-1   8.416740894317627E-1  -1.893252320587635E-2   8.412514328956604E-1  -1.882497966289520E-2   1.485789567232132E-2   5.251587033271790E-1  
 2.740000000000000E7     1.759304851293564E-2   5.255656242370606E-1   8.430867791175842E-1  -2.024803496897221E-2   8.420550227165222E-1  -2.026943862438202E-2   1.595908030867577E-2   5.236329436302185E-1  
 2.742000000000000E7     1.820451766252518E-2   5.252690911293030E-1   8.430826067924500E-1  -2.195474877953529E-2   8.426412343978882E-1  -2.229301072657108E-2   1.633680053055286E-2   5.224478244781494E-1  
 2.744000000000000E7     1.917423307895660E-2   5.233223438262940E-1   8.444582223892212E-1  -2.368736639618874E-2   8.433171510696411E-1  -2.373162657022476E-2   1.777984201908112E-2   5.214328169822693E-1  
 2.746000000000000E7     1.987967453896999E-2   5.220608115196228E-1   8.446115255355835E-1  -2.560572326183319E-2   8.440986871719360E-1  -2.545146644115448E-2   1.866107247769833E-2   5.204468965530396E-1  
 2.748000000000000E7     2.051362767815590E-2   5.207833051681519E-1   8.456957936286926E-1  -2.736491151154041E-2   8.451609611511231E-1  -2.695130556821823E-2   1.945142447948456E-2   5.182204246520996E-1  
 2.750000000000000E7     2.166440710425377E-2   5.194228291511536E-1   8.466795086860657E-1  -2.899595722556114E-2   8.458496928215027E-1  -2.923383936285973E-2   2.034638635814190E-2   5.169467926025391E-1  
 2.752000000000000E7     2.340408042073250E-2   5.182529091835022E-1   8.471508026123047E-1  -3.025233373045921E-2   8.467170596122742E-1  -3.065938688814640E-2   2.150952070951462E-2   5.153241753578186E-1  
 2.754000000000000E7     2.406534366309643E-2   5.170037746429443E-1   8.473764061927795E-1  -3.220014646649361E-2   8.470325469970703E-1  -3.208984807133675E-2   2.258456125855446E-2   5.147283077239990E-1  
 2.756000000000000E7     2.494911290705204E-2   5.161191225051880E-1   8.482013344764710E-1  -3.394287452101708E-2   8.478863239288330E-1  -3.354122117161751E-2   2.363462559878826E-2   5.133966803550720E-1  
 2.758000000000000E7     2.589903026819229E-2   5.145922303199768E-1   8.489863872528076E-1  -3.575970605015755E-2   8.484374284744263E-1  -3.573118895292282E-2   2.347230166196823E-2   5.127537250518799E-1  
 2.760000000000000E7     2.632515132427216E-2   5.130315423011780E-1   8.499510884284973E-1  -3.735006228089333E-2   8.490044474601746E-1  -3.690470382571220E-2   2.535359561443329E-2   5.110677480697632E-1  
 2.762000000000000E7     2.758281119167805E-2   5.119506716728210E-1   8.501710891723633E-1  -3.850290179252625E-2   8.494845628738403E-1  -3.868235275149345E-2   2.677239105105400E-2   5.103331804275513E-1  
 2.764000000000000E7     2.832782641053200E-2   5.103950500488281E-1   8.513784408569336E-1  -4.060361534357071E-2   8.507170081138611E-1  -4.029684141278267E-2   2.723403647542000E-2   5.083649754524231E-1  
 2.766000000000000E7     2.965733408927918E-2   5.089762210845947E-1   8.519147634506226E-1  -4.226291552186012E-2   8.514220118522644E-1  -4.192226380109787E-2   2.772771753370762E-2   5.070843100547791E-1  
 2.768000000000000E7     2.961001358926296E-2   5.081499218940735E-1   8.521324992179871E-1  -4.413808882236481E-2   8.524292111396790E-1  -4.383787140250206E-2   2.913086488842964E-2   5.052095055580139E-1  
 2.770000000000000E7     3.136616945266724E-2   5.060533285140991E-1   8.530908823013306E-1  -4.527496919035912E-2   8.524847626686096E-1  -4.565501213073731E-2   2.982501499354839E-2   5.049633383750916E-1  
 2.772000000000000E7     3.196293488144875E-2   5.051123499870300E-1   8.536114692687988E-1  -4.714045673608780E-2   8.534470796585083E-1  -4.704447835683823E-2   3.089652210474014E-2   5.032104253768921E-1  
 2.774000000000000E7     3.271570801734924E-2   5.044175386428833E-1   8.547099828720093E-1  -4.892751574516296E-2   8.538107872009277E-1  -4.872550815343857E-2   3.190761059522629E-2   5.008396506309509E-1  
 2.776000000000000E7     3.401852771639824E-2   5.023162364959717E-1   8.552644252777100E-1  -5.038499087095261E-2   8.546712398529053E-1  -5.055032670497894E-2   3.230415657162666E-2   4.995527863502502E-1  
 2.778000000000000E7     3.483744338154793E-2   5.009576678276062E-1   8.559806942939758E-1  -5.220547318458557E-2   8.555844426155090E-1  -5.206516757607460E-2   3.373827785253525E-2   4.982233047485352E-1  
 2.780000000000000E7     3.518556430935860E-2   4.991725981235504E-1   8.570688366889954E-1  -5.425098910927773E-2   8.558895587921143E-1  -5.423740297555924E-2   3.425512090325356E-2   4.976211190223694E-1  
 2.782000000000000E7     3.694596141576767E-2   4.983505606651306E-1   8.573262691497803E-1  -5.556669458746910E-2   8.563922643661499E-1  -5.558632314205170E-2   3.579517081379890E-2   4.962649941444397E-1  
 2.784000000000000E7     3.699854388833046E-2   4.965566992759705E-1   8.583174943923950E-1  -5.739783123135567E-2   8.572806119918823E-1  -5.707806721329689E-2   3.690291568636894E-2   4.949128031730652E-1  
 2.786000000000000E7     3.846295177936554E-2   4.948571920394898E-1   8.590040206909180E-1  -5.917887389659882E-2   8.577054142951965E-1  -5.950716510415077E-2   3.687636181712151E-2   4.935191869735718E-1  
 2.788000000000000E7     3.936406224966049E-2   4.939408004283905E-1   8.593367338180542E-1  -6.083386018872261E-2   8.587206006050110E-1  -6.096864119172096E-2   3.798371553421021E-2   4.924494922161102E-1  
 2.790000000000000E7     3.970087319612503E-2   4.924064874649048E-1   8.599627614021301E-1  -6.260872632265091E-2   8.592643141746521E-1  -6.199048832058907E-2   3.932732343673706E-2   4.906204938888550E-1  
 2.792000000000000E7     4.098045453429222E-2   4.908917248249054E-1   8.607808947563171E-1  -6.450501829385757E-2   8.605399131774902E-1  -6.433070451021195E-2   3.982977569103241E-2   4.890739321708679E-1  
 2.794000000000000E7     4.126348346471787E-2   4.896028041839600E-1   8.612032532691956E-1  -6.668080389499664E-2   8.605180382728577E-1  -6.603454053401947E-2   4.040894657373428E-2   4.882935583591461E-1  
 2.796000000000000E7     4.300639405846596E-2   4.887655377388001E-1   8.621009588241577E-1  -6.806509941816330E-2   8.608607649803162E-1  -6.805108487606049E-2   4.108051955699921E-2   4.861490428447723E-1  
 2.798000000000000E7     4.346954450011253E-2   4.873007237911224E-1   8.623940348625183E-1  -6.983110308647156E-2   8.620298504829407E-1  -6.949913501739502E-2   4.214030504226685E-2   4.845361113548279E-1  
 2.800000000000000E7     4.427469521760941E-2   4.852394163608551E-1   8.630506992340088E-1  -7.180554419755936E-2   8.620950579643250E-1  -7.155650854110718E-2   4.260757192969322E-2   4.845316410064697E-1  
 2.802000000000000E7     4.524357989430428E-2   4.840225577354431E-1   8.637638688087463E-1  -7.317603379487991E-2   8.629240393638611E-1  -7.273189723491669E-2   4.390015453100205E-2   4.817007482051849E-1  
 2.804000000000000E7     4.626882821321487E-2   4.827795028686523E-1   8.643673658370972E-1  -7.518713921308518E-2   8.636679649353027E-1  -7.498963922262192E-2   4.450667276978493E-2   4.811528623104096E-1  
 2.806000000000000E7     4.695427045226097E-2   4.819537997245789E-1   8.645889163017273E-1  -7.692791521549225E-2   8.637946248054504E-1  -7.713418453931809E-2   4.523263871669769E-2   4.792719185352325E-1  
 2.808000000000000E7     4.744486138224602E-2   4.803100824356079E-1   8.652267456054688E-1  -7.920233160257340E-2   8.645296096801758E-1  -7.894614338874817E-2   4.584494233131409E-2   4.782791435718536E-1  
 2.810000000000000E7     4.860809445381165E-2   4.783301055431366E-1   8.661956191062927E-1  -8.055589348077774E-2   8.654915690422058E-1  -8.022890239953995E-2   4.726805537939072E-2   4.765502214431763E-1  
 2.812000000000000E7     4.972045496106148E-2   4.772742390632629E-1   8.660935163497925E-1  -8.197458088397980E-2   8.661735057830811E-1  -8.189196139574051E-2   4.787100851535797E-2   4.754977822303772E-1  
 2.814000000000000E7     5.002080649137497E-2   4.757186770439148E-1   8.671213388442993E-1  -8.379985392093658E-2   8.667348623275757E-1  -8.373010158538818E-2   4.862728342413902E-2   4.734804034233093E-1  
 2.816000000000000E7     5.088410526514053E-2   4.745935797691345E-1   8.673871755599976E-1  -8.566814661026001E-2   8.668553233146668E-1  -8.538852632045746E-2   5.000061541795731E-2   4.724954366683960E-1  
 2.818000000000000E7     5.159629881381989E-2   4.722256064414978E-1   8.685026168823242E-1  -8.752065896987915E-2   8.676583766937256E-1  -8.720428496599197E-2   5.074226856231690E-2   4.713344573974609E-1  
 2.820000000000000E7     5.304751917719841E-2   4.708806574344635E-1   8.692394495010376E-1  -8.952886611223221E-2   8.679727315902710E-1  -8.943338692188263E-2   5.048041045665741E-2   4.694656133651733E-1  
 2.822000000000000E7     5.363646149635315E-2   4.696719646453857E-1   8.697105050086975E-1  -9.137973934412003E-2   8.686661124229431E-1  -9.166403114795685E-2   5.166807025671005E-2   4.679968655109406E-1  
 2.824000000000000E7     5.445221439003944E-2   4.682482481002808E-1   8.697348237037659E-1  -9.319995343685150E-2   8.691661953926086E-1  -9.301334619522095E-2   5.248161777853966E-2   4.672606289386749E-1  
 2.826000000000000E7     5.461812764406204E-2   4.669334888458252E-1   8.703495860099793E-1  -9.469266235828400E-2   8.693808913230896E-1  -9.501216560602188E-2   5.291999503970146E-2   4.655315876007080E-1  
 2.828000000000000E7     5.569517612457275E-2   4.648287594318390E-1   8.713072538375855E-1  -9.680546820163727E-2   8.707136511802673E-1  -9.670401364564896E-2   5.441297590732575E-2   4.634362757205963E-1  
 2.830000000000000E7     5.633804202079773E-2   4.640179574489594E-1   8.712066411972046E-1  -9.864041209220886E-2   8.707944750785828E-1  -9.846697002649307E-2   5.507201701402664E-2   4.622704386711121E-1  
 2.832000000000000E7     5.746193230152130E-2   4.626168906688690E-1   8.718872666358948E-1  -1.001673340797424E-1   8.716793656349182E-1  -1.000441908836365E-1   5.602505803108215E-2   4.603495895862579E-1  
 2.834000000000000E7     5.812177434563637E-2   4.606718420982361E-1   8.725600242614746E-1  -1.023750901222229E-1   8.723211884498596E-1  -1.023060530424118E-1   5.607118457555771E-2   4.593088328838348E-1  
 2.836000000000000E7     5.830426514148712E-2   4.604399502277374E-1   8.726743459701538E-1  -1.043350845575333E-1   8.729047775268555E-1  -1.039378494024277E-1   5.760526284575462E-2   4.567528963088989E-1  
 2.838000000000000E7     5.945006012916565E-2   4.574699997901917E-1   8.737930059432983E-1  -1.060736253857613E-1   8.731081485748291E-1  -1.060129180550575E-1   5.757901817560196E-2   4.557456970214844E-1  
 2.840000000000000E7     6.042986363172531E-2   4.562572836875916E-1   8.740971684455872E-1  -1.080470308661461E-1   8.735342621803284E-1  -1.079043373465538E-1   5.843794345855713E-2   4.544579386711121E-1  
 2.842000000000000E7     6.009437143802643E-2   4.550031423568726E-1   8.748972415924072E-1  -1.098093837499619E-1   8.741133809089661E-1  -1.098137795925140E-1   5.960831418633461E-2   4.525724649429321E-1  
 2.844000000000000E7     6.136168539524078E-2   4.530598819255829E-1   8.751932382583618E-1  -1.115531101822853E-1   8.742553591728210E-1  -1.114879474043846E-1   6.031122058629990E-2   4.524550139904022E-1  
 2.846000000000000E7     6.197077035903931E-2   4.521859586238861E-1   8.755263686180115E-1  -1.134613156318665E-1   8.749303817749023E-1  -1.132799834012985E-1   6.135031953454018E-2   4.500063061714172E-1  
 2.848000000000000E7     6.277872622013092E-2   4.498863220214844E-1   8.766521811485291E-1  -1.155771762132645E-1   8.756459355354309E-1  -1.152991130948067E-1   6.197483465075493E-2   4.486917853355408E-1  
 2.850000000000000E7     6.411726027727127E-2   4.482980966567993E-1   8.770768046379089E-1  -1.172581166028976E-1   8.760384917259216E-1  -1.172169148921967E-1   6.214283034205437E-2   4.469513893127441E-1  
 2.852000000000000E7     6.410109996795654E-2   4.472699463367462E-1   8.771854043006897E-1  -1.192339360713959E-1   8.767341971397400E-1  -1.190905719995499E-1   6.359703093767166E-2   4.455736279487610E-1  
 2.854000000000000E7     6.512291729450226E-2   4.457058906555176E-1   8.774947524070740E-1  -1.211767494678497E-1   8.768450617790222E-1  -1.207537949085236E-1   6.383446604013443E-2   4.441141486167908E-1  
 2.856000000000000E7     6.572227180004120E-2   4.442995190620422E-1   8.777988553047180E-1  -1.230536103248596E-1   8.775210380554199E-1  -1.232327371835709E-1   6.421963125467300E-2   4.428666532039642E-1  
 2.858000000000000E7     6.688603013753891E-2   4.420751929283142E-1   8.787824511528015E-1  -1.245652735233307E-1   8.777479529380798E-1  -1.244959905743599E-1   6.553471088409424E-2   4.415852129459381E-1  
 2.860000000000000E7     6.689982861280441E-2   4.405939280986786E-1   8.789947032928467E-1  -1.269326508045197E-1   8.785043954849243E-1  -1.268589496612549E-1   6.618999689817429E-2   4.399318695068359E-1  
 2.862000000000000E7     6.782306730747223E-2   4.396890103816986E-1   8.793106079101563E-1  -1.286251693964005E-1   8.786045908927918E-1  -1.282100081443787E-1   6.715073436498642E-2   4.379084110260010E-1  
 2.864000000000000E7     6.895264238119125E-2   4.375101327896118E-1   8.800804615020752E-1  -1.306499391794205E-1   8.794382810592651E-1  -1.299762278795242E-1   6.775508821010590E-2   4.365012943744659E-1  
 2.866000000000000E7     6.878795474767685E-2   4.360296130180359E-1   8.800620436668396E-1  -1.328992545604706E-1   8.793528079986572E-1  -1.326141208410263E-1   6.772792339324951E-2   4.355382025241852E-1  
 2.868000000000000E7     7.024252414703369E-2   4.349056780338287E-1   8.806965947151184E-1  -1.342729777097702E-1   8.802719116210938E-1  -1.339953094720841E-1   6.836985051631928E-2   4.333428442478180E-1  
 2.870000000000000E7     7.062137126922607E-2   4.335797429084778E-1   8.808712959289551E-1  -1.364699453115463E-1   8.805910348892212E-1  -1.361364871263504E-1   6.874422729015350E-2   4.316116273403168E-1  
 2.872000000000000E7     7.143765687942505E-2   4.321449995040894E-1   8.815634846687317E-1  -1.384296566247940E-1   8.811812996864319E-1  -1.380521804094315E-1   6.958299130201340E-2   4.299969673156738E-1  
 2.874000000000000E7     7.162830233573914E-2   4.299222230911255E-1   8.820030689239502E-1  -1.405896842479706E-1   8.810526728630066E-1  -1.400389820337296E-1   7.075675576925278E-2   4.288393557071686E-1  
 2.876000000000000E7     7.284422218799591E-2   4.285949468612671E-1   8.823361992835999E-1  -1.419548243284226E-1   8.818069100379944E-1  -1.420130431652069E-1   7.138536125421524E-2   4.271955490112305E-1  
 2.878000000000000E7     7.286949455738068E-2   4.271516203880310E-1   8.831167221069336E-1  -1.443670690059662E-1   8.823591470718384E-1  -1.440331190824509E-1   7.163003087043762E-2   4.247087240219116E-1  
 2.880000000000000E7     7.395537197589874E-2   4.254443049430847E-1   8.829276561737061E-1  -1.458867937326431E-1   8.822728991508484E-1  -1.458865702152252E-1   7.238977402448654E-2   4.237061440944672E-1  
 2.882000000000000E7     7.500535994768143E-2   4.236139059066773E-1   8.835113644599915E-1  -1.478357613086700E-1   8.829881548881531E-1  -1.475230157375336E-1   7.271678745746613E-2   4.223082065582275E-1  
 2.884000000000000E7     7.531343400478363E-2   4.217582345008850E-1   8.841202855110169E-1  -1.499181687831879E-1   8.836129307746887E-1  -1.494884490966797E-1   7.370624691247940E-2   4.207112193107605E-1  
 2.886000000000000E7     7.561904191970825E-2   4.208690822124481E-1   8.842679858207703E-1  -1.518992781639099E-1   8.838209509849548E-1  -1.514603197574616E-1   7.463606446981430E-2   4.192593693733215E-1  
 2.888000000000000E7     7.652881741523743E-2   4.188445806503296E-1   8.849449157714844E-1  -1.536636948585510E-1   8.837822079658508E-1  -1.533787399530411E-1   7.524886727333069E-2   4.179508090019226E-1  
 2.890000000000000E7     7.651385664939880E-2   4.172185063362122E-1   8.850277662277222E-1  -1.557282656431198E-1   8.847842812538147E-1  -1.552461534738541E-1   7.582918554544449E-2   4.162275195121765E-1  
 2.892000000000000E7     7.697886228561401E-2   4.155342280864716E-1   8.855778574943543E-1  -1.576238870620728E-1   8.848378658294678E-1  -1.578136831521988E-1   7.587438821792603E-2   4.140833914279938E-1  
 2.894000000000000E7     7.810921967029572E-2   4.135209619998932E-1   8.860425353050232E-1  -1.600202471017838E-1   8.849265575408936E-1  -1.593511104583740E-1   7.670722901821137E-2   4.128165245056152E-1  
 2.896000000000000E7     7.866477966308594E-2   4.122756719589233E-1   8.862996101379395E-1  -1.620130985975266E-1   8.854705095291138E-1  -1.613893508911133E-1   7.697124779224396E-2   4.114015102386475E-1  
 2.898000000000000E7     7.963623106479645E-2   4.111220836639404E-1   8.864195346832275E-1  -1.639233678579330E-1   8.861004114151001E-1  -1.635308861732483E-1   7.772718369960785E-2   4.094679355621338E-1  
 2.900000000000000E7     8.020978420972824E-2   4.093620181083679E-1   8.866796493530273E-1  -1.652461588382721E-1   8.861832618713379E-1  -1.653028726577759E-1   7.838810980319977E-2   4.080903232097626E-1  
 2.902000000000000E7     8.096609264612198E-2   4.076190888881683E-1   8.873991966247559E-1  -1.677221059799194E-1   8.865240812301636E-1  -1.674886345863342E-1   7.897502928972244E-2   4.062141180038452E-1  
 2.904000000000000E7     8.046408742666245E-2   4.068177342414856E-1   8.871512413024902E-1  -1.696159690618515E-1   8.871617913246155E-1  -1.696563959121704E-1   7.995605468750000E-2   4.041351079940796E-1  
 2.906000000000000E7     8.193716406822205E-2   4.042182564735413E-1   8.881809115409851E-1  -1.712013930082321E-1   8.872560858726502E-1  -1.714140474796295E-1   7.982702553272247E-2   4.026753604412079E-1  
 2.908000000000000E7     8.189687132835388E-2   4.025359153747559E-1   8.883190155029297E-1  -1.738616675138474E-1   8.872005939483643E-1  -1.734724193811417E-1   8.058838546276093E-2   4.012625217437744E-1  
 2.910000000000000E7     8.235615491867065E-2   4.008368849754334E-1   8.884944915771484E-1  -1.758149862289429E-1   8.873361349105835E-1  -1.754491925239563E-1   8.128735423088074E-2   4.003787934780121E-1  
 2.912000000000000E7     8.294702321290970E-2   3.991331756114960E-1   8.888866305351257E-1  -1.776238679885864E-1   8.877907991409302E-1  -1.777903437614441E-1   8.161901682615280E-2   3.984006941318512E-1  
 2.914000000000000E7     8.376378566026688E-2   3.982247114181519E-1   8.890028595924377E-1  -1.798105835914612E-1   8.884544968605042E-1  -1.797300279140472E-1   8.195456117391586E-2   3.960681557655335E-1  
 2.916000000000000E7     8.447237312793732E-2   3.961350321769714E-1   8.894442915916443E-1  -1.820130944252014E-1   8.886740803718567E-1  -1.816673278808594E-1   8.177206665277481E-2   3.944156467914581E-1  
 2.918000000000000E7     8.440248668193817E-2   3.953643441200256E-1   8.890338540077210E-1  -1.837562769651413E-1   8.891736268997192E-1  -1.835982501506805E-1   8.305402100086212E-2   3.928756117820740E-1  
 2.920000000000000E7     8.579392731189728E-2   3.926528394222260E-1   8.900195360183716E-1  -1.855381429195404E-1   8.891530632972717E-1  -1.853392571210861E-1   8.374783396720886E-2   3.916457891464233E-1  
 2.922000000000000E7     8.570162951946259E-2   3.907485008239746E-1   8.902598023414612E-1  -1.875940710306168E-1   8.900609016418457E-1  -1.875083744525909E-1   8.413564413785934E-2   3.895828127861023E-1  
 2.924000000000000E7     8.615208417177200E-2   3.893411457538605E-1   8.901041746139526E-1  -1.898114234209061E-1   8.899216055870056E-1  -1.894205957651138E-1   8.493077754974365E-2   3.878143131732941E-1  
 2.926000000000000E7     8.591533452272415E-2   3.873474001884460E-1   8.907684087753296E-1  -1.922464072704315E-1   8.898022174835205E-1  -1.916291266679764E-1   8.522883057594299E-2   3.866975903511047E-1  
 2.928000000000000E7     8.673675358295441E-2   3.858806192874908E-1   8.909596204757690E-1  -1.939409822225571E-1   8.902632594108582E-1  -1.934762597084045E-1   8.575712144374847E-2   3.846819698810577E-1  
 2.930000000000000E7     8.767721056938171E-2   3.845422863960266E-1   8.908317685127258E-1  -1.961753964424133E-1   8.902479410171509E-1  -1.954614520072937E-1   8.619681000709534E-2   3.838252127170563E-1  
 2.932000000000000E7     8.762496709823608E-2   3.832087516784668E-1   8.911969661712647E-1  -1.980113834142685E-1   8.907119035720825E-1  -1.976748257875443E-1   8.673726022243500E-2   3.815680444240570E-1  
 2.934000000000000E7     8.844368904829025E-2   3.808712363243103E-1   8.914085030555725E-1  -1.999046802520752E-1   8.907968401908875E-1  -1.994168907403946E-1   8.742270618677139E-2   3.804815709590912E-1  
 2.936000000000000E7     8.918492496013641E-2   3.781914114952087E-1   8.921895027160645E-1  -2.020979076623917E-1   8.914775848388672E-1  -2.014521360397339E-1   8.772546052932739E-2   3.781415820121765E-1  
 2.938000000000000E7     8.967204391956329E-2   3.780713379383087E-1   8.920291662216187E-1  -2.039906233549118E-1   8.915895223617554E-1  -2.038657665252686E-1   8.766641467809677E-2   3.759428858757019E-1  
 2.940000000000000E7     8.954451233148575E-2   3.756002783775330E-1   8.924376368522644E-1  -2.065592408180237E-1   8.912986516952515E-1  -2.059753835201263E-1   8.811719715595245E-2   3.750139474868774E-1  
 2.942000000000000E7     9.058415889739990E-2   3.741738200187683E-1   8.922877311706543E-1  -2.081262618303299E-1   8.922568559646606E-1  -2.080729901790619E-1   8.892197906970978E-2   3.726718425750732E-1  
 2.944000000000000E7     9.071083366870880E-2   3.719906508922577E-1   8.929091095924377E-1  -2.100700736045837E-1   8.921699523925781E-1  -2.100366801023483E-1   8.934328705072403E-2   3.718996047973633E-1  
 2.946000000000000E7     9.189639985561371E-2   3.700081706047058E-1   8.930751681327820E-1  -2.120933383703232E-1   8.922582268714905E-1  -2.115913480520248E-1   8.958648890256882E-2   3.701849579811096E-1  
 2.948000000000000E7     9.172798693180084E-2   3.692818284034729E-1   8.926584720611572E-1  -2.142505049705505E-1   8.920966386795044E-1  -2.139813750982285E-1   8.996987342834473E-2   3.680770397186279E-1  
 2.950000000000000E7     9.242370724678040E-2   3.671050667762756E-1   8.933219313621521E-1  -2.163938134908676E-1   8.926907181739807E-1  -2.162211388349533E-1   9.032399952411652E-2   3.660874068737030E-1  
 2.952000000000000E7     9.290416538715363E-2   3.657228052616119E-1   8.931476473808289E-1  -2.184800654649735E-1   8.929541110992432E-1  -2.181681096553803E-1   9.078326076269150E-2   3.646191954612732E-1  
 2.954000000000000E7     9.303246438503265E-2   3.638527393341065E-1   8.933148980140686E-1  -2.205588668584824E-1   8.931834697723389E-1  -2.204163521528244E-1   9.101904183626175E-2   3.625996112823486E-1  
 2.956000000000000E7     9.354527294635773E-2   3.620311021804810E-1   8.938446640968323E-1  -2.226119339466095E-1   8.932955861091614E-1  -2.221619933843613E-1   9.204781055450440E-2   3.611657023429871E-1  
 2.958000000000000E7     9.367951750755310E-2   3.607083857059479E-1   8.938096761703491E-1  -2.244189530611038E-1   8.926379084587097E-1  -2.245915979146957E-1   9.212462604045868E-2   3.602522313594818E-1  
 2.960000000000000E7     9.368832409381867E-2   3.582629561424255E-1   8.940057754516602E-1  -2.269393950700760E-1   8.930307030677795E-1  -2.267169803380966E-1   9.216918051242828E-2   3.586401939392090E-1  
 2.962000000000000E7     9.473329782485962E-2   3.569090962409973E-1   8.939404487609863E-1  -2.288241684436798E-1   8.935775160789490E-1  -2.283195108175278E-1   9.291550517082214E-2   3.559328317642212E-1  
 2.964000000000000E7     9.426707774400711E-2   3.551172316074371E-1   8.938772678375244E-1  -2.312115430831909E-1   8.934859633445740E-1  -2.303595244884491E-1   9.338369220495224E-2   3.547591269016266E-1  
 2.966000000000000E7     9.479317069053650E-2   3.541973233222961E-1   8.938398957252502E-1  -2.328744530677795E-1   8.935534358024597E-1  -2.326294630765915E-1   9.422098845243454E-2   3.523225188255310E-1  
 2.968000000000000E7     9.515845775604248E-2   3.516105413436890E-1   8.946099877357483E-1  -2.352241426706314E-1   8.938176035881043E-1  -2.346464544534683E-1   9.437162429094315E-2   3.505152761936188E-1  
 2.970000000000000E7     9.555450081825256E-2   3.503010869026184E-1   8.940465450286865E-1  -2.372148633003235E-1   8.935936093330383E-1  -2.372670173645020E-1   9.455034136772156E-2   3.497893214225769E-1  
 2.972000000000000E7     9.631518274545670E-2   3.482613265514374E-1   8.938972949981690E-1  -2.396621555089951E-1   8.942242860794067E-1  -2.389104217290878E-1   9.435229748487473E-2   3.476398587226868E-1  
 2.974000000000000E7     9.643344581127167E-2   3.459649085998535E-1   8.948335647583008E-1  -2.413578480482101E-1   8.938648104667664E-1  -2.411767244338989E-1   9.446946531534195E-2   3.455817699432373E-1  
 2.976000000000000E7     9.665097296237946E-2   3.450131416320801E-1   8.944771885871887E-1  -2.437473982572556E-1   8.941832184791565E-1  -2.434436678886414E-1   9.503363817930222E-2   3.436529040336609E-1  
 2.978000000000000E7     9.758053719997406E-2   3.427699804306030E-1   8.948101997375488E-1  -2.457327395677567E-1   8.942015171051025E-1  -2.453219443559647E-1   9.521734714508057E-2   3.421084880828857E-1  
 2.980000000000000E7     9.733182936906815E-2   3.410218954086304E-1   8.947949409484863E-1  -2.475090026855469E-1   8.938575983047485E-1  -2.475980222225189E-1   9.589618444442749E-2   3.410128355026245E-1  
 2.982000000000000E7     9.771932661533356E-2   3.389618694782257E-1   8.949854373931885E-1  -2.500720918178558E-1   8.941075801849365E-1  -2.498697489500046E-1   9.571456164121628E-2   3.385150432586670E-1  
 2.984000000000000E7     9.804177284240723E-2   3.374135494232178E-1   8.949156999588013E-1  -2.521238923072815E-1   8.942010402679443E-1  -2.518437504768372E-1   9.668095409870148E-2   3.371910750865936E-1  
 2.986000000000000E7     9.805034846067429E-2   3.361954391002655E-1   8.944296240806580E-1  -2.540982067584992E-1   8.945646882057190E-1  -2.541733682155609E-1   9.653238952159882E-2   3.349037766456604E-1  
 2.988000000000000E7     9.866507351398468E-2   3.343502879142761E-1   8.949372172355652E-1  -2.560722231864929E-1   8.944402933120728E-1  -2.561199665069580E-1   9.708089381456375E-2   3.330443501472473E-1  
 2.990000000000000E7     9.876808524131775E-2   3.316468000411987E-1   8.950135707855225E-1  -2.587622106075287E-1   8.941591978073120E-1  -2.580863833427429E-1   9.702663123607636E-2   3.326464593410492E-1  
 2.992000000000000E7     9.879578649997711E-2   3.303311467170715E-1   8.950921893119812E-1  -2.606258988380432E-1   8.943290710449219E-1  -2.604806721210480E-1   9.730393439531326E-2   3.295447230339050E-1  
 2.994000000000000E7     9.985364973545075E-2   3.289388716220856E-1   8.947951197624207E-1  -2.628237307071686E-1   8.943153619766235E-1  -2.623783946037293E-1   9.760823845863342E-2   3.281359970569611E-1  
 2.996000000000000E7     9.914844483137131E-2   3.264981210231781E-1   8.950161933898926E-1  -2.648873031139374E-1   8.943284749984741E-1  -2.645645439624786E-1   9.840384870767593E-2   3.263339996337891E-1  
 2.998000000000000E7     9.933473169803619E-2   3.253784775733948E-1   8.947237730026245E-1  -2.673311829566956E-1   8.942028880119324E-1  -2.664041519165039E-1   9.844558686017990E-2   3.244265615940094E-1  
 3.000000000000000E7     1.003149822354317E-1   3.231925964355469E-1   8.945781588554382E-1  -2.690234780311585E-1   8.945046067237854E-1  -2.691160738468170E-1   9.807027131319046E-2   3.230530619621277E-1  
 3.002000000000000E7     1.001624614000320E-1   3.216518163681030E-1   8.948236703872681E-1  -2.712050974369049E-1   8.940863013267517E-1  -2.710773050785065E-1   9.828257560729981E-2   3.211511969566345E-1  
 3.004000000000000E7     1.006996482610703E-1   3.199998736381531E-1   8.947118520736694E-1  -2.733266949653626E-1   8.942063450813294E-1  -2.727741301059723E-1   9.904744476079941E-2   3.195160031318665E-1  
 3.006000000000000E7     1.007167845964432E-1   3.169474601745606E-1   8.948796987533569E-1  -2.754504978656769E-1   8.940247893333435E-1  -2.752462923526764E-1   9.935203939676285E-2   3.178223371505737E-1  
 3.008000000000000E7     1.007324606180191E-1   3.164319396018982E-1   8.946120142936707E-1  -2.775390744209290E-1   8.942399621009827E-1  -2.770087122917175E-1   1.000262722373009E-1   3.158374130725861E-1  
 3.010000000000000E7     1.002028435468674E-1   3.142699003219605E-1   8.948516249656677E-1  -2.798407971858978E-1   8.940966129302979E-1  -2.793268263339996E-1   1.005520075559616E-1   3.141842782497406E-1  
 3.012000000000000E7     1.008850261569023E-1   3.130045533180237E-1   8.944255113601685E-1  -2.821379303932190E-1   8.942016363143921E-1  -2.815240323543549E-1   9.990190714597702E-2   3.117796182632446E-1  
 3.014000000000000E7     1.014164090156555E-1   3.107973039150238E-1   8.947318792343140E-1  -2.837103307247162E-1   8.942306637763977E-1  -2.839728593826294E-1   1.003418937325478E-1   3.097654283046722E-1  
 3.016000000000000E7     1.022726148366928E-1   3.092733621597290E-1   8.945345878601074E-1  -2.863128185272217E-1   8.938675522804260E-1  -2.859687805175781E-1   9.960153698921204E-2   3.082293570041657E-1  
 3.018000000000000E7     1.015893593430519E-1   3.073413968086243E-1   8.944518566131592E-1  -2.886936962604523E-1   8.939334750175476E-1  -2.882213294506073E-1   9.984605759382248E-2   3.066563010215759E-1  
 3.020000000000000E7     1.023296266794205E-1   3.055256009101868E-1   8.945291638374329E-1  -2.905559837818146E-1   8.937676548957825E-1  -2.901669144630432E-1   1.006808280944824E-1   3.047112226486206E-1  
 3.022000000000000E7     1.021655946969986E-1   3.036075830459595E-1   8.941708207130432E-1  -2.927879691123962E-1   8.936364650726318E-1  -2.921739518642426E-1   1.008252948522568E-1   3.034666180610657E-1  
 3.024000000000000E7     1.017079353332520E-1   3.019409179687500E-1   8.939879536628723E-1  -2.951573729515076E-1   8.933258652687073E-1  -2.943471372127533E-1   1.010798364877701E-1   3.015245199203491E-1  
 3.026000000000000E7     1.025424972176552E-1   2.998008430004120E-1   8.941321372985840E-1  -2.970619201660156E-1   8.933732509613037E-1  -2.966505587100983E-1   1.008607745170593E-1   2.989920377731323E-1  
 3.028000000000000E7     1.025336608290672E-1   2.983833849430084E-1   8.937231302261353E-1  -2.992337644100189E-1   8.931296467781067E-1  -2.991802692413330E-1   1.006048247218132E-1   2.979726195335388E-1  
 3.030000000000000E7     1.022330075502396E-1   2.958032190799713E-1   8.938689231872559E-1  -3.015373051166534E-1   8.932814598083496E-1  -3.011444211006165E-1   1.008797660470009E-1   2.957035303115845E-1  
 3.032000000000000E7     1.028914004564285E-1   2.936440408229828E-1   8.934200406074524E-1  -3.036832213401794E-1   8.933126926422119E-1  -3.033565282821655E-1   1.005897969007492E-1   2.939544022083283E-1  
 3.034000000000000E7     1.034491583704948E-1   2.927727997303009E-1   8.932271599769592E-1  -3.058192133903503E-1   8.929827809333801E-1  -3.052252531051636E-1   1.014324948191643E-1   2.922847867012024E-1  
 3.036000000000000E7     1.025970801711083E-1   2.903041541576386E-1   8.933790922164917E-1  -3.077179789543152E-1   8.925332427024841E-1  -3.075602650642395E-1   1.015479341149330E-1   2.902868092060089E-1  
 3.038000000000000E7     1.027462705969811E-1   2.889412045478821E-1   8.928886055946350E-1  -3.105283379554749E-1   8.926798701286316E-1  -3.100284337997437E-1   1.011064574122429E-1   2.883727252483368E-1  
 3.040000000000000E7     1.035526767373085E-1   2.863338291645050E-1   8.930911421775818E-1  -3.123691082000732E-1   8.923152685165405E-1  -3.120463490486145E-1   1.009529158473015E-1   2.869743704795837E-1  
 3.042000000000000E7     1.023494824767113E-1   2.847235798835754E-1   8.927224278450012E-1  -3.146382272243500E-1   8.921865820884705E-1  -3.143548369407654E-1   1.014782711863518E-1   2.847951352596283E-1  
 3.044000000000000E7     1.018489822745323E-1   2.833285331726074E-1   8.925684690475464E-1  -3.171329796314240E-1   8.916336894035339E-1  -3.162611424922943E-1   1.020045578479767E-1   2.834639549255371E-1  
 3.046000000000000E7     1.027833297848702E-1   2.816020250320435E-1   8.920451402664185E-1  -3.193764984607697E-1   8.918429017066956E-1  -3.188068270683289E-1   1.014896556735039E-1   2.809825837612152E-1  
 3.048000000000000E7     1.034209430217743E-1   2.799398899078369E-1   8.920849561691284E-1  -3.213002681732178E-1   8.914421796798706E-1  -3.203826248645783E-1   1.020013317465782E-1   2.794483006000519E-1  
 3.050000000000000E7     1.027053892612457E-1   2.780732810497284E-1   8.920792341232300E-1  -3.236860036849976E-1   8.909790515899658E-1  -3.227093517780304E-1   1.022990345954895E-1   2.776216566562653E-1  
 3.052000000000000E7     1.029821187257767E-1   2.758845686912537E-1   8.917286396026611E-1  -3.256960511207581E-1   8.908406496047974E-1  -3.252523243427277E-1   1.015545949339867E-1   2.761800587177277E-1  
 3.054000000000000E7     1.028437390923500E-1   2.731819748878479E-1   8.916471600532532E-1  -3.278205096721649E-1   8.908206224441528E-1  -3.274305462837219E-1   1.019749194383621E-1   2.740085422992706E-1  
 3.056000000000000E7     1.029838547110558E-1   2.723415493965149E-1   8.912248611450195E-1  -3.299780488014221E-1   8.904621601104736E-1  -3.294359147548676E-1   1.016674265265465E-1   2.719473242759705E-1  
 3.058000000000000E7     1.027572602033615E-1   2.704563438892365E-1   8.907146453857422E-1  -3.320442736148834E-1   8.903065323829651E-1  -3.317814767360687E-1   1.023614108562470E-1   2.713149785995483E-1  
 3.060000000000000E7     1.030912175774574E-1   2.686615884304047E-1   8.907786607742310E-1  -3.344458937644959E-1   8.899586200714111E-1  -3.339504599571228E-1   1.014080420136452E-1   2.687127888202667E-1  
 3.062000000000000E7     1.026502996683121E-1   2.668686211109161E-1   8.905712962150574E-1  -3.365416228771210E-1   8.901470899581909E-1  -3.362067043781281E-1   1.023935005068779E-1   2.659803032875061E-1  
 3.064000000000000E7     1.025634631514549E-1   2.644627690315247E-1   8.900622129440308E-1  -3.391481935977936E-1   8.895371556282044E-1  -3.385833799839020E-1   1.009716168045998E-1   2.643869221210480E-1  
 3.066000000000000E7     1.030997410416603E-1   2.626619040966034E-1   8.901650905609131E-1  -3.410546779632568E-1   8.890513181686401E-1  -3.407397568225861E-1   1.015093848109245E-1   2.629105746746063E-1  
 3.068000000000000E7     1.029071211814880E-1   2.613510787487030E-1   8.894788622856140E-1  -3.434073328971863E-1   8.891483545303345E-1  -3.427542746067047E-1   1.016218587756157E-1   2.610516846179962E-1  
 3.070000000000000E7     1.030238270759583E-1   2.596033811569214E-1   8.890782594680786E-1  -3.451990783214569E-1   8.887512683868408E-1  -3.451961576938629E-1   1.017029136419296E-1   2.591338753700256E-1  
 3.072000000000000E7     1.032098010182381E-1   2.576877176761627E-1   8.890440464019775E-1  -3.473321199417114E-1   8.882405757904053E-1  -3.472579717636108E-1   1.018591523170471E-1   2.577666044235230E-1  
 3.074000000000000E7     1.023932099342346E-1   2.556007504463196E-1   8.885644078254700E-1  -3.497679829597473E-1   8.880325555801392E-1  -3.496523499488831E-1   1.018264740705490E-1   2.553502023220062E-1  
 3.076000000000000E7     1.025829389691353E-1   2.539017796516419E-1   8.880227208137512E-1  -3.521701395511627E-1   8.879559040069580E-1  -3.513916730880737E-1   1.007657572627068E-1   2.536092400550842E-1  
 3.078000000000000E7     1.025994867086411E-1   2.522286772727966E-1   8.876606822013855E-1  -3.546184897422791E-1   8.871764540672302E-1  -3.536439538002014E-1   1.011148244142532E-1   2.520689070224762E-1  
 3.080000000000000E7     1.022074669599533E-1   2.501239776611328E-1   8.873421549797058E-1  -3.563020825386047E-1   8.872141242027283E-1  -3.562151789665222E-1   1.011035293340683E-1   2.491417974233627E-1  
 3.082000000000000E7     1.028502434492111E-1   2.477727830410004E-1   8.870618939399719E-1  -3.585292696952820E-1   8.868128657341003E-1  -3.582057952880859E-1   1.002524346113205E-1   2.479940354824066E-1  
 3.084000000000000E7     1.028155833482742E-1   2.464739382266998E-1   8.871154189109802E-1  -3.608045876026154E-1   8.860859870910645E-1  -3.602990806102753E-1   1.008907705545425E-1   2.458881139755249E-1  
 3.086000000000000E7     1.019115895032883E-1   2.443470209836960E-1   8.863927125930786E-1  -3.634495735168457E-1   8.856045007705689E-1  -3.626736700534821E-1   1.007076203823090E-1   2.451190501451492E-1  
 3.088000000000000E7     1.022512018680573E-1   2.426825463771820E-1   8.857911229133606E-1  -3.653711080551148E-1   8.857852816581726E-1  -3.647514879703522E-1   1.003201231360436E-1   2.423066496849060E-1  
 3.090000000000000E7     1.016419306397438E-1   2.412056326866150E-1   8.856387138366699E-1  -3.677367866039276E-1   8.852449655532837E-1  -3.671861886978149E-1   1.005359888076782E-1   2.402875721454620E-1  
 3.092000000000000E7     1.015465632081032E-1   2.380595803260803E-1   8.856112957000732E-1  -3.698693513870239E-1   8.845866322517395E-1  -3.694774210453033E-1   1.006283611059189E-1   2.391340583562851E-1  
 3.094000000000000E7     1.014105826616287E-1   2.374961078166962E-1   8.846879005432129E-1  -3.721929490566254E-1   8.841522336006165E-1  -3.715182542800903E-1   1.000853478908539E-1   2.368146181106567E-1  
 3.096000000000000E7     1.014273911714554E-1   2.349798530340195E-1   8.844130039215088E-1  -3.742123246192932E-1   8.835784792900085E-1  -3.738607466220856E-1   1.002779230475426E-1   2.357066869735718E-1  
 3.098000000000000E7     1.015207394957542E-1   2.330326288938522E-1   8.837489485740662E-1  -3.763043582439423E-1   8.838472962379456E-1  -3.758412003517151E-1   1.004477068781853E-1   2.333580851554871E-1  
 3.100000000000000E7     1.011260375380516E-1   2.311072796583176E-1   8.836345672607422E-1  -3.787337243556976E-1   8.831494450569153E-1  -3.783285021781921E-1   9.954121708869934E-2   2.318623512983322E-1  
 3.102000000000000E7     1.008724495768547E-1   2.282006293535233E-1   8.836431503295898E-1  -3.809951245784760E-1   8.826935887336731E-1  -3.804570138454437E-1   9.980188310146332E-2   2.296493649482727E-1  
 3.104000000000000E7     9.951151162385941E-2   2.276392579078674E-1   8.827789425849915E-1  -3.836863636970520E-1   8.820886015892029E-1  -3.826004862785339E-1   9.974854439496994E-2   2.270776480436325E-1  
 3.106000000000000E7     1.007293909788132E-1   2.249377071857452E-1   8.825435638427734E-1  -3.850676119327545E-1   8.818112015724182E-1  -3.847638070583344E-1   9.940312057733536E-2   2.259048074483872E-1  
 3.108000000000000E7     9.981424361467362E-2   2.236772179603577E-1   8.817756772041321E-1  -3.875700831413269E-1   8.815134167671204E-1  -3.868364989757538E-1   9.925930202007294E-2   2.239921092987061E-1  
 3.110000000000000E7     9.995342791080475E-2   2.223170101642609E-1   8.811802268028259E-1  -3.898073434829712E-1   8.808493614196777E-1  -3.894325792789459E-1   9.845015406608582E-2   2.221194505691528E-1  
 3.112000000000000E7     9.974926710128784E-2   2.204290330410004E-1   8.807063698768616E-1  -3.921138346195221E-1   8.806281685829163E-1  -3.914042115211487E-1   9.869068115949631E-2   2.201770246028900E-1  
 3.114000000000000E7     9.985607117414475E-2   2.180410325527191E-1   8.804132938385010E-1  -3.942626416683197E-1   8.797500729560852E-1  -3.938871622085571E-1   9.810775518417358E-2   2.182729244232178E-1  
 3.116000000000000E7     9.947050362825394E-2   2.166093587875366E-1   8.797182440757752E-1  -3.962668776512146E-1   8.794378638267517E-1  -3.958988189697266E-1   9.791661798954010E-2   2.162829637527466E-1  
 3.118000000000000E7     9.873981028795242E-2   2.142508029937744E-1   8.794108629226685E-1  -3.987039029598236E-1   8.786397576332092E-1  -3.981547951698303E-1   9.774068742990494E-2   2.151998728513718E-1  
 3.120000000000000E7     9.879002720117569E-2   2.117780745029450E-1   8.790023922920227E-1  -4.007472693920136E-1   8.781803250312805E-1  -4.002902507781982E-1   9.780026227235794E-2   2.124601602554321E-1  
 3.122000000000000E7     9.836354106664658E-2   2.110083550214768E-1   8.777905106544495E-1  -4.029592871665955E-1   8.775377869606018E-1  -4.026755094528198E-1   9.710705280303955E-2   2.112890183925629E-1  
 3.124000000000000E7     9.841971844434738E-2   2.084262222051621E-1   8.778585195541382E-1  -4.053970575332642E-1   8.768520951271057E-1  -4.047996103763580E-1   9.718587249517441E-2   2.090854942798615E-1  
 3.126000000000000E7     9.800763428211212E-2   2.070545554161072E-1   8.769437074661255E-1  -4.076532125473023E-1   8.766725659370422E-1  -4.072044491767883E-1   9.649877995252609E-2   2.069115638732910E-1  
 3.128000000000000E7     9.731481224298477E-2   2.048618346452713E-1   8.766593337059021E-1  -4.097558856010437E-1   8.762899637222290E-1  -4.090699553489685E-1   9.718257933855057E-2   2.050027996301651E-1  
 3.130000000000000E7     9.721924364566803E-2   2.028644531965256E-1   8.759709596633911E-1  -4.119541645050049E-1   8.755780458450317E-1  -4.112832844257355E-1   9.629943221807480E-2   2.030742466449738E-1  
 3.132000000000000E7     9.629228711128235E-2   2.008627504110336E-1   8.755627870559692E-1  -4.145509004592896E-1   8.747599124908447E-1  -4.135825335979462E-1   9.583409130573273E-2   2.016586363315582E-1  
 3.134000000000000E7     9.680312871932983E-2   1.998700201511383E-1   8.747255802154541E-1  -4.163888096809387E-1   8.741914629936218E-1  -4.158388972282410E-1   9.575206041336060E-2   1.999318301677704E-1  
 3.136000000000000E7     9.646587073802948E-2   1.972585320472717E-1   8.746575117111206E-1  -4.189096987247467E-1   8.734336495399475E-1  -4.179047346115112E-1   9.516376256942749E-2   1.974075734615326E-1  
 3.138000000000000E7     9.613700956106186E-2   1.947726160287857E-1   8.739719390869141E-1  -4.209857583045960E-1   8.727138638496399E-1  -4.202263057231903E-1   9.534251689910889E-2   1.968080997467041E-1  
 3.140000000000000E7     9.507032483816147E-2   1.937628835439682E-1   8.731310367584229E-1  -4.232019782066345E-1   8.722771406173706E-1  -4.223811030387878E-1   9.489303827285767E-2   1.941092908382416E-1  
 3.142000000000000E7     9.447310864925385E-2   1.918232440948486E-1   8.723090291023254E-1  -4.252901971340179E-1   8.719327449798584E-1  -4.249686598777771E-1   9.413410723209381E-2   1.925237923860550E-1  
 3.144000000000000E7     9.480495750904083E-2   1.900097578763962E-1   8.716098666191101E-1  -4.276930987834930E-1   8.712611794471741E-1  -4.272876679897308E-1   9.318459033966065E-2   1.905376464128494E-1  
 3.146000000000000E7     9.487560391426086E-2   1.877290606498718E-1   8.708319067955017E-1  -4.298352301120758E-1   8.705496788024902E-1  -4.291222393512726E-1   9.316064417362213E-2   1.893369257450104E-1  
 3.148000000000000E7     9.331046044826508E-2   1.853556931018829E-1   8.705832958221436E-1  -4.322122931480408E-1   8.700070977210999E-1  -4.316002428531647E-1   9.316647052764893E-2   1.870628148317337E-1  
 3.150000000000000E7     9.334170073270798E-2   1.839068830013275E-1   8.696082830429077E-1  -4.344133436679840E-1   8.693071603775024E-1  -4.338027238845825E-1   9.230062365531921E-2   1.850433349609375E-1  
 3.152000000000000E7     9.254900366067886E-2   1.827195435762405E-1   8.689383268356323E-1  -4.364228844642639E-1   8.687988519668579E-1  -4.362863898277283E-1   9.197142720222473E-2   1.827210336923599E-1  
 3.154000000000000E7     9.327322989702225E-2   1.805136799812317E-1   8.683048486709595E-1  -4.386029243469238E-1   8.680400252342224E-1  -4.380672276020050E-1   9.102766215801239E-2   1.811915338039398E-1  
 3.156000000000000E7     9.172412753105164E-2   1.789228916168213E-1   8.674974441528320E-1  -4.412166476249695E-1   8.672564029693604E-1  -4.405942559242249E-1   9.102252870798111E-2   1.793583333492279E-1  
 3.158000000000000E7     9.174651652574539E-2   1.763421893119812E-1   8.671081066131592E-1  -4.433389902114868E-1   8.667287826538086E-1  -4.423932135105133E-1   9.125792235136032E-2   1.773063540458679E-1  
 3.160000000000000E7     9.189987182617188E-2   1.749437749385834E-1   8.661605119705200E-1  -4.453827142715454E-1   8.660214543342590E-1  -4.447146356105804E-1   9.006939083337784E-2   1.757427453994751E-1  
 3.162000000000000E7     9.075614809989929E-2   1.725590080022812E-1   8.657013177871704E-1  -4.473330378532410E-1   8.652511239051819E-1  -4.472779631614685E-1   9.012103080749512E-2   1.733972132205963E-1  
 3.164000000000000E7     8.991020172834396E-2   1.705332547426224E-1   8.646754622459412E-1  -4.498964548110962E-1   8.642879128456116E-1  -4.495063722133637E-1   8.994854241609573E-2   1.726863533258438E-1  
 3.166000000000000E7     8.985595405101776E-2   1.687640547752380E-1   8.641129136085510E-1  -4.523537456989288E-1   8.637819886207581E-1  -4.514507651329041E-1   8.935716748237610E-2   1.697585880756378E-1  
 3.168000000000000E7     8.992487192153931E-2   1.673251986503601E-1   8.632941246032715E-1  -4.540962576866150E-1   8.628326058387756E-1  -4.539625048637390E-1   8.809967339038849E-2   1.683733761310577E-1  
 3.170000000000000E7     8.880786597728729E-2   1.651329249143601E-1   8.626285791397095E-1  -4.564058184623718E-1   8.619999289512634E-1  -4.558499455451965E-1   8.842843770980835E-2   1.667150408029556E-1  
 3.172000000000000E7     8.836843818426132E-2   1.637686938047409E-1   8.615987300872803E-1  -4.588566422462463E-1   8.613655567169190E-1  -4.580327570438385E-1   8.800239861011505E-2   1.646715849637985E-1  
 3.174000000000000E7     8.791963011026382E-2   1.619087606668472E-1   8.612186908721924E-1  -4.610839486122131E-1   8.606075048446655E-1  -4.601856470108032E-1   8.665428310632706E-2   1.621459424495697E-1  
 3.176000000000000E7     8.776249736547470E-2   1.599356383085251E-1   8.602119088172913E-1  -4.629900157451630E-1   8.600676059722900E-1  -4.623275995254517E-1   8.689699321985245E-2   1.601350903511047E-1  
 3.178000000000000E7     8.698877692222595E-2   1.578655838966370E-1   8.595355749130249E-1  -4.652755558490753E-1   8.589711785316467E-1  -4.647451043128967E-1   8.588582277297974E-2   1.591305136680603E-1  
 3.180000000000000E7     8.643069118261337E-2   1.566285341978073E-1   8.585342168807983E-1  -4.677807390689850E-1   8.583002686500549E-1  -4.669539034366608E-1   8.501461893320084E-2   1.569624394178391E-1  
 3.182000000000000E7     8.631370961666107E-2   1.539676785469055E-1   8.578186631202698E-1  -4.694957435131073E-1   8.572362661361694E-1  -4.692806601524353E-1   8.486154675483704E-2   1.557363718748093E-1  
 3.184000000000000E7     8.453880995512009E-2   1.523195803165436E-1   8.568317890167236E-1  -4.716466367244721E-1   8.567444682121277E-1  -4.715655446052551E-1   8.441148698329926E-2   1.538530439138413E-1  
 3.186000000000000E7     8.539582788944244E-2   1.507228165864945E-1   8.562222123146057E-1  -4.738628864288330E-1   8.560693264007568E-1  -4.737152755260468E-1   8.312322944402695E-2   1.514704227447510E-1  
 3.188000000000000E7     8.337833732366562E-2   1.483664810657501E-1   8.555015325546265E-1  -4.761554300785065E-1   8.548469543457031E-1  -4.759150743484497E-1   8.331799507141113E-2   1.496097445487976E-1  
 3.190000000000000E7     8.375277370214462E-2   1.467360854148865E-1   8.544875979423523E-1  -4.783920943737030E-1   8.537773489952087E-1  -4.778277873992920E-1   8.228656649589539E-2   1.483505070209503E-1  
 3.192000000000000E7     8.311881124973297E-2   1.445892155170441E-1   8.538533449172974E-1  -4.808252751827240E-1   8.533502817153931E-1  -4.799703359603882E-1   8.220852166414261E-2   1.454372555017471E-1  
 3.194000000000000E7     8.281455934047699E-2   1.427029967308044E-1   8.529672622680664E-1  -4.826059341430664E-1   8.521366715431213E-1  -4.824116528034210E-1   8.202876150608063E-2   1.446175128221512E-1  
 3.196000000000000E7     8.204271644353867E-2   1.413638591766357E-1   8.517341613769531E-1  -4.851227104663849E-1   8.515533804893494E-1  -4.844315946102142E-1   8.019865304231644E-2   1.427491158246994E-1  
 3.198000000000000E7     8.097690343856812E-2   1.391718089580536E-1   8.506504893302918E-1  -4.873975813388825E-1   8.505119085311890E-1  -4.871363937854767E-1   7.929219305515289E-2   1.409781873226166E-1  
 3.200000000000000E7     8.049113303422928E-2   1.373787522315979E-1   8.499513268470764E-1  -4.894704222679138E-1   8.495990633964539E-1  -4.888152778148651E-1   7.930237799882889E-2   1.385646760463715E-1  
 3.202000000000000E7     7.969299703836441E-2   1.361229270696640E-1   8.488039374351502E-1  -4.919604361057282E-1   8.487088084220886E-1  -4.911268353462219E-1   7.836681604385376E-2   1.370841860771179E-1  
 3.204000000000000E7     7.857131958007813E-2   1.334996223449707E-1   8.481872081756592E-1  -4.938756525516510E-1   8.478901386260986E-1  -4.933396875858307E-1   7.788397371768951E-2   1.354344785213471E-1  
 3.206000000000000E7     7.825298607349396E-2   1.316793560981751E-1   8.472175598144531E-1  -4.959408640861511E-1   8.468641042709351E-1  -4.955845177173615E-1   7.708410918712616E-2   1.339039802551270E-1  
 3.208000000000000E7     7.753111422061920E-2   1.298681795597076E-1   8.462960720062256E-1  -4.982558786869049E-1   8.461207151412964E-1  -4.975572228431702E-1   7.645443081855774E-2   1.321871578693390E-1  
 3.210000000000000E7     7.719634473323822E-2   1.278124302625656E-1   8.453649878501892E-1  -5.003413558006287E-1   8.449710607528687E-1  -4.997131824493408E-1   7.604328542947769E-2   1.298624277114868E-1  
 3.212000000000000E7     7.632572948932648E-2   1.267168819904327E-1   8.439562916755676E-1  -5.024282336235046E-1   8.444066047668457E-1  -5.020264387130737E-1   7.600276172161102E-2   1.276302933692932E-1  
 3.214000000000000E7     7.658617198467255E-2   1.250253319740295E-1   8.437213897705078E-1  -5.046592354774475E-1   8.431674242019653E-1  -5.037617087364197E-1   7.547131925821304E-2   1.251761168241501E-1  
 3.216000000000000E7     7.516998052597046E-2   1.224504560232163E-1   8.423554301261902E-1  -5.069362521171570E-1   8.422984480857849E-1  -5.062291622161865E-1   7.407502830028534E-2   1.245935410261154E-1  
 3.218000000000000E7     7.421746850013733E-2   1.218274384737015E-1   8.412609100341797E-1  -5.090270042419434E-1   8.412646055221558E-1  -5.083885192871094E-1   7.367691397666931E-2   1.228860020637512E-1  
 3.220000000000000E7     7.380871474742889E-2   1.203430145978928E-1   8.403563499450684E-1  -5.111908912658691E-1   8.403375744819641E-1  -5.104501843452454E-1   7.271796464920044E-2   1.201887726783752E-1  
 3.222000000000000E7     7.330842316150665E-2   1.177210509777069E-1   8.394379615783691E-1  -5.131800174713135E-1   8.391988277435303E-1  -5.126789808273315E-1   7.253518700599670E-2   1.190167963504791E-1  
 3.224000000000000E7     7.188099622726440E-2   1.157765835523605E-1   8.385796546936035E-1  -5.155367255210877E-1   8.380956649780273E-1  -5.149725079536438E-1   7.078644633293152E-2   1.172610446810722E-1  
 3.226000000000000E7     7.083325088024139E-2   1.131273061037064E-1   8.377982974052429E-1  -5.176337957382202E-1   8.368951082229614E-1  -5.174112915992737E-1   7.041324675083160E-2   1.148634552955627E-1  
 3.228000000000000E7     7.028816640377045E-2   1.119070798158646E-1   8.364018797874451E-1  -5.198549628257752E-1   8.363163471221924E-1  -5.193096399307251E-1   6.966607272624970E-2   1.135414987802506E-1  
 3.230000000000000E7     6.886427104473114E-2   1.104735136032105E-1   8.353454470634460E-1  -5.221586227416992E-1   8.352686762809753E-1  -5.215427875518799E-1   6.864074617624283E-2   1.111172735691071E-1  
 3.232000000000000E7     6.869906187057495E-2   1.082764193415642E-1   8.341317176818848E-1  -5.240321159362793E-1   8.340200185775757E-1  -5.238985419273377E-1   6.735638529062271E-2   1.103892400860786E-1  
 3.234000000000000E7     6.851133704185486E-2   1.060933768749237E-1   8.336539864540100E-1  -5.262999534606934E-1   8.332014083862305E-1  -5.254955887794495E-1   6.820651888847351E-2   1.074199676513672E-1  
 3.236000000000000E7     6.737261265516281E-2   1.043180450797081E-1   8.323379158973694E-1  -5.285211801528931E-1   8.323010802268982E-1  -5.279673337936401E-1   6.635664403438568E-2   1.058763191103935E-1  
 3.238000000000000E7     6.651981920003891E-2   1.028106808662415E-1   8.313533067703247E-1  -5.306071639060974E-1   8.310518264770508E-1  -5.298353433609009E-1   6.628128141164780E-2   1.037741824984551E-1  
 3.240000000000000E7     6.564623117446899E-2   1.011776179075241E-1   8.303062915802002E-1  -5.328947901725769E-1   8.300079107284546E-1  -5.318546891212463E-1   6.511116027832031E-2   1.024727374315262E-1  
 3.242000000000000E7     6.510789692401886E-2   9.878536313772202E-2   8.293761610984802E-1  -5.346740484237671E-1   8.285661935806274E-1  -5.346207618713379E-1   6.404690444469452E-2   1.008264869451523E-1  
 3.244000000000000E7     6.395921111106873E-2   9.738275408744812E-2   8.279176950454712E-1  -5.369806289672852E-1   8.278188109397888E-1  -5.366932749748230E-1   6.290441751480103E-2   9.859498590230942E-2  
 3.246000000000000E7     6.358495354652405E-2   9.485661238431931E-2   8.268955349922180E-1  -5.391305685043335E-1   8.268315792083740E-1  -5.385496616363525E-1   6.182737648487091E-2   9.681178629398346E-2  
 3.248000000000000E7     6.195965409278870E-2   9.421072155237198E-2   8.253103494644165E-1  -5.415040254592896E-1   8.257580995559692E-1  -5.405666828155518E-1   6.168335676193237E-2   9.523963183164597E-2  
 3.250000000000000E7     6.174656376242638E-2   9.141266345977783E-2   8.245993852615356E-1  -5.432401895523071E-1   8.245761990547180E-1  -5.429559946060181E-1   6.104516983032227E-2   9.331906586885452E-2  
 3.252000000000000E7     6.097891926765442E-2   9.032994508743286E-2   8.234811425209045E-1  -5.454092621803284E-1   8.231147527694702E-1  -5.447528958320618E-1   5.987421795725822E-2   9.216618537902832E-2  
 3.254000000000000E7     5.951773747801781E-2   8.855406194925308E-2   8.222669363021851E-1  -5.479131937026978E-1   8.219361901283264E-1  -5.472182631492615E-1   5.939587950706482E-2   9.035591781139374E-2  
 3.256000000000000E7     5.869255214929581E-2   8.643613010644913E-2   8.212875723838806E-1  -5.497536659240723E-1   8.208469748497009E-1  -5.491544604301453E-1   5.823850259184837E-2   8.839684724807739E-2  
 3.258000000000000E7     5.778080597519875E-2   8.488405495882034E-2   8.199210166931152E-1  -5.519476532936096E-1   8.196866512298584E-1  -5.509811043739319E-1   5.698709189891815E-2   8.647627383470535E-2  
 3.260000000000000E7     5.744465067982674E-2   8.303755521774292E-2   8.187515139579773E-1  -5.539619922637940E-1   8.187603354454041E-1  -5.535423159599304E-1   5.558175221085548E-2   8.432733267545700E-2  
 3.262000000000000E7     5.681756138801575E-2   8.178317546844482E-2   8.172938227653503E-1  -5.557812452316284E-1   8.177307248115540E-1  -5.556331872940064E-1   5.485065281391144E-2   8.279865235090256E-2  
 3.264000000000000E7     5.493555963039398E-2   8.011423051357269E-2   8.166784644126892E-1  -5.584297776222229E-1   8.161440491676331E-1  -5.573797225952148E-1   5.446641892194748E-2   8.131070435047150E-2  
 3.266000000000000E7     5.491488426923752E-2   7.807163149118424E-2   8.152915239334106E-1  -5.602481961250305E-1   8.151630759239197E-1  -5.595784187316895E-1   5.399442836642265E-2   7.894206047058106E-2  
 3.268000000000000E7     5.344751849770546E-2   7.581792026758194E-2   8.138971924781799E-1  -5.620828270912170E-1   8.140321969985962E-1  -5.620235800743103E-1   5.268997699022293E-2   7.775057852268219E-2  
 3.270000000000000E7     5.244459211826325E-2   7.414430379867554E-2   8.127561807632446E-1  -5.641394257545471E-1   8.126680850982666E-1  -5.640154480934143E-1   5.221244320273399E-2   7.615441083908081E-2  
 3.272000000000000E7     5.131712183356285E-2   7.294321060180664E-2   8.116257786750794E-1  -5.666401982307434E-1   8.113505244255066E-1  -5.656813383102417E-1   5.148419365286827E-2   7.441715151071549E-2  
 3.274000000000000E7     5.040327832102776E-2   7.092332094907761E-2   8.103748559951782E-1  -5.686405897140503E-1   8.099111318588257E-1  -5.679017901420593E-1   4.982286319136620E-2   7.269003987312317E-2  
 3.276000000000000E7     4.949492588639259E-2   6.937354058027268E-2   8.090783357620239E-1  -5.706368088722229E-1   8.087211847305298E-1  -5.701782703399658E-1   4.802767187356949E-2   7.137426733970642E-2  
 3.278000000000000E7     4.815715551376343E-2   6.739272177219391E-2   8.079283237457275E-1  -5.728659033775330E-1   8.072651028633118E-1  -5.719434022903442E-1   4.770705476403236E-2   6.912518292665482E-2  
 3.280000000000000E7     4.777971282601357E-2   6.583494693040848E-2   8.062436580657959E-1  -5.747078657150269E-1   8.061127066612244E-1  -5.741463303565979E-1   4.675225913524628E-2   6.761229783296585E-2  
 3.282000000000000E7     4.631038010120392E-2   6.328973174095154E-2   8.053283691406250E-1  -5.766956210136414E-1   8.050162196159363E-1  -5.763514041900635E-1   4.585606604814529E-2   6.553974747657776E-2  
 3.284000000000000E7     4.492447152733803E-2   6.342272460460663E-2   8.036739826202393E-1  -5.788974165916443E-1   8.037372231483460E-1  -5.785505771636963E-1   4.442884027957916E-2   6.408738344907761E-2  
 3.286000000000000E7     4.443139210343361E-2   6.085559725761414E-2   8.024583458900452E-1  -5.811496973037720E-1   8.023396730422974E-1  -5.802957415580750E-1   4.341741651296616E-2   6.300114840269089E-2  
 3.288000000000000E7     4.326028749346733E-2   5.890274047851563E-2   8.012428879737854E-1  -5.828173160552979E-1   8.011506199836731E-1  -5.824054479598999E-1   4.307347908616066E-2   6.057629734277725E-2  
 3.290000000000000E7     4.294423013925552E-2   5.724494904279709E-2   7.999612092971802E-1  -5.849998593330383E-1   7.998552918434143E-1  -5.845556259155273E-1   4.180555045604706E-2   5.864015221595764E-2  
 3.292000000000000E7     4.143806919455528E-2   5.501573905348778E-2   7.984840869903565E-1  -5.872296094894409E-1   7.987022399902344E-1  -5.867152810096741E-1   4.013459756970406E-2   5.711773782968521E-2  
 3.294000000000000E7     4.002713039517403E-2   5.261414870619774E-2   7.972652912139893E-1  -5.892332196235657E-1   7.970432639122009E-1  -5.886462926864624E-1   3.967324271798134E-2   5.583670735359192E-2  
 3.296000000000000E7     3.938301652669907E-2   5.252065137028694E-2   7.960162758827210E-1  -5.915036201477051E-1   7.957206964492798E-1  -5.906624794006348E-1   3.835707157850266E-2   5.381865799427033E-2  
 3.298000000000000E7     3.745759278535843E-2   5.047966167330742E-2   7.946399450302124E-1  -5.933868288993835E-1   7.944414615631104E-1  -5.927225351333618E-1   3.709820285439491E-2   5.190249904990196E-2  
 3.300000000000000E7     3.641711175441742E-2   4.872550442814827E-2   7.932929992675781E-1  -5.954311490058899E-1   7.932416200637817E-1  -5.946731567382813E-1   3.632866591215134E-2   4.976494982838631E-2  
 3.302000000000000E7     3.615311160683632E-2   4.661107435822487E-2   7.919301986694336E-1  -5.973507165908814E-1   7.918043732643127E-1  -5.965827703475952E-1   3.437455743551254E-2   4.823278635740280E-2  
 3.304000000000000E7     3.502519428730011E-2   4.560074582695961E-2   7.904741168022156E-1  -5.989596247673035E-1   7.903804183006287E-1  -5.988683104515076E-1   3.427530825138092E-2   4.743492603302002E-2  
 3.306000000000000E7     3.366968780755997E-2   4.350024089217186E-2   7.892348170280457E-1  -6.013510823249817E-1   7.886866927146912E-1  -6.006205677986145E-1   3.260396793484688E-2   4.542573168873787E-2  
 3.308000000000000E7     3.224531561136246E-2   4.136165603995323E-2   7.876051068305969E-1  -6.034190058708191E-1   7.877495288848877E-1  -6.026455163955689E-1   3.211282938718796E-2   4.323562234640122E-2  
 3.310000000000000E7     3.110401704907417E-2   3.964654356241226E-2   7.862727046012878E-1  -6.053482890129089E-1   7.860468626022339E-1  -6.048540472984314E-1   3.095284104347229E-2   4.222907871007919E-2  
 3.312000000000000E7     3.061596676707268E-2   3.850651532411575E-2   7.851336002349854E-1  -6.074255108833313E-1   7.847722172737122E-1  -6.066814661026001E-1   2.984364703297615E-2   4.067393392324448E-2  
 3.314000000000000E7     2.887313812971115E-2   3.703107312321663E-2   7.831919193267822E-1  -6.092923283576965E-1   7.835100293159485E-1  -6.088109016418457E-1   2.871723473072052E-2   3.963476046919823E-2  
 3.316000000000000E7     2.795369178056717E-2   3.471380472183228E-2   7.817572951316834E-1  -6.115321516990662E-1   7.818470001220703E-1  -6.108363866806030E-1   2.744919806718826E-2   3.687635809183121E-2  
 3.318000000000000E7     2.712910622358322E-2   3.284719586372376E-2   7.806888222694397E-1  -6.132406592369080E-1   7.802358865737915E-1  -6.128463149070740E-1   2.615974098443985E-2   3.569659963250160E-2  
 3.320000000000000E7     2.493172138929367E-2   3.150671720504761E-2   7.789485454559326E-1  -6.154904961585999E-1   7.788447141647339E-1  -6.145598292350769E-1   2.516833320260048E-2   3.409513086080551E-2  
 3.322000000000000E7     2.401485294103622E-2   2.982805669307709E-2   7.777835726737976E-1  -6.173957586288452E-1   7.776141762733460E-1  -6.167739629745483E-1   2.390737086534500E-2   3.226693719625473E-2  
 3.324000000000000E7     2.311050891876221E-2   2.927906811237335E-2   7.760058045387268E-1  -6.191145181655884E-1   7.760085463523865E-1  -6.186120510101318E-1   2.297455817461014E-2   3.095844760537148E-2  
 3.326000000000000E7     2.212560921907425E-2   2.616211026906967E-2   7.748165726661682E-1  -6.208863854408264E-1   7.744960188865662E-1  -6.209862232208252E-1   2.120689302682877E-2   2.977720275521278E-2  
 3.328000000000000E7     2.065246552228928E-2   2.585601061582565E-2   7.731249332427979E-1  -6.229400634765625E-1   7.733739614486694E-1  -6.227670311927795E-1   2.057869732379913E-2   2.759913727641106E-2  
 3.330000000000000E7     1.936993747949600E-2   2.400922775268555E-2   7.717726230621338E-1  -6.250681877136231E-1   7.719038724899292E-1  -6.244533061981201E-1   1.906123012304306E-2   2.623303607106209E-2  
 3.332000000000000E7     1.777663826942444E-2   2.202504873275757E-2   7.703581452369690E-1  -6.268807649612427E-1   7.699701786041260E-1  -6.267682313919067E-1   1.827319711446762E-2   2.432211861014366E-2  
 3.334000000000000E7     1.738824695348740E-2   2.011874318122864E-2   7.686628103256226E-1  -6.288872957229614E-1   7.687680721282959E-1  -6.283794641494751E-1   1.584812998771668E-2   2.269995585083962E-2  
 3.336000000000000E7     1.537082344293594E-2   1.928301900625229E-2   7.673293352127075E-1  -6.310354471206665E-1   7.668043375015259E-1  -6.303084492683411E-1   1.517865806818008E-2   2.160118520259857E-2  
 3.338000000000000E7     1.417929679155350E-2   1.674954593181610E-2   7.656699419021606E-1  -6.329259276390076E-1   7.656283974647522E-1  -6.324443221092224E-1   1.420830190181732E-2   1.997322589159012E-2  
 3.340000000000000E7     1.333396881818771E-2   1.548260450363159E-2   7.642235755920410E-1  -6.348318457603455E-1   7.640782594680786E-1  -6.342198848724365E-1   1.269291341304779E-2   1.769410818815231E-2  
 3.342000000000000E7     1.197168231010437E-2   1.464532315731049E-2   7.624887824058533E-1  -6.366558670997620E-1   7.623233795166016E-1  -6.362794637680054E-1   1.191617548465729E-2   1.702278852462769E-2  
 3.344000000000000E7     1.047555357217789E-2   1.253130286931992E-2   7.609648108482361E-1  -6.384961009025574E-1   7.609679698944092E-1  -6.383115053176880E-1   1.017166674137116E-2   1.481013000011444E-2  
 3.346000000000000E7     9.752936661243439E-3   1.054849475622177E-2   7.593435049057007E-1  -6.404790282249451E-1   7.595840096473694E-1  -6.399646401405335E-1   8.433714509010315E-3   1.394048333168030E-2  
 3.348000000000000E7     8.207187056541443E-3   9.440094232559204E-3   7.578977942466736E-1  -6.423040032386780E-1   7.577406167984009E-1  -6.417676806449890E-1   8.001893758773804E-3   1.193603873252869E-2  
 3.350000000000000E7     7.472552359104157E-3   7.862396538257599E-3   7.559483051300049E-1  -6.441963911056519E-1   7.563087940216065E-1  -6.437651515007019E-1   6.292700767517090E-3   1.049894839525223E-2  
 3.352000000000000E7     5.936004221439362E-3   6.666682660579681E-3   7.548073530197144E-1  -6.461470127105713E-1   7.545770406723023E-1  -6.455019116401672E-1   5.421169102191925E-3   8.055716753005981E-3  
 3.354000000000000E7     3.925688564777374E-3   3.518290817737579E-3   7.533503770828247E-1  -6.480388045310974E-1   7.529262900352478E-1  -6.476978659629822E-1   3.753289580345154E-3   7.350720465183258E-3  
 3.356000000000000E7     2.638801932334900E-3   3.611400723457336E-3   7.514507174491882E-1  -6.499271988868713E-1   7.512229084968567E-1  -6.495532393455505E-1   2.169303596019745E-3   5.106501281261444E-3  
 3.358000000000000E7     1.537211239337921E-3   1.863129436969757E-3   7.498385310173035E-1  -6.520419716835022E-1   7.498556971549988E-1  -6.511405706405640E-1   1.106336712837219E-3   3.851719200611115E-3  
 3.360000000000000E7    -1.357868459308520E-4   4.891157150268555E-4   7.482534646987915E-1  -6.536052227020264E-1   7.480898499488831E-1  -6.532727479934692E-1  -1.052171210176311E-4   3.098890185356140E-3  
 3.362000000000000E7    -1.146331429481506E-3  -1.004956662654877E-3   7.464047670364380E-1  -6.554408073425293E-1   7.466902136802673E-1  -6.548408865928650E-1  -9.073838591575623E-4   1.212984323501587E-3  
 3.364000000000000E7    -2.460785210132599E-3  -2.259977161884308E-3   7.450552582740784E-1  -6.572117209434509E-1   7.450428605079651E-1  -6.568086743354797E-1  -2.292305231094360E-3  -4.878342151641846E-4  
 3.366000000000000E7    -3.573179244995117E-3  -4.291921854019165E-3   7.430618405342102E-1  -6.597148180007935E-1   7.432401180267334E-1  -6.583840847015381E-1  -3.944024443626404E-3  -1.857787370681763E-3  
 3.368000000000000E7    -5.826577544212341E-3  -4.950560629367828E-3   7.418305277824402E-1  -6.610457897186279E-1   7.415712475776672E-1  -6.602934002876282E-1  -5.768805742263794E-3  -3.653764724731445E-3  
 3.370000000000000E7    -6.373152136802673E-3  -7.299028337001801E-3   7.399970293045044E-1  -6.632024049758911E-1   7.400884628295898E-1  -6.622297763824463E-1  -6.500668823719025E-3  -4.350580275058746E-3  
 3.372000000000000E7    -8.278496563434601E-3  -9.591914713382721E-3   7.384588122367859E-1  -6.649642586708069E-1   7.383598685264587E-1  -6.641619801521301E-1  -8.584201335906982E-3  -7.094845175743103E-3  
 3.374000000000000E7    -9.272120893001556E-3  -1.077362895011902E-2   7.368717193603516E-1  -6.667873263359070E-1   7.364370822906494E-1  -6.657587289810181E-1  -8.789487183094025E-3  -8.166261017322540E-3  
 3.376000000000000E7    -1.149784773588181E-2  -1.143704354763031E-2   7.347052693367004E-1  -6.682717204093933E-1   7.349902987480164E-1  -6.678760647773743E-1  -1.091668009757996E-2  -8.890613913536072E-3  
 3.378000000000000E7    -1.152984052896500E-2  -1.348190009593964E-2   7.335833907127380E-1  -6.701799035072327E-1   7.330669760704041E-1  -6.696406602859497E-1  -1.209762692451477E-2  -1.087611913681030E-2  
 3.380000000000000E7    -1.408723741769791E-2  -1.510645449161530E-2   7.320002317428589E-1  -6.721585392951965E-1   7.311440706253052E-1  -6.712015867233276E-1  -1.371092349290848E-2  -1.183129101991653E-2  
 3.382000000000000E7    -1.526713371276856E-2  -1.670726388692856E-2   7.297290563583374E-1  -6.737576723098755E-1   7.297391891479492E-1  -6.731073260307312E-1  -1.501660794019699E-2  -1.382528990507126E-2  
 3.384000000000000E7    -1.685703545808792E-2  -1.786234229803085E-2   7.283518314361572E-1  -6.754614710807800E-1   7.279257178306580E-1  -6.751601099967957E-1  -1.658288389444351E-2  -1.557502150535584E-2  
 3.386000000000000E7    -1.782002300024033E-2  -1.893217861652374E-2   7.260933518409729E-1  -6.773630976676941E-1   7.263525128364563E-1  -6.766675114631653E-1  -1.871536672115326E-2  -1.683063060045242E-2  
 3.388000000000000E7    -1.932587474584580E-2  -2.026648074388504E-2   7.245361804962158E-1  -6.790334582328796E-1   7.243905663490295E-1  -6.783781051635742E-1  -1.999443024396896E-2  -1.726999133825302E-2  
 3.390000000000000E7    -2.147658914327622E-2  -2.220553904771805E-2   7.227585911750794E-1  -6.805647015571594E-1   7.227747440338135E-1  -6.806430816650391E-1  -2.199815213680267E-2  -1.954882219433785E-2  
 3.392000000000000E7    -2.209787815809250E-2  -2.307998016476631E-2   7.210630774497986E-1  -6.825594902038574E-1   7.212319970130920E-1  -6.819463372230530E-1  -2.293609082698822E-2  -2.077372372150421E-2  
 3.394000000000000E7    -2.393077313899994E-2  -2.495445311069489E-2   7.193518280982971E-1  -6.843407154083252E-1   7.194787859916687E-1  -6.838859915733337E-1  -2.378925681114197E-2  -2.233738824725151E-2  
 3.396000000000000E7    -2.565926313400269E-2  -2.632161229848862E-2   7.174981236457825E-1  -6.858544945716858E-1   7.175208926200867E-1  -6.856662034988403E-1  -2.556166052818298E-2  -2.400357648730278E-2  
 3.398000000000000E7    -2.670033276081085E-2  -2.765755727887154E-2   7.160208821296692E-1  -6.876296997070313E-1   7.157357931137085E-1  -6.875309348106384E-1  -2.670242637395859E-2  -2.551477029919624E-2  
 3.400000000000000E7    -2.832949906587601E-2  -2.914005145430565E-2   7.139495015144348E-1  -6.893059015274048E-1   7.141673564910889E-1  -6.889294981956482E-1  -2.869366481900215E-2  -2.610607817769051E-2  
 3.402000000000000E7    -2.952654659748077E-2  -3.133773431181908E-2   7.119337916374207E-1  -6.911768317222595E-1   7.120724320411682E-1  -6.907984018325806E-1  -3.016339242458344E-2  -2.805384621024132E-2  
 3.404000000000000E7    -3.117173165082932E-2  -3.190452232956886E-2   7.100859284400940E-1  -6.927102804183960E-1   7.103079557418823E-1  -6.924888491630554E-1  -3.120587766170502E-2  -2.921576797962189E-2  
 3.406000000000000E7    -3.228748962283135E-2  -3.329713270068169E-2   7.085850238800049E-1  -6.943644881248474E-1   7.085186839103699E-1  -6.941996216773987E-1  -3.251567110419273E-2  -3.031525760889053E-2  
 3.408000000000000E7    -3.501978516578674E-2  -3.429500386118889E-2   7.068633437156677E-1  -6.961131095886231E-1   7.066059112548828E-1  -6.960355043411255E-1  -3.407230228185654E-2  -3.244166821241379E-2  
 3.410000000000000E7    -3.649418428540230E-2  -3.589418902993202E-2   7.047049999237061E-1  -6.982731223106384E-1   7.047281861305237E-1  -6.974177956581116E-1  -3.535425662994385E-2  -3.354660794138908E-2  
 3.412000000000000E7    -3.763975203037262E-2  -3.788252919912338E-2   7.030739784240723E-1  -6.995974183082581E-1   7.030267715454102E-1  -6.992739439010620E-1  -3.740537911653519E-2  -3.369808942079544E-2  
 3.414000000000000E7    -3.968083858489990E-2  -3.873712569475174E-2   7.012050151824951E-1  -7.013514041900635E-1   7.010737061500549E-1  -7.008455991744995E-1  -3.864469379186630E-2  -3.583094850182533E-2  
 3.416000000000000E7    -4.046043008565903E-2  -3.966448083519936E-2   6.993794441223145E-1  -7.028554081916809E-1   6.990133523941040E-1  -7.030062675476074E-1  -3.976233303546906E-2  -3.779205679893494E-2  
 3.418000000000000E7    -4.202612489461899E-2  -4.182475060224533E-2   6.973211169242859E-1  -7.047297358512878E-1   6.973131895065308E-1  -7.043119072914124E-1  -4.212079942226410E-2  -3.817056864500046E-2  
 3.420000000000000E7    -4.389903321862221E-2  -4.197054356336594E-2   6.955327987670898E-1  -7.060415744781494E-1   6.957018971443176E-1  -7.060704231262207E-1  -4.346823692321777E-2  -4.036006331443787E-2  
 3.422000000000000E7    -4.571555927395821E-2  -4.370220750570297E-2   6.937639713287354E-1  -7.076880931854248E-1   6.937589049339294E-1  -7.074908018112183E-1  -4.486908018589020E-2  -4.078875854611397E-2  
 3.424000000000000E7    -4.689472168684006E-2  -4.526481777429581E-2   6.917872428894043E-1  -7.092005610466003E-1   6.920047402381897E-1  -7.094689011573792E-1  -4.687414318323135E-2  -4.234008863568306E-2  
 3.426000000000000E7    -4.795610159635544E-2  -4.629126936197281E-2   6.900258660316467E-1  -7.111288309097290E-1   6.901177167892456E-1  -7.109790444374085E-1  -4.875839129090309E-2  -4.342989623546600E-2  
 3.428000000000000E7    -5.071837827563286E-2  -4.762598872184753E-2   6.880627870559692E-1  -7.125534415245056E-1   6.880601644515991E-1  -7.125818729400635E-1  -4.958730190992355E-2  -4.419958591461182E-2  
 3.430000000000000E7    -5.207061022520065E-2  -5.023076012730598E-2   6.861869692802429E-1  -7.142894268035889E-1   6.860723495483398E-1  -7.140384912490845E-1  -5.219516530632973E-2  -4.609677195549011E-2  
 3.432000000000000E7    -5.349535122513771E-2  -5.079019069671631E-2   6.842112541198731E-1  -7.160920500755310E-1   6.842255592346191E-1  -7.155798673629761E-1  -5.356961488723755E-2  -4.754174873232842E-2  
 3.434000000000000E7    -5.466813594102860E-2  -5.171355977654457E-2   6.822035908699036E-1  -7.176368832588196E-1   6.825481653213501E-1  -7.174607515335083E-1  -5.472306907176971E-2  -4.887150973081589E-2  
 3.436000000000000E7    -5.620106682181358E-2  -5.278815701603890E-2   6.803302764892578E-1  -7.187725901603699E-1   6.806197166442871E-1  -7.192327380180359E-1  -5.584545433521271E-2  -5.085554718971252E-2  
 3.438000000000000E7    -5.859343335032463E-2  -5.388525873422623E-2   6.786913871765137E-1  -7.209619283676148E-1   6.784239411354065E-1  -7.206609845161438E-1  -5.791872367262840E-2  -5.097856000065804E-2  
 3.440000000000000E7    -5.899455770850182E-2  -5.530627444386482E-2   6.765066981315613E-1  -7.223547697067261E-1   6.766107082366943E-1  -7.219787240028381E-1  -6.014042347669601E-2  -5.349142104387283E-2  
 3.442000000000000E7    -6.144132465124130E-2  -5.652472004294395E-2   6.745175123214722E-1  -7.241293191909790E-1   6.747128367424011E-1  -7.238585948944092E-1  -6.070710346102715E-2  -5.419210344552994E-2  
 3.444000000000000E7    -6.363935768604279E-2  -5.775508284568787E-2   6.727218627929688E-1  -7.257541418075562E-1   6.726505756378174E-1  -7.252063751220703E-1  -6.258905678987503E-2  -5.516162887215614E-2  
 3.446000000000000E7    -6.495691090822220E-2  -5.948204547166824E-2   6.708641648292542E-1  -7.270938158035278E-1   6.706959009170532E-1  -7.267755866050720E-1  -6.516467034816742E-2  -5.679389089345932E-2  
 3.448000000000000E7    -6.678707897663117E-2  -6.068487837910652E-2   6.687699556350708E-1  -7.288479208946228E-1   6.688615083694458E-1  -7.280874252319336E-1  -6.581865996122360E-2  -5.753203108906746E-2  
 3.450000000000000E7    -6.744942069053650E-2  -6.236032769083977E-2   6.668930649757385E-1  -7.305441498756409E-1   6.672608256340027E-1  -7.298339009284973E-1  -6.722848117351532E-2  -5.820719525218010E-2  
 3.452000000000000E7    -6.995455920696259E-2  -6.300628930330277E-2   6.650427579879761E-1  -7.312269210815430E-1   6.649895310401917E-1  -7.316851615905762E-1  -6.962567567825317E-2  -5.927105247974396E-2  
 3.454000000000000E7    -7.126753032207489E-2  -6.435394287109375E-2   6.631334424018860E-1  -7.332683205604553E-1   6.630572080612183E-1  -7.328973412513733E-1  -7.175134867429733E-2  -6.076875329017639E-2  
 3.456000000000000E7    -7.375639677047730E-2  -6.536988914012909E-2   6.610543131828308E-1  -7.346297502517700E-1   6.609634160995483E-1  -7.342997193336487E-1  -7.227965444326401E-2  -6.225721165537834E-2  
 3.458000000000000E7    -7.488372921943665E-2  -6.631065905094147E-2   6.589729785919190E-1  -7.360321879386902E-1   6.589391827583313E-1  -7.359417080879211E-1  -7.428139448165894E-2  -6.372470408678055E-2  
 3.460000000000000E7    -7.695748656988144E-2  -6.775510311126709E-2   6.567835211753845E-1  -7.378247976303101E-1   6.569129228591919E-1  -7.374637126922607E-1  -7.540736347436905E-2  -6.447659432888031E-2  
 3.462000000000000E7    -7.867406308650971E-2  -6.897005438804627E-2   6.547546982765198E-1  -7.393583655357361E-1   6.551324725151062E-1  -7.392983436584473E-1  -7.751537114381790E-2  -6.644659489393234E-2  
 3.464000000000000E7    -7.984213531017304E-2  -7.035633921623230E-2   6.530411243438721E-1  -7.406606078147888E-1   6.528046131134033E-1  -7.404826283454895E-1  -7.957802712917328E-2  -6.736995279788971E-2  
 3.466000000000000E7    -8.190295845270157E-2  -7.121317088603973E-2   6.510407328605652E-1  -7.425818443298340E-1   6.509172320365906E-1  -7.416942119598389E-1  -8.056376129388809E-2  -6.816697120666504E-2  
 3.468000000000000E7    -8.405733108520508E-2  -7.167879492044449E-2   6.486737132072449E-1  -7.435587048530579E-1   6.494112014770508E-1  -7.431177496910095E-1  -8.344539999961853E-2  -6.879606842994690E-2  
 3.470000000000000E7    -8.522477000951767E-2  -7.291176170110703E-2   6.468002796173096E-1  -7.449699640274048E-1   6.473662853240967E-1  -7.446389794349670E-1  -8.526523411273956E-2  -7.051111757755280E-2  
 3.472000000000000E7    -8.712821453809738E-2  -7.471856474876404E-2   6.450123786926270E-1  -7.463396787643433E-1   6.450217366218567E-1  -7.464319467544556E-1  -8.641552925109863E-2  -7.131649553775787E-2  
 3.474000000000000E7    -8.880953490734100E-2  -7.617003470659256E-2   6.426525115966797E-1  -7.479259371757507E-1   6.429627537727356E-1  -7.473726272583008E-1  -8.864437043666840E-2  -7.225413620471954E-2  
 3.476000000000000E7    -9.070617705583572E-2  -7.622015476226807E-2   6.409840583801270E-1  -7.493415474891663E-1   6.411696076393127E-1  -7.489056587219238E-1  -8.965449780225754E-2  -7.355330139398575E-2  
 3.478000000000000E7    -9.193201363086700E-2  -7.705698907375336E-2   6.391906142234802E-1  -7.510250210762024E-1   6.390380263328552E-1  -7.501268982887268E-1  -9.147128462791443E-2  -7.427050173282623E-2  
 3.480000000000000E7    -9.449984133243561E-2  -7.857444137334824E-2   6.367619633674622E-1  -7.520690560340881E-1   6.368587017059326E-1  -7.517446875572205E-1  -9.310163557529450E-2  -7.553783059120178E-2  
 3.482000000000000E7    -9.612271934747696E-2  -7.970343530178070E-2   6.344168186187744E-1  -7.535722851753235E-1   6.348349452018738E-1  -7.529572248458862E-1  -9.537040442228317E-2  -7.705509662628174E-2  
 3.484000000000000E7    -9.769330918788910E-2  -8.091553300619125E-2   6.327271461486816E-1  -7.548577189445496E-1   6.325529813766480E-1  -7.544821500778198E-1  -9.791290760040283E-2  -7.783000171184540E-2  
 3.486000000000000E7    -1.005645245313644E-1  -8.268130570650101E-2   6.303374767303467E-1  -7.565146684646606E-1   6.305125355720520E-1  -7.559647560119629E-1  -9.869547188282013E-2  -7.857429981231690E-2  
 3.488000000000000E7    -1.012561917304993E-1  -8.266888558864594E-2   6.283653974533081E-1  -7.577853798866272E-1   6.286926865577698E-1  -7.572979927062988E-1  -1.006528213620186E-1  -7.936683297157288E-2  
 3.490000000000000E7    -1.030753105878830E-1  -8.539115637540817E-2   6.262506246566773E-1  -7.589601874351502E-1   6.264376640319824E-1  -7.589468955993652E-1  -1.015748381614685E-1  -8.072912693023682E-2  
 3.492000000000000E7    -1.051753237843514E-1  -8.528869599103928E-2   6.242241859436035E-1  -7.605829834938049E-1   6.244567036628723E-1  -7.598754167556763E-1  -1.046354621648789E-1  -8.169393241405487E-2  
 3.494000000000000E7    -1.060252636671066E-1  -8.557443320751190E-2   6.219895482063294E-1  -7.620000243186951E-1   6.227053403854370E-1  -7.613385319709778E-1  -1.060737818479538E-1  -8.362763375043869E-2  
 3.496000000000000E7    -1.084143072366715E-1  -8.718524873256683E-2   6.200293302536011E-1  -7.631311416625977E-1   6.203010082244873E-1  -7.627246975898743E-1  -1.083560138940811E-1  -8.325985819101334E-2  
 3.498000000000000E7    -1.103733181953430E-1  -8.804792910814285E-2   6.179317831993103E-1  -7.643667459487915E-1   6.181678175926209E-1  -7.642323374748230E-1  -1.093400120735169E-1  -8.558112382888794E-2  
 3.500000000000000E7    -1.118093058466911E-1  -8.911892771720886E-2   6.160460710525513E-1  -7.656695246696472E-1   6.158776283264160E-1  -7.655569314956665E-1  -1.114087253808975E-1  -8.534979820251465E-2  
 3.502000000000000E7    -1.135472208261490E-1  -8.989007771015167E-2   6.141981482505798E-1  -7.671606540679932E-1   6.138015389442444E-1  -7.669062614440918E-1  -1.133307442069054E-1  -8.667273074388504E-2  
 3.504000000000000E7    -1.156901866197586E-1  -9.099636971950531E-2   6.115154027938843E-1  -7.683674097061157E-1   6.116068363189697E-1  -7.678332924842835E-1  -1.151926368474960E-1  -8.779776841402054E-2  
 3.506000000000000E7    -1.173480004072189E-1  -9.216362237930298E-2   6.096240282058716E-1  -7.697478532791138E-1   6.099289059638977E-1  -7.695112824440002E-1  -1.163135692477226E-1  -8.806855976581574E-2  
 3.508000000000000E7    -1.193984895944595E-1  -9.426962584257126E-2   6.071000695228577E-1  -7.711068987846375E-1   6.074047684669495E-1  -7.708831429481506E-1  -1.183877512812614E-1  -9.006205201148987E-2  
 3.510000000000000E7    -1.217129975557327E-1  -9.438592940568924E-2   6.051538586616516E-1  -7.720355391502380E-1   6.053425669670105E-1  -7.722837328910828E-1  -1.202751994132996E-1  -9.108360111713409E-2  
 3.512000000000000E7    -1.230211704969406E-1  -9.462929517030716E-2   6.028949022293091E-1  -7.733651399612427E-1   6.032936573028565E-1  -7.734804153442383E-1  -1.223118975758553E-1  -9.190602600574493E-2  
 3.514000000000000E7    -1.256968379020691E-1  -9.577863663434982E-2   6.007626652717590E-1  -7.745609879493713E-1   6.009822487831116E-1  -7.745426893234253E-1  -1.242662668228149E-1  -9.286350011825562E-2  
 3.516000000000000E7    -1.265699267387390E-1  -9.699361771345139E-2   5.989398956298828E-1  -7.760354280471802E-1   5.990118384361267E-1  -7.758626937866211E-1  -1.260485053062439E-1  -9.385667741298676E-2  
 3.518000000000000E7    -1.290922909975052E-1  -9.694147109985352E-2   5.970231294631958E-1  -7.768964767456055E-1   5.966210961341858E-1  -7.768591046333313E-1  -1.283454298973084E-1  -9.469854831695557E-2  
 3.520000000000000E7    -1.298486739397049E-1  -9.898342937231064E-2   5.944967865943909E-1  -7.784383296966553E-1   5.946331024169922E-1  -7.780889272689819E-1  -1.298534125089645E-1  -9.599937498569489E-2  
 3.522000000000000E7    -1.326231658458710E-1  -9.902805089950562E-2   5.925785303115845E-1  -7.793403863906860E-1   5.923543572425842E-1  -7.796799540519714E-1  -1.315615326166153E-1  -9.606488794088364E-2  
 3.524000000000000E7    -1.340480446815491E-1  -1.004506126046181E-1   5.903160572052002E-1  -7.806476354598999E-1   5.901312828063965E-1  -7.808218002319336E-1  -1.334261149168015E-1  -9.725188463926315E-2  
 3.526000000000000E7    -1.363436132669449E-1  -1.017839312553406E-1   5.877688527107239E-1  -7.819157838821411E-1   5.882332921028137E-1  -7.818533778190613E-1  -1.351088881492615E-1  -9.791806340217590E-2  
 3.528000000000000E7    -1.381225287914276E-1  -1.017454713582993E-1   5.861214399337769E-1  -7.831475734710693E-1   5.859380364418030E-1  -7.829760909080505E-1  -1.369218975305557E-1  -9.903320670127869E-2  
 3.530000000000000E7    -1.399586945772171E-1  -1.038176864385605E-1   5.836985707283020E-1  -7.843577265739441E-1   5.833554267883301E-1  -7.839859724044800E-1  -1.397563368082047E-1  -1.000227630138397E-1  
 3.532000000000000E7    -1.413066089153290E-1  -1.038921996951103E-1   5.813568830490112E-1  -7.859725356101990E-1   5.818349719047546E-1  -7.852335572242737E-1  -1.407838761806488E-1  -1.001593917608261E-1  
 3.534000000000000E7    -1.435586810112000E-1  -1.053968295454979E-1   5.790249109268189E-1  -7.867906689643860E-1   5.791981220245361E-1  -7.866246700286865E-1  -1.433440297842026E-1  -1.014987677335739E-1  
 3.536000000000000E7    -1.451916992664337E-1  -1.049998551607132E-1   5.771638154983521E-1  -7.885524034500122E-1   5.773770809173584E-1  -7.874988317489624E-1  -1.443784683942795E-1  -1.025562435388565E-1  
 3.538000000000000E7    -1.474587768316269E-1  -1.070637851953507E-1   5.750723481178284E-1  -7.890480756759644E-1   5.746593475341797E-1  -7.889176011085510E-1  -1.467263549566269E-1  -1.032696366310120E-1  
 3.540000000000000E7    -1.490712761878967E-1  -1.069184094667435E-1   5.726912617683411E-1  -7.899680137634277E-1   5.729264616966248E-1  -7.902178168296814E-1  -1.481166183948517E-1  -1.033676713705063E-1  
 3.542000000000000E7    -1.513105183839798E-1  -1.075595170259476E-1   5.706183910369873E-1  -7.915996909141541E-1   5.703507661819458E-1  -7.909021377563477E-1  -1.503785848617554E-1  -1.047041863203049E-1  
 3.544000000000000E7    -1.528495103120804E-1  -1.085198223590851E-1   5.680881738662720E-1  -7.924414277076721E-1   5.683249235153198E-1  -7.923973202705383E-1  -1.520351916551590E-1  -1.058924049139023E-1  
 3.546000000000000E7    -1.554946750402451E-1  -1.097661107778549E-1   5.659907460212708E-1  -7.933910489082336E-1   5.662390589714050E-1  -7.934834957122803E-1  -1.540071219205856E-1  -1.066748201847076E-1  
 3.548000000000000E7    -1.574845016002655E-1  -1.106389462947846E-1   5.637181401252747E-1  -7.947388887405396E-1   5.640068054199219E-1  -7.945443391799927E-1  -1.557249724864960E-1  -1.069176271557808E-1  
 3.550000000000000E7    -1.595183014869690E-1  -1.109008789062500E-1   5.618181824684143E-1  -7.956284284591675E-1   5.616214275360107E-1  -7.953267693519592E-1  -1.575943678617477E-1  -1.075327992439270E-1  
 3.552000000000000E7    -1.601844429969788E-1  -1.125857904553413E-1   5.594083666801453E-1  -7.968246936798096E-1   5.593926310539246E-1  -7.968642711639404E-1  -1.597249060869217E-1  -1.084815114736557E-1  
 3.554000000000000E7    -1.633366942405701E-1  -1.125006154179573E-1   5.571427345275879E-1  -7.977803349494934E-1   5.571012496948242E-1  -7.976325750350952E-1  -1.619744300842285E-1  -1.094254627823830E-1  
 3.556000000000000E7    -1.649283915758133E-1  -1.125588268041611E-1   5.548108220100403E-1  -7.990967631340027E-1   5.551795363426209E-1  -7.985793352127075E-1  -1.635970473289490E-1  -1.099730432033539E-1  
 3.558000000000000E7    -1.668202280998230E-1  -1.137917712330818E-1   5.527091026306152E-1  -7.999274134635925E-1   5.529719591140747E-1  -7.998000383377075E-1  -1.655831784009934E-1  -1.106244251132011E-1  
 3.560000000000000E7    -1.686173528432846E-1  -1.154720112681389E-1   5.504010319709778E-1  -8.007484078407288E-1   5.503172278404236E-1  -8.008866310119629E-1  -1.670655310153961E-1  -1.112589389085770E-1  
 3.562000000000000E7    -1.700444221496582E-1  -1.156596168875694E-1   5.481140613555908E-1  -8.024030923843384E-1   5.483964085578919E-1  -8.019905686378479E-1  -1.693452149629593E-1  -1.118360310792923E-1  
 3.564000000000000E7    -1.728240251541138E-1  -1.158838868141174E-1   5.460408926010132E-1  -8.031402826309204E-1   5.459483265876770E-1  -8.026392459869385E-1  -1.715558320283890E-1  -1.125967875123024E-1  
 3.566000000000000E7    -1.745958030223846E-1  -1.167797595262528E-1   5.434854626655579E-1  -8.040909171104431E-1   5.436692237854004E-1  -8.038263916969299E-1  -1.737318038940430E-1  -1.135435253381729E-1  
 3.568000000000000E7    -1.757081001996994E-1  -1.175958365201950E-1   5.412872433662415E-1  -8.052046895027161E-1   5.414777994155884E-1  -8.050414919853210E-1  -1.757093071937561E-1  -1.149006038904190E-1  
 3.570000000000000E7    -1.778118908405304E-1  -1.186779513955116E-1   5.388964414596558E-1  -8.063847422599793E-1   5.393167138099670E-1  -8.057456612586975E-1  -1.769681572914124E-1  -1.150036007165909E-1  
 3.572000000000000E7    -1.802407950162888E-1  -1.188676282763481E-1   5.367450714111328E-1  -8.071441054344177E-1   5.371465086936951E-1  -8.068463206291199E-1  -1.794724911451340E-1  -1.156715750694275E-1  
 3.574000000000000E7    -1.834675520658493E-1  -1.189373731613159E-1   5.347136259078980E-1  -8.076478242874146E-1   5.347088575363159E-1  -8.073915243148804E-1  -1.818374395370483E-1  -1.162501573562622E-1  
 3.576000000000000E7    -1.839147657155991E-1  -1.200881451368332E-1   5.322821140289307E-1  -8.087220788002014E-1   5.323923230171204E-1  -8.088288903236389E-1  -1.839583218097687E-1  -1.176318675279617E-1  
 3.578000000000000E7    -1.868460327386856E-1  -1.202192157506943E-1   5.300948619842529E-1  -8.097268342971802E-1   5.297321081161499E-1  -8.096747398376465E-1  -1.850137412548065E-1  -1.178773120045662E-1  
 3.580000000000000E7    -1.885132193565369E-1  -1.218502148985863E-1   5.276483297348023E-1  -8.108020424842835E-1   5.278040766716003E-1  -8.104760050773621E-1  -1.874812841415405E-1  -1.181186512112618E-1  
 3.582000000000000E7    -1.900800764560700E-1  -1.219143792986870E-1   5.254075527191162E-1  -8.118832111358643E-1   5.256173014640808E-1  -8.115413188934326E-1  -1.886719316244125E-1  -1.187382191419601E-1  
 3.584000000000000E7    -1.919353604316711E-1  -1.224300563335419E-1   5.231365561485291E-1  -8.125664591789246E-1   5.235946774482727E-1  -8.129681944847107E-1  -1.906910985708237E-1  -1.190220564603806E-1  
 3.586000000000000E7    -1.942088901996613E-1  -1.231090277433395E-1   5.210539698600769E-1  -8.135290145874023E-1   5.211126804351807E-1  -8.134750127792358E-1  -1.929946839809418E-1  -1.199179962277412E-1  
 3.588000000000000E7    -1.966131329536438E-1  -1.245249137282372E-1   5.184754133224487E-1  -8.141320347785950E-1   5.188113451004028E-1  -8.146539330482483E-1  -1.946597248315811E-1  -1.202271804213524E-1  
 3.590000000000000E7    -1.984671950340271E-1  -1.245685890316963E-1   5.161788463592529E-1  -8.152936697006226E-1   5.162090659141541E-1  -8.149062395095825E-1  -1.977302581071854E-1  -1.212735995650291E-1  
 3.592000000000000E7    -2.004043459892273E-1  -1.247245147824287E-1   5.140642523765564E-1  -8.161714673042297E-1   5.137962698936462E-1  -8.162166476249695E-1  -1.983329951763153E-1  -1.216968894004822E-1  
 3.594000000000000E7    -2.028823941946030E-1  -1.252229809761047E-1   5.119379162788391E-1  -8.172137737274170E-1   5.118359327316284E-1  -8.164774775505066E-1  -2.014105468988419E-1  -1.216595023870468E-1  
 3.596000000000000E7    -2.046148478984833E-1  -1.263979226350784E-1   5.092819929122925E-1  -8.178024888038635E-1   5.098042488098145E-1  -8.176968097686768E-1  -2.034770995378494E-1  -1.223360300064087E-1  
 3.598000000000000E7    -2.062224298715591E-1  -1.266439259052277E-1   5.068764686584473E-1  -8.185463547706604E-1   5.073485374450684E-1  -8.188723921775818E-1  -2.053812295198441E-1  -1.233654916286469E-1  
 3.600000000000000E7    -2.085666209459305E-1  -1.273070722818375E-1   5.045712590217590E-1  -8.196201324462891E-1   5.050832033157349E-1  -8.195360302925110E-1  -2.073998004198074E-1  -1.233779340982437E-1  
 3.602000000000000E7    -2.109607756137848E-1  -1.274419873952866E-1   5.028201937675476E-1  -8.204057216644287E-1   5.030916333198547E-1  -8.203955292701721E-1  -2.094488143920898E-1  -1.237348467111588E-1  
 3.604000000000000E7    -2.123145759105682E-1  -1.282785385847092E-1   5.005599260330200E-1  -8.217042684555054E-1   5.005328655242920E-1  -8.212831616401672E-1  -2.112500369548798E-1  -1.246937215328217E-1  
 3.606000000000000E7    -2.149922847747803E-1  -1.287656277418137E-1   4.981780052185059E-1  -8.223834037780762E-1   4.982033967971802E-1  -8.219992518424988E-1  -2.123240828514099E-1  -1.249481141567230E-1  
 3.608000000000000E7    -2.167783677577972E-1  -1.293113380670548E-1   4.955809712409973E-1  -8.230243921279907E-1   4.961629211902618E-1  -8.227603435516357E-1  -2.152620851993561E-1  -1.256825923919678E-1  
 3.610000000000000E7    -2.185698598623276E-1  -1.303913593292236E-1   4.933647215366364E-1  -8.237482905387878E-1   4.937937557697296E-1  -8.235073089599609E-1  -2.169648557901382E-1  -1.256596446037293E-1  
 3.612000000000000E7    -2.203841358423233E-1  -1.306984424591065E-1   4.910530149936676E-1  -8.247540593147278E-1   4.910843372344971E-1  -8.245257139205933E-1  -2.189201414585114E-1  -1.269882321357727E-1  
 3.614000000000000E7    -2.230365574359894E-1  -1.309440135955811E-1   4.888480305671692E-1  -8.253670930862427E-1   4.890125691890717E-1  -8.250332474708557E-1  -2.210684120655060E-1  -1.264207810163498E-1  
 3.616000000000000E7    -2.249277085065842E-1  -1.312529593706131E-1   4.865781664848328E-1  -8.263685703277588E-1   4.866505861282349E-1  -8.262571096420288E-1  -2.224155664443970E-1  -1.269611120223999E-1  
 3.618000000000000E7    -2.266158759593964E-1  -1.314095854759216E-1   4.845493435859680E-1  -8.267979621887207E-1   4.842299520969391E-1  -8.264259099960327E-1  -2.261216193437576E-1  -1.277657002210617E-1  
 3.620000000000000E7    -2.289585918188095E-1  -1.318019330501556E-1   4.820795059204102E-1  -8.277391195297241E-1   4.821979701519013E-1  -8.276045322418213E-1  -2.270445227622986E-1  -1.275313794612885E-1  
 3.622000000000000E7    -2.306345254182816E-1  -1.319804340600967E-1   4.797310829162598E-1  -8.284474611282349E-1   4.795079827308655E-1  -8.283377885818481E-1  -2.291216552257538E-1  -1.286512464284897E-1  
 3.624000000000000E7    -2.327529489994049E-1  -1.321740299463272E-1   4.776452183723450E-1  -8.290513753890991E-1   4.774510264396668E-1  -8.287457823753357E-1  -2.313311249017716E-1  -1.286915987730026E-1  
 3.626000000000000E7    -2.346609979867935E-1  -1.333443820476532E-1   4.751809835433960E-1  -8.298040628433228E-1   4.750754833221436E-1  -8.296062946319580E-1  -2.331504523754120E-1  -1.291982829570770E-1  
 3.628000000000000E7    -2.368463128805161E-1  -1.336000561714172E-1   4.724519550800324E-1  -8.305165171623230E-1   4.725775122642517E-1  -8.302568197250366E-1  -2.353389412164688E-1  -1.300722360610962E-1  
 3.630000000000000E7    -2.390897572040558E-1  -1.338307559490204E-1   4.704277217388153E-1  -8.312899470329285E-1   4.702271223068237E-1  -8.309269547462463E-1  -2.367947697639465E-1  -1.308072507381439E-1  
 3.632000000000000E7    -2.416901886463165E-1  -1.340951323509216E-1   4.677701592445374E-1  -8.319025635719299E-1   4.679406583309174E-1  -8.311561346054077E-1  -2.391909360885620E-1  -1.307407915592194E-1  
 3.634000000000000E7    -2.431487888097763E-1  -1.346115618944168E-1   4.658354520797730E-1  -8.326147198677063E-1   4.655733406543732E-1  -8.323373198509216E-1  -2.405029088258743E-1  -1.309349536895752E-1  
 3.636000000000000E7    -2.452058494091034E-1  -1.345110684633255E-1   4.633388817310333E-1  -8.331729769706726E-1   4.632869660854340E-1  -8.328931331634522E-1  -2.430647462606430E-1  -1.316359937191010E-1  
 3.638000000000000E7    -2.470602393150330E-1  -1.359550505876541E-1   4.606891274452210E-1  -8.340777754783630E-1   4.613409638404846E-1  -8.335949182510376E-1  -2.451886683702469E-1  -1.310909241437912E-1  
 3.640000000000000E7    -2.493779361248016E-1  -1.354717165231705E-1   4.588254690170288E-1  -8.347120881080627E-1   4.585761725902557E-1  -8.340385556221008E-1  -2.472230792045593E-1  -1.323477923870087E-1  
 3.642000000000000E7    -2.504593729972839E-1  -1.363366395235062E-1   4.564289152622223E-1  -8.354251980781555E-1   4.561863243579865E-1  -8.345965743064880E-1  -2.499335110187531E-1  -1.322090178728104E-1  
 3.644000000000000E7    -2.534746527671814E-1  -1.363532841205597E-1   4.539898335933685E-1  -8.360659480094910E-1   4.539504945278168E-1  -8.351864814758301E-1  -2.515851259231567E-1  -1.330188810825348E-1  
 3.646000000000000E7    -2.549319267272949E-1  -1.367771774530411E-1   4.516858160495758E-1  -8.365563154220581E-1   4.515320360660553E-1  -8.361721634864807E-1  -2.530599236488342E-1  -1.327708959579468E-1  
 3.648000000000000E7    -2.572810053825378E-1  -1.363160014152527E-1   4.495417773723602E-1  -8.368420600891113E-1   4.490804970264435E-1  -8.366389870643616E-1  -2.555370330810547E-1  -1.331430524587631E-1  
 3.650000000000000E7    -2.592900991439819E-1  -1.365907490253449E-1   4.469478130340576E-1  -8.375930786132813E-1   4.467170536518097E-1  -8.371218442916870E-1  -2.575386762619019E-1  -1.339513808488846E-1  
 3.652000000000000E7    -2.611115574836731E-1  -1.374328583478928E-1   4.443562328815460E-1  -8.382551670074463E-1   4.442834854125977E-1  -8.378714919090271E-1  -2.597090303897858E-1  -1.344196796417236E-1  
 3.654000000000000E7    -2.631546854972839E-1  -1.375240534543991E-1   4.420537650585175E-1  -8.386482596397400E-1   4.419380724430084E-1  -8.388974070549011E-1  -2.612435221672058E-1  -1.347393542528153E-1  
 3.656000000000000E7    -2.650722563266754E-1  -1.377328187227249E-1   4.396389424800873E-1  -8.390325903892517E-1   4.397550821304321E-1  -8.387383818626404E-1  -2.646297514438629E-1  -1.342419683933258E-1  
 3.658000000000000E7    -2.670657336711884E-1  -1.380833089351654E-1   4.376309216022492E-1  -8.397919535636902E-1   4.372721314430237E-1  -8.393240571022034E-1  -2.659602463245392E-1  -1.342815905809403E-1  
 3.660000000000000E7    -2.700283527374268E-1  -1.389487981796265E-1   4.348662197589874E-1  -8.401793241500855E-1   4.350287914276123E-1  -8.400665521621704E-1  -2.676246464252472E-1  -1.340970844030380E-1  
 3.662000000000000E7    -2.718897759914398E-1  -1.383365690708160E-1   4.327315092086792E-1  -8.407598733901978E-1   4.323367774486542E-1  -8.405838608741760E-1  -2.697148323059082E-1  -1.350705772638321E-1  
 3.664000000000000E7    -2.737791240215302E-1  -1.386532336473465E-1   4.305869638919830E-1  -8.412685394287109E-1   4.303846061229706E-1  -8.410355448722839E-1  -2.715886831283569E-1  -1.349187195301056E-1  
 3.666000000000000E7    -2.759819328784943E-1  -1.385028064250946E-1   4.281215667724609E-1  -8.418564200401306E-1   4.279829561710358E-1  -8.412271738052368E-1  -2.740499675273895E-1  -1.358996480703354E-1  
 3.668000000000000E7    -2.775400876998901E-1  -1.387453675270081E-1   4.256925582885742E-1  -8.425344228744507E-1   4.257380068302155E-1  -8.419241309165955E-1  -2.759880125522614E-1  -1.356126666069031E-1  
 3.670000000000000E7    -2.794301807880402E-1  -1.397036015987396E-1   4.229190945625305E-1  -8.427422642707825E-1   4.236310720443726E-1  -8.423541188240051E-1  -2.789744138717651E-1  -1.352285444736481E-1  
 3.672000000000000E7    -2.818625271320343E-1  -1.398439854383469E-1   4.209871292114258E-1  -8.433523774147034E-1   4.210185408592224E-1  -8.429405093193054E-1  -2.801913619041443E-1  -1.357133239507675E-1  
 3.674000000000000E7    -2.841222286224365E-1  -1.397804617881775E-1   4.183479547500610E-1  -8.439435362815857E-1   4.187531471252441E-1  -8.433178663253784E-1  -2.816698849201202E-1  -1.357665508985519E-1  
 3.676000000000000E7    -2.855134010314941E-1  -1.395232975482941E-1   4.161171019077301E-1  -8.439514040946960E-1   4.163699150085449E-1  -8.441634178161621E-1  -2.840140759944916E-1  -1.356888860464096E-1  
 3.678000000000000E7    -2.883276641368866E-1  -1.394840776920319E-1   4.137953221797943E-1  -8.447631597518921E-1   4.142251610755920E-1  -8.443208336830139E-1  -2.861264944076538E-1  -1.358018219470978E-1  
 3.680000000000000E7    -2.905124425888062E-1  -1.401054412126541E-1   4.112957417964935E-1  -8.449112772941589E-1   4.114767611026764E-1  -8.450282812118530E-1  -2.873919010162354E-1  -1.365183889865875E-1  
 3.682000000000000E7    -2.917393445968628E-1  -1.402050405740738E-1   4.092935323715210E-1  -8.455175161361694E-1   4.094697237014771E-1  -8.449447154998779E-1  -2.908541858196259E-1  -1.355512738227844E-1  
 3.684000000000000E7    -2.939999401569367E-1  -1.401132643222809E-1   4.067362248897553E-1  -8.460605144500732E-1   4.067322611808777E-1  -8.453215956687927E-1  -2.924689948558807E-1  -1.363505125045776E-1  
 3.686000000000000E7    -2.960917353630066E-1  -1.405181735754013E-1   4.040890932083130E-1  -8.465523123741150E-1   4.043596088886261E-1  -8.464162945747376E-1  -2.936342656612396E-1  -1.366980820894241E-1  
 3.688000000000000E7    -2.978251874446869E-1  -1.404386907815933E-1   4.022052288055420E-1  -8.469948768615723E-1   4.016814231872559E-1  -8.467112183570862E-1  -2.965398430824280E-1  -1.368444263935089E-1  
 3.690000000000000E7    -3.004606366157532E-1  -1.407840847969055E-1   3.994210958480835E-1  -8.471100926399231E-1   3.994828462600708E-1  -8.468957543373108E-1  -2.981687188148499E-1  -1.369899213314056E-1  
 3.692000000000000E7    -3.022888004779816E-1  -1.402110457420349E-1   3.975052535533905E-1  -8.475544452667236E-1   3.972071409225464E-1  -8.474768996238709E-1  -3.000055849552155E-1  -1.371824443340302E-1  
 3.694000000000000E7    -3.044854402542114E-1  -1.403852701187134E-1   3.948814272880554E-1  -8.478740453720093E-1   3.949855268001556E-1  -8.475582003593445E-1  -3.023897111415863E-1  -1.373492479324341E-1  
 3.696000000000000E7    -3.064230680465698E-1  -1.406695842742920E-1   3.924147188663483E-1  -8.482938408851624E-1   3.926675319671631E-1  -8.481302857398987E-1  -3.044887781143189E-1  -1.372832357883453E-1  
 3.698000000000000E7    -3.087712824344635E-1  -1.412614881992340E-1   3.900437057018280E-1  -8.486444354057312E-1   3.902821540832520E-1  -8.484019637107849E-1  -3.062260448932648E-1  -1.366195678710938E-1  
 3.700000000000000E7    -3.103191256523132E-1  -1.407473683357239E-1   3.876838088035584E-1  -8.487876057624817E-1   3.878686130046845E-1  -8.487643003463745E-1  -3.083178102970123E-1  -1.364527493715286E-1  
 3.702000000000000E7    -3.127619028091431E-1  -1.406373679637909E-1   3.853746354579926E-1  -8.493494987487793E-1   3.855729103088379E-1  -8.488871455192566E-1  -3.103924691677094E-1  -1.373270004987717E-1  
 3.704000000000000E7    -3.148940801620483E-1  -1.399547159671783E-1   3.833359777927399E-1  -8.496806621551514E-1   3.831886947154999E-1  -8.494129180908203E-1  -3.119867444038391E-1  -1.371472924947739E-1  
 3.706000000000000E7    -3.166407942771912E-1  -1.408687233924866E-1   3.809874951839447E-1  -8.497711420059204E-1   3.809579610824585E-1  -8.498583436012268E-1  -3.144370019435883E-1  -1.368905305862427E-1  
 3.708000000000000E7    -3.184337019920349E-1  -1.409372389316559E-1   3.785302937030792E-1  -8.501965403556824E-1   3.780256807804108E-1  -8.500708341598511E-1  -3.167594671249390E-1  -1.371255815029144E-1  
 3.710000000000000E7    -3.215599060058594E-1  -1.404295861721039E-1   3.762001693248749E-1  -8.504552245140076E-1   3.761455714702606E-1  -8.499947786331177E-1  -3.185463845729828E-1  -1.370500028133392E-1  
 3.712000000000000E7    -3.225853145122528E-1  -1.400810331106186E-1   3.737708926200867E-1  -8.509452939033508E-1   3.738121390342712E-1  -8.505463004112244E-1  -3.208749294281006E-1  -1.368473470211029E-1  
 3.714000000000000E7    -3.254005908966065E-1  -1.401755958795548E-1   3.714311122894287E-1  -8.510974049568176E-1   3.714013397693634E-1  -8.506566882133484E-1  -3.222430348396301E-1  -1.369919180870056E-1  
 3.716000000000000E7    -3.274261355400085E-1  -1.406621038913727E-1   3.688564300537109E-1  -8.514430522918701E-1   3.691830635070801E-1  -8.508819937705994E-1  -3.245300948619843E-1  -1.364659219980240E-1  
 3.718000000000000E7    -3.282694518566132E-1  -1.399051249027252E-1   3.665626049041748E-1  -8.516504764556885E-1   3.664574623107910E-1  -8.514320254325867E-1  -3.268495500087738E-1  -1.373095214366913E-1  
 3.720000000000000E7    -3.310489356517792E-1  -1.403636932373047E-1   3.644050657749176E-1  -8.517406582832336E-1   3.639306128025055E-1  -8.515493869781494E-1  -3.289307057857513E-1  -1.367121040821075E-1  
 3.722000000000000E7    -3.330878913402557E-1  -1.408993601799011E-1   3.617691397666931E-1  -8.521000146865845E-1   3.618512749671936E-1  -8.514443635940552E-1  -3.308967947959900E-1  -1.361232399940491E-1  
 3.724000000000000E7    -3.356564044952393E-1  -1.399395167827606E-1   3.593188822269440E-1  -8.519188761711121E-1   3.594741821289063E-1  -8.518247604370117E-1  -3.327864706516266E-1  -1.365753412246704E-1  
 3.726000000000000E7    -3.372623920440674E-1  -1.405298113822937E-1   3.570491373538971E-1  -8.525394201278687E-1   3.571423590183258E-1  -8.521360754966736E-1  -3.343677520751953E-1  -1.359978616237640E-1  
 3.728000000000000E7    -3.383868336677551E-1  -1.397109329700470E-1   3.547487258911133E-1  -8.526859283447266E-1   3.550177812576294E-1  -8.527578711509705E-1  -3.366458415985107E-1  -1.364458799362183E-1  
 3.730000000000000E7    -3.407124578952789E-1  -1.390473693609238E-1   3.526087105274200E-1  -8.529446721076965E-1   3.527675867080689E-1  -8.525399565696716E-1  -3.388057947158814E-1  -1.364107131958008E-1  
 3.732000000000000E7    -3.430700004100800E-1  -1.392894089221954E-1   3.501606881618500E-1  -8.529700040817261E-1   3.503709137439728E-1  -8.530766963958740E-1  -3.410125672817230E-1  -1.361081302165985E-1  
 3.734000000000000E7    -3.450101912021637E-1  -1.392730176448822E-1   3.479250669479370E-1  -8.530100584030151E-1   3.482230901718140E-1  -8.527889847755432E-1  -3.436372280120850E-1  -1.351540684700012E-1  
 3.736000000000000E7    -3.472406268119812E-1  -1.390379369258881E-1   3.456502556800842E-1  -8.539550900459290E-1   3.455166816711426E-1  -8.533691763877869E-1  -3.438484072685242E-1  -1.355989873409271E-1  
 3.738000000000000E7    -3.495892882347107E-1  -1.393432468175888E-1   3.432877361774445E-1  -8.533041477203369E-1   3.434297144412994E-1  -8.530755639076233E-1  -3.470176756381989E-1  -1.355455517768860E-1  
 3.740000000000000E7    -3.520160615444183E-1  -1.389721184968948E-1   3.408639132976532E-1  -8.535030484199524E-1   3.406054377555847E-1  -8.536427021026611E-1  -3.481336236000061E-1  -1.353803873062134E-1  
 3.742000000000000E7    -3.530251085758209E-1  -1.394102424383164E-1   3.384923040866852E-1  -8.538350462913513E-1   3.382055163383484E-1  -8.537156581878662E-1  -3.505915403366089E-1  -1.352036595344544E-1  
 3.744000000000000E7    -3.556464314460754E-1  -1.382495313882828E-1   3.361773490905762E-1  -8.536858558654785E-1   3.361124992370606E-1  -8.537715077400208E-1  -3.524321019649506E-1  -1.351063102483749E-1  
 3.746000000000000E7    -3.573940396308899E-1  -1.382976472377777E-1   3.340210914611816E-1  -8.540196418762207E-1   3.341138064861298E-1  -8.537799715995789E-1  -3.550581037998200E-1  -1.344168633222580E-1  
 3.748000000000000E7    -3.596280515193939E-1  -1.380984783172607E-1   3.314596414566040E-1  -8.539789915084839E-1   3.315432369709015E-1  -8.537991642951965E-1  -3.567982316017151E-1  -1.349272429943085E-1  
 3.750000000000000E7    -3.617501854896545E-1  -1.378899514675140E-1   3.290197253227234E-1  -8.538594841957092E-1   3.288722038269043E-1  -8.544409275054932E-1  -3.585832118988037E-1  -1.351105570793152E-1  
 3.752000000000000E7    -3.633098602294922E-1  -1.379426866769791E-1   3.267089426517487E-1  -8.541588783264160E-1   3.265742957592011E-1  -8.540933132171631E-1  -3.609735965728760E-1  -1.344452947378159E-1  
 3.754000000000000E7    -3.653919100761414E-1  -1.375320702791214E-1   3.242573142051697E-1  -8.541284203529358E-1   3.242487907409668E-1  -8.538650870323181E-1  -3.634716868400574E-1  -1.341372877359390E-1  
 3.756000000000000E7    -3.673793673515320E-1  -1.374031752347946E-1   3.217916488647461E-1  -8.542459011077881E-1   3.217658102512360E-1  -8.539507985115051E-1  -3.651567399501801E-1  -1.343141645193100E-1  
 3.758000000000000E7    -3.698243796825409E-1  -1.373562514781952E-1   3.195861279964447E-1  -8.542051315307617E-1   3.197045922279358E-1  -8.542433381080627E-1  -3.666326403617859E-1  -1.333807110786438E-1  
 3.760000000000000E7    -3.712207078933716E-1  -1.367929875850678E-1   3.173058331012726E-1  -8.544037938117981E-1   3.174653351306915E-1  -8.541951775550842E-1  -3.691430091857910E-1  -1.332516372203827E-1  
 3.762000000000000E7    -3.735621571540833E-1  -1.364413499832153E-1   3.147274553775787E-1  -8.543097376823425E-1   3.148029148578644E-1  -8.543277382850647E-1  -3.707020878791809E-1  -1.329391449689865E-1  
 3.764000000000000E7    -3.753601312637329E-1  -1.362942904233933E-1   3.126863837242127E-1  -8.543867468833923E-1   3.128164410591126E-1  -8.542526960372925E-1  -3.727904856204987E-1  -1.324075460433960E-1  
 3.766000000000000E7    -3.780834674835205E-1  -1.360548138618469E-1   3.104595839977264E-1  -8.542382717132568E-1   3.104881048202515E-1  -8.542816042900085E-1  -3.745734095573425E-1  -1.323890686035156E-1  
 3.768000000000000E7    -3.799878656864166E-1  -1.358137726783752E-1   3.079470694065094E-1  -8.545644283294678E-1   3.077743649482727E-1  -8.540306091308594E-1  -3.767395317554474E-1  -1.328654885292053E-1  
 3.770000000000000E7    -3.817805647850037E-1  -1.351948529481888E-1   3.058477044105530E-1  -8.542163968086243E-1   3.058247566223145E-1  -8.538330793380737E-1  -3.796120285987854E-1  -1.317559033632278E-1  
 3.772000000000000E7    -3.839588761329651E-1  -1.353720426559448E-1   3.034227192401886E-1  -8.546031117439270E-1   3.037259578704834E-1  -8.541830778121948E-1  -3.806438446044922E-1  -1.312844157218933E-1  
 3.774000000000000E7    -3.858703970909119E-1  -1.344714611768723E-1   3.011388480663300E-1  -8.543825745582581E-1   3.012593388557434E-1  -8.538490533828735E-1  -3.832993209362030E-1  -1.313139200210571E-1  
 3.776000000000000E7    -3.872829377651215E-1  -1.347611695528030E-1   2.988265752792358E-1  -8.546823859214783E-1   2.987965941429138E-1  -8.543941974639893E-1  -3.844740390777588E-1  -1.310889720916748E-1  
 3.778000000000000E7    -3.896743059158325E-1  -1.338645219802856E-1   2.965178787708283E-1  -8.543176054954529E-1   2.966428995132446E-1  -8.540925383567810E-1  -3.868511617183685E-1  -1.300904899835587E-1  
 3.780000000000000E7    -3.917825222015381E-1  -1.338701248168945E-1   2.941437065601349E-1  -8.543258905410767E-1   2.938141226768494E-1  -8.538528084754944E-1  -3.890829980373383E-1  -1.308658272027969E-1  
 3.782000000000000E7    -3.937450051307678E-1  -1.335133314132690E-1   2.919740974903107E-1  -8.540552258491516E-1   2.921072542667389E-1  -8.538208007812500E-1  -3.912198841571808E-1  -1.296779811382294E-1  
 3.784000000000000E7    -3.961941897869110E-1  -1.329293549060822E-1   2.895812094211578E-1  -8.537297844886780E-1   2.892127931118012E-1  -8.536366224288940E-1  -3.931060433387756E-1  -1.295940130949020E-1  
 3.786000000000000E7    -3.975856006145477E-1  -1.325863003730774E-1   2.872288823127747E-1  -8.543160557746887E-1   2.870875298976898E-1  -8.539024591445923E-1  -3.947894871234894E-1  -1.292625963687897E-1  
 3.788000000000000E7    -4.003660678863525E-1  -1.323461681604385E-1   2.851253151893616E-1  -8.537939190864563E-1   2.848682105541229E-1  -8.535079360008240E-1  -3.966774344444275E-1  -1.287994980812073E-1  
 3.790000000000000E7    -4.018232226371765E-1  -1.318953931331635E-1   2.822809219360352E-1  -8.536118865013123E-1   2.824441194534302E-1  -8.534829020500183E-1  -3.990477919578552E-1  -1.284448206424713E-1  
 3.792000000000000E7    -4.031479060649872E-1  -1.315826028585434E-1   2.802955210208893E-1  -8.536198139190674E-1   2.806285619735718E-1  -8.533972501754761E-1  -4.010750651359558E-1  -1.275117248296738E-1  
 3.794000000000000E7    -4.056553244590759E-1  -1.314001083374023E-1   2.779721617698669E-1  -8.533282279968262E-1   2.780272662639618E-1  -8.533502221107483E-1  -4.031594693660736E-1  -1.271814554929733E-1  
 3.796000000000000E7    -4.074374437332153E-1  -1.301926523447037E-1   2.760126888751984E-1  -8.537380099296570E-1   2.762589752674103E-1  -8.533759713172913E-1  -4.040937125682831E-1  -1.260982304811478E-1  
 3.798000000000000E7    -4.099856615066528E-1  -1.303534060716629E-1   2.737667858600617E-1  -8.534668684005737E-1   2.739199697971344E-1  -8.533983826637268E-1  -4.058437645435333E-1  -1.259509027004242E-1  
 3.800000000000000E7    -4.119570553302765E-1  -1.297663301229477E-1   2.712785899639130E-1  -8.526876568794251E-1   2.712487578392029E-1  -8.532437086105347E-1  -4.079625010490418E-1  -1.259956508874893E-1  
 3.802000000000000E7    -4.133116602897644E-1  -1.288466453552246E-1   2.692649066448212E-1  -8.533344864845276E-1   2.693465948104858E-1  -8.527541756629944E-1  -4.101818203926086E-1  -1.251859366893768E-1  
 3.804000000000000E7    -4.151458740234375E-1  -1.288230717182159E-1   2.664383947849274E-1  -8.529497385025024E-1   2.666180729866028E-1  -8.530616760253906E-1  -4.114511013031006E-1  -1.256886720657349E-1  
 3.806000000000000E7    -4.175608754158020E-1  -1.284544765949249E-1   2.645576298236847E-1  -8.525586128234863E-1   2.644364833831787E-1  -8.524614572525024E-1  -4.139247536659241E-1  -1.246155351400375E-1  
 3.808000000000000E7    -4.190435111522675E-1  -1.276209950447083E-1   2.622737288475037E-1  -8.524649143218994E-1   2.623780369758606E-1  -8.521888256072998E-1  -4.164723455905914E-1  -1.241464391350746E-1  
 3.810000000000000E7    -4.211933612823486E-1  -1.266541481018066E-1   2.604188621044159E-1  -8.520531058311462E-1   2.600859403610230E-1  -8.517976999282837E-1  -4.186795651912689E-1  -1.238248646259308E-1  
 3.812000000000000E7    -4.232491254806519E-1  -1.260332316160202E-1   2.579220533370972E-1  -8.519695401191711E-1   2.580388486385346E-1  -8.515337109565735E-1  -4.204322099685669E-1  -1.233968809247017E-1  
 3.814000000000000E7    -4.252429008483887E-1  -1.258860379457474E-1   2.554670572280884E-1  -8.521952629089356E-1   2.555434107780457E-1  -8.518465161323547E-1  -4.216653704643250E-1  -1.224771514534950E-1  
 3.816000000000000E7    -4.273316264152527E-1  -1.260734796524048E-1   2.533739805221558E-1  -8.515511155128479E-1   2.532735764980316E-1  -8.512750267982483E-1  -4.238461554050446E-1  -1.217061206698418E-1  
 3.818000000000000E7    -4.290946722030640E-1  -1.250544190406799E-1   2.508956789970398E-1  -8.514662384986877E-1   2.510850131511688E-1  -8.507239222526550E-1  -4.262784123420715E-1  -1.215752437710762E-1  
 3.820000000000000E7    -4.312360882759094E-1  -1.247994229197502E-1   2.488560080528259E-1  -8.510894775390625E-1   2.489763945341110E-1  -8.502492308616638E-1  -4.284731745719910E-1  -1.208933070302010E-1  
 3.822000000000000E7    -4.323629736900330E-1  -1.240822747349739E-1   2.464111447334290E-1  -8.511460423469544E-1   2.460805773735046E-1  -8.507027626037598E-1  -4.297744631767273E-1  -1.208576709032059E-1  
 3.824000000000000E7    -4.352085590362549E-1  -1.236644834280014E-1   2.440977543592453E-1  -8.506044745445252E-1   2.440655082464218E-1  -8.504530787467957E-1  -4.318137168884277E-1  -1.201684772968292E-1  
 3.826000000000000E7    -4.365795254707336E-1  -1.228506267070770E-1   2.418045252561569E-1  -8.505785465240479E-1   2.419331222772598E-1  -8.503370881080627E-1  -4.334406554698944E-1  -1.199215650558472E-1  
 3.828000000000000E7    -4.385999441146851E-1  -1.220597475767136E-1   2.400731891393662E-1  -8.500732183456421E-1   2.396094501018524E-1  -8.503147363662720E-1  -4.351443648338318E-1  -1.187941730022430E-1  
 3.830000000000000E7    -4.409044384956360E-1  -1.220653504133225E-1   2.370836138725281E-1  -8.495072126388550E-1   2.374651581048966E-1  -8.493856787681580E-1  -4.377083182334900E-1  -1.181763857603073E-1  
 3.832000000000000E7    -4.423501789569855E-1  -1.212464198470116E-1   2.351439297199249E-1  -8.498781919479370E-1   2.352100014686585E-1  -8.491145372390747E-1  -4.390546977519989E-1  -1.176477670669556E-1  
 3.834000000000000E7    -4.449752569198608E-1  -1.200225353240967E-1   2.334046810865402E-1  -8.490143418312073E-1   2.332933396100998E-1  -8.491654992103577E-1  -4.416618347167969E-1  -1.170788630843163E-1  
 3.836000000000000E7    -4.460775256156921E-1  -1.201802417635918E-1   2.308619171380997E-1  -8.492607474327087E-1   2.304529696702957E-1  -8.488037586212158E-1  -4.431692361831665E-1  -1.169162020087242E-1  
 3.838000000000000E7    -4.477830231189728E-1  -1.192293316125870E-1   2.286802232265472E-1  -8.487484455108643E-1   2.284858673810959E-1  -8.485386967658997E-1  -4.448827207088471E-1  -1.160518676042557E-1  
 3.840000000000000E7    -4.502206444740295E-1  -1.187663525342941E-1   2.267547100782394E-1  -8.483534455299377E-1   2.263305485248566E-1  -8.481793999671936E-1  -4.466767609119415E-1  -1.154012978076935E-1  
 3.842000000000000E7    -4.526022076606751E-1  -1.180223152041435E-1   2.241288572549820E-1  -8.477063179016113E-1   2.242930233478546E-1  -8.478023409843445E-1  -4.487131834030151E-1  -1.147412061691284E-1  
 3.844000000000000E7    -4.534407556056976E-1  -1.172614842653275E-1   2.221242338418961E-1  -8.480396270751953E-1   2.222764492034912E-1  -8.473343253135681E-1  -4.507874548435211E-1  -1.136992648243904E-1  
 3.846000000000000E7    -4.559241831302643E-1  -1.174802109599114E-1   2.198350727558136E-1  -8.473230600357056E-1   2.195582538843155E-1  -8.475240468978882E-1  -4.523472189903259E-1  -1.137801408767700E-1  
 3.848000000000000E7    -4.577338099479675E-1  -1.162077039480209E-1   2.179853469133377E-1  -8.469176888465881E-1   2.178639024496079E-1  -8.467460870742798E-1  -4.542893767356873E-1  -1.125772520899773E-1  
 3.850000000000000E7    -4.595486819744110E-1  -1.157156750559807E-1   2.156118005514145E-1  -8.467451930046082E-1   2.149680703878403E-1  -8.467368483543396E-1  -4.554219245910645E-1  -1.120808124542236E-1  
 3.852000000000000E7    -4.612881243228912E-1  -1.149562224745750E-1   2.128907442092896E-1  -8.461410999298096E-1   2.138603180646896E-1  -8.458703160285950E-1  -4.578663110733032E-1  -1.112524420022965E-1  
 3.854000000000000E7    -4.635206162929535E-1  -1.140560135245323E-1   2.109314352273941E-1  -8.458081483840942E-1   2.107803374528885E-1  -8.457624912261963E-1  -4.599353075027466E-1  -1.108469069004059E-1  
 3.856000000000000E7    -4.653554260730743E-1  -1.137444004416466E-1   2.087436467409134E-1  -8.453351855278015E-1   2.086446732282639E-1  -8.454992771148682E-1  -4.616016149520874E-1  -1.101670414209366E-1  
 3.858000000000000E7    -4.668225049972534E-1  -1.131799370050430E-1   2.065169513225555E-1  -8.451218008995056E-1   2.064882814884186E-1  -8.446844816207886E-1  -4.641791582107544E-1  -1.093519181013107E-1  
 3.860000000000000E7    -4.688994884490967E-1  -1.122785210609436E-1   2.040505260229111E-1  -8.447749018669128E-1   2.045430839061737E-1  -8.449889421463013E-1  -4.649151265621185E-1  -1.087798550724983E-1  
 3.862000000000000E7    -4.708070755004883E-1  -1.119998767971993E-1   2.020415514707565E-1  -8.440306186676025E-1   2.019821852445602E-1  -8.442423343658447E-1  -4.667401909828186E-1  -1.080950573086739E-1  
 3.864000000000000E7    -4.724497199058533E-1  -1.111957132816315E-1   2.000213265419006E-1  -8.436861634254456E-1   1.998263150453568E-1  -8.437720537185669E-1  -4.690655469894409E-1  -1.075133979320526E-1  
 3.866000000000000E7    -4.740171134471893E-1  -1.101532652974129E-1   1.980643272399902E-1  -8.437275886535645E-1   1.979918032884598E-1  -8.430955410003662E-1  -4.707809686660767E-1  -1.065905839204788E-1  
 3.868000000000000E7    -4.761495590209961E-1  -1.098622381687164E-1   1.956836134195328E-1  -8.430453538894653E-1   1.957124322652817E-1  -8.424993753433228E-1  -4.729059934616089E-1  -1.057142019271851E-1  
 3.870000000000000E7    -4.778463244438171E-1  -1.086264029145241E-1   1.934869438409805E-1  -8.427292704582214E-1   1.933920979499817E-1  -8.426865935325623E-1  -4.739941060543060E-1  -1.055947765707970E-1  
 3.872000000000000E7    -4.799369573593140E-1  -1.076487749814987E-1   1.914013773202896E-1  -8.421642780303955E-1   1.915286779403687E-1  -8.419396877288818E-1  -4.762062430381775E-1  -1.046781912446022E-1  
 3.874000000000000E7    -4.817989766597748E-1  -1.073019877076149E-1   1.891151964664459E-1  -8.414635658264160E-1   1.895760595798492E-1  -8.412950634956360E-1  -4.781078398227692E-1  -1.035664901137352E-1  
 3.876000000000000E7    -4.834824204444885E-1  -1.063330024480820E-1   1.870206743478775E-1  -8.412337899208069E-1   1.869280189275742E-1  -8.409556150436401E-1  -4.797756969928742E-1  -1.031057983636856E-1  
 3.878000000000000E7    -4.851399660110474E-1  -1.061173155903816E-1   1.846796572208405E-1  -8.408553004264832E-1   1.845721751451492E-1  -8.407954573631287E-1  -4.815494418144226E-1  -1.024354994297028E-1  
 3.880000000000000E7    -4.867347478866577E-1  -1.047232523560524E-1   1.827709227800369E-1  -8.402980566024780E-1   1.828002929687500E-1  -8.403584957122803E-1  -4.832010269165039E-1  -1.014933139085770E-1  
 3.882000000000000E7    -4.892847537994385E-1  -1.037717163562775E-1   1.809449195861816E-1  -8.396492600440979E-1   1.805157065391541E-1  -8.396526575088501E-1  -4.854738712310791E-1  -1.006325110793114E-1  
 3.884000000000000E7    -4.907098114490509E-1  -1.035118922591209E-1   1.787386089563370E-1  -8.391205668449402E-1   1.785749793052673E-1  -8.388188481330872E-1  -4.877494573593140E-1  -9.969819337129593E-2  
 3.886000000000000E7    -4.925096631050110E-1  -1.021946892142296E-1   1.766486614942551E-1  -8.386331796646118E-1   1.766291260719299E-1  -8.386979103088379E-1  -4.887720644474030E-1  -9.912913292646408E-2  
 3.888000000000000E7    -4.941589236259460E-1  -1.015511155128479E-1   1.745500117540360E-1  -8.380809426307678E-1   1.745380014181137E-1  -8.381692171096802E-1  -4.906797111034393E-1  -9.821832925081253E-2  
 3.890000000000000E7    -4.962669312953949E-1  -1.013922467827797E-1   1.720335781574249E-1  -8.373055458068848E-1   1.718859672546387E-1  -8.373408913612366E-1  -4.927344322204590E-1  -9.756042063236237E-2  
 3.892000000000000E7    -4.980572462081909E-1  -9.999834746122360E-2   1.702521443367004E-1  -8.369281291961670E-1   1.699472665786743E-1  -8.370795249938965E-1  -4.940522909164429E-1  -9.689242392778397E-2  
 3.894000000000000E7    -4.994395077228546E-1  -9.927500784397125E-2   1.683070510625839E-1  -8.366564512252808E-1   1.681832373142242E-1  -8.363928794860840E-1  -4.957344532012940E-1  -9.584036469459534E-2  
 3.896000000000000E7    -5.015763640403748E-1  -9.851983934640884E-2   1.661181300878525E-1  -8.358042836189270E-1   1.658200472593308E-1  -8.358830809593201E-1  -4.976917803287506E-1  -9.493919461965561E-2  
 3.898000000000000E7    -5.032180547714233E-1  -9.789261966943741E-2   1.636671274900436E-1  -8.356405496597290E-1   1.640108674764633E-1  -8.357142210006714E-1  -4.990487098693848E-1  -9.410149604082108E-2  
 3.900000000000000E7    -5.053091049194336E-1  -9.618154168128967E-2   1.621429175138474E-1  -8.350535035133362E-1   1.620350182056427E-1  -8.348658084869385E-1  -5.012190341949463E-1  -9.313759207725525E-2  
 3.902000000000000E7    -5.068761110305786E-1  -9.553718566894531E-2   1.599301248788834E-1  -8.341814279556274E-1   1.596624851226807E-1  -8.342258334159851E-1  -5.030233263969421E-1  -9.264401346445084E-2  
 3.904000000000000E7    -5.089235305786133E-1  -9.531973302364349E-2   1.573805809020996E-1  -8.333954215049744E-1   1.579253077507019E-1  -8.335206508636475E-1  -5.047695636749268E-1  -9.118256717920303E-2  
 3.906000000000000E7    -5.100376605987549E-1  -9.374660253524780E-2   1.560283452272415E-1  -8.331955671310425E-1   1.557617932558060E-1  -8.333211541175842E-1  -5.063731074333191E-1  -9.013032913208008E-2  
 3.908000000000000E7    -5.117805004119873E-1  -9.292125701904297E-2   1.534890234470367E-1  -8.325961232185364E-1   1.533396542072296E-1  -8.323562145233154E-1  -5.082500576972961E-1  -9.032194316387177E-2  
 3.910000000000000E7    -5.131353139877319E-1  -9.277751296758652E-2   1.512858271598816E-1  -8.323972821235657E-1   1.514791399240494E-1  -8.321012854576111E-1  -5.099796652793884E-1  -8.854641765356064E-2  
 3.912000000000000E7    -5.151253938674927E-1  -9.119828045368195E-2   1.495786756277084E-1  -8.314782977104187E-1   1.492563188076019E-1  -8.310298919677734E-1  -5.122178792953491E-1  -8.845736831426621E-2  
 3.914000000000000E7    -5.175230503082275E-1  -9.101127088069916E-2   1.468347609043121E-1  -8.307492136955261E-1   1.473125368356705E-1  -8.305355906486511E-1  -5.135291814804077E-1  -8.709980547428131E-2  
 3.916000000000000E7    -5.193098187446594E-1  -9.005528688430786E-2   1.449780464172363E-1  -8.299161791801453E-1   1.453287303447723E-1  -8.299562335014343E-1  -5.149642229080200E-1  -8.619150519371033E-2  
 3.918000000000000E7    -5.204579234123230E-1  -8.812792599201202E-2   1.434973329305649E-1  -8.295937180519104E-1   1.431566327810288E-1  -8.292478322982788E-1  -5.169820189476013E-1  -8.552294969558716E-2  
 3.920000000000000E7    -5.218449831008911E-1  -8.848635852336884E-2   1.406931579113007E-1  -8.293597102165222E-1   1.409020572900772E-1  -8.289572596549988E-1  -5.182970166206360E-1  -8.486714959144592E-2  
 3.922000000000000E7    -5.238397121429443E-1  -8.648556470870972E-2   1.392627507448196E-1  -8.283854126930237E-1   1.391353160142899E-1  -8.280030488967896E-1  -5.203077197074890E-1  -8.372650295495987E-2  
 3.924000000000000E7    -5.252373218536377E-1  -8.538699895143509E-2   1.374959498643875E-1  -8.280047178268433E-1   1.374014765024185E-1  -8.277269601821899E-1  -5.217019915580750E-1  -8.243279159069061E-2  
 3.926000000000000E7    -5.275868773460388E-1  -8.514743298292160E-2   1.350954324007034E-1  -8.266775608062744E-1   1.349288523197174E-1  -8.266150951385498E-1  -5.237299203872681E-1  -8.188999444246292E-2  
 3.928000000000000E7    -5.289726853370667E-1  -8.437208831310272E-2   1.330059319734573E-1  -8.263349533081055E-1   1.329393535852432E-1  -8.262587785720825E-1  -5.250134468078613E-1  -8.068224787712097E-2  
 3.930000000000000E7    -5.306739807128906E-1  -8.342416584491730E-2   1.311252713203430E-1  -8.253422975540161E-1   1.311436146497726E-1  -8.253372907638550E-1  -5.271493196487427E-1  -7.949887216091156E-2  
 3.932000000000000E7    -5.320010185241699E-1  -8.262909203767777E-2   1.290165334939957E-1  -8.253309726715088E-1   1.289920061826706E-1  -8.251002430915833E-1  -5.283870100975037E-1  -7.886075228452683E-2  
 3.934000000000000E7    -5.345779061317444E-1  -8.136331290006638E-2   1.267884075641632E-1  -8.238536715507507E-1   1.267288774251938E-1  -8.242566585540772E-1  -5.300158262252808E-1  -7.831567525863648E-2  
 3.936000000000000E7    -5.355831980705261E-1  -8.012381196022034E-2   1.251918226480484E-1  -8.240877389907837E-1   1.250953227281570E-1  -8.237783312797546E-1  -5.314233899116516E-1  -7.673140615224838E-2  
 3.938000000000000E7    -5.373386740684509E-1  -7.855777442455292E-2   1.233374103903770E-1  -8.227955102920532E-1   1.224428340792656E-1  -8.226496577262878E-1  -5.338455438613892E-1  -7.659849524497986E-2  
 3.940000000000000E7    -5.387185811996460E-1  -7.843021303415299E-2   1.212277337908745E-1  -8.225301504135132E-1   1.205831095576286E-1  -8.223261237144470E-1  -5.351781845092773E-1  -7.541124522686005E-2  
 3.942000000000000E7    -5.406358242034912E-1  -7.741198688745499E-2   1.189983785152435E-1  -8.217864036560059E-1   1.192394271492958E-1  -8.217191696166992E-1  -5.369069576263428E-1  -7.441427558660507E-2  
 3.944000000000000E7    -5.422943234443665E-1  -7.604181766510010E-2   1.171512901782990E-1  -8.210626244544983E-1   1.171502396464348E-1  -8.208869099617004E-1  -5.385364294052124E-1  -7.347595691680908E-2  
 3.946000000000000E7    -5.440469980239868E-1  -7.522472739219666E-2   1.150176152586937E-1  -8.201205730438232E-1   1.148520708084106E-1  -8.198724389076233E-1  -5.401273369789124E-1  -7.244101911783218E-2  
 3.948000000000000E7    -5.454834699630737E-1  -7.433570921421051E-2   1.131103038787842E-1  -8.196768164634705E-1   1.133411377668381E-1  -8.196890354156494E-1  -5.416176319122315E-1  -7.084434479475021E-2  
 3.950000000000000E7    -5.470516085624695E-1  -7.302953302860260E-2   1.109721288084984E-1  -8.188940286636353E-1   1.111578270792961E-1  -8.186609148979187E-1  -5.434181094169617E-1  -6.989715248346329E-2  
 3.952000000000000E7    -5.485919117927551E-1  -7.212731987237930E-2   1.090652644634247E-1  -8.184920549392700E-1   1.095463708043098E-1  -8.179237842559815E-1  -5.450657010078430E-1  -6.886330246925354E-2  
 3.954000000000000E7    -5.502143502235413E-1  -7.115841656923294E-2   1.073874682188034E-1  -8.173620104789734E-1   1.075228974223137E-1  -8.171602487564087E-1  -5.465677380561829E-1  -6.748898327350617E-2  
 3.956000000000000E7    -5.522254109382629E-1  -7.042138278484345E-2   1.050085946917534E-1  -8.166821002960205E-1   1.051255986094475E-1  -8.160783052444458E-1  -5.485463738441467E-1  -6.736061722040176E-2  
 3.958000000000000E7    -5.540862083435059E-1  -6.874580681324005E-2   1.036465018987656E-1  -8.158294558525085E-1   1.033508107066155E-1  -8.156088590621948E-1  -5.497897267341614E-1  -6.629055738449097E-2  
 3.960000000000000E7    -5.551326274871826E-1  -6.782335042953491E-2   1.014833822846413E-1  -8.151884675025940E-1   1.016594916582108E-1  -8.145285844802856E-1  -5.515351891517639E-1  -6.482338905334473E-2  
 3.962000000000000E7    -5.575730800628662E-1  -6.682606041431427E-2   9.983491152524948E-2  -8.140826225280762E-1   9.938982129096985E-2  -8.140813112258911E-1  -5.529960989952087E-1  -6.365257501602173E-2  
 3.964000000000000E7    -5.585066676139832E-1  -6.617987900972366E-2   9.746974706649780E-2  -8.134224414825440E-1   9.758488833904266E-2  -8.132823109626770E-1  -5.542845726013184E-1  -6.263390183448792E-2  
 3.966000000000000E7    -5.600094795227051E-1  -6.523628532886505E-2   9.530588984489441E-2  -8.128707408905029E-1   9.561244398355484E-2  -8.127917051315308E-1  -5.555050373077393E-1  -6.153706461191177E-2  
 3.968000000000000E7    -5.618739128112793E-1  -6.401961296796799E-2   9.377775341272354E-2  -8.117450475692749E-1   9.362425655126572E-2  -8.113233447074890E-1  -5.580730438232422E-1  -6.112643703818321E-2  
 3.970000000000000E7    -5.632119178771973E-1  -6.283804029226303E-2   9.185266494750977E-2  -8.111763596534729E-1   9.182993322610855E-2  -8.112257719039917E-1  -5.589620471000671E-1  -5.964102968573570E-2  
 3.972000000000000E7    -5.649607181549072E-1  -6.170912832021713E-2   8.980078995227814E-2  -8.100961446762085E-1   9.013675153255463E-2  -8.098613619804382E-1  -5.609483718872070E-1  -5.819182470440865E-2  
 3.974000000000000E7    -5.665735006332398E-1  -6.088414788246155E-2   8.785472810268402E-2  -8.092359900474548E-1   8.774552494287491E-2  -8.090096712112427E-1  -5.625438094139099E-1  -5.755049735307694E-2  
 3.976000000000000E7    -5.679542422294617E-1  -5.942085757851601E-2   8.610576391220093E-2  -8.087000846862793E-1   8.586112409830093E-2  -8.087587952613831E-1  -5.639191269874573E-1  -5.676667392253876E-2  
 3.978000000000000E7    -5.697165727615356E-1  -5.856471136212349E-2   8.413755893707275E-2  -8.077184557914734E-1   8.449213206768036E-2  -8.077165484428406E-1  -5.650881528854370E-1  -5.510066449642181E-2  
 3.980000000000000E7    -5.712900161743164E-1  -5.722073838114739E-2   8.257144689559937E-2  -8.069929480552673E-1   8.253487944602966E-2  -8.067679405212402E-1  -5.672195553779602E-1  -5.406227707862854E-2  
 3.982000000000000E7    -5.729830265045166E-1  -5.580046772956848E-2   8.054493367671967E-2  -8.060392141342163E-1   8.083065599203110E-2  -8.062909841537476E-1  -5.683577656745911E-1  -5.300255119800568E-2  
 3.984000000000000E7    -5.739542245864868E-1  -5.503696948289871E-2   7.864183932542801E-2  -8.057388663291931E-1   7.818946242332459E-2  -8.050772547721863E-1  -5.702636241912842E-1  -5.244014412164688E-2  
 3.986000000000000E7    -5.754405260086060E-1  -5.409829318523407E-2   7.651588320732117E-2  -8.046639561653137E-1   7.653097063302994E-2  -8.047222495079041E-1  -5.712188482284546E-1  -5.115194618701935E-2  
 3.988000000000000E7    -5.771392583847046E-1  -5.299408361315727E-2   7.524432986974716E-2  -8.036640286445618E-1   7.489138841629028E-2  -8.035278320312500E-1  -5.729643702507019E-1  -4.939792305231094E-2  
 3.990000000000000E7    -5.790165066719055E-1  -5.169241502881050E-2   7.277251780033112E-2  -8.029425144195557E-1   7.269890606403351E-2  -8.028255701065064E-1  -5.744494199752808E-1  -4.910186305642128E-2  
 3.992000000000000E7    -5.801564455032349E-1  -5.078676715493202E-2   7.110042870044708E-2  -8.021194934844971E-1   7.087060809135437E-2  -8.017680644989014E-1  -5.759969949722290E-1  -4.772328585386276E-2  
 3.994000000000000E7    -5.818703770637512E-1  -4.975403845310211E-2   6.917038559913635E-2  -8.011207580566406E-1   6.877926737070084E-2  -8.010293245315552E-1  -5.776887536048889E-1  -4.696395993232727E-2  
 3.996000000000000E7    -5.835391879081726E-1  -4.789531975984573E-2   6.759658455848694E-2  -7.999396324157715E-1   6.769624352455139E-2  -8.001247644424439E-1  -5.791148543357849E-1  -4.505680501461029E-2  
 3.998000000000000E7    -5.848747491836548E-1  -4.765914380550385E-2   6.533516943454742E-2  -7.990615963935852E-1   6.548713892698288E-2  -7.993532419204712E-1  -5.804215073585510E-1  -4.456872493028641E-2  
 4.000000000000000E7    -5.862299799919128E-1  -4.575729370117188E-2   6.374365091323853E-2  -7.984776496887207E-1   6.333617120981216E-2  -7.986006736755371E-1  -5.817381739616394E-1  -4.353857412934303E-2  
 4.002000000000000E7    -5.881162285804749E-1  -4.464837163686752E-2   6.192986667156220E-2  -7.974372506141663E-1   6.190747767686844E-2  -7.975336909294128E-1  -5.836864709854126E-1  -4.241625219583511E-2  
 4.004000000000000E7    -5.894048810005188E-1  -4.378113150596619E-2   6.003715097904205E-2  -7.967647910118103E-1   5.986288562417030E-2  -7.967705130577087E-1  -5.848731994628906E-1  -4.071937128901482E-2  
 4.006000000000000E7    -5.905880928039551E-1  -4.215328395366669E-2   5.862354487180710E-2  -7.961472272872925E-1   5.818653106689453E-2  -7.957692742347717E-1  -5.865981578826904E-1  -3.967904299497604E-2  
 4.008000000000000E7    -5.918074250221252E-1  -4.129838943481445E-2   5.670605599880219E-2  -7.955238223075867E-1   5.686551332473755E-2  -7.948663234710693E-1  -5.878770947456360E-1  -3.812087699770927E-2  
 4.010000000000000E7    -5.935190320014954E-1  -3.992484509944916E-2   5.481783300638199E-2  -7.941305041313171E-1   5.460461974143982E-2  -7.939926385879517E-1  -5.893639326095581E-1  -3.723707795143127E-2  
 4.012000000000000E7    -5.957189202308655E-1  -3.928049653768539E-2   5.280777812004089E-2  -7.930622100830078E-1   5.274137109518051E-2  -7.929530143737793E-1  -5.906170010566711E-1  -3.607033938169479E-2  
 4.014000000000000E7    -5.968053936958313E-1  -3.781578689813614E-2   5.120743811130524E-2  -7.918319106101990E-1   5.078591778874397E-2  -7.921251058578491E-1  -5.920826792716980E-1  -3.495329618453980E-2  
 4.016000000000000E7    -5.982280373573303E-1  -3.666245564818382E-2   4.935547709465027E-2  -7.911269664764404E-1   4.901599884033203E-2  -7.912041544914246E-1  -5.932661294937134E-1  -3.412669152021408E-2  
 4.018000000000000E7    -5.995383858680725E-1  -3.528674319386482E-2   4.779040068387985E-2  -7.902741432189941E-1   4.708326607942581E-2  -7.901270389556885E-1  -5.948525071144104E-1  -3.262913599610329E-2  
 4.020000000000000E7    -6.010263562202454E-1  -3.376692533493042E-2   4.627009481191635E-2  -7.895921468734741E-1   4.603154584765434E-2  -7.894577980041504E-1  -5.964721441268921E-1  -3.102291002869606E-2  
 4.022000000000000E7    -6.023380756378174E-1  -3.305450454354286E-2   4.403518885374069E-2  -7.882578969001770E-1   4.451952502131462E-2  -7.885746359825134E-1  -5.980798602104187E-1  -2.955606207251549E-2  
 4.024000000000000E7    -6.038019061088562E-1  -3.164254128932953E-2   4.242814332246780E-2  -7.875577211380005E-1   4.182979837059975E-2  -7.874262928962708E-1  -5.996950864791870E-1  -2.906402200460434E-2  
 4.026000000000000E7    -6.048815250396729E-1  -3.100550919771195E-2   4.022975265979767E-2  -7.867836356163025E-1   4.041770100593567E-2  -7.865256667137146E-1  -6.005792617797852E-1  -2.757712081074715E-2  
 4.028000000000000E7    -6.068778038024902E-1  -2.913990616798401E-2   3.917406126856804E-2  -7.856798768043518E-1   3.893462568521500E-2  -7.854875326156616E-1  -6.020019650459290E-1  -2.662673220038414E-2  
 4.030000000000000E7    -6.085288524627686E-1  -2.758668363094330E-2   3.732181340456009E-2  -7.841367721557617E-1   3.717625141143799E-2  -7.844155430793762E-1  -6.034052371978760E-1  -2.534066140651703E-2  
 4.032000000000000E7    -6.091042160987854E-1  -2.671955898404121E-2   3.547289967536926E-2  -7.838371992111206E-1   3.565976023674011E-2  -7.830656766891480E-1  -6.052966117858887E-1  -2.371711656451225E-2  
 4.034000000000000E7    -6.110842227935791E-1  -2.572632953524590E-2   3.387404978275299E-2  -7.822749614715576E-1   3.363981097936630E-2  -7.826046347618103E-1  -6.060311198234558E-1  -2.254454046487808E-2  
 4.036000000000000E7    -6.120625734329224E-1  -2.478281781077385E-2   3.163049370050430E-2  -7.822670340538025E-1   3.216584026813507E-2  -7.814541459083557E-1  -6.076271533966065E-1  -2.095982804894447E-2  
 4.038000000000000E7    -6.135388612747192E-1  -2.313379943370819E-2   3.025782853364945E-2  -7.805209159851074E-1   3.011951223015785E-2  -7.804206609725952E-1  -6.089177131652832E-1  -2.037130296230316E-2  
 4.040000000000000E7    -6.146695613861084E-1  -2.165930345654488E-2   2.872678078711033E-2  -7.800650000572205E-1   2.823712676763535E-2  -7.797436714172363E-1  -6.101318597793579E-1  -1.931865513324738E-2  
 4.042000000000000E7    -6.161878108978272E-1  -2.004809677600861E-2   2.685149386525154E-2  -7.789835333824158E-1   2.687487937510014E-2  -7.784030437469482E-1  -6.118554472923279E-1  -1.798070222139359E-2  
 4.044000000000000E7    -6.180379390716553E-1  -1.936044171452522E-2   2.496691048145294E-2  -7.776676416397095E-1   2.502798289060593E-2  -7.778910398483276E-1  -6.129446029663086E-1  -1.627034693956375E-2  
 4.046000000000000E7    -6.193175315856934E-1  -1.802154257893562E-2   2.338023670017719E-2  -7.765094637870789E-1   2.367413043975830E-2  -7.764083743095398E-1  -6.149302721023560E-1  -1.524561271071434E-2  
 4.048000000000000E7    -6.202573180198669E-1  -1.721274107694626E-2   2.175673656165600E-2  -7.759494781494141E-1   2.185107767581940E-2  -7.756174802780151E-1  -6.160098910331726E-1  -1.324060559272766E-2  
 4.050000000000000E7    -6.215996146202087E-1  -1.575148478150368E-2   2.001576870679855E-2  -7.748430967330933E-1   1.972553506493568E-2  -7.742970585823059E-1  -6.172937154769898E-1  -1.279709488153458E-2  
 4.052000000000000E7    -6.230781078338623E-1  -1.383095234632492E-2   1.880220510065556E-2  -7.742719650268555E-1   1.842144504189491E-2  -7.738086581230164E-1  -6.182509660720825E-1  -1.157444715499878E-2  
 4.054000000000000E7    -6.241418123245239E-1  -1.286905258893967E-2   1.694008521735668E-2  -7.729988694190979E-1   1.690044440329075E-2  -7.725251913070679E-1  -6.197906136512756E-1  -9.691525250673294E-3  
 4.056000000000000E7    -6.263288259506226E-1  -1.158642768859863E-2   1.533382572233677E-2  -7.712445259094238E-1   1.488864421844482E-2  -7.713856697082520E-1  -6.210651993751526E-1  -8.795570582151413E-3  
 4.058000000000000E7    -6.272612214088440E-1  -1.022158563137054E-2   1.363337319344282E-2  -7.707207202911377E-1   1.353853382170200E-2  -7.703653573989868E-1  -6.228622198104858E-1  -7.470536977052689E-3  
 4.060000000000000E7    -6.288877725601196E-1  -8.868578821420670E-3   1.164161320775747E-2  -7.694801092147827E-1   1.182746421545744E-2  -7.695085406303406E-1  -6.236072182655335E-1  -6.312634795904160E-3  
 4.062000000000000E7    -6.295145750045776E-1  -7.452350109815598E-3   1.019933819770813E-2  -7.686560153961182E-1   9.944824501872063E-3  -7.684806585311890E-1  -6.250677108764648E-1  -5.222376435995102E-3  
 4.064000000000000E7    -6.312655806541443E-1  -6.427437067031860E-3   8.297698572278023E-3  -7.672304511070252E-1   8.867021650075913E-3  -7.673696875572205E-1  -6.261693835258484E-1  -3.611411899328232E-3  
 4.066000000000000E7    -6.325119733810425E-1  -4.874058067798615E-3   7.116876542568207E-3  -7.662219405174255E-1   6.890872493386269E-3  -7.661885619163513E-1  -6.273508667945862E-1  -2.451837062835693E-3  
 4.068000000000000E7    -6.336191892623901E-1  -3.783646970987320E-3   5.312519147992134E-3  -7.653711438179016E-1   5.014320835471153E-3  -7.653487920761108E-1  -6.288596391677856E-1  -1.420091837644577E-3  
 4.070000000000000E7    -6.348524689674377E-1  -2.009078860282898E-3   4.277493804693222E-3  -7.642703056335449E-1   3.876980394124985E-3  -7.641674280166626E-1  -6.304121017456055E-1   3.257356584072113E-4  
 4.072000000000000E7    -6.364208459854126E-1  -9.950995445251465E-4   2.571502700448036E-3  -7.631085515022278E-1   1.880940049886704E-3  -7.633005380630493E-1  -6.316747069358826E-1   1.708239316940308E-3  
 4.074000000000000E7    -6.376156210899353E-1   1.153424527728930E-4   7.657650858163834E-4  -7.622470259666443E-1   7.114745676517487E-4  -7.621641159057617E-1  -6.328193545341492E-1   3.327041864395142E-3  
 4.076000000000000E7    -6.391437649726868E-1   1.593068242073059E-3  -7.910542190074921E-4  -7.611116170883179E-1  -1.285513862967491E-3  -7.609941959381104E-1  -6.337119340896606E-1   4.323001950979233E-3  
 4.078000000000000E7    -6.394364833831787E-1   3.012500703334808E-3  -2.405162900686264E-3  -7.607470750808716E-1  -2.768544480204582E-3  -7.600969076156616E-1  -6.350740790367127E-1   5.663704127073288E-3  
 4.080000000000000E7    -6.412278413772583E-1   4.342570900917053E-3  -4.492152482271195E-3  -7.592008709907532E-1  -4.287883639335632E-3  -7.588453888893127E-1  -6.365938186645508E-1   6.472088396549225E-3  
 4.082000000000000E7    -6.425878405570984E-1   5.714502185583115E-3  -5.385259166359901E-3  -7.580025792121887E-1  -5.575371906161308E-3  -7.575933933258057E-1  -6.378707289695740E-1   8.333887904882431E-3  
 4.084000000000000E7    -6.438677310943604E-1   6.585549563169479E-3  -7.521700114011765E-3  -7.567830085754395E-1  -7.333081215620041E-3  -7.568917870521545E-1  -6.389536261558533E-1   9.645313024520874E-3  
 4.086000000000000E7    -6.449589729309082E-1   8.089125156402588E-3  -9.047728031873703E-3  -7.557212710380554E-1  -9.061675518751144E-3  -7.558299303054810E-1  -6.398865580558777E-1   1.111121289432049E-2  
 4.088000000000000E7    -6.463151574134827E-1   9.615924209356308E-3  -1.051088422536850E-2  -7.551438212394714E-1  -1.072047464549542E-2  -7.543812394142151E-1  -6.412736177444458E-1   1.227299682796001E-2  
 4.090000000000000E7    -6.473023891448975E-1   1.095635071396828E-2  -1.182533428072929E-2  -7.537066936492920E-1  -1.199990883469582E-2  -7.532451748847961E-1  -6.425617933273315E-1   1.370380632579327E-2  
 4.092000000000000E7    -6.485142707824707E-1   1.223086193203926E-2  -1.357352733612061E-2  -7.526566982269287E-1  -1.404482871294022E-2  -7.527192831039429E-1  -6.437389850616455E-1   1.471208594739437E-2  
 4.094000000000000E7    -6.496810913085938E-1   1.370875164866447E-2  -1.519323885440826E-2  -7.518455982208252E-1  -1.530173048377037E-2  -7.514835596084595E-1  -6.447512507438660E-1   1.618551090359688E-2  
 4.096000000000000E7    -6.510877609252930E-1   1.532213389873505E-2  -1.640831306576729E-2  -7.502297759056091E-1  -1.721466705203056E-2  -7.503223419189453E-1  -6.460691094398499E-1   1.736193895339966E-2  
 4.098000000000000E7    -6.522189974784851E-1   1.638937182724476E-2  -1.845974475145340E-2  -7.493776082992554E-1  -1.816662214696407E-2  -7.493995428085327E-1  -6.471810340881348E-1   1.916727796196938E-2  
 4.100000000000000E7    -6.535755395889282E-1   1.756681129336357E-2  -1.937321573495865E-2  -7.484291791915894E-1  -2.009429596364498E-2  -7.479341030120850E-1  -6.484274268150330E-1   2.072070538997650E-2  
 4.102000000000000E7    -6.543334722518921E-1   1.917806081473827E-2  -2.134041115641594E-2  -7.473801374435425E-1  -2.162064053118229E-2  -7.474085688591003E-1  -6.493284702301025E-1   2.182563394308090E-2  
 4.104000000000000E7    -6.559096574783325E-1   2.048938721418381E-2  -2.292959019541740E-2  -7.460764050483704E-1  -2.295189537107945E-2  -7.456939816474915E-1  -6.512163877487183E-1   2.318036928772926E-2  
 4.106000000000000E7    -6.565662622451782E-1   2.221764624118805E-2  -2.412967011332512E-2  -7.450730800628662E-1  -2.460161782801151E-2  -7.450006008148193E-1  -6.516674160957336E-1   2.418614737689495E-2  
 4.108000000000000E7    -6.583610773086548E-1   2.377844415605068E-2  -2.550919726490974E-2  -7.434026598930359E-1  -2.599311619997025E-2  -7.434931993484497E-1  -6.531599760055542E-1   2.582698501646519E-2  
 4.110000000000000E7    -6.588932275772095E-1   2.486199885606766E-2  -2.715879678726196E-2  -7.430061101913452E-1  -2.762139961123467E-2  -7.424943447113037E-1  -6.544881463050842E-1   2.735407277941704E-2  
 4.112000000000000E7    -6.601207256317139E-1   2.624298632144928E-2  -2.909587323665619E-2  -7.420506477355957E-1  -2.884493768215179E-2  -7.414114475250244E-1  -6.556888818740845E-1   2.858429774641991E-2  
 4.114000000000000E7    -6.615827679634094E-1   2.730503678321838E-2  -3.059156984090805E-2  -7.404182553291321E-1  -3.051592782139778E-2  -7.399519681930542E-1  -6.567706465721130E-1   2.983719483017921E-2  
 4.116000000000000E7    -6.625062823295593E-1   2.864780649542809E-2  -3.154196962714195E-2  -7.397358417510986E-1  -3.184257820248604E-2  -7.388348579406738E-1  -6.578441858291626E-1   3.158517554402351E-2  
 4.118000000000000E7    -6.636559367179871E-1   3.068732470273972E-2  -3.323320671916008E-2  -7.383688092231751E-1  -3.375612199306488E-2  -7.381842732429504E-1  -6.590663790702820E-1   3.279397636651993E-2  
 4.120000000000000E7    -6.651781797409058E-1   3.178885951638222E-2  -3.470864892005920E-2  -7.368326187133789E-1  -3.478106483817101E-2  -7.363711595535278E-1  -6.601907014846802E-1   3.429698199033737E-2  
 4.122000000000000E7    -6.659551262855530E-1   3.347696363925934E-2  -3.592829406261444E-2  -7.358943819999695E-1  -3.576798737049103E-2  -7.355660200119019E-1  -6.613476276397705E-1   3.580769151449204E-2  
 4.124000000000000E7    -6.677081584930420E-1   3.477600216865540E-2  -3.739079460501671E-2  -7.347468137741089E-1  -3.739396482706070E-2  -7.346181869506836E-1  -6.616653203964233E-1   3.708844259381294E-2  
 4.126000000000000E7    -6.683398485183716E-1   3.621306642889977E-2  -3.857996687293053E-2  -7.333770394325256E-1  -3.883339092135429E-2  -7.329878211021423E-1  -6.634951233863831E-1   3.854092583060265E-2  
 4.128000000000000E7    -6.693530678749085E-1   3.761439397931099E-2  -4.022249579429627E-2  -7.324947714805603E-1  -4.078485816717148E-2  -7.324588894844055E-1  -6.643329262733460E-1   3.929382935166359E-2  
 4.130000000000000E7    -6.705286502838135E-1   3.850363194942474E-2  -4.219441860914230E-2  -7.312163114547730E-1  -4.231423884630203E-2  -7.310024499893189E-1  -6.658477187156677E-1   4.138259589672089E-2  
 4.132000000000000E7    -6.715630888938904E-1   4.049912840127945E-2  -4.312735795974731E-2  -7.299265265464783E-1  -4.370803758502007E-2  -7.301963567733765E-1  -6.662060618400574E-1   4.211122170090675E-2  
 4.134000000000000E7    -6.726643443107605E-1   4.215373843908310E-2  -4.455298557877541E-2  -7.289198040962219E-1  -4.504242911934853E-2  -7.288447022438049E-1  -6.675292253494263E-1   4.393386095762253E-2  
 4.136000000000000E7    -6.739209890365601E-1   4.340028762817383E-2  -4.601242765784264E-2  -7.273963689804077E-1  -4.632329195737839E-2  -7.278060317039490E-1  -6.684682369232178E-1   4.524470120668411E-2  
 4.138000000000000E7    -6.748828291893005E-1   4.430886730551720E-2  -4.779952764511108E-2  -7.267532944679260E-1  -4.748584702610970E-2  -7.267372608184815E-1  -6.692870259284973E-1   4.739329963922501E-2  
 4.140000000000000E7    -6.760420799255371E-1   4.612436145544052E-2  -4.873370379209518E-2  -7.253547310829163E-1  -4.897741228342056E-2  -7.249581813812256E-1  -6.707931160926819E-1   4.850223660469055E-2  
 4.142000000000000E7    -6.768113970756531E-1   4.752128198742867E-2  -5.063117295503616E-2  -7.240036725997925E-1  -5.057410150766373E-2  -7.242550849914551E-1  -6.715365052223206E-1   4.991973191499710E-2  
 4.144000000000000E7    -6.780777573585510E-1   4.863552749156952E-2  -5.220289155840874E-2  -7.230198383331299E-1  -5.190720781683922E-2  -7.227430939674377E-1  -6.728833913803101E-1   5.127730220556259E-2  
 4.146000000000000E7    -6.790957450866699E-1   5.037914589047432E-2  -5.294048413634300E-2  -7.217527031898499E-1  -5.342201143503189E-2  -7.218661904335022E-1  -6.740056276321411E-1   5.235608667135239E-2  
 4.148000000000000E7    -6.800987720489502E-1   5.179795622825623E-2  -5.386237800121307E-2  -7.207635641098023E-1  -5.483176559209824E-2  -7.206439971923828E-1  -6.749061942100525E-1   5.393309146165848E-2  
 4.150000000000000E7    -6.808546781539917E-1   5.327503383159638E-2  -5.540223419666290E-2  -7.197131514549255E-1  -5.547492206096649E-2  -7.191516757011414E-1  -6.762387752532959E-1   5.588310211896896E-2  
 4.152000000000000E7    -6.819604635238648E-1   5.463138967752457E-2  -5.725875496864319E-2  -7.182438969612122E-1  -5.725153908133507E-2  -7.180114388465881E-1  -6.770498156547546E-1   5.693173035979271E-2  
 4.154000000000000E7    -6.831899881362915E-1   5.613119527697563E-2  -5.819517001509666E-2  -7.172120213508606E-1  -5.877888947725296E-2  -7.171547412872315E-1  -6.779597401618958E-1   5.842336267232895E-2  
 4.156000000000000E7    -6.844342350959778E-1   5.746686458587647E-2  -5.980320647358894E-2  -7.156531214714050E-1  -5.988851189613342E-2  -7.160694003105164E-1  -6.788395047187805E-1   6.002118811011314E-2  
 4.158000000000000E7    -6.852191686630249E-1   5.909655615687370E-2  -6.084106117486954E-2  -7.147338986396790E-1  -6.136848032474518E-2  -7.146453261375427E-1  -6.796468496322632E-1   6.135921552777290E-2  
 4.160000000000000E7    -6.861848235130310E-1   6.069119274616242E-2  -6.237488240003586E-2  -7.134903073310852E-1  -6.244140863418579E-2  -7.134504914283752E-1  -6.809444427490234E-1   6.301572173833847E-2  
 4.162000000000000E7    -6.872828006744385E-1   6.219169124960899E-2  -6.367841362953186E-2  -7.123388648033142E-1  -6.444667279720306E-2  -7.121050357818604E-1  -6.820828318595886E-1   6.420467048883438E-2  
 4.164000000000000E7    -6.881042718887329E-1   6.392761319875717E-2  -6.438501179218292E-2  -7.111921310424805E-1  -6.563974916934967E-2  -7.108898162841797E-1  -6.831661462783814E-1   6.542140990495682E-2  
 4.166000000000000E7    -6.888207793235779E-1   6.453204900026321E-2  -6.688918173313141E-2  -7.101050615310669E-1  -6.683271378278732E-2  -7.097141146659851E-1  -6.839938163757324E-1   6.716449558734894E-2  
 4.168000000000000E7    -6.901950836181641E-1   6.628446280956268E-2  -6.775043904781342E-2  -7.089814543724060E-1  -6.780783832073212E-2  -7.086735963821411E-1  -6.850397586822510E-1   6.863192468881607E-2  
 4.170000000000000E7    -6.912245154380798E-1   6.809060275554657E-2  -6.919826567173004E-2  -7.077255845069885E-1  -6.898049265146256E-2  -7.075396180152893E-1  -6.857205033302307E-1   6.998327374458313E-2  
 4.172000000000000E7    -6.924182176589966E-1   6.923437118530273E-2  -7.066829502582550E-2  -7.062793970108032E-1  -7.066192477941513E-2  -7.061291337013245E-1  -6.866357326507568E-1   7.126575708389282E-2  
 4.174000000000000E7    -6.929389834403992E-1   7.100170850753784E-2  -7.152656465768814E-2  -7.047201395034790E-1  -7.159307599067688E-2  -7.044597268104553E-1  -6.880167126655579E-1   7.301414012908936E-2  
 4.176000000000000E7    -6.939974427223206E-1   7.253788411617279E-2  -7.305115461349487E-2  -7.039005756378174E-1  -7.305474579334259E-2  -7.038798332214356E-1  -6.885672807693481E-1   7.449330389499664E-2  
 4.178000000000000E7    -6.953341960906982E-1   7.370831072330475E-2  -7.419818639755249E-2  -7.020549178123474E-1  -7.459262758493424E-2  -7.027238011360169E-1  -6.894860267639160E-1   7.618828862905502E-2  
 4.180000000000000E7    -6.961739659309387E-1   7.544663548469544E-2  -7.563878595829010E-2  -7.009589672088623E-1  -7.546021044254303E-2  -7.009813785552979E-1  -6.907764673233032E-1   7.726603746414185E-2  
 4.182000000000000E7    -6.967813372612000E-1   7.661937177181244E-2  -7.662516087293625E-2  -7.006018757820129E-1  -7.708159089088440E-2  -6.999636292457581E-1  -6.915152072906494E-1   7.876166701316834E-2  
 4.184000000000000E7    -6.976101994514465E-1   7.846296578645706E-2  -7.781600952148438E-2  -6.988481283187866E-1  -7.880318909883499E-2  -6.988090872764587E-1  -6.925694942474365E-1   7.954329252243042E-2  
 4.186000000000000E7    -6.984716057777405E-1   7.944366335868835E-2  -7.945536822080612E-2  -6.978278160095215E-1  -7.981161028146744E-2  -6.976467370986939E-1  -6.931394934654236E-1   8.195201307535172E-2  
 4.188000000000000E7    -6.995115280151367E-1   8.135613799095154E-2  -8.048290014266968E-2  -6.962710618972778E-1  -8.063795417547226E-2  -6.959733963012695E-1  -6.943711042404175E-1   8.324828743934631E-2  
 4.190000000000000E7    -7.008230090141296E-1   8.286580443382263E-2  -8.174862712621689E-2  -6.950329542160034E-1  -8.172139525413513E-2  -6.953943371772766E-1  -6.949649453163147E-1   8.487972617149353E-2  
 4.192000000000000E7    -7.018111944198608E-1   8.426343649625778E-2  -8.311948180198669E-2  -6.939427256584168E-1  -8.352917432785034E-2  -6.940636634826660E-1  -6.959705352783203E-1   8.589731156826019E-2  
 4.194000000000000E7    -7.021207809448242E-1   8.605828136205673E-2  -8.414921164512634E-2  -6.927270889282227E-1  -8.450588583946228E-2  -6.926407217979431E-1  -6.970725655555725E-1   8.760493993759155E-2  
 4.196000000000000E7    -7.030956745147705E-1   8.732106536626816E-2  -8.547887206077576E-2  -6.914203763008118E-1  -8.536911010742188E-2  -6.916257739067078E-1  -6.979566216468811E-1   8.916535228490830E-2  
 4.198000000000000E7    -7.039674520492554E-1   8.913590013980866E-2  -8.596755564212799E-2  -6.903636455535889E-1  -8.669479936361313E-2  -6.900092363357544E-1  -6.986708045005798E-1   9.070104360580444E-2  
 4.200000000000000E7    -7.049126029014587E-1   9.054917842149735E-2  -8.761719614267349E-2  -6.890722513198853E-1  -8.804762363433838E-2  -6.892060041427612E-1  -6.996268630027771E-1   9.212525188922882E-2  
 4.202000000000000E7    -7.055635452270508E-1   9.206689894199371E-2  -8.888353407382965E-2  -6.879422068595886E-1  -8.904320001602173E-2  -6.883101463317871E-1  -6.999799609184265E-1   9.394657611846924E-2  
 4.204000000000000E7    -7.064080834388733E-1   9.351478517055512E-2  -8.992171287536621E-2  -6.865108013153076E-1  -9.033913910388947E-2  -6.864491105079651E-1  -7.012150883674622E-1   9.527212381362915E-2  
 4.206000000000000E7    -7.073658108711243E-1   9.479700028896332E-2  -9.163872897624970E-2  -6.852708458900452E-1  -9.187410026788712E-2  -6.847544312477112E-1  -7.021715044975281E-1   9.669806063175201E-2  
 4.208000000000000E7    -7.087935805320740E-1   9.628517925739288E-2  -9.258032590150833E-2  -6.834506988525391E-1  -9.284629672765732E-2  -6.839042901992798E-1  -7.026579976081848E-1   9.806743264198303E-2  
 4.210000000000000E7    -7.092922329902649E-1   9.788158535957336E-2  -9.366826713085175E-2  -6.830272078514099E-1  -9.401448071002960E-2  -6.826947331428528E-1  -7.038103938102722E-1   9.976685047149658E-2  
 4.212000000000000E7    -7.103921175003052E-1   9.931024163961411E-2  -9.476876258850098E-2  -6.813410520553589E-1  -9.485127031803131E-2  -6.815264821052551E-1  -7.043447494506836E-1   1.015605330467224E-1  
 4.214000000000000E7    -7.106163501739502E-1   1.008576601743698E-1  -9.636859595775604E-2  -6.804534792900085E-1  -9.667037427425385E-2  -6.801186800003052E-1  -7.054741382598877E-1   1.026594713330269E-1  
 4.216000000000000E7    -7.116856575012207E-1   1.028998643159866E-1  -9.675170481204987E-2  -6.790580749511719E-1  -9.783403575420380E-2  -6.787692904472351E-1  -7.063945531845093E-1   1.039237231016159E-1  
 4.218000000000000E7    -7.124782800674439E-1   1.040668189525604E-1  -9.865617752075195E-2  -6.778079271316528E-1  -9.904034435749054E-2  -6.776544451713562E-1  -7.071884274482727E-1   1.057273596525192E-1  
 4.220000000000000E7    -7.135359048843384E-1   1.055384054780006E-1  -9.953218698501587E-2  -6.764204502105713E-1  -1.001827269792557E-1  -6.762266159057617E-1  -7.076483368873596E-1   1.072256788611412E-1  
 4.222000000000000E7    -7.142701745033264E-1   1.069852858781815E-1  -1.011543422937393E-1  -6.751941442489624E-1  -1.015377938747406E-1  -6.753062605857849E-1  -7.081989645957947E-1   1.087200418114662E-1  
 4.224000000000000E7    -7.149975895881653E-1   1.083954349160194E-1  -1.020469218492508E-1  -6.739307641983032E-1  -1.021495833992958E-1  -6.739252209663391E-1  -7.093004584312439E-1   1.104354560375214E-1  
 4.226000000000000E7    -7.159057855606079E-1   1.102403402328491E-1  -1.029140278697014E-1  -6.729252934455872E-1  -1.033698394894600E-1  -6.722796559333801E-1  -7.102611660957336E-1   1.118943095207214E-1  
 4.228000000000000E7    -7.169187068939209E-1   1.116881370544434E-1  -1.040288656949997E-1  -6.713914275169373E-1  -1.042881757020950E-1  -6.711550354957581E-1  -7.110161781311035E-1   1.134828105568886E-1  
 4.230000000000000E7    -7.172389030456543E-1   1.132321059703827E-1  -1.052821353077889E-1  -6.703870296478272E-1  -1.054759621620178E-1  -6.706069707870483E-1  -7.115431427955627E-1   1.147770285606384E-1  
 4.232000000000000E7    -7.180273532867432E-1   1.148479580879211E-1  -1.062679290771484E-1  -6.688989996910095E-1  -1.067588627338409E-1  -6.683871746063232E-1  -7.126250863075256E-1   1.166001409292221E-1  
 4.234000000000000E7    -7.189350724220276E-1   1.165088936686516E-1  -1.073431968688965E-1  -6.676108837127686E-1  -1.079225987195969E-1  -6.674869060516357E-1  -7.132199406623840E-1   1.176589578390122E-1  
 4.236000000000000E7    -7.197619080543518E-1   1.179309859871864E-1  -1.085973829030991E-1  -6.664143800735474E-1  -1.091673672199249E-1  -6.661529541015625E-1  -7.141107916831970E-1   1.192385330796242E-1  
 4.238000000000000E7    -7.201518416404724E-1   1.191785335540772E-1  -1.097434759140015E-1  -6.651675701141357E-1  -1.098831593990326E-1  -6.648532748222351E-1  -7.149672508239746E-1   1.212700158357620E-1  
 4.240000000000000E7    -7.208776473999023E-1   1.212829500436783E-1  -1.103532761335373E-1  -6.643005013465881E-1  -1.110835969448090E-1  -6.634958386421204E-1  -7.153912782669067E-1   1.223208904266357E-1  
 4.242000000000000E7    -7.215875983238220E-1   1.226298585534096E-1  -1.116448640823364E-1  -6.625193357467651E-1  -1.122124195098877E-1  -6.620698571205139E-1  -7.168035507202148E-1   1.239631846547127E-1  
 4.244000000000000E7    -7.226435542106628E-1   1.243325322866440E-1  -1.126212328672409E-1  -6.611378192901611E-1  -1.129179894924164E-1  -6.610631346702576E-1  -7.171126604080200E-1   1.256098449230194E-1  
 4.246000000000000E7    -7.233235239982605E-1   1.257527619600296E-1  -1.140422374010086E-1  -6.599481701850891E-1  -1.144660264253616E-1  -6.601345539093018E-1  -7.173212170600891E-1   1.267793774604797E-1  
 4.248000000000000E7    -7.242242693901062E-1   1.271289885044098E-1  -1.147688627243042E-1  -6.584773063659668E-1  -1.154910773038864E-1  -6.582796573638916E-1  -7.184085249900818E-1   1.284812092781067E-1  
 4.250000000000000E7    -7.247992753982544E-1   1.281910091638565E-1  -1.162099465727806E-1  -6.575481891632080E-1  -1.161825954914093E-1  -6.573583483695984E-1  -7.187649607658386E-1   1.304598599672318E-1  
 4.252000000000000E7    -7.258666157722473E-1   1.301982253789902E-1  -1.174266114830971E-1  -6.565247774124146E-1  -1.171887964010239E-1  -6.563033461570740E-1  -7.197241187095642E-1   1.318607926368713E-1  
 4.254000000000000E7    -7.264460921287537E-1   1.312281042337418E-1  -1.187710464000702E-1  -6.545882821083069E-1  -1.187811344861984E-1  -6.548889875411987E-1  -7.204467058181763E-1   1.333034485578537E-1  
 4.256000000000000E7    -7.269907593727112E-1   1.333618164062500E-1  -1.194574981927872E-1  -6.531853675842285E-1  -1.197824031114578E-1  -6.533470749855042E-1  -7.210959792137146E-1   1.344531178474426E-1  
 4.258000000000000E7    -7.279253602027893E-1   1.346755325794220E-1  -1.205740720033646E-1  -6.520187854766846E-1  -1.206160485744476E-1  -6.516453623771668E-1  -7.221289873123169E-1   1.362915933132172E-1  
 4.260000000000000E7    -7.283146381378174E-1   1.363249868154526E-1  -1.213213503360748E-1  -6.509492397308350E-1  -1.216769814491272E-1  -6.506283283233643E-1  -7.227824926376343E-1   1.377304941415787E-1  
 4.262000000000000E7    -7.291965484619141E-1   1.378718018531799E-1  -1.222883313894272E-1  -6.498146057128906E-1  -1.225813329219818E-1  -6.495531201362610E-1  -7.234287858009338E-1   1.392842084169388E-1  
 4.264000000000000E7    -7.299438118934631E-1   1.396017968654633E-1  -1.232324391603470E-1  -6.483479738235474E-1  -1.238185763359070E-1  -6.479013562202454E-1  -7.244497537612915E-1   1.407064199447632E-1  
 4.266000000000000E7    -7.303131222724915E-1   1.410223543643951E-1  -1.244867071509361E-1  -6.474128365516663E-1  -1.245470792055130E-1  -6.473266482353210E-1  -7.244138717651367E-1   1.424854695796967E-1  
 4.268000000000000E7    -7.311724424362183E-1   1.426237523555756E-1  -1.252866685390472E-1  -6.457807421684265E-1  -1.258524954319000E-1  -6.452903151512146E-1  -7.256376147270203E-1   1.437479704618454E-1  
 4.270000000000000E7    -7.315237522125244E-1   1.439549475908279E-1  -1.265090703964233E-1  -6.444998383522034E-1  -1.266786605119705E-1  -6.438760757446289E-1  -7.262479066848755E-1   1.454619169235230E-1  
 4.272000000000000E7    -7.322747111320496E-1   1.460384577512741E-1  -1.272208988666534E-1  -6.434532999992371E-1  -1.280023306608200E-1  -6.427361369132996E-1  -7.270870804786682E-1   1.468685865402222E-1  
 4.274000000000000E7    -7.331649661064148E-1   1.470166295766830E-1  -1.285024136304855E-1  -6.422039866447449E-1  -1.287340819835663E-1  -6.417180299758911E-1  -7.271862030029297E-1   1.488610059022903E-1  
 4.276000000000000E7    -7.335969209671021E-1   1.485811918973923E-1  -1.292408555746079E-1  -6.408190131187439E-1  -1.302722096443176E-1  -6.402518749237061E-1  -7.286064028739929E-1   1.501304209232330E-1  
 4.278000000000000E7    -7.344933152198792E-1   1.504677832126617E-1  -1.303187906742096E-1  -6.393771767616272E-1  -1.311856210231781E-1  -6.397219300270081E-1  -7.285620570182800E-1   1.515045911073685E-1  
 4.280000000000000E7    -7.348510622978210E-1   1.520901620388031E-1  -1.315596103668213E-1  -6.381335258483887E-1  -1.317734420299530E-1  -6.377793550491333E-1  -7.294229865074158E-1   1.531868278980255E-1  
 4.282000000000000E7    -7.357810735702515E-1   1.532436758279800E-1  -1.322653442621231E-1  -6.366404891014099E-1  -1.329058408737183E-1  -6.362865567207336E-1  -7.299813032150269E-1   1.550155729055405E-1  
 4.284000000000000E7    -7.363620996475220E-1   1.553895026445389E-1  -1.332233548164368E-1  -6.356068253517151E-1  -1.333928108215332E-1  -6.351570487022400E-1  -7.303729057312012E-1   1.563149541616440E-1  
 4.286000000000000E7    -7.370617985725403E-1   1.566300988197327E-1  -1.339572966098785E-1  -6.341120600700378E-1  -1.345073729753494E-1  -6.338350772857666E-1  -7.311485409736633E-1   1.578539013862610E-1  
 4.288000000000000E7    -7.375558614730835E-1   1.584691405296326E-1  -1.349481791257858E-1  -6.328337788581848E-1  -1.354511976242065E-1  -6.327579617500305E-1  -7.315895557403565E-1   1.596277654170990E-1  
 4.290000000000000E7    -7.382162809371948E-1   1.596475243568420E-1  -1.364197582006455E-1  -6.316045522689819E-1  -1.366551369428635E-1  -6.317147016525269E-1  -7.319337725639343E-1   1.607497781515122E-1  
 4.292000000000000E7    -7.390311956405640E-1   1.613159030675888E-1  -1.374333053827286E-1  -6.299873590469360E-1  -1.375616639852524E-1  -6.304694414138794E-1  -7.326135635375977E-1   1.623040437698364E-1  
 4.294000000000000E7    -7.395314574241638E-1   1.630125343799591E-1  -1.375861167907715E-1  -6.291617751121521E-1  -1.381183713674545E-1  -6.286571621894836E-1  -7.336333394050598E-1   1.642672121524811E-1  
 4.296000000000000E7    -7.396711707115173E-1   1.643208265304565E-1  -1.390158683061600E-1  -6.276642680168152E-1  -1.395096331834793E-1  -6.272201538085938E-1  -7.344240546226502E-1   1.653899401426315E-1  
 4.298000000000000E7    -7.406342029571533E-1   1.660231798887253E-1  -1.397801339626312E-1  -6.260392069816589E-1  -1.400791257619858E-1  -6.261502504348755E-1  -7.348438501358032E-1   1.671582311391830E-1  
 4.300000000000000E7    -7.406290769577026E-1   1.676623225212097E-1  -1.408734470605850E-1  -6.251487135887146E-1  -1.412878930568695E-1  -6.245943903923035E-1  -7.352262735366821E-1   1.687032580375671E-1  
 4.302000000000000E7    -7.417313456535339E-1   1.688207983970642E-1  -1.422074586153030E-1  -6.238923072814941E-1  -1.416551172733307E-1  -6.235955953598023E-1  -7.355571389198303E-1   1.704121381044388E-1  
 4.304000000000000E7    -7.423672080039978E-1   1.706897020339966E-1  -1.424497365951538E-1  -6.223376393318176E-1  -1.428493857383728E-1  -6.220184564590454E-1  -7.362657189369202E-1   1.719840317964554E-1  
 4.306000000000000E7    -7.431177496910095E-1   1.722744405269623E-1  -1.434816420078278E-1  -6.209268569946289E-1  -1.442119032144547E-1  -6.206831336021423E-1  -7.369930744171143E-1   1.729867160320282E-1  
 4.308000000000000E7    -7.436120510101318E-1   1.736703515052795E-1  -1.445610821247101E-1  -6.198289394378662E-1  -1.449319124221802E-1  -6.196309328079224E-1  -7.374134063720703E-1   1.747557967901230E-1  
 4.310000000000000E7    -7.439681887626648E-1   1.756588220596314E-1  -1.453181654214859E-1  -6.186606287956238E-1  -1.460903882980347E-1  -6.186029911041260E-1  -7.379123568534851E-1   1.761874705553055E-1  
 4.312000000000000E7    -7.447139620780945E-1   1.767160892486572E-1  -1.466661989688873E-1  -6.170914173126221E-1  -1.467907726764679E-1  -6.167681813240051E-1  -7.384774088859558E-1   1.781367361545563E-1  
 4.314000000000000E7    -7.450190186500549E-1   1.785272061824799E-1  -1.469768583774567E-1  -6.158757209777832E-1  -1.472035944461823E-1  -6.154726147651672E-1  -7.391729354858398E-1   1.795144081115723E-1  
 4.316000000000000E7    -7.458012104034424E-1   1.799317598342896E-1  -1.478551328182221E-1  -6.141699552536011E-1  -1.485723257064819E-1  -6.139554977416992E-1  -7.395823597908020E-1   1.808774620294571E-1  
 4.318000000000000E7    -7.460973262786865E-1   1.814815253019333E-1  -1.491411030292511E-1  -6.133276224136353E-1  -1.491023302078247E-1  -6.129545569419861E-1  -7.399357557296753E-1   1.827396154403687E-1  
 4.320000000000000E7    -7.467039823532105E-1   1.832155734300613E-1  -1.497545540332794E-1  -6.121389865875244E-1  -1.500385701656342E-1  -6.119523644447327E-1  -7.405555248260498E-1   1.841596364974976E-1  
 4.322000000000000E7    -7.474761605262756E-1   1.849248409271240E-1  -1.506991982460022E-1  -6.103677749633789E-1  -1.507435590028763E-1  -6.101592183113098E-1  -7.410935163497925E-1   1.855378150939941E-1  
 4.324000000000000E7    -7.475132346153259E-1   1.863890439271927E-1  -1.516653001308441E-1  -6.096801757812500E-1  -1.517445892095566E-1  -6.091484427452087E-1  -7.417401671409607E-1   1.872252821922302E-1  
 4.326000000000000E7    -7.481060028076172E-1   1.878868341445923E-1  -1.524806022644043E-1  -6.079595685005188E-1  -1.527697145938873E-1  -6.078367829322815E-1  -7.419019341468811E-1   1.886812299489975E-1  
 4.328000000000000E7    -7.484807968139648E-1   1.892473399639130E-1  -1.535207331180573E-1  -6.064760684967041E-1  -1.537442505359650E-1  -6.060888171195984E-1  -7.425641417503357E-1   1.905487179756165E-1  
 4.330000000000000E7    -7.491841316223145E-1   1.907428205013275E-1  -1.537806987762451E-1  -6.054595112800598E-1  -1.542762666940689E-1  -6.048965454101563E-1  -7.430853843688965E-1   1.920925229787827E-1  
 4.332000000000000E7    -7.494062185287476E-1   1.927778869867325E-1  -1.546670496463776E-1  -6.043276786804199E-1  -1.547986268997192E-1  -6.037719249725342E-1  -7.435598373413086E-1   1.935555934906006E-1  
 4.334000000000000E7    -7.499894499778748E-1   1.939997971057892E-1  -1.555990427732468E-1  -6.029645800590515E-1  -1.556323170661926E-1  -6.021459102630615E-1  -7.443169355392456E-1   1.953285932540894E-1  
 4.336000000000000E7    -7.506150603294373E-1   1.955248713493347E-1  -1.568178981542587E-1  -6.011394858360291E-1  -1.569025218486786E-1  -6.009600162506104E-1  -7.445064783096314E-1   1.969371885061264E-1  
 4.338000000000000E7    -7.507531046867371E-1   1.975154727697372E-1  -1.574306935071945E-1  -6.001722812652588E-1  -1.581289470195770E-1  -6.000784635543823E-1  -7.446370720863342E-1   1.979913115501404E-1  
 4.340000000000000E7    -7.514145374298096E-1   1.988907009363174E-1  -1.581345200538635E-1  -5.988396406173706E-1  -1.587705314159393E-1  -5.985654592514038E-1  -7.455390095710754E-1   1.994369328022003E-1  
 4.342000000000000E7    -7.521550059318543E-1   2.002721428871155E-1  -1.591105759143829E-1  -5.974563360214233E-1  -1.589661836624146E-1  -5.970208644866943E-1  -7.459973096847534E-1   2.017544507980347E-1  
 4.344000000000000E7    -7.524647712707520E-1   2.020730674266815E-1  -1.597827523946762E-1  -5.965835452079773E-1  -1.599106937646866E-1  -5.960400104522705E-1  -7.464819550514221E-1   2.032295316457748E-1  
 4.346000000000000E7    -7.528502941131592E-1   2.037142664194107E-1  -1.605876982212067E-1  -5.950486063957214E-1  -1.608859300613403E-1  -5.943252444267273E-1  -7.467294335365295E-1   2.042854130268097E-1  
 4.348000000000000E7    -7.536524534225464E-1   2.052069902420044E-1  -1.612344533205032E-1  -5.933932065963745E-1  -1.616784036159515E-1  -5.931340456008911E-1  -7.474778294563294E-1   2.059416025876999E-1  
 4.350000000000000E7    -7.541157603263855E-1   2.068478167057037E-1  -1.620980352163315E-1  -5.920273661613464E-1  -1.620091944932938E-1  -5.917935967445374E-1  -7.476817369461060E-1   2.076386213302612E-1  
 4.352000000000000E7    -7.543089985847473E-1   2.084012180566788E-1  -1.628469675779343E-1  -5.913422703742981E-1  -1.630651950836182E-1  -5.907992720603943E-1  -7.482610344886780E-1   2.093735635280609E-1  
 4.354000000000000E7    -7.543467879295349E-1   2.098240554332733E-1  -1.638479679822922E-1  -5.897525548934937E-1  -1.639015227556229E-1  -5.892919301986694E-1  -7.484657168388367E-1   2.108460068702698E-1  
 4.356000000000000E7    -7.552088499069214E-1   2.115969955921173E-1  -1.644012182950974E-1  -5.885965824127197E-1  -1.648646593093872E-1  -5.884104967117310E-1  -7.488676309585571E-1   2.121495753526688E-1  
 4.358000000000000E7    -7.553424239158630E-1   2.129381299018860E-1  -1.648007482290268E-1  -5.870472192764282E-1  -1.649250388145447E-1  -5.866000056266785E-1  -7.491729259490967E-1   2.136524170637131E-1  
 4.360000000000000E7    -7.559294700622559E-1   2.148021757602692E-1  -1.656439304351807E-1  -5.851989984512329E-1  -1.662336438894272E-1  -5.852795839309692E-1  -7.495869398117065E-1   2.154504954814911E-1  
 4.362000000000000E7    -7.565483450889587E-1   2.163563370704651E-1  -1.666180789470673E-1  -5.844590067863464E-1  -1.671867668628693E-1  -5.838544368743897E-1  -7.500087618827820E-1   2.168409526348114E-1  
 4.364000000000000E7    -7.566003203392029E-1   2.177888602018356E-1  -1.673648357391357E-1  -5.828967690467835E-1  -1.675779670476914E-1  -5.827609300613403E-1  -7.505667805671692E-1   2.185962051153183E-1  
 4.366000000000000E7    -7.567464113235474E-1   2.194248884916306E-1  -1.679119467735291E-1  -5.819259881973267E-1  -1.683061420917511E-1  -5.813154578208923E-1  -7.511958479881287E-1   2.202693372964859E-1  
 4.368000000000000E7    -7.577327489852905E-1   2.208777219057083E-1  -1.690190136432648E-1  -5.801509022712708E-1  -1.690438389778137E-1  -5.799800753593445E-1  -7.513221502304077E-1   2.217310667037964E-1  
 4.370000000000000E7    -7.574464678764343E-1   2.225952595472336E-1  -1.697665303945541E-1  -5.787914991378784E-1  -1.700577735900879E-1  -5.786308646202087E-1  -7.515344619750977E-1   2.230165600776672E-1  
 4.372000000000000E7    -7.583705782890320E-1   2.243711799383164E-1  -1.701450496912003E-1  -5.775631666183472E-1  -1.706116944551468E-1  -5.768253207206726E-1  -7.522251009941101E-1   2.246440351009369E-1  
 4.374000000000000E7    -7.584446668624878E-1   2.257519960403442E-1  -1.712268143892288E-1  -5.766495466232300E-1  -1.711308360099793E-1  -5.761224031448364E-1  -7.523019909858704E-1   2.263382971286774E-1  
 4.376000000000000E7    -7.590723633766174E-1   2.271097600460053E-1  -1.716920435428619E-1  -5.753994584083557E-1  -1.721936315298080E-1  -5.748612284660339E-1  -7.529953122138977E-1   2.277055978775024E-1  
 4.378000000000000E7    -7.593756318092346E-1   2.288672924041748E-1  -1.724020689725876E-1  -5.736868381500244E-1  -1.729508340358734E-1  -5.733870267868042E-1  -7.533449530601502E-1   2.293466180562973E-1  
 4.380000000000000E7    -7.595390081405640E-1   2.305343598127365E-1  -1.731907129287720E-1  -5.726599693298340E-1  -1.735108643770218E-1  -5.720516443252564E-1  -7.537604570388794E-1   2.311196327209473E-1  
 4.382000000000000E7    -7.599641084671021E-1   2.319580763578415E-1  -1.735057383775711E-1  -5.714119076728821E-1  -1.739788651466370E-1  -5.708693861961365E-1  -7.538381814956665E-1   2.324161380529404E-1  
 4.384000000000000E7    -7.602422833442688E-1   2.336006164550781E-1  -1.743503808975220E-1  -5.700637102127075E-1  -1.747690886259079E-1  -5.692605376243591E-1  -7.546201348304749E-1   2.341302186250687E-1  
 4.386000000000000E7    -7.608110904693604E-1   2.350280284881592E-1  -1.749379187822342E-1  -5.683425664901733E-1  -1.755041182041168E-1  -5.679295659065247E-1  -7.546918392181397E-1   2.357434928417206E-1  
 4.388000000000000E7    -7.608217597007752E-1   2.367345392704010E-1  -1.756660938262940E-1  -5.672608613967896E-1  -1.762728989124298E-1  -5.666698813438416E-1  -7.549529671669006E-1   2.372331470251083E-1  
 4.390000000000000E7    -7.612724900245667E-1   2.382616698741913E-1  -1.769608855247498E-1  -5.660014748573303E-1  -1.770412921905518E-1  -5.657061934471130E-1  -7.553313374519348E-1   2.386690676212311E-1  
 4.392000000000000E7    -7.619789242744446E-1   2.398336678743362E-1  -1.770852506160736E-1  -5.645613074302673E-1  -1.773697435855866E-1  -5.641113519668579E-1  -7.552098631858826E-1   2.404360026121140E-1  
 4.394000000000000E7    -7.617798447608948E-1   2.413483858108521E-1  -1.781570613384247E-1  -5.633645653724670E-1  -1.782356798648834E-1  -5.630769729614258E-1  -7.556284666061401E-1   2.417642176151276E-1  
 4.396000000000000E7    -7.624812126159668E-1   2.431934028863907E-1  -1.785340160131455E-1  -5.616390705108643E-1  -1.791425645351410E-1  -5.615341663360596E-1  -7.559994459152222E-1   2.434533834457398E-1  
 4.398000000000000E7    -7.625649571418762E-1   2.445584833621979E-1  -1.794803142547607E-1  -5.604520440101624E-1  -1.796833723783493E-1  -5.606254339218140E-1  -7.565260529518127E-1   2.450512498617172E-1  
 4.400000000000000E7    -7.628636360168457E-1   2.461839765310288E-1  -1.803033947944641E-1  -5.591926574707031E-1  -1.803411841392517E-1  -5.589323043823242E-1  -7.568349838256836E-1   2.461517155170441E-1  
 4.402000000000000E7    -7.629939317703247E-1   2.477737516164780E-1  -1.805620789527893E-1  -5.579299926757813E-1  -1.808472275733948E-1  -5.579690933227539E-1  -7.570747137069702E-1   2.481556832790375E-1  
 4.404000000000000E7    -7.638331055641174E-1   2.492353320121765E-1  -1.813676357269287E-1  -5.569314360618591E-1  -1.813540607690811E-1  -5.567188262939453E-1  -7.573797106742859E-1   2.496733665466309E-1  
 4.406000000000000E7    -7.638494968414307E-1   2.510194182395935E-1  -1.815523505210877E-1  -5.553258061408997E-1  -1.821671575307846E-1  -5.550390481948853E-1  -7.577434182167053E-1   2.510140240192413E-1  
 4.408000000000000E7    -7.641239166259766E-1   2.523776590824127E-1  -1.825091689825058E-1  -5.542898178100586E-1  -1.826310306787491E-1  -5.538882017135620E-1  -7.576488852500916E-1   2.527716159820557E-1  
 4.410000000000000E7    -7.647474408149719E-1   2.538548111915588E-1  -1.832030266523361E-1  -5.528975129127502E-1  -1.831645071506500E-1  -5.526246428489685E-1  -7.582383751869202E-1   2.541832327842712E-1  
 4.412000000000000E7    -7.645939588546753E-1   2.555055916309357E-1  -1.837366223335266E-1  -5.517742037773132E-1  -1.838556379079819E-1  -5.515025258064270E-1  -7.583804726600647E-1   2.557767331600189E-1  
 4.414000000000000E7    -7.652633786201477E-1   2.569014430046082E-1  -1.845230758190155E-1  -5.499446392059326E-1  -1.847503036260605E-1  -5.498070716857910E-1  -7.585504055023193E-1   2.573793530464172E-1  
 4.416000000000000E7    -7.650521993637085E-1   2.586708962917328E-1  -1.850573271512985E-1  -5.484817028045654E-1  -1.853481829166412E-1  -5.477964878082275E-1  -7.592574357986450E-1   2.587298154830933E-1  
 4.418000000000000E7    -7.652957439422607E-1   2.601025104522705E-1  -1.856204271316528E-1  -5.473670959472656E-1  -1.858385205268860E-1  -5.469916462898254E-1  -7.593692541122437E-1   2.604353725910187E-1  
 4.420000000000000E7    -7.657517194747925E-1   2.616280615329742E-1  -1.864442527294159E-1  -5.460959076881409E-1  -1.863237619400024E-1  -5.453143119812012E-1  -7.595685124397278E-1   2.622059583663940E-1  
 4.422000000000000E7    -7.659628391265869E-1   2.633821666240692E-1  -1.866600215435028E-1  -5.449970960617065E-1  -1.869322061538696E-1  -5.447404980659485E-1  -7.597876191139221E-1   2.636431753635407E-1  
 4.424000000000000E7    -7.665011882781982E-1   2.648423314094544E-1  -1.872709393501282E-1  -5.436166524887085E-1  -1.873652935028076E-1  -5.433563590049744E-1  -7.601718306541443E-1   2.652026712894440E-1  
 4.426000000000000E7    -7.664972543716431E-1   2.663437128067017E-1  -1.879622936248779E-1  -5.421901941299439E-1  -1.884562969207764E-1  -5.417195558547974E-1  -7.604935765266419E-1   2.665967345237732E-1  
 4.428000000000000E7    -7.668051719665527E-1   2.679390907287598E-1  -1.886272579431534E-1  -5.410204529762268E-1  -1.887149214744568E-1  -5.404480099678040E-1  -7.604569196701050E-1   2.684169113636017E-1  
 4.430000000000000E7    -7.668860554695129E-1   2.698461711406708E-1  -1.884348094463348E-1  -5.395243167877197E-1  -1.894427686929703E-1  -5.390709042549133E-1  -7.609836459159851E-1   2.696816027164459E-1  
 4.432000000000000E7    -7.671841382980347E-1   2.709520459175110E-1  -1.900153160095215E-1  -5.385875701904297E-1  -1.904948949813843E-1  -5.380777716636658E-1  -7.607808113098145E-1   2.711663246154785E-1  
 4.434000000000000E7    -7.671071290969849E-1   2.728451490402222E-1  -1.904443204402924E-1  -5.372388958930969E-1  -1.903916150331497E-1  -5.368747711181641E-1  -7.610866427421570E-1   2.727265655994415E-1  
 4.436000000000000E7    -7.677403092384338E-1   2.739829421043396E-1  -1.912441402673721E-1  -5.358114242553711E-1  -1.912843436002731E-1  -5.353624224662781E-1  -7.612544894218445E-1   2.743992507457733E-1  
 4.438000000000000E7    -7.678000330924988E-1   2.760117650032044E-1  -1.914078444242477E-1  -5.344942808151245E-1  -1.914733499288559E-1  -5.339875221252441E-1  -7.615363001823425E-1   2.760098278522492E-1  
 4.440000000000000E7    -7.679564356803894E-1   2.771455645561218E-1  -1.917910575866699E-1  -5.331657528877258E-1  -1.920093894004822E-1  -5.325618386268616E-1  -7.614540457725525E-1   2.772969305515289E-1  
 4.442000000000000E7    -7.680889964103699E-1   2.789860665798187E-1  -1.928536295890808E-1  -5.319306850433350E-1  -1.931169778108597E-1  -5.313150882720947E-1  -7.620123624801636E-1   2.786537706851959E-1  
 4.444000000000000E7    -7.681996822357178E-1   2.806878089904785E-1  -1.930693686008453E-1  -5.306242108345032E-1  -1.931408941745758E-1  -5.300936102867127E-1  -7.620812058448792E-1   2.804140448570252E-1  
 4.446000000000000E7    -7.689329385757446E-1   2.819403409957886E-1  -1.937220841646195E-1  -5.289644002914429E-1  -1.938227713108063E-1  -5.289932489395142E-1  -7.622558474540710E-1   2.818331420421600E-1  
 4.448000000000000E7    -7.688156366348267E-1   2.833438217639923E-1  -1.942790001630783E-1  -5.283833146095276E-1  -1.947315633296967E-1  -5.275397300720215E-1  -7.629013061523438E-1   2.837258279323578E-1  
 4.450000000000000E7    -7.690553665161133E-1   2.850990295410156E-1  -1.945883035659790E-1  -5.268017053604126E-1  -1.949295848608017E-1  -5.265986919403076E-1  -7.627831697463989E-1   2.851029634475708E-1  
 4.452000000000000E7    -7.691912651062012E-1   2.865227758884430E-1  -1.954285204410553E-1  -5.253315567970276E-1  -1.955496221780777E-1  -5.248329639434815E-1  -7.631472945213318E-1   2.868883609771729E-1  
 4.454000000000000E7    -7.692242264747620E-1   2.879815399646759E-1  -1.957317441701889E-1  -5.244845151901245E-1  -1.959625184535980E-1  -5.239532589912415E-1  -7.631083726882935E-1   2.882961332798004E-1  
 4.456000000000000E7    -7.693961262702942E-1   2.898192107677460E-1  -1.967938095331192E-1  -5.225405693054199E-1  -1.966956555843353E-1  -5.221857428550720E-1  -7.632020115852356E-1   2.897019684314728E-1  
 4.458000000000000E7    -7.698075175285339E-1   2.912685871124268E-1  -1.969258785247803E-1  -5.214302539825440E-1  -1.972222477197647E-1  -5.212121605873108E-1  -7.636425495147705E-1   2.913672924041748E-1  
 4.460000000000000E7    -7.699279785156250E-1   2.929030954837799E-1  -1.971283853054047E-1  -5.204402208328247E-1  -1.972829103469849E-1  -5.200378894805908E-1  -7.633072137832642E-1   2.928641438484192E-1  
 4.462000000000000E7    -7.701208591461182E-1   2.944674491882324E-1  -1.980610042810440E-1  -5.191051363945007E-1  -1.981248408555985E-1  -5.186756849288940E-1  -7.636892199516296E-1   2.941378951072693E-1  
 4.464000000000000E7    -7.702764272689819E-1   2.959909737110138E-1  -1.984783858060837E-1  -5.178080797195435E-1  -1.986432522535324E-1  -5.171354413032532E-1  -7.636734843254089E-1   2.959929704666138E-1  
 4.466000000000000E7    -7.701718211174011E-1   2.975874245166779E-1  -1.984235346317291E-1  -5.160125494003296E-1  -1.991934627294540E-1  -5.159705281257629E-1  -7.641910910606384E-1   2.974351644515991E-1  
 4.468000000000000E7    -7.704238295555115E-1   2.989231348037720E-1  -1.995740383863449E-1  -5.154165625572205E-1  -1.999473571777344E-1  -5.145257115364075E-1  -7.642732858657837E-1   2.990572154521942E-1  
 4.470000000000000E7    -7.705076932907105E-1   3.006488084793091E-1  -1.998574733734131E-1  -5.136998891830444E-1  -1.999435573816299E-1  -5.131540894508362E-1  -7.641236186027527E-1   3.005461990833283E-1  
 4.472000000000000E7    -7.706922888755798E-1   3.022280037403107E-1  -2.003661841154099E-1  -5.124614834785461E-1  -2.008215188980103E-1  -5.122275948524475E-1  -7.643919587135315E-1   3.018668293952942E-1  
 4.474000000000000E7    -7.707822918891907E-1   3.034125566482544E-1  -2.009886205196381E-1  -5.112907290458679E-1  -2.008927166461945E-1  -5.108425617218018E-1  -7.647235393524170E-1   3.037573397159576E-1  
 4.476000000000000E7    -7.708830833435059E-1   3.052095174789429E-1  -2.010706365108490E-1  -5.097781419754028E-1  -2.017602324485779E-1  -5.092109441757202E-1  -7.646723985671997E-1   3.048758208751679E-1  
 4.478000000000000E7    -7.714354991912842E-1   3.066466450691223E-1  -2.017682492733002E-1  -5.082689523696899E-1  -2.021403163671494E-1  -5.082691907882690E-1  -7.646715641021729E-1   3.061792254447937E-1  
 4.480000000000000E7    -7.711276412010193E-1   3.083758354187012E-1  -2.020971477031708E-1  -5.074211359024048E-1  -2.026554644107819E-1  -5.070021152496338E-1  -7.652766108512878E-1   3.080827891826630E-1  
 4.482000000000000E7    -7.714198231697083E-1   3.097848892211914E-1  -2.027526944875717E-1  -5.060207843780518E-1  -2.028903365135193E-1  -5.058933496475220E-1  -7.649095654487610E-1   3.097862303256989E-1  
 4.484000000000000E7    -7.714242339134216E-1   3.114910125732422E-1  -2.035022079944611E-1  -5.050154924392700E-1  -2.034388184547424E-1  -5.043104887008667E-1  -7.652081847190857E-1   3.108974397182465E-1  
 4.486000000000000E7    -7.714370489120483E-1   3.127224147319794E-1  -2.038757354021072E-1  -5.036633014678955E-1  -2.037009447813034E-1  -5.032638311386108E-1  -7.651597261428833E-1   3.126680850982666E-1  
 4.488000000000000E7    -7.717346549034119E-1   3.143092691898346E-1  -2.038221657276154E-1  -5.023303031921387E-1  -2.043970376253128E-1  -5.015823245048523E-1  -7.655161619186401E-1   3.139896392822266E-1  
 4.490000000000000E7    -7.715320587158203E-1   3.160344362258911E-1  -2.045196294784546E-1  -5.011256337165833E-1  -2.046082168817520E-1  -5.005007386207581E-1  -7.653453350067139E-1   3.154414296150208E-1  
 4.492000000000000E7    -7.718342542648315E-1   3.173606693744659E-1  -2.047715336084366E-1  -4.992743730545044E-1  -2.054712474346161E-1  -4.992612898349762E-1  -7.654036283493042E-1   3.171227276325226E-1  
 4.494000000000000E7    -7.718224525451660E-1   3.190910220146179E-1  -2.053825259208679E-1  -4.984961748123169E-1  -2.056248635053635E-1  -4.981101155281067E-1  -7.657759189605713E-1   3.190729022026062E-1  
 4.496000000000000E7    -7.720962762832642E-1   3.202139139175415E-1  -2.057189196348190E-1  -4.967981576919556E-1  -2.060363292694092E-1  -4.966793358325958E-1  -7.654848098754883E-1   3.203381597995758E-1  
 4.498000000000000E7    -7.718949317932129E-1   3.221505582332611E-1  -2.059863209724426E-1  -4.958072304725647E-1  -2.060451805591583E-1  -4.951899647712708E-1  -7.655493021011353E-1   3.218963742256165E-1  
 4.500000000000000E7    -7.719080448150635E-1   3.235551118850708E-1  -2.068577259778976E-1  -4.944195747375488E-1  -2.070641517639160E-1  -4.941813349723816E-1  -7.657088041305542E-1   3.231813311576843E-1  
 4.502000000000000E7    -7.719991803169251E-1   3.249771296977997E-1  -2.070519179105759E-1  -4.933983683586121E-1  -2.075482755899429E-1  -4.929092824459076E-1  -7.658160328865051E-1   3.249033391475678E-1  
 4.504000000000000E7    -7.719953060150147E-1   3.267330825328827E-1  -2.075363099575043E-1  -4.921426475048065E-1  -2.076245844364166E-1  -4.910824894905090E-1  -7.660280466079712E-1   3.261124491691589E-1  
 4.506000000000000E7    -7.722194790840149E-1   3.280212879180908E-1  -2.079583704471588E-1  -4.909993410110474E-1  -2.082646191120148E-1  -4.902473092079163E-1  -7.660688757896423E-1   3.278032541275024E-1  
 4.508000000000000E7    -7.724188566207886E-1   3.294787406921387E-1  -2.086337953805924E-1  -4.893243610858917E-1  -2.082884907722473E-1  -4.889464676380158E-1  -7.660942077636719E-1   3.295473158359528E-1  
 4.510000000000000E7    -7.720829844474793E-1   3.311975002288818E-1  -2.088338136672974E-1  -4.883280098438263E-1  -2.089613974094391E-1  -4.873876273632050E-1  -7.662726640701294E-1   3.307084739208221E-1  
 4.512000000000000E7    -7.722356915473938E-1   3.325515985488892E-1  -2.092087715864182E-1  -4.870583415031433E-1  -2.093184739351273E-1  -4.865015745162964E-1  -7.663805484771729E-1   3.326009809970856E-1  
 4.514000000000000E7    -7.724489569664002E-1   3.342311680316925E-1  -2.094278037548065E-1  -4.857406616210938E-1  -2.096194922924042E-1  -4.855788350105286E-1  -7.658380866050720E-1   3.338816165924072E-1  
 4.516000000000000E7    -7.724604010581970E-1   3.360875844955444E-1  -2.102926671504974E-1  -4.843757450580597E-1  -2.104896306991577E-1  -4.837558567523956E-1  -7.661607265472412E-1   3.353652060031891E-1  
 4.518000000000000E7    -7.723405361175537E-1   3.370695412158966E-1  -2.107440829277039E-1  -4.834690988063812E-1  -2.106021195650101E-1  -4.826169312000275E-1  -7.662798762321472E-1   3.365633487701416E-1  
 4.520000000000000E7    -7.725270986557007E-1   3.387883901596069E-1  -2.108566910028458E-1  -4.816847443580627E-1  -2.107498943805695E-1  -4.814798235893250E-1  -7.659968733787537E-1   3.382090330123901E-1  
 4.522000000000000E7    -7.727346420288086E-1   3.402422964572907E-1  -2.113207727670670E-1  -4.803721308708191E-1  -2.111503481864929E-1  -4.803718626499176E-1  -7.660974264144898E-1   3.397908210754395E-1  
 4.524000000000000E7    -7.724062800407410E-1   3.418340682983398E-1  -2.113695740699768E-1  -4.794054031372070E-1  -2.116492241621018E-1  -4.790679216384888E-1  -7.663892507553101E-1   3.412006497383118E-1  
 4.526000000000000E7    -7.726800441741943E-1   3.435764014720917E-1  -2.117226719856262E-1  -4.781198799610138E-1  -2.120748460292816E-1  -4.779434502124786E-1  -7.659878134727478E-1   3.426355123519898E-1  
 4.528000000000000E7    -7.726047039031982E-1   3.449143469333649E-1  -2.124056071043015E-1  -4.767657816410065E-1  -2.123102992773056E-1  -4.761568307876587E-1  -7.662102580070496E-1   3.442153632640839E-1  
 4.530000000000000E7    -7.725802659988403E-1   3.467074036598206E-1  -2.123866677284241E-1  -4.757305979728699E-1  -2.128590792417526E-1  -4.751744866371155E-1  -7.663820385932922E-1   3.455947935581207E-1  
 4.532000000000000E7    -7.725148797035217E-1   3.480759263038635E-1  -2.130100727081299E-1  -4.743921756744385E-1  -2.133880108594894E-1  -4.742604494094849E-1  -7.660682797431946E-1   3.471100330352783E-1  
 4.534000000000000E7    -7.725021839141846E-1   3.494210243225098E-1  -2.134944498538971E-1  -4.728325307369232E-1  -2.135766893625259E-1  -4.728137850761414E-1  -7.661098241806030E-1   3.486794233322144E-1  
 4.536000000000000E7    -7.724875211715698E-1   3.511703610420227E-1  -2.138741910457611E-1  -4.716115891933441E-1  -2.139807641506195E-1  -4.712058305740356E-1  -7.662829756736755E-1   3.499428629875183E-1  
 4.538000000000000E7    -7.724022269248962E-1   3.523472845554352E-1  -2.140283286571503E-1  -4.703656733036041E-1  -2.139350175857544E-1  -4.699770808219910E-1  -7.660880684852600E-1   3.517428934574127E-1  
 4.540000000000000E7    -7.724625468254089E-1   3.536704480648041E-1  -2.143237143754959E-1  -4.692530035972595E-1  -2.144161611795425E-1  -4.689846336841583E-1  -7.662893533706665E-1   3.533309698104858E-1  
 4.542000000000000E7    -7.722076773643494E-1   3.552806973457336E-1  -2.144669294357300E-1  -4.680266678333283E-1  -2.145559191703796E-1  -4.673708081245422E-1  -7.663199901580811E-1   3.546726107597351E-1  
 4.544000000000000E7    -7.721996307373047E-1   3.567108511924744E-1  -2.151845544576645E-1  -4.665336310863495E-1  -2.151781916618347E-1  -4.661348760128021E-1  -7.662248611450195E-1   3.560656905174255E-1  
 4.546000000000000E7    -7.724521756172180E-1   3.584050536155701E-1  -2.155256718397141E-1  -4.656882286071777E-1  -2.155678570270538E-1  -4.651853740215302E-1  -7.660708427429199E-1   3.575856089591980E-1  
 4.548000000000000E7    -7.721329331398010E-1   3.599440455436707E-1  -2.156954109668732E-1  -4.644230008125305E-1  -2.156290858983994E-1  -4.639259576797485E-1  -7.659326791763306E-1   3.590976595878601E-1  
 4.550000000000000E7    -7.723374366760254E-1   3.612064421176910E-1  -2.159995734691620E-1  -4.628484547138214E-1  -2.161691933870316E-1  -4.628576338291168E-1  -7.658290266990662E-1   3.607154488563538E-1  
 4.552000000000000E7    -7.719665169715881E-1   3.628222346305847E-1  -2.162856310606003E-1  -4.619542360305786E-1  -2.163425683975220E-1  -4.615495800971985E-1  -7.658702731132507E-1   3.621704280376434E-1  
 4.554000000000000E7    -7.720968127250671E-1   3.640879392623901E-1  -2.166757881641388E-1  -4.606227278709412E-1  -2.168469876050949E-1  -4.598934054374695E-1  -7.658315300941467E-1   3.638350069522858E-1  
 4.556000000000000E7    -7.719306349754334E-1   3.657893836498261E-1  -2.170731276273727E-1  -4.593507051467896E-1  -2.170188277959824E-1  -4.587121605873108E-1  -7.658460140228272E-1   3.651952743530273E-1  
 4.558000000000000E7    -7.719669938087463E-1   3.669990599155426E-1  -2.172850519418716E-1  -4.581708908081055E-1  -2.171034663915634E-1  -4.575040340423584E-1  -7.657539248466492E-1   3.666319251060486E-1  
 4.560000000000000E7    -7.718983292579651E-1   3.686954081058502E-1  -2.175254821777344E-1  -4.569462537765503E-1  -2.175884842872620E-1  -4.561491012573242E-1  -7.657143473625183E-1   3.680104315280914E-1  
 4.562000000000000E7    -7.722626924514771E-1   3.702777028083801E-1  -2.177864313125610E-1  -4.555275738239288E-1  -2.177326381206513E-1  -4.553409814834595E-1  -7.657111883163452E-1   3.691794276237488E-1  
 4.564000000000000E7    -7.717562913894653E-1   3.718306422233582E-1  -2.183402180671692E-1  -4.542606174945831E-1  -2.182107567787170E-1  -4.536900520324707E-1  -7.655386328697205E-1   3.708643615245819E-1  
 4.566000000000000E7    -7.718417644500732E-1   3.731925487518311E-1  -2.185687571763992E-1  -4.528912007808685E-1  -2.182459831237793E-1  -4.524715840816498E-1  -7.655700445175171E-1   3.727376461029053E-1  
 4.568000000000000E7    -7.718637585639954E-1   3.748587667942047E-1  -2.190092056989670E-1  -4.518053233623505E-1  -2.191908508539200E-1  -4.514551758766174E-1  -7.655248045921326E-1   3.737267553806305E-1  
 4.570000000000000E7    -7.718417048454285E-1   3.765167891979218E-1  -2.187804579734802E-1  -4.505598247051239E-1  -2.191671878099442E-1  -4.501980543136597E-1  -7.654085159301758E-1   3.752343952655792E-1  
 4.572000000000000E7    -7.717531919479370E-1   3.773875832557678E-1  -2.191206961870194E-1  -4.494033157825470E-1  -2.194972187280655E-1  -4.490284323692322E-1  -7.652656435966492E-1   3.768648803234100E-1  
 4.574000000000000E7    -7.716143131256104E-1   3.791459798812866E-1  -2.193071842193604E-1  -4.477571845054627E-1  -2.199069410562515E-1  -4.474949836730957E-1  -7.650258541107178E-1   3.780805468559265E-1  
 4.576000000000000E7    -7.717587351799011E-1   3.808235824108124E-1  -2.198056131601334E-1  -4.471742510795593E-1  -2.202456891536713E-1  -4.466902315616608E-1  -7.650791406631470E-1   3.798051476478577E-1  
 4.578000000000000E7    -7.711768746376038E-1   3.818195462226868E-1  -2.199931442737579E-1  -4.453546702861786E-1  -2.199908941984177E-1  -4.451737999916077E-1  -7.651996612548828E-1   3.811158537864685E-1  
 4.580000000000000E7    -7.711717486381531E-1   3.831526935100555E-1  -2.204954177141190E-1  -4.443442523479462E-1  -2.201705873012543E-1  -4.439288973808289E-1  -7.647112011909485E-1   3.826888203620911E-1  
 4.582000000000000E7    -7.710571289062500E-1   3.846241533756256E-1  -2.207891643047333E-1  -4.427559077739716E-1  -2.208808660507202E-1  -4.429070055484772E-1  -7.646476626396179E-1   3.840679526329041E-1  
 4.584000000000000E7    -7.710195779800415E-1   3.863045275211334E-1  -2.205769717693329E-1  -4.417046308517456E-1  -2.210945188999176E-1  -4.414078891277313E-1  -7.647181153297424E-1   3.854239881038666E-1  
 4.586000000000000E7    -7.707364559173584E-1   3.880351781845093E-1  -2.213250547647476E-1  -4.406319856643677E-1  -2.211611568927765E-1  -4.401460886001587E-1  -7.646797299385071E-1   3.869031965732575E-1  
 4.588000000000000E7    -7.707905769348145E-1   3.893743753433228E-1  -2.214685380458832E-1  -4.394854903221130E-1  -2.212565243244171E-1  -4.391660392284393E-1  -7.644312977790833E-1   3.883252143859863E-1  
 4.590000000000000E7    -7.705485820770264E-1   3.909038901329041E-1  -2.216849178075790E-1  -4.382285475730896E-1  -2.216932177543640E-1  -4.378720223903656E-1  -7.642075419425964E-1   3.896974623203278E-1  
 4.592000000000000E7    -7.703374624252319E-1   3.924677968025208E-1  -2.219101786613464E-1  -4.368647336959839E-1  -2.219661623239517E-1  -4.369224309921265E-1  -7.644796967506409E-1   3.913168311119080E-1  
 4.594000000000000E7    -7.702160477638245E-1   3.939011096954346E-1  -2.220666110515595E-1  -4.361664056777954E-1  -2.220633774995804E-1  -4.355829060077667E-1  -7.643957734107971E-1   3.926000595092773E-1  
 4.596000000000000E7    -7.703691124916077E-1   3.951735496520996E-1  -2.226967215538025E-1  -4.347109198570252E-1  -2.223402559757233E-1  -4.341559410095215E-1  -7.640346288681030E-1   3.944970369338989E-1  
 4.598000000000000E7    -7.702262997627258E-1   3.967303037643433E-1  -2.226039171218872E-1  -4.331766963005066E-1  -2.226895987987518E-1  -4.331125915050507E-1  -7.635976672172546E-1   3.957163691520691E-1  
 4.600000000000000E7    -7.697913646697998E-1   3.979093432426453E-1  -2.226896136999130E-1  -4.320973157882690E-1  -2.225518822669983E-1  -4.318926930427551E-1  -7.637632489204407E-1   3.971456587314606E-1  
 4.602000000000000E7    -7.696595788002014E-1   3.994873762130737E-1  -2.229371219873428E-1  -4.308481812477112E-1  -2.228696346282959E-1  -4.305544197559357E-1  -7.636404037475586E-1   3.983789384365082E-1  
 4.604000000000000E7    -7.695035934448242E-1   4.009873270988464E-1  -2.231103181838989E-1  -4.296322464942932E-1  -2.232160121202469E-1  -4.293819963932037E-1  -7.637925744056702E-1   3.998569548130035E-1  
 4.606000000000000E7    -7.695021033287048E-1   4.025814831256867E-1  -2.235108017921448E-1  -4.283167123794556E-1  -2.233560681343079E-1  -4.280363321304321E-1  -7.630358934402466E-1   4.014740884304047E-1  
 4.608000000000000E7    -7.692824602127075E-1   4.038176834583283E-1  -2.237057536840439E-1  -4.273928701877594E-1  -2.238233238458633E-1  -4.270719289779663E-1  -7.633315324783325E-1   4.026929736137390E-1  
 4.610000000000000E7    -7.692780494689941E-1   4.054028093814850E-1  -2.238880395889282E-1  -4.260680973529816E-1  -2.237708866596222E-1  -4.256716072559357E-1  -7.631735205650330E-1   4.041544795036316E-1  
 4.612000000000000E7    -7.690292596817017E-1   4.067963957786560E-1  -2.241240143775940E-1  -4.249814450740814E-1  -2.240832746028900E-1  -4.246306419372559E-1  -7.629694342613220E-1   4.058857262134552E-1  
 4.614000000000000E7    -7.689556479454041E-1   4.085198044776917E-1  -2.242521196603775E-1  -4.236896634101868E-1  -2.246720492839813E-1  -4.235017001628876E-1  -7.624788880348206E-1   4.069124162197113E-1  
 4.616000000000000E7    -7.687518596649170E-1   4.097886979579926E-1  -2.246401309967041E-1  -4.224184453487396E-1  -2.244951575994492E-1  -4.220229089260101E-1  -7.624009251594544E-1   4.085061550140381E-1  
 4.618000000000000E7    -7.679769396781921E-1   4.111123681068420E-1  -2.249687314033508E-1  -4.212519228458405E-1  -2.246442288160324E-1  -4.205583333969116E-1  -7.625488042831421E-1   4.097949564456940E-1  
 4.620000000000000E7    -7.683720588684082E-1   4.128107726573944E-1  -2.249901592731476E-1  -4.202581644058228E-1  -2.250609695911408E-1  -4.198183417320252E-1  -7.621354460716248E-1   4.112455546855927E-1  
 4.622000000000000E7    -7.680923342704773E-1   4.142786264419556E-1  -2.249653637409210E-1  -4.191617965698242E-1  -2.252332717180252E-1  -4.186887443065643E-1  -7.621961236000061E-1   4.125422537326813E-1  
 4.624000000000000E7    -7.679548859596252E-1   4.154044687747955E-1  -2.255740165710449E-1  -4.173756837844849E-1  -2.251525819301605E-1  -4.173392653465271E-1  -7.617750167846680E-1   4.143202900886536E-1  
 4.626000000000000E7    -7.678570747375488E-1   4.172612726688385E-1  -2.251855283975601E-1  -4.165481328964233E-1  -2.252586632966995E-1  -4.163589477539063E-1  -7.618010640144348E-1   4.155802130699158E-1  
 4.628000000000000E7    -7.674673199653626E-1   4.184104502201080E-1  -2.254522740840912E-1  -4.152573645114899E-1  -2.255973219871521E-1  -4.149385392665863E-1  -7.614977955818176E-1   4.170893430709839E-1  
 4.630000000000000E7    -7.672773003578186E-1   4.197495579719544E-1  -2.259273827075958E-1  -4.138735532760620E-1  -2.259845435619354E-1  -4.136973023414612E-1  -7.614817023277283E-1   4.185500442981720E-1  
 4.632000000000000E7    -7.672730088233948E-1   4.213199019432068E-1  -2.259865999221802E-1  -4.128261804580689E-1  -2.261561453342438E-1  -4.126783013343811E-1  -7.609766125679016E-1   4.197308123111725E-1  
 4.634000000000000E7    -7.671521306037903E-1   4.225895702838898E-1  -2.259528338909149E-1  -4.117936193943024E-1  -2.261397242546082E-1  -4.114602506160736E-1  -7.608691453933716E-1   4.212580621242523E-1  
 4.636000000000000E7    -7.666082978248596E-1   4.240150749683380E-1  -2.260756045579910E-1  -4.106670022010803E-1  -2.263830006122589E-1  -4.102607369422913E-1  -7.606859207153320E-1   4.226737916469574E-1  
 4.638000000000000E7    -7.666031718254089E-1   4.253305792808533E-1  -2.266206443309784E-1  -4.093028306961060E-1  -2.262968420982361E-1  -4.087790250778198E-1  -7.607968449592590E-1   4.243273437023163E-1  
 4.640000000000000E7    -7.663676142692566E-1   4.267348349094391E-1  -2.267211377620697E-1  -4.080203771591187E-1  -2.266175448894501E-1  -4.076892137527466E-1  -7.604176998138428E-1   4.258162379264832E-1  
 4.642000000000000E7    -7.662359476089478E-1   4.281315207481384E-1  -2.268898487091065E-1  -4.071517884731293E-1  -2.268871814012528E-1  -4.068156778812408E-1  -7.599596977233887E-1   4.271627962589264E-1  
 4.644000000000000E7    -7.658702135086060E-1   4.297206997871399E-1  -2.267439216375351E-1  -4.056643247604370E-1  -2.268038690090179E-1  -4.058376550674439E-1  -7.595914006233215E-1   4.283053874969482E-1  
 4.646000000000000E7    -7.656386494636536E-1   4.310562014579773E-1  -2.270629256963730E-1  -4.045945405960083E-1  -2.269084453582764E-1  -4.042230844497681E-1  -7.596197128295898E-1   4.296189248561859E-1  
 4.648000000000000E7    -7.653673887252808E-1   4.327896535396576E-1  -2.271886467933655E-1  -4.035405814647675E-1  -2.273981422185898E-1  -4.030270576477051E-1  -7.594153881072998E-1   4.310421347618103E-1  
 4.650000000000000E7    -7.654596567153931E-1   4.339722394943237E-1  -2.274531126022339E-1  -4.024791419506073E-1  -2.274654209613800E-1  -4.021113514900208E-1  -7.590919137001038E-1   4.325088560581207E-1  
 4.652000000000000E7    -7.648431062698364E-1   4.355344474315643E-1  -2.276161462068558E-1  -4.010981917381287E-1  -2.276584357023239E-1  -4.006890952587128E-1  -7.588258981704712E-1   4.336690306663513E-1  
 4.654000000000000E7    -7.647413611412048E-1   4.368658363819122E-1  -2.279364168643951E-1  -3.999414145946503E-1  -2.279667258262634E-1  -3.995745182037354E-1  -7.586554884910584E-1   4.352446496486664E-1  
 4.656000000000000E7    -7.644219994544983E-1   4.383160173892975E-1  -2.278667390346527E-1  -3.985843062400818E-1  -2.275350838899612E-1  -3.986786007881165E-1  -7.583858370780945E-1   4.365129470825195E-1  
 4.658000000000000E7    -7.640418410301209E-1   4.393647015094757E-1  -2.279208600521088E-1  -3.975813090801239E-1  -2.279921919107437E-1  -3.973663151264191E-1  -7.583589553833008E-1   4.381349980831146E-1  
 4.660000000000000E7    -7.639366388320923E-1   4.410173892974854E-1  -2.284319251775742E-1  -3.963965773582459E-1  -2.282981872558594E-1  -3.959286510944367E-1  -7.577413320541382E-1   4.395551383495331E-1  
 4.662000000000000E7    -7.638108134269714E-1   4.423390626907349E-1  -2.281621843576431E-1  -3.954484164714813E-1  -2.281854003667831E-1  -3.949696421623230E-1  -7.580987811088562E-1   4.409935176372528E-1  
 4.664000000000000E7    -7.634938955307007E-1   4.438195824623108E-1  -2.285405099391937E-1  -3.938922584056854E-1  -2.284697443246841E-1  -3.937893509864807E-1  -7.575374841690064E-1   4.421195983886719E-1  
 4.666000000000000E7    -7.630753517150879E-1   4.449715614318848E-1  -2.284706681966782E-1  -3.925816416740418E-1  -2.286293059587479E-1  -3.925216794013977E-1  -7.573616504669190E-1   4.437207579612732E-1  
 4.668000000000000E7    -7.629901170730591E-1   4.467248320579529E-1  -2.284560203552246E-1  -3.918965458869934E-1  -2.283048927783966E-1  -3.916940093040466E-1  -7.569593191146851E-1   4.451591372489929E-1  
 4.670000000000000E7    -7.628273963928223E-1   4.478869438171387E-1  -2.290427833795548E-1  -3.906755149364471E-1  -2.285037189722061E-1  -3.902995884418488E-1  -7.564203143119812E-1   4.463068842887878E-1  
 4.672000000000000E7    -7.622503042221069E-1   4.492822289466858E-1  -2.285407334566116E-1  -3.894527554512024E-1  -2.285932898521423E-1  -3.890682756900787E-1  -7.566373944282532E-1   4.479402899742127E-1  
 4.674000000000000E7    -7.618680000305176E-1   4.505375325679779E-1  -2.288142889738083E-1  -3.884832262992859E-1  -2.288339287042618E-1  -3.880639970302582E-1  -7.561860084533691E-1   4.491527676582336E-1  
 4.676000000000000E7    -7.618049383163452E-1   4.520409107208252E-1  -2.288626581430435E-1  -3.871558010578156E-1  -2.289703935384750E-1  -3.869628906250000E-1  -7.560476660728455E-1   4.505032598972321E-1  
 4.678000000000000E7    -7.615849971771240E-1   4.535031318664551E-1  -2.291670441627502E-1  -3.861709833145142E-1  -2.289698421955109E-1  -3.858633339405060E-1  -7.557587623596191E-1   4.522156417369843E-1  
 4.680000000000000E7    -7.613230943679810E-1   4.546917974948883E-1  -2.292680740356445E-1  -3.850091695785523E-1  -2.292196452617645E-1  -3.844189643859863E-1  -7.557196021080017E-1   4.533521831035614E-1  
 4.682000000000000E7    -7.610183358192444E-1   4.562609195709229E-1  -2.294694185256958E-1  -3.836452662944794E-1  -2.294968068599701E-1  -3.835513591766357E-1  -7.550177574157715E-1   4.547947943210602E-1  
 4.684000000000000E7    -7.607279419898987E-1   4.577804505825043E-1  -2.293651998043060E-1  -3.828274905681610E-1  -2.293568551540375E-1  -3.821817040443420E-1  -7.549739480018616E-1   4.561888575553894E-1  
 4.686000000000000E7    -7.606797218322754E-1   4.590689539909363E-1  -2.295456677675247E-1  -3.818486630916596E-1  -2.294273078441620E-1  -3.810404241085053E-1  -7.546404600143433E-1   4.573446214199066E-1  
 4.688000000000000E7    -7.601070404052734E-1   4.606443643569946E-1  -2.292520403862000E-1  -3.800362348556519E-1  -2.292322516441345E-1  -3.798189759254456E-1  -7.543739080429077E-1   4.584731757640839E-1  
 4.690000000000000E7    -7.601174712181091E-1   4.616404771804810E-1  -2.296069264411926E-1  -3.787397146224976E-1  -2.294885516166687E-1  -3.788448572158814E-1  -7.537684440612793E-1   4.603821337223053E-1  
 4.692000000000000E7    -7.593824267387390E-1   4.633313715457916E-1  -2.294248491525650E-1  -3.780570030212402E-1  -2.294789105653763E-1  -3.774789571762085E-1  -7.536214590072632E-1   4.616046249866486E-1  
 4.694000000000000E7    -7.594172358512878E-1   4.644556343555450E-1  -2.295203357934952E-1  -3.772025108337402E-1  -2.298834174871445E-1  -3.766195476055145E-1  -7.537167072296143E-1   4.627479612827301E-1  
 4.696000000000000E7    -7.589204907417297E-1   4.659568965435028E-1  -2.298301458358765E-1  -3.756949901580811E-1  -2.295975387096405E-1  -3.755974769592285E-1  -7.529126405715942E-1   4.639573097229004E-1  
 4.698000000000000E7    -7.585664987564087E-1   4.670476913452148E-1  -2.296230196952820E-1  -3.744880855083466E-1  -2.295840233564377E-1  -3.740482032299042E-1  -7.524499297142029E-1   4.654800891876221E-1  
 4.700000000000000E7    -7.582666277885437E-1   4.687953293323517E-1  -2.301479727029800E-1  -3.732892572879791E-1  -2.299140989780426E-1  -3.730598092079163E-1  -7.524986267089844E-1   4.669934809207916E-1  
 4.702000000000000E7    -7.578255534172058E-1   4.698355495929718E-1  -2.301072180271149E-1  -3.721493482589722E-1  -2.296235412359238E-1  -3.718469738960266E-1  -7.520354390144348E-1   4.684057831764221E-1  
 4.704000000000000E7    -7.577474117279053E-1   4.714046418666840E-1  -2.299180030822754E-1  -3.713453412055969E-1  -2.295947670936585E-1  -3.710102438926697E-1  -7.517784237861633E-1   4.696738719940186E-1  
 4.706000000000000E7    -7.574009895324707E-1   4.727887511253357E-1  -2.299165725708008E-1  -3.699387311935425E-1  -2.298010289669037E-1  -3.697161078453064E-1  -7.516266107559204E-1   4.708712100982666E-1  
 4.708000000000000E7    -7.571431994438171E-1   4.740984737873077E-1  -2.299772351980209E-1  -3.690017163753510E-1  -2.302144467830658E-1  -3.685449957847595E-1  -7.513691782951355E-1   4.724160134792328E-1  
 4.710000000000000E7    -7.569652795791626E-1   4.755863249301910E-1  -2.303254753351212E-1  -3.676020205020905E-1  -2.302313446998596E-1  -3.677110075950623E-1  -7.509540319442749E-1   4.736868441104889E-1  
 4.712000000000000E7    -7.566800713539124E-1   4.768384397029877E-1  -2.302814871072769E-1  -3.665556907653809E-1  -2.299608290195465E-1  -3.662898540496826E-1  -7.505684494972229E-1   4.748041331768036E-1  
 4.714000000000000E7    -7.559849023818970E-1   4.780357480049133E-1  -2.302954792976379E-1  -3.654617965221405E-1  -2.300959229469299E-1  -3.653200864791870E-1  -7.504091858863831E-1   4.764563143253326E-1  
 4.716000000000000E7    -7.555928230285645E-1   4.796577394008637E-1  -2.301547825336456E-1  -3.644876778125763E-1  -2.299686819314957E-1  -3.641369044780731E-1  -7.498612403869629E-1   4.776539802551270E-1  
 4.718000000000000E7    -7.554650902748108E-1   4.809107184410095E-1  -2.304476052522659E-1  -3.632822930812836E-1  -2.302133142948151E-1  -3.628316223621368E-1  -7.495903968811035E-1   4.789103865623474E-1  
 4.720000000000000E7    -7.550472021102905E-1   4.820608198642731E-1  -2.304820716381073E-1  -3.620642423629761E-1  -2.299130558967590E-1  -3.617640733718872E-1  -7.496382594108582E-1   4.801498949527741E-1  
 4.722000000000000E7    -7.546049356460571E-1   4.834966361522675E-1  -2.301839292049408E-1  -3.610264956951141E-1  -2.304108142852783E-1  -3.605858087539673E-1  -7.489724159240723E-1   4.814756810665131E-1  
 4.724000000000000E7    -7.540954351425171E-1   4.850003123283386E-1  -2.304204553365707E-1  -3.599443137645721E-1  -2.301607877016068E-1  -3.594673275947571E-1  -7.488576173782349E-1   4.826788902282715E-1  
 4.726000000000000E7    -7.543490529060364E-1   4.863193631172180E-1  -2.303507924079895E-1  -3.587519526481628E-1  -2.305651903152466E-1  -3.584330081939697E-1  -7.480337023735046E-1   4.842137098312378E-1  
 4.728000000000000E7    -7.534140944480896E-1   4.874967336654663E-1  -2.304548919200897E-1  -3.577289879322052E-1  -2.302065044641495E-1  -3.574147224426270E-1  -7.478877902030945E-1   4.855361580848694E-1  
 4.730000000000000E7    -7.532697916030884E-1   4.886639416217804E-1  -2.303205132484436E-1  -3.566599190235138E-1  -2.302531301975250E-1  -3.561953306198120E-1  -7.474444508552551E-1   4.870477616786957E-1  
 4.732000000000000E7    -7.526360750198364E-1   4.903255403041840E-1  -2.302594929933548E-1  -3.550629019737244E-1  -2.302827835083008E-1  -3.549274206161499E-1  -7.473754286766052E-1   4.881635904312134E-1  
 4.734000000000000E7    -7.525724768638611E-1   4.911063313484192E-1  -2.306507080793381E-1  -3.543389439582825E-1  -2.303127050399780E-1  -3.541697859764099E-1  -7.470782995223999E-1   4.897193014621735E-1  
 4.736000000000000E7    -7.521016001701355E-1   4.927462339401245E-1  -2.305504977703095E-1  -3.531698882579804E-1  -2.302624285221100E-1  -3.530120849609375E-1  -7.465067505836487E-1   4.907995760440826E-1  
 4.738000000000000E7    -7.518654465675354E-1   4.939115643501282E-1  -2.305905520915985E-1  -3.522739112377167E-1  -2.305538356304169E-1  -3.518291115760803E-1  -7.464609742164612E-1   4.922330975532532E-1  
 4.740000000000000E7    -7.513930797576904E-1   4.958756268024445E-1  -2.304159253835678E-1  -3.513881266117096E-1  -2.308275401592255E-1  -3.508627712726593E-1  -7.458150386810303E-1   4.935424625873566E-1  
 4.742000000000000E7    -7.510587573051453E-1   4.967728853225708E-1  -2.305548936128616E-1  -3.498803377151489E-1  -2.304137349128723E-1  -3.496479392051697E-1  -7.454844713211060E-1   4.949564039707184E-1  
 4.744000000000000E7    -7.507300376892090E-1   4.983153045177460E-1  -2.306829690933228E-1  -3.489924073219299E-1  -2.304592728614807E-1  -3.488917350769043E-1  -7.451879978179932E-1   4.961120486259460E-1  
 4.746000000000000E7    -7.506622672080994E-1   4.994585216045380E-1  -2.304139733314514E-1  -3.478460609912872E-1  -2.300720810890198E-1  -3.474094867706299E-1  -7.447913885116577E-1   4.976178109645844E-1  
 4.748000000000000E7    -7.497883439064026E-1   5.007073283195496E-1  -2.305850982666016E-1  -3.468726575374603E-1  -2.302960157394409E-1  -3.461877405643463E-1  -7.444120049476624E-1   4.986277818679810E-1  
 4.750000000000000E7    -7.496721148490906E-1   5.019616484642029E-1  -2.308206260204315E-1  -3.457625210285187E-1  -2.304897159337997E-1  -3.454606831073761E-1  -7.437036633491516E-1   5.000658035278320E-1  
 4.752000000000000E7    -7.492387890815735E-1   5.032027363777161E-1  -2.305695265531540E-1  -3.445290625095367E-1  -2.302722632884979E-1  -3.442637920379639E-1  -7.437716126441956E-1   5.015864968299866E-1  
 4.754000000000000E7    -7.485859394073486E-1   5.049753189086914E-1  -2.305862009525299E-1  -3.433585762977600E-1  -2.305213958024979E-1  -3.430722057819367E-1  -7.433016896247864E-1   5.027565360069275E-1  
 4.756000000000000E7    -7.487805485725403E-1   5.060889124870300E-1  -2.303465306758881E-1  -3.420923948287964E-1  -2.304674983024597E-1  -3.422033190727234E-1  -7.426441907882690E-1   5.036965608596802E-1  
 4.758000000000000E7    -7.476989626884460E-1   5.072963237762451E-1  -2.304861247539520E-1  -3.411354422569275E-1  -2.303383946418762E-1  -3.409248888492584E-1  -7.424062490463257E-1   5.053874850273132E-1  
 4.760000000000000E7    -7.474329471588135E-1   5.087224841117859E-1  -2.304840683937073E-1  -3.403038978576660E-1  -2.302627265453339E-1  -3.398180902004242E-1  -7.419680356979370E-1   5.065615177154541E-1  
 4.762000000000000E7    -7.475234866142273E-1   5.097317695617676E-1  -2.302382886409760E-1  -3.392364382743835E-1  -2.304466813802719E-1  -3.389623761177063E-1  -7.414849400520325E-1   5.075967907905579E-1  
 4.764000000000000E7    -7.466772198677063E-1   5.111517906188965E-1  -2.304143607616425E-1  -3.379048705101013E-1  -2.303358614444733E-1  -3.376966416835785E-1  -7.411223649978638E-1   5.091465711593628E-1  
 4.766000000000000E7    -7.463412284851074E-1   5.126028656959534E-1  -2.306744307279587E-1  -3.371069431304932E-1  -2.304120063781738E-1  -3.367573022842407E-1  -7.410469651222229E-1   5.105850696563721E-1  
 4.768000000000000E7    -7.457364797592163E-1   5.138815045356751E-1  -2.305740863084793E-1  -3.359878063201904E-1  -2.301459610462189E-1  -3.357438445091248E-1  -7.405926585197449E-1   5.116161108016968E-1  
 4.770000000000000E7    -7.456897497177124E-1   5.150944590568543E-1  -2.303207516670227E-1  -3.348624706268311E-1  -2.302009463310242E-1  -3.345076739788055E-1  -7.402758002281189E-1   5.127934813499451E-1  
 4.772000000000000E7    -7.449977993965149E-1   5.161506533622742E-1  -2.302056252956390E-1  -3.334040045738220E-1  -2.301798760890961E-1  -3.333801329135895E-1  -7.394313812255859E-1   5.139627456665039E-1  
 4.774000000000000E7    -7.445175647735596E-1   5.177453756332398E-1  -2.303177118301392E-1  -3.327859044075012E-1  -2.300585955381393E-1  -3.324672281742096E-1  -7.392892241477966E-1   5.152794718742371E-1  
 4.776000000000000E7    -7.442949414253235E-1   5.190965533256531E-1  -2.301670461893082E-1  -3.314760625362396E-1  -2.301594913005829E-1  -3.311904370784760E-1  -7.387271523475647E-1   5.167732834815979E-1  
 4.778000000000000E7    -7.436355352401733E-1   5.204753875732422E-1  -2.301108390092850E-1  -3.305663168430328E-1  -2.301921099424362E-1  -3.302582204341888E-1  -7.383248209953308E-1   5.181138515472412E-1  
 4.780000000000000E7    -7.431684732437134E-1   5.217392444610596E-1  -2.300847470760346E-1  -3.296178579330444E-1  -2.299320995807648E-1  -3.291570842266083E-1  -7.380442619323731E-1   5.191316008567810E-1  
 4.782000000000000E7    -7.427747249603272E-1   5.227305293083191E-1  -2.301600128412247E-1  -3.285120129585266E-1  -2.296798676252365E-1  -3.279352188110352E-1  -7.378022670745850E-1   5.203092098236084E-1  
 4.784000000000000E7    -7.424635887145996E-1   5.239760875701904E-1  -2.300803363323212E-1  -3.274944722652435E-1  -2.299015820026398E-1  -3.270957469940186E-1  -7.372062206268311E-1   5.219700336456299E-1  
 4.786000000000000E7    -7.424127459526062E-1   5.253772139549255E-1  -2.299295663833618E-1  -3.262602984905243E-1  -2.297569215297699E-1  -3.260618448257446E-1  -7.368911504745483E-1   5.231198072433472E-1  
 4.788000000000000E7    -7.412513494491577E-1   5.267030000686646E-1  -2.299646437168121E-1  -3.251729607582092E-1  -2.299557030200958E-1  -3.250289559364319E-1  -7.361817955970764E-1   5.245015621185303E-1  
 4.790000000000000E7    -7.410537004470825E-1   5.281479954719544E-1  -2.300219684839249E-1  -3.242806494235992E-1  -2.298702001571655E-1  -3.237639665603638E-1  -7.357043623924255E-1   5.259993076324463E-1  
 4.792000000000000E7    -7.408496141433716E-1   5.294107794761658E-1  -2.296759784221649E-1  -3.231865763664246E-1  -2.295181900262833E-1  -3.232348561286926E-1  -7.358508706092835E-1   5.269349217414856E-1  
 4.794000000000000E7    -7.404550909996033E-1   5.303268432617188E-1  -2.299964427947998E-1  -3.221936821937561E-1  -2.298828214406967E-1  -3.220630288124085E-1  -7.349524497985840E-1   5.282288193702698E-1  
 4.796000000000000E7    -7.397998571395874E-1   5.317781567573547E-1  -2.297058701515198E-1  -3.210754990577698E-1  -2.294748872518539E-1  -3.208289444446564E-1  -7.347341179847717E-1   5.295291543006897E-1  
 4.798000000000000E7    -7.395281791687012E-1   5.330818891525269E-1  -2.295750230550766E-1  -3.201591670513153E-1  -2.294586598873138E-1  -3.196517527103424E-1  -7.342277765274048E-1   5.306099653244019E-1  
 4.800000000000000E7    -7.390367388725281E-1   5.340318679809570E-1  -2.294542044401169E-1  -3.190382719039917E-1  -2.293281555175781E-1  -3.189031183719635E-1  -7.338783144950867E-1   5.320993661880493E-1  
 4.802000000000000E7    -7.386441826820374E-1   5.356186032295227E-1  -2.293753921985626E-1  -3.181732892990112E-1  -2.294322550296783E-1  -3.178192973136902E-1  -7.333323955535889E-1   5.331330299377441E-1  
 4.804000000000000E7    -7.378369569778442E-1   5.364832282066345E-1  -2.294133603572846E-1  -3.170073926448822E-1  -2.293567061424255E-1  -3.167715072631836E-1  -7.329425811767578E-1   5.345041751861572E-1  
 4.806000000000000E7    -7.377836108207703E-1   5.382677316665649E-1  -2.294080108404160E-1  -3.158034980297089E-1  -2.291075885295868E-1  -3.157377839088440E-1  -7.322070002555847E-1   5.356660485267639E-1  
 4.808000000000000E7    -7.369544506072998E-1   5.391637682914734E-1  -2.294442653656006E-1  -3.148714005947113E-1  -2.292361855506897E-1  -3.145692050457001E-1  -7.321068048477173E-1   5.372471213340759E-1  
 4.810000000000000E7    -7.366535067558289E-1   5.402067303657532E-1  -2.291292101144791E-1  -3.139270544052124E-1  -2.290586680173874E-1  -3.135510683059692E-1  -7.314071059226990E-1   5.385897755622864E-1  
 4.812000000000000E7    -7.364025115966797E-1   5.418139696121216E-1  -2.292297482490540E-1  -3.129905164241791E-1  -2.290327250957489E-1  -3.126305043697357E-1  -7.310698032379150E-1   5.396684408187866E-1  
 4.814000000000000E7    -7.358918786048889E-1   5.430773496627808E-1  -2.287755906581879E-1  -3.115845322608948E-1  -2.289504259824753E-1  -3.116950988769531E-1  -7.303693890571594E-1   5.405369997024536E-1  
 4.816000000000000E7    -7.352285385131836E-1   5.442239642143250E-1  -2.289048433303833E-1  -3.107023835182190E-1  -2.288077920675278E-1  -3.108271658420563E-1  -7.300764918327332E-1   5.417456626892090E-1  
 4.818000000000000E7    -7.349663376808167E-1   5.455407500267029E-1  -2.284424453973770E-1  -3.096731305122376E-1  -2.286272197961807E-1  -3.094621300697327E-1  -7.298302054405212E-1   5.432108044624329E-1  
 4.820000000000000E7    -7.342511415481567E-1   5.464509725570679E-1  -2.286677658557892E-1  -3.086841404438019E-1  -2.283019125461578E-1  -3.085281848907471E-1  -7.289779782295227E-1   5.443802475929260E-1  
 4.822000000000000E7    -7.338720560073853E-1   5.481200218200684E-1  -2.283624857664108E-1  -3.076598942279816E-1  -2.284720391035080E-1  -3.074313402175903E-1  -7.287341952323914E-1   5.454998612403870E-1  
 4.824000000000000E7    -7.332304716110230E-1   5.491337776184082E-1  -2.285631895065308E-1  -3.067506849765778E-1  -2.282055467367172E-1  -3.062131702899933E-1  -7.284229397773743E-1   5.469325780868530E-1  
 4.826000000000000E7    -7.326027154922485E-1   5.502429008483887E-1  -2.281884849071503E-1  -3.052271008491516E-1  -2.280692160129547E-1  -3.050712943077087E-1  -7.275462746620178E-1   5.482843518257141E-1  
 4.828000000000000E7    -7.324476242065430E-1   5.515342354774475E-1  -2.283423691987991E-1  -3.044959306716919E-1  -2.280923426151276E-1  -3.044446110725403E-1  -7.271890044212341E-1   5.495331287384033E-1  
 4.830000000000000E7    -7.317802906036377E-1   5.530783534049988E-1  -2.283551394939423E-1  -3.034703135490418E-1  -2.283410280942917E-1  -3.033303022384644E-1  -7.265871167182922E-1   5.509342551231384E-1  
 4.832000000000000E7    -7.312449216842651E-1   5.539791584014893E-1  -2.280411273241043E-1  -3.023521304130554E-1  -2.279397398233414E-1  -3.022684454917908E-1  -7.262168526649475E-1   5.515733361244202E-1  
 4.834000000000000E7    -7.310469746589661E-1   5.553342103958130E-1  -2.277920097112656E-1  -3.016240894794464E-1  -2.277258932590485E-1  -3.013858199119568E-1  -7.256753444671631E-1   5.531748533248901E-1  
 4.836000000000000E7    -7.303715944290161E-1   5.568418502807617E-1  -2.279851138591766E-1  -3.004898428916931E-1  -2.277312278747559E-1  -3.003255426883698E-1  -7.252267599105835E-1   5.541287660598755E-1  
 4.838000000000000E7    -7.296840548515320E-1   5.577871799468994E-1  -2.277628779411316E-1  -2.996734678745270E-1  -2.274927198886871E-1  -2.993793785572052E-1  -7.251142859458923E-1   5.553770661354065E-1  
 4.840000000000000E7    -7.295423746109009E-1   5.586156249046326E-1  -2.276252210140228E-1  -2.985497713088989E-1  -2.272819280624390E-1  -2.984059751033783E-1  -7.243384122848511E-1   5.570134520530701E-1  
 4.842000000000000E7    -7.286871671676636E-1   5.603605508804321E-1  -2.278350889682770E-1  -2.976607084274292E-1  -2.275165617465973E-1  -2.970589697360992E-1  -7.238211631774902E-1   5.579443573951721E-1  
 4.844000000000000E7    -7.283664941787720E-1   5.612505674362183E-1  -2.273098677396774E-1  -2.965151071548462E-1  -2.273292392492294E-1  -2.961337268352509E-1  -7.231978178024292E-1   5.592240691184998E-1  
 4.846000000000000E7    -7.274886965751648E-1   5.624821782112122E-1  -2.271848469972611E-1  -2.954307794570923E-1  -2.270543426275253E-1  -2.952834367752075E-1  -7.229081392288208E-1   5.601999163627625E-1  
 4.848000000000000E7    -7.275474071502686E-1   5.636778473854065E-1  -2.272310256958008E-1  -2.944347262382507E-1  -2.269033193588257E-1  -2.943124473094940E-1  -7.222529649734497E-1   5.616122484207153E-1  
 4.850000000000000E7    -7.267950177192688E-1   5.651640295982361E-1  -2.269808501005173E-1  -2.936548590660095E-1  -2.271967530250549E-1  -2.933907210826874E-1  -7.219901680946350E-1   5.626390576362610E-1  
 4.852000000000000E7    -7.264882922172546E-1   5.663570165634155E-1  -2.269743531942368E-1  -2.924375236034393E-1  -2.268095910549164E-1  -2.922586500644684E-1  -7.213529944419861E-1   5.639546513557434E-1  
 4.854000000000000E7    -7.261110544204712E-1   5.676150321960449E-1  -2.268303185701370E-1  -2.914150953292847E-1  -2.266038656234741E-1  -2.914242148399353E-1  -7.206521630287170E-1   5.652602910995483E-1  
 4.856000000000000E7    -7.252868413925171E-1   5.683953762054443E-1  -2.264618575572968E-1  -2.906586229801178E-1  -2.265564948320389E-1  -2.904608249664307E-1  -7.204255461692810E-1   5.665722489356995E-1  
 4.858000000000000E7    -7.247682213783264E-1   5.695913434028626E-1  -2.263500392436981E-1  -2.898397445678711E-1  -2.262335866689682E-1  -2.896122634410858E-1  -7.201571464538574E-1   5.675864219665527E-1  
 4.860000000000000E7    -7.244163751602173E-1   5.710703134536743E-1  -2.264393568038940E-1  -2.887093424797058E-1  -2.260958254337311E-1  -2.883729338645935E-1  -7.194033265113831E-1   5.687627196311951E-1  
 4.862000000000000E7    -7.237648963928223E-1   5.722702145576477E-1  -2.262071967124939E-1  -2.877035439014435E-1  -2.257943451404572E-1  -2.874858677387238E-1  -7.191270589828491E-1   5.696233510971069E-1  
 4.864000000000000E7    -7.233205437660217E-1   5.736085176467896E-1  -2.260320186614990E-1  -2.865521907806397E-1  -2.260897904634476E-1  -2.863725423812866E-1  -7.182343006134033E-1   5.710167288780212E-1  
 4.866000000000000E7    -7.229905724525452E-1   5.747349262237549E-1  -2.258000075817108E-1  -2.857745289802551E-1  -2.257293462753296E-1  -2.855116128921509E-1  -7.179595232009888E-1   5.721833109855652E-1  
 4.868000000000000E7    -7.224397063255310E-1   5.757880210876465E-1  -2.256478518247604E-1  -2.847590148448944E-1  -2.255556881427765E-1  -2.845087051391602E-1  -7.174794673919678E-1   5.735628008842468E-1  
 4.870000000000000E7    -7.216745615005493E-1   5.769930481910706E-1  -2.255662977695465E-1  -2.835772931575775E-1  -2.254260331392288E-1  -2.833256125450134E-1  -7.165974378585815E-1   5.746544599533081E-1  
 4.872000000000000E7    -7.213194370269775E-1   5.781353116035461E-1  -2.254431396722794E-1  -2.825400233268738E-1  -2.251446247100830E-1  -2.825334072113037E-1  -7.163861393928528E-1   5.757226943969727E-1  
 4.874000000000000E7    -7.207293510437012E-1   5.789755582809448E-1  -2.252685874700546E-1  -2.815848290920258E-1  -2.249096184968948E-1  -2.813578844070435E-1  -7.154625654220581E-1   5.769589543342590E-1  
 4.876000000000000E7    -7.200189232826233E-1   5.808227658271790E-1  -2.250645458698273E-1  -2.807994186878204E-1  -2.247790247201920E-1  -2.804890573024750E-1  -7.151209712028503E-1   5.780509710311890E-1  
 4.878000000000000E7    -7.194936275482178E-1   5.820689797401428E-1  -2.248235493898392E-1  -2.799794077873230E-1  -2.250616550445557E-1  -2.795751690864563E-1  -7.149487137794495E-1   5.791075825691223E-1  
 4.880000000000000E7    -7.188785076141357E-1   5.826354026794434E-1  -2.247894406318665E-1  -2.786977887153626E-1  -2.245928198099136E-1  -2.787297666072846E-1  -7.140429019927979E-1   5.805228352546692E-1  
 4.882000000000000E7    -7.182686328887940E-1   5.841039419174194E-1  -2.246340662240982E-1  -2.776590585708618E-1  -2.243549972772598E-1  -2.774638533592224E-1  -7.135958075523377E-1   5.816621780395508E-1  
 4.884000000000000E7    -7.179607748985291E-1   5.850518345832825E-1  -2.243953794240952E-1  -2.770282626152039E-1  -2.240141630172730E-1  -2.768738269805908E-1  -7.131196260452271E-1   5.828211903572083E-1  
 4.886000000000000E7    -7.172060012817383E-1   5.861105918884277E-1  -2.242885231971741E-1  -2.758333086967468E-1  -2.242207229137421E-1  -2.755295932292938E-1  -7.125285863876343E-1   5.838954448699951E-1  
 4.888000000000000E7    -7.170177698135376E-1   5.878132581710815E-1  -2.240867763757706E-1  -2.748781442642212E-1  -2.240050882101059E-1  -2.750062942504883E-1  -7.119765877723694E-1   5.851169824600220E-1  
 4.890000000000000E7    -7.160560488700867E-1   5.887095332145691E-1  -2.239698171615601E-1  -2.740659415721893E-1  -2.238105088472366E-1  -2.738958895206451E-1  -7.117237448692322E-1   5.863886475563049E-1  
 4.892000000000000E7    -7.155004143714905E-1   5.902830362319946E-1  -2.241122722625732E-1  -2.730933427810669E-1  -2.238297164440155E-1  -2.728442847728729E-1  -7.110075354576111E-1   5.873644948005676E-1  
 4.894000000000000E7    -7.150263786315918E-1   5.910559892654419E-1  -2.236954420804977E-1  -2.722297012805939E-1  -2.233902513980866E-1  -2.718675732612610E-1  -7.104901075363159E-1   5.886257886886597E-1  
 4.896000000000000E7    -7.142855525016785E-1   5.922111272811890E-1  -2.235460877418518E-1  -2.709932327270508E-1  -2.236182838678360E-1  -2.710341215133667E-1  -7.098668217658997E-1   5.901823043823242E-1  
 4.898000000000000E7    -7.138787508010864E-1   5.933153629302979E-1  -2.231736034154892E-1  -2.700984776020050E-1  -2.230491936206818E-1  -2.700494229793549E-1  -7.092084288597107E-1   5.907852649688721E-1  
 4.900000000000000E7    -7.137914896011353E-1   5.944961905479431E-1  -2.229425162076950E-1  -2.690809071063995E-1  -2.228400558233261E-1  -2.689796686172485E-1  -7.084210515022278E-1   5.919538736343384E-1  
 4.902000000000000E7    -7.127912640571594E-1   5.954638719558716E-1  -2.227562218904495E-1  -2.685098052024841E-1  -2.226763218641281E-1  -2.681235969066620E-1  -7.083939313888550E-1   5.931071639060974E-1  
 4.904000000000000E7    -7.121835947036743E-1   5.967584252357483E-1  -2.225966900587082E-1  -2.673045992851257E-1  -2.224858105182648E-1  -2.672220170497894E-1  -7.074447274208069E-1   5.943208932876587E-1  
 4.906000000000000E7    -7.115786671638489E-1   5.982816219329834E-1  -2.227928191423416E-1  -2.664146423339844E-1  -2.226099669933319E-1  -2.663448750972748E-1  -7.070344686508179E-1   5.957763195037842E-1  
 4.908000000000000E7    -7.113844156265259E-1   5.992406606674194E-1  -2.223835885524750E-1  -2.654429972171783E-1  -2.223092913627625E-1  -2.652572095394135E-1  -7.063689231872559E-1   5.968229174613953E-1  
 4.910000000000000E7    -7.102679014205933E-1   6.005067825317383E-1  -2.222537845373154E-1  -2.644924819469452E-1  -2.221971899271011E-1  -2.642114162445068E-1  -7.058610320091248E-1   5.980136990547180E-1  
 4.912000000000000E7    -7.100254893302918E-1   6.015974283218384E-1  -2.221319079399109E-1  -2.638823390007019E-1  -2.219118326902390E-1  -2.633341252803803E-1  -7.056025862693787E-1   5.989686250686646E-1  
 4.914000000000000E7    -7.091535329818726E-1   6.024355292320252E-1  -2.217113375663757E-1  -2.625223398208618E-1  -2.215661704540253E-1  -2.621474564075470E-1  -7.046300172805786E-1   6.002835035324097E-1  
 4.916000000000000E7    -7.086173295974731E-1   6.038449406623840E-1  -2.217193841934204E-1  -2.616682052612305E-1  -2.216011285781860E-1  -2.615979313850403E-1  -7.042770981788635E-1   6.014949083328247E-1  
 4.918000000000000E7    -7.081748247146606E-1   6.046696901321411E-1  -2.215382009744644E-1  -2.609785497188568E-1  -2.212032228708267E-1  -2.608862519264221E-1  -7.036992311477661E-1   6.024438738822937E-1  
 4.920000000000000E7    -7.077246904373169E-1   6.060061454772949E-1  -2.213861793279648E-1  -2.597154676914215E-1  -2.211585640907288E-1  -2.595767378807068E-1  -7.029865980148315E-1   6.037228703498840E-1  
 4.922000000000000E7    -7.069190740585327E-1   6.072016954421997E-1  -2.209024429321289E-1  -2.589373290538788E-1  -2.210825681686401E-1  -2.587137818336487E-1  -7.024059891700745E-1   6.047943234443665E-1  
 4.924000000000000E7    -7.067657709121704E-1   6.085642576217651E-1  -2.208014130592346E-1  -2.578930556774139E-1  -2.208722978830338E-1  -2.577391266822815E-1  -7.017313838005066E-1   6.059108376502991E-1  
 4.926000000000000E7    -7.060145139694214E-1   6.094310879707336E-1  -2.204021513462067E-1  -2.569410800933838E-1  -2.206811159849167E-1  -2.570544183254242E-1  -7.013015151023865E-1   6.071676611900330E-1  
 4.928000000000000E7    -7.052082419395447E-1   6.106382012367249E-1  -2.204758077859879E-1  -2.562284171581268E-1  -2.202419936656952E-1  -2.558799684047699E-1  -7.009557485580444E-1   6.081323027610779E-1  
 4.930000000000000E7    -7.045924663543701E-1   6.116228103637695E-1  -2.200164645910263E-1  -2.551890611648560E-1  -2.200560867786408E-1  -2.550988197326660E-1  -6.999368667602539E-1   6.091336011886597E-1  
 4.932000000000000E7    -7.041994929313660E-1   6.126770377159119E-1  -2.199407368898392E-1  -2.545297443866730E-1  -2.198684513568878E-1  -2.541710138320923E-1  -6.996604204177856E-1   6.104332804679871E-1  
 4.934000000000000E7    -7.033978700637817E-1   6.137804388999939E-1  -2.196832746267319E-1  -2.532534301280975E-1  -2.196025997400284E-1  -2.532263100147247E-1  -6.991323828697205E-1   6.114221811294556E-1  
 4.936000000000000E7    -7.031072378158569E-1   6.152507662773132E-1  -2.197958528995514E-1  -2.524349987506867E-1  -2.195590734481812E-1  -2.525426447391510E-1  -6.983589529991150E-1   6.125648021697998E-1  
 4.938000000000000E7    -7.024899125099182E-1   6.163259744644165E-1  -2.195781916379929E-1  -2.515591681003571E-1  -2.192015945911408E-1  -2.511710524559021E-1  -6.977879405021668E-1   6.136597990989685E-1  
 4.940000000000000E7    -7.018379569053650E-1   6.172324419021606E-1  -2.191191017627716E-1  -2.508061230182648E-1  -2.190682440996170E-1  -2.503541707992554E-1  -6.974648237228394E-1   6.147687435150147E-1  
 4.942000000000000E7    -7.014103531837463E-1   6.183755993843079E-1  -2.188004553318024E-1  -2.496699839830399E-1  -2.188540250062943E-1  -2.495954036712647E-1  -6.965103745460510E-1   6.159977912902832E-1  
 4.944000000000000E7    -7.005077004432678E-1   6.191848516464233E-1  -2.187557518482208E-1  -2.488273978233337E-1  -2.186937630176544E-1  -2.488677650690079E-1  -6.960367560386658E-1   6.168504357337952E-1  
 4.946000000000000E7    -6.997715830802918E-1   6.203851103782654E-1  -2.184937298297882E-1  -2.478510588407517E-1  -2.182644456624985E-1  -2.477149367332459E-1  -6.955032944679260E-1   6.180269122123718E-1  
 4.948000000000000E7    -6.992573142051697E-1   6.216384172439575E-1  -2.184288799762726E-1  -2.471356242895126E-1  -2.180449068546295E-1  -2.469879239797592E-1  -6.949123144149780E-1   6.192485690116882E-1  
 4.950000000000000E7    -6.987129449844360E-1   6.225144863128662E-1  -2.179523259401321E-1  -2.461721748113632E-1  -2.177304774522781E-1  -2.458988726139069E-1  -6.941407322883606E-1   6.204097270965576E-1  
 4.952000000000000E7    -6.980060338973999E-1   6.239860057830811E-1  -2.178952544927597E-1  -2.451690584421158E-1  -2.177586257457733E-1  -2.451779246330261E-1  -6.935968995094299E-1   6.214982271194458E-1  
 4.954000000000000E7    -6.974840164184570E-1   6.250689029693604E-1  -2.177676409482956E-1  -2.442695647478104E-1  -2.175325900316238E-1  -2.441570162773132E-1  -6.928328275680542E-1   6.226261854171753E-1  
 4.956000000000000E7    -6.969360113143921E-1   6.261075735092163E-1  -2.173158228397369E-1  -2.434796690940857E-1  -2.172141671180725E-1  -2.433313429355621E-1  -6.925038099288940E-1   6.232880353927612E-1  
 4.958000000000000E7    -6.959627866744995E-1   6.271353960037231E-1  -2.170613259077072E-1  -2.426538020372391E-1  -2.170021981000900E-1  -2.421477437019348E-1  -6.916878223419190E-1   6.248232722282410E-1  
 4.960000000000000E7    -6.953939795494080E-1   6.283385157585144E-1  -2.167500555515289E-1  -2.414924800395966E-1  -2.166938930749893E-1  -2.412669509649277E-1  -6.909727454185486E-1   6.253567337989807E-1  
 4.962000000000000E7    -6.951649188995361E-1   6.292088031768799E-1  -2.163490355014801E-1  -2.407403588294983E-1  -2.164564430713654E-1  -2.407343834638596E-1  -6.903789639472961E-1   6.268433928489685E-1  
 4.964000000000000E7    -6.943519711494446E-1   6.302261948585510E-1  -2.164674401283264E-1  -2.395872622728348E-1  -2.162493467330933E-1  -2.396440505981445E-1  -6.897198557853699E-1   6.278958320617676E-1  
 4.966000000000000E7    -6.937533617019653E-1   6.315203309059143E-1  -2.162492275238037E-1  -2.389942556619644E-1  -2.160182446241379E-1  -2.387320399284363E-1  -6.892119050025940E-1   6.291947960853577E-1  
 4.968000000000000E7    -6.930940151214600E-1   6.323052644729614E-1  -2.159088850021362E-1  -2.380082160234451E-1  -2.157701998949051E-1  -2.379422634840012E-1  -6.886202692985535E-1   6.304103136062622E-1  
 4.970000000000000E7    -6.926548480987549E-1   6.333961486816406E-1  -2.157057225704193E-1  -2.371388077735901E-1  -2.155012190341950E-1  -2.370256632566452E-1  -6.878216266632080E-1   6.312164664268494E-1  
 4.972000000000000E7    -6.918581724166870E-1   6.348049044609070E-1  -2.154240012168884E-1  -2.362489402294159E-1  -2.153192162513733E-1  -2.361137121915817E-1  -6.872859001159668E-1   6.320929527282715E-1  
 4.974000000000000E7    -6.912066340446472E-1   6.359576582908630E-1  -2.152195870876312E-1  -2.353086024522781E-1  -2.150474935770035E-1  -2.354161888360977E-1  -6.867982149124146E-1   6.334275007247925E-1  
 4.976000000000000E7    -6.906741261482239E-1   6.367831230163574E-1  -2.149614989757538E-1  -2.345745563507080E-1  -2.146029174327850E-1  -2.344836741685867E-1  -6.862259507179260E-1   6.345996856689453E-1  
 4.978000000000000E7    -6.903264522552490E-1   6.379766464233398E-1  -2.147412449121475E-1  -2.338141053915024E-1  -2.146282047033310E-1  -2.336494326591492E-1  -6.855978369712830E-1   6.356359124183655E-1  
 4.980000000000000E7    -6.891303658485413E-1   6.391565203666687E-1  -2.144554555416107E-1  -2.325223237276077E-1  -2.141838669776917E-1  -2.324625402688980E-1  -6.848700642585754E-1   6.368827819824219E-1  
 4.982000000000000E7    -6.883404254913330E-1   6.401445865631104E-1  -2.142030745744705E-1  -2.318676263093948E-1  -2.141081839799881E-1  -2.318302541971207E-1  -6.841035485267639E-1   6.375747323036194E-1  
 4.984000000000000E7    -6.882041096687317E-1   6.411988735198975E-1  -2.138651311397553E-1  -2.309997677803040E-1  -2.136935591697693E-1  -2.311080247163773E-1  -6.834962964057922E-1   6.385492682456970E-1  
 4.986000000000000E7    -6.874796748161316E-1   6.419975757598877E-1  -2.136138379573822E-1  -2.304515689611435E-1  -2.133817672729492E-1  -2.300955504179001E-1  -6.832119822502136E-1   6.396698951721191E-1  
 4.988000000000000E7    -6.865805983543396E-1   6.433058381080627E-1  -2.133561372756958E-1  -2.293645739555359E-1  -2.132792174816132E-1  -2.292265444993973E-1  -6.824883818626404E-1   6.406132578849793E-1  
 4.990000000000000E7    -6.859541535377502E-1   6.446256041526794E-1  -2.131315469741821E-1  -2.283680737018585E-1  -2.129662334918976E-1  -2.283435463905335E-1  -6.816321015357971E-1   6.417443752288818E-1  
 4.992000000000000E7    -6.853559017181397E-1   6.455485820770264E-1  -2.130988091230393E-1  -2.277369350194931E-1  -2.128660082817078E-1  -2.274723649024963E-1  -6.813822388648987E-1   6.429191827774048E-1  
 4.994000000000000E7    -6.850666403770447E-1   6.466435194015503E-1  -2.125947177410126E-1  -2.268699854612351E-1  -2.125872671604157E-1  -2.266254127025604E-1  -6.805197596549988E-1   6.439482569694519E-1  
 4.996000000000000E7    -6.840352416038513E-1   6.476702094078064E-1  -2.126782387495041E-1  -2.257628887891769E-1  -2.122809290885925E-1  -2.257790416479111E-1  -6.797810792922974E-1   6.451194286346436E-1  
 4.998000000000000E7    -6.834649443626404E-1   6.485943794250488E-1  -2.119638174772263E-1  -2.249685823917389E-1  -2.117418944835663E-1  -2.249043136835098E-1  -6.791229844093323E-1   6.460458636283875E-1  
 5.000000000000000E7    -6.828058362007141E-1   6.493241190910339E-1  -2.116856426000595E-1  -2.242477238178253E-1  -2.118745744228363E-1  -2.240056395530701E-1  -6.782847642898560E-1   6.472636461257935E-1  
 5.002000000000000E7    -6.822346448898315E-1   6.508486866950989E-1  -2.116595953702927E-1  -2.233678996562958E-1  -2.115022242069244E-1  -2.233135551214218E-1  -6.778500080108643E-1   6.483148932456970E-1  
 5.004000000000000E7    -6.817071437835693E-1   6.518922448158264E-1  -2.112876921892166E-1  -2.224023193120956E-1  -2.111122906208038E-1  -2.224586904048920E-1  -6.773757338523865E-1   6.491127014160156E-1  
 5.006000000000000E7    -6.808418035507202E-1   6.532295346260071E-1  -2.112700641155243E-1  -2.216524332761765E-1  -2.110024094581604E-1  -2.214625477790833E-1  -6.765767931938171E-1   6.507369279861450E-1  
 5.008000000000000E7    -6.803383231163025E-1   6.540607810020447E-1  -2.109050303697586E-1  -2.206777632236481E-1  -2.106523811817169E-1  -2.207375168800354E-1  -6.757819056510925E-1   6.512644290924072E-1  
 5.010000000000000E7    -6.796744465827942E-1   6.549859642982483E-1  -2.105391323566437E-1  -2.201047092676163E-1  -2.104603648185730E-1  -2.199954539537430E-1  -6.753246784210205E-1   6.523874998092651E-1  
 5.012000000000000E7    -6.791351437568665E-1   6.557124257087708E-1  -2.102188020944595E-1  -2.190303802490234E-1  -2.098347246646881E-1  -2.190114706754684E-1  -6.744084358215332E-1   6.535515189170837E-1  
 5.014000000000000E7    -6.780458092689514E-1   6.568528413772583E-1  -2.098459899425507E-1  -2.180175483226776E-1  -2.096144706010819E-1  -2.181210517883301E-1  -6.740968823432922E-1   6.542555093765259E-1  
 5.016000000000000E7    -6.778368949890137E-1   6.580853462219238E-1  -2.096209079027176E-1  -2.172774970531464E-1  -2.096273452043533E-1  -2.172343283891678E-1  -6.730483174324036E-1   6.554512977600098E-1  
 5.018000000000000E7    -6.768804788589478E-1   6.594595909118652E-1  -2.094489187002182E-1  -2.165977507829666E-1  -2.092315703630447E-1  -2.163096666336060E-1  -6.726132631301880E-1   6.566489338874817E-1  
 5.020000000000000E7    -6.764163970947266E-1   6.600227952003479E-1  -2.091881930828095E-1  -2.156684696674347E-1  -2.089774608612061E-1  -2.157069444656372E-1  -6.718808412551880E-1   6.575820446014404E-1  
 5.022000000000000E7    -6.753793954849243E-1   6.611467003822327E-1  -2.087517082691193E-1  -2.149055749177933E-1  -2.086868137121201E-1  -2.145985364913940E-1  -6.715086102485657E-1   6.588801741600037E-1  
 5.024000000000000E7    -6.749470829963684E-1   6.623711585998535E-1  -2.085088193416596E-1  -2.140376567840576E-1  -2.084315419197083E-1  -2.138175517320633E-1  -6.705503463745117E-1   6.594172716140747E-1  
 5.026000000000000E7    -6.740094423294067E-1   6.635069251060486E-1  -2.082763463258743E-1  -2.131505012512207E-1  -2.080124914646149E-1  -2.132115364074707E-1  -6.701012849807739E-1   6.607327461242676E-1  
 5.028000000000000E7    -6.736232042312622E-1   6.640431284904480E-1  -2.080366313457489E-1  -2.125122398138046E-1  -2.077545672655106E-1  -2.124138176441193E-1  -6.692906618118286E-1   6.619211435317993E-1  
 5.030000000000000E7    -6.727614402770996E-1   6.654448509216309E-1  -2.076097279787064E-1  -2.117166966199875E-1  -2.075129747390747E-1  -2.114558368921280E-1  -6.689069271087647E-1   6.627693772315979E-1  
 5.032000000000000E7    -6.719815731048584E-1   6.662415266036987E-1  -2.074678838253021E-1  -2.107770442962647E-1  -2.073332816362381E-1  -2.106484323740006E-1  -6.682932972908020E-1   6.638416647911072E-1  
 5.034000000000000E7    -6.714189052581787E-1   6.672403812408447E-1  -2.072008252143860E-1  -2.099170833826065E-1  -2.068995386362076E-1  -2.098695039749146E-1  -6.675419807434082E-1   6.649429798126221E-1  
 5.036000000000000E7    -6.705151796340942E-1   6.683367490768433E-1  -2.066828608512878E-1  -2.090422213077545E-1  -2.066232562065125E-1  -2.089976817369461E-1  -6.666912436485291E-1   6.656686663627625E-1  
 5.038000000000000E7    -6.702021360397339E-1   6.692586541175842E-1  -2.064521610736847E-1  -2.083312571048737E-1  -2.063152343034744E-1  -2.081189304590225E-1  -6.658926010131836E-1   6.666213870048523E-1  
 5.040000000000000E7    -6.693307161331177E-1   6.702400445938110E-1  -2.062164098024368E-1  -2.074283659458160E-1  -2.061103284358978E-1  -2.072929739952087E-1  -6.650586128234863E-1   6.680434346199036E-1  
 5.042000000000000E7    -6.689993739128113E-1   6.712821722030640E-1  -2.061212658882141E-1  -2.065322697162628E-1  -2.056894451379776E-1  -2.065001279115677E-1  -6.646651625633240E-1   6.686590313911438E-1  
 5.044000000000000E7    -6.678937673568726E-1   6.724417805671692E-1  -2.056664526462555E-1  -2.058131247758865E-1  -2.057081907987595E-1  -2.055446654558182E-1  -6.639192104339600E-1   6.698852777481079E-1  
 5.046000000000000E7    -6.674316525459290E-1   6.732398271560669E-1  -2.054079622030258E-1  -2.050506919622421E-1  -2.052896618843079E-1  -2.051376551389694E-1  -6.635481715202332E-1   6.705735325813294E-1  
 5.048000000000000E7    -6.667791008949280E-1   6.743860244750977E-1  -2.051833271980286E-1  -2.042056322097778E-1  -2.052201926708221E-1  -2.040943056344986E-1  -6.625804305076599E-1   6.717602014541626E-1  
 5.050000000000000E7    -6.658407449722290E-1   6.752985715866089E-1  -2.049180567264557E-1  -2.033372819423676E-1  -2.045416682958603E-1  -2.031311988830566E-1  -6.620473861694336E-1   6.725673675537109E-1  
 5.052000000000000E7    -6.652478575706482E-1   6.763656735420227E-1  -2.043528407812119E-1  -2.023675739765167E-1  -2.041435539722443E-1  -2.026098072528839E-1  -6.609467267990112E-1   6.734871268272400E-1  
 5.054000000000000E7    -6.646304130554199E-1   6.775813102722168E-1  -2.042703479528427E-1  -2.017619460821152E-1  -2.041188180446625E-1  -2.016390562057495E-1  -6.606376171112061E-1   6.747772693634033E-1  
 5.056000000000000E7    -6.638398766517639E-1   6.784687042236328E-1  -2.039115428924561E-1  -2.010856866836548E-1  -2.036568820476532E-1  -2.006721198558807E-1  -6.599006056785584E-1   6.758106946945190E-1  
 5.058000000000000E7    -6.633191108703613E-1   6.791725158691406E-1  -2.034560441970825E-1  -2.002350538969040E-1  -2.031960487365723E-1  -2.001149952411652E-1  -6.591808199882507E-1   6.766538619995117E-1  
 5.060000000000000E7    -6.626334190368652E-1   6.804748177528381E-1  -2.032915055751801E-1  -1.994109153747559E-1  -2.031879872083664E-1  -1.992872953414917E-1  -6.583814024925232E-1   6.779746413230896E-1  
 5.062000000000000E7    -6.620889306068420E-1   6.811880469322205E-1  -2.029645144939423E-1  -1.986689269542694E-1  -2.026605606079102E-1  -1.985694169998169E-1  -6.576670408248901E-1   6.788254976272583E-1  
 5.064000000000000E7    -6.609666943550110E-1   6.823095083236694E-1  -2.025377899408341E-1  -1.977805495262146E-1  -2.023645639419556E-1  -1.976797580718994E-1  -6.569013595581055E-1   6.795439124107361E-1  
 5.066000000000000E7    -6.603674888610840E-1   6.833618283271790E-1  -2.024368047714233E-1  -1.970860809087753E-1  -2.022889256477356E-1  -1.968962997198105E-1  -6.562929749488831E-1   6.809057593345642E-1  
 5.068000000000000E7    -6.598955988883972E-1   6.841904520988464E-1  -2.019426077604294E-1  -1.963587254285812E-1  -2.018712610006332E-1  -1.962243318557739E-1  -6.556967496871948E-1   6.817330718040466E-1  
 5.070000000000000E7    -6.588699221611023E-1   6.851738691329956E-1  -2.015439271926880E-1  -1.954475939273834E-1  -2.015103697776794E-1  -1.952202469110489E-1  -6.549495458602905E-1   6.825127005577087E-1  
 5.072000000000000E7    -6.582865118980408E-1   6.864867806434631E-1  -2.013037055730820E-1  -1.947790384292603E-1  -2.011957466602325E-1  -1.945518851280212E-1  -6.544349193572998E-1   6.836858391761780E-1  
 5.074000000000000E7    -6.576616764068604E-1   6.873689889907837E-1  -2.011249661445618E-1  -1.938608139753342E-1  -2.008755207061768E-1  -1.937514096498489E-1  -6.535795331001282E-1   6.843352913856506E-1  
 5.076000000000000E7    -6.569240689277649E-1   6.882916688919067E-1  -2.007169127464294E-1  -1.933344602584839E-1  -2.007658034563065E-1  -1.930624842643738E-1  -6.531916260719299E-1   6.856862902641296E-1  
 5.078000000000000E7    -6.564482450485230E-1   6.890518069267273E-1  -2.002502530813217E-1  -1.923244893550873E-1  -2.000827193260193E-1  -1.924000084400177E-1  -6.522700190544128E-1   6.865287423133850E-1  
 5.080000000000000E7    -6.554343104362488E-1   6.899635791778565E-1  -1.998753696680069E-1  -1.916045248508453E-1  -1.996960490942001E-1  -1.914952099323273E-1  -6.514998674392700E-1   6.874327659606934E-1  
 5.082000000000000E7    -6.546111702919006E-1   6.911787390708923E-1  -1.996265202760696E-1  -1.907500922679901E-1  -1.997040659189224E-1  -1.906431764364243E-1  -6.508988738059998E-1   6.883765459060669E-1  
 5.084000000000000E7    -6.538743376731873E-1   6.922671198844910E-1  -1.995577514171600E-1  -1.899944394826889E-1  -1.993567347526550E-1  -1.899541616439819E-1  -6.505588889122009E-1   6.895388960838318E-1  
 5.086000000000000E7    -6.532630324363709E-1   6.930310726165772E-1  -1.990504115819931E-1  -1.890893876552582E-1  -1.990196704864502E-1  -1.890000253915787E-1  -6.495534777641296E-1   6.906708478927612E-1  
 5.088000000000000E7    -6.527370214462280E-1   6.940596699714661E-1  -1.987474858760834E-1  -1.883893758058548E-1  -1.986088752746582E-1  -1.883094310760498E-1  -6.486867666244507E-1   6.912213563919067E-1  
 5.090000000000000E7    -6.521663069725037E-1   6.946600079536438E-1  -1.984547972679138E-1  -1.876366883516312E-1  -1.982799172401428E-1  -1.875058859586716E-1  -6.478741168975830E-1   6.924041509628296E-1  
 5.092000000000000E7    -6.510604619979858E-1   6.958701014518738E-1  -1.982170641422272E-1  -1.869199424982071E-1  -1.978351026773453E-1  -1.868979483842850E-1  -6.472690105438232E-1   6.933863162994385E-1  
 5.094000000000000E7    -6.506121754646301E-1   6.968779563903809E-1  -1.978353261947632E-1  -1.862044930458069E-1  -1.977270841598511E-1  -1.861780285835266E-1  -6.468833684921265E-1   6.945288777351379E-1  
 5.096000000000000E7    -6.496208310127258E-1   6.976997852325440E-1  -1.973050981760025E-1  -1.854067295789719E-1  -1.973609775304794E-1  -1.852911859750748E-1  -6.459915041923523E-1   6.954978108406067E-1  
 5.098000000000000E7    -6.492440104484558E-1   6.987497806549072E-1  -1.971790194511414E-1  -1.846834123134613E-1  -1.970067471265793E-1  -1.847269684076309E-1  -6.450891494750977E-1   6.964699029922485E-1  
 5.100000000000000E7    -6.479702591896057E-1   6.999034881591797E-1  -1.968302130699158E-1  -1.837619990110397E-1  -1.967222541570664E-1  -1.837657094001770E-1  -6.444462537765503E-1   6.972307562828064E-1  
 5.102000000000000E7    -6.473901271820068E-1   7.006109952926636E-1  -1.963287591934204E-1  -1.831084936857224E-1  -1.961079686880112E-1  -1.828583180904388E-1  -6.437462568283081E-1   6.980348825454712E-1  
 5.104000000000000E7    -6.469104290008545E-1   7.018182277679443E-1  -1.960477232933044E-1  -1.823108047246933E-1  -1.960113644599915E-1  -1.823323220014572E-1  -6.428622007369995E-1   6.990107893943787E-1  
 5.106000000000000E7    -6.458076834678650E-1   7.028703093528748E-1  -1.960342079401016E-1  -1.815362274646759E-1  -1.958991438150406E-1  -1.812277436256409E-1  -6.419539451599121E-1   7.002568840980530E-1  
 5.108000000000000E7    -6.452383995056152E-1   7.036144733428955E-1  -1.955562382936478E-1  -1.807516813278198E-1  -1.953709572553635E-1  -1.806719601154327E-1  -6.415270566940308E-1   7.010759115219116E-1  
 5.110000000000000E7    -6.446867585182190E-1   7.046316266059876E-1  -1.954354196786881E-1  -1.799945086240768E-1  -1.950461119413376E-1  -1.800599843263626E-1  -6.406947970390320E-1   7.022831439971924E-1  
 5.112000000000000E7    -6.438625454902649E-1   7.053079009056091E-1  -1.947539746761322E-1  -1.792192906141281E-1  -1.947053074836731E-1  -1.792569756507874E-1  -6.400437355041504E-1   7.027724385261536E-1  
 5.114000000000000E7    -6.434352993965149E-1   7.064858675003052E-1  -1.944913715124130E-1  -1.787176281213760E-1  -1.942744851112366E-1  -1.785255670547485E-1  -6.393047571182251E-1   7.039297819137573E-1  
 5.116000000000000E7    -6.425622105598450E-1   7.072837352752686E-1  -1.942330002784729E-1  -1.778258681297302E-1  -1.938938200473785E-1  -1.777674704790115E-1  -6.387265324592590E-1   7.048094868659973E-1  
 5.118000000000000E7    -6.416940689086914E-1   7.078146338462830E-1  -1.936818808317184E-1  -1.770496219396591E-1  -1.935809403657913E-1  -1.768997907638550E-1  -6.379796862602234E-1   7.058120965957642E-1  
 5.120000000000000E7    -6.410251855850220E-1   7.091913223266602E-1  -1.935521513223648E-1  -1.764117181301117E-1  -1.933578848838806E-1  -1.761949658393860E-1  -6.371067762374878E-1   7.063998579978943E-1  
 5.122000000000000E7    -6.403587460517883E-1   7.100441455841065E-1  -1.930123269557953E-1  -1.756366640329361E-1  -1.927893757820129E-1  -1.754808723926544E-1  -6.363742351531982E-1   7.072209715843201E-1  
 5.124000000000000E7    -6.392691135406494E-1   7.108324766159058E-1  -1.927431076765060E-1  -1.747518330812454E-1  -1.926274746656418E-1  -1.747588962316513E-1  -6.356574296951294E-1   7.086216211318970E-1  
 5.126000000000000E7    -6.384663581848145E-1   7.122265100479126E-1  -1.925285905599594E-1  -1.739936769008637E-1  -1.922669559717178E-1  -1.738640815019608E-1  -6.348489522933960E-1   7.093416452407837E-1  
 5.128000000000000E7    -6.383398771286011E-1   7.127318382263184E-1  -1.920986473560333E-1  -1.734157651662827E-1  -1.918506920337677E-1  -1.734030693769455E-1  -6.343856453895569E-1   7.103717923164368E-1  
 5.130000000000000E7    -6.376443505287170E-1   7.139725089073181E-1  -1.919336616992950E-1  -1.725476086139679E-1  -1.916417181491852E-1  -1.726704239845276E-1  -6.332670450210571E-1   7.115886211395264E-1  
 5.132000000000000E7    -6.368563771247864E-1   7.147610187530518E-1  -1.914693415164948E-1  -1.719167232513428E-1  -1.912653148174286E-1  -1.718102991580963E-1  -6.325500011444092E-1   7.121282815933228E-1  
 5.134000000000000E7    -6.358495950698853E-1   7.154011726379395E-1  -1.908404529094696E-1  -1.711625456809998E-1  -1.907162219285965E-1  -1.711100637912750E-1  -6.322234869003296E-1   7.130622267723084E-1  
 5.136000000000000E7    -6.349689960479736E-1   7.166784405708313E-1  -1.906432807445526E-1  -1.704891473054886E-1  -1.906668841838837E-1  -1.706172674894333E-1  -6.315150856971741E-1   7.139433026313782E-1  
 5.138000000000000E7    -6.344688534736633E-1   7.176734209060669E-1  -1.902625560760498E-1  -1.698160469532013E-1  -1.902444362640381E-1  -1.696135997772217E-1  -6.307542324066162E-1   7.152054309844971E-1  
 5.140000000000000E7    -6.335072517395020E-1   7.184112071990967E-1  -1.897439062595367E-1  -1.691439300775528E-1  -1.898680478334427E-1  -1.689436882734299E-1  -6.300228238105774E-1   7.157373428344727E-1  
 5.142000000000000E7    -6.330794692039490E-1   7.192394733428955E-1  -1.895886808633804E-1  -1.684083640575409E-1  -1.893970668315888E-1  -1.681313216686249E-1  -6.289427280426025E-1   7.168770432472229E-1  
 5.144000000000000E7    -6.320550441741943E-1   7.202063202857971E-1  -1.891521811485291E-1  -1.675425469875336E-1  -1.890342235565186E-1  -1.674851775169373E-1  -6.283770203590393E-1   7.175169587135315E-1  
 5.146000000000000E7    -6.310791969299316E-1   7.211503982543945E-1  -1.888444423675537E-1  -1.667391508817673E-1  -1.885913163423538E-1  -1.667156517505646E-1  -6.278196573257446E-1   7.184431552886963E-1  
 5.148000000000000E7    -6.303119659423828E-1   7.218376398086548E-1  -1.884912401437759E-1  -1.660276204347611E-1  -1.883467435836792E-1  -1.658708453178406E-1  -6.269796490669251E-1   7.192677855491638E-1  
 5.150000000000000E7    -6.300678253173828E-1   7.229892015457153E-1  -1.880068033933640E-1  -1.655487716197968E-1  -1.879132986068726E-1  -1.654498726129532E-1  -6.264526844024658E-1   7.202562093734741E-1  
 5.152000000000000E7    -6.291893124580383E-1   7.236592769622803E-1  -1.878007948398590E-1  -1.647895574569702E-1  -1.875945031642914E-1  -1.646884530782700E-1  -6.255712509155273E-1   7.216246128082275E-1  
 5.154000000000000E7    -6.286522746086121E-1   7.244207859039307E-1  -1.873703896999359E-1  -1.639710813760757E-1  -1.873012781143189E-1  -1.640265583992004E-1  -6.245949268341065E-1   7.220778465270996E-1  
 5.156000000000000E7    -6.279914379119873E-1   7.255842685699463E-1  -1.869721412658691E-1  -1.632827818393707E-1  -1.868193000555039E-1  -1.633890867233276E-1  -6.237255930900574E-1   7.229231595993042E-1  
 5.158000000000000E7    -6.268888711929321E-1   7.265444397926331E-1  -1.867469251155853E-1  -1.625312715768814E-1  -1.864167302846909E-1  -1.625390052795410E-1  -6.230510473251343E-1   7.239314913749695E-1  
 5.160000000000000E7    -6.261593103408814E-1   7.274128794670105E-1  -1.863076835870743E-1  -1.618372797966003E-1  -1.861343234777451E-1  -1.616603732109070E-1  -6.223921775817871E-1   7.250847816467285E-1  
 5.162000000000000E7    -6.252953410148621E-1   7.281776070594788E-1  -1.859153509140015E-1  -1.612246930599213E-1  -1.857726573944092E-1  -1.612035185098648E-1  -6.218261122703552E-1   7.257581949234009E-1  
 5.164000000000000E7    -6.246064305305481E-1   7.293512225151062E-1  -1.856542527675629E-1  -1.604211479425430E-1  -1.853356212377548E-1  -1.603887081146240E-1  -6.207233667373657E-1   7.265558242797852E-1  
 5.166000000000000E7    -6.238189339637756E-1   7.297837734222412E-1  -1.851773113012314E-1  -1.596962511539459E-1  -1.849000751972199E-1  -1.597180664539337E-1  -6.202042698860169E-1   7.275713682174683E-1  
 5.168000000000000E7    -6.230098009109497E-1   7.312449216842651E-1  -1.849321275949478E-1  -1.589418500661850E-1  -1.848110705614090E-1  -1.590320467948914E-1  -6.193154454231262E-1   7.283950448036194E-1  
 5.170000000000000E7    -6.224106550216675E-1   7.317811846733093E-1  -1.844113618135452E-1  -1.584000885486603E-1  -1.842527687549591E-1  -1.582955121994019E-1  -6.184754967689514E-1   7.291281819343567E-1  
 5.172000000000000E7    -6.212760806083679E-1   7.327026128768921E-1  -1.841005980968475E-1  -1.575987339019775E-1  -1.838914752006531E-1  -1.575743556022644E-1  -6.179686188697815E-1   7.299736142158508E-1  
 5.174000000000000E7    -6.209643483161926E-1   7.340013384819031E-1  -1.836380213499069E-1  -1.568961143493652E-1  -1.836513578891754E-1  -1.567922532558441E-1  -6.168574094772339E-1   7.311298847198486E-1  
 5.176000000000000E7    -6.200813055038452E-1   7.347503304481506E-1  -1.832433789968491E-1  -1.563103049993515E-1  -1.831005066633225E-1  -1.562354117631912E-1  -6.163449883460999E-1   7.319036722183228E-1  
 5.178000000000000E7    -6.192611455917358E-1   7.352874279022217E-1  -1.829917430877686E-1  -1.555181592702866E-1  -1.826826035976410E-1  -1.554826945066452E-1  -6.153951287269592E-1   7.327561378479004E-1  
 5.180000000000000E7    -6.184245347976685E-1   7.361639142036438E-1  -1.824268400669098E-1  -1.548054814338684E-1  -1.824382245540619E-1  -1.547854542732239E-1  -6.147296428680420E-1   7.336603403091431E-1  
 5.182000000000000E7    -6.176332235336304E-1   7.369881272315979E-1  -1.823382675647736E-1  -1.541033983230591E-1  -1.819931268692017E-1  -1.542088538408279E-1  -6.144030690193176E-1   7.348302602767944E-1  
 5.184000000000000E7    -6.169552206993103E-1   7.381025552749634E-1  -1.819555163383484E-1  -1.533409655094147E-1  -1.816265881061554E-1  -1.534211933612824E-1  -6.131529808044434E-1   7.353100180625916E-1  
 5.186000000000000E7    -6.162336468696594E-1   7.388581037521362E-1  -1.816322058439255E-1  -1.527898311614990E-1  -1.814172118902206E-1  -1.526893973350525E-1  -6.123002171516419E-1   7.363382577896118E-1  
 5.188000000000000E7    -6.153840422630310E-1   7.396530508995056E-1  -1.811328977346420E-1  -1.520176380872726E-1  -1.810123622417450E-1  -1.520173400640488E-1  -6.116633415222168E-1   7.375023365020752E-1  
 5.190000000000000E7    -6.146622300148010E-1   7.406747937202454E-1  -1.808626055717468E-1  -1.513488143682480E-1  -1.807098686695099E-1  -1.513209342956543E-1  -6.110588908195496E-1   7.383505105972290E-1  
 5.192000000000000E7    -6.140149235725403E-1   7.415001392364502E-1  -1.803539246320725E-1  -1.507147699594498E-1  -1.802809536457062E-1  -1.506958305835724E-1  -6.103173494338989E-1   7.389586567878723E-1  
 5.194000000000000E7    -6.127059459686279E-1   7.423968315124512E-1  -1.798498332500458E-1  -1.498918980360031E-1  -1.797778159379959E-1  -1.499195992946625E-1  -6.093209981918335E-1   7.396391630172730E-1  
 5.196000000000000E7    -6.124808192253113E-1   7.432535290718079E-1  -1.795703917741776E-1  -1.495860069990158E-1  -1.794299036264420E-1  -1.494376361370087E-1  -6.087208986282349E-1   7.404666543006897E-1  
 5.198000000000000E7    -6.114197373390198E-1   7.440883517265320E-1  -1.790651381015778E-1  -1.487886607646942E-1  -1.790569722652435E-1  -1.488189399242401E-1  -6.082191467285156E-1   7.417796850204468E-1  
 5.200000000000000E7    -6.106121540069580E-1   7.448183894157410E-1  -1.788337677717209E-1  -1.482081562280655E-1  -1.785845309495926E-1  -1.479738205671310E-1  -6.070726513862610E-1   7.423540949821472E-1  
 5.202000000000000E7    -6.098746657371521E-1   7.456343770027161E-1  -1.783408224582672E-1  -1.472507715225220E-1  -1.782740056514740E-1  -1.472492665052414E-1  -6.062241196632385E-1   7.432343959808350E-1  
 5.204000000000000E7    -6.090881824493408E-1   7.469009757041931E-1  -1.779513508081436E-1  -1.468089371919632E-1  -1.779153048992157E-1  -1.466956734657288E-1  -6.054897904396057E-1   7.439365983009338E-1  
 5.206000000000000E7    -6.085521578788757E-1   7.475156188011169E-1  -1.775660514831543E-1  -1.460406780242920E-1  -1.774060577154160E-1  -1.460620462894440E-1  -6.048530936241150E-1   7.448128461837769E-1  
 5.208000000000000E7    -6.078978180885315E-1   7.483039498329163E-1  -1.772202253341675E-1  -1.453130245208740E-1  -1.771398931741715E-1  -1.453432589769363E-1  -6.036420464515686E-1   7.458606958389282E-1  
 5.210000000000000E7    -6.070590019226074E-1   7.491437196731567E-1  -1.769805550575256E-1  -1.448123306035996E-1  -1.768119335174561E-1  -1.446151733398438E-1  -6.033369898796082E-1   7.469540238380432E-1  
 5.212000000000000E7    -6.061825752258301E-1   7.497403025627136E-1  -1.765277832746506E-1  -1.441298127174377E-1  -1.764283180236816E-1  -1.440184563398361E-1  -6.025278568267822E-1   7.479498982429504E-1  
 5.214000000000000E7    -6.049864888191223E-1   7.510832548141480E-1  -1.761835813522339E-1  -1.433880031108856E-1  -1.760411262512207E-1  -1.431997567415237E-1  -6.017546057701111E-1   7.485771179199219E-1  
 5.216000000000000E7    -6.046066284179688E-1   7.516885995864868E-1  -1.755523979663849E-1  -1.428971588611603E-1  -1.755437105894089E-1  -1.427235603332520E-1  -6.010767221450806E-1   7.488961815834045E-1  
 5.218000000000000E7    -6.038567423820496E-1   7.523814439773560E-1  -1.752221584320068E-1  -1.421854346990585E-1  -1.751774549484253E-1  -1.421026438474655E-1  -6.001496911048889E-1   7.499880194664002E-1  
 5.220000000000000E7    -6.030560135841370E-1   7.531387805938721E-1  -1.748414188623428E-1  -1.414720267057419E-1  -1.747688353061676E-1  -1.414140462875366E-1  -5.994393229484558E-1   7.507638335227966E-1  
 5.222000000000000E7    -6.022219657897949E-1   7.543005943298340E-1  -1.745741367340088E-1  -1.407774537801743E-1  -1.744920164346695E-1  -1.406108736991882E-1  -5.982478857040405E-1   7.517135143280029E-1  
 5.224000000000000E7    -6.017476320266724E-1   7.551398277282715E-1  -1.741272956132889E-1  -1.402994245290756E-1  -1.739678233861923E-1  -1.402964740991592E-1  -5.979532003402710E-1   7.525679469108582E-1  
 5.226000000000000E7    -6.005352735519409E-1   7.558902502059937E-1  -1.737955808639526E-1  -1.393665373325348E-1  -1.736208051443100E-1  -1.393165588378906E-1  -5.967429876327515E-1   7.534256577491760E-1  
 5.228000000000000E7    -5.998694300651550E-1   7.566000223159790E-1  -1.733014732599258E-1  -1.387768387794495E-1  -1.730731278657913E-1  -1.388786584138870E-1  -5.960868597030640E-1   7.539513111114502E-1  
 5.230000000000000E7    -5.992307662963867E-1   7.576927542686462E-1  -1.728436648845673E-1  -1.381503939628601E-1  -1.727078855037689E-1  -1.381613016128540E-1  -5.953531861305237E-1   7.549267411231995E-1  
 5.232000000000000E7    -5.978842973709106E-1   7.582338452339172E-1  -1.724773198366165E-1  -1.374708563089371E-1  -1.725227087736130E-1  -1.373462677001953E-1  -5.947930812835693E-1   7.557104825973511E-1  
 5.234000000000000E7    -5.972244739532471E-1   7.590610384941101E-1  -1.720791459083557E-1  -1.368781179189682E-1  -1.719652414321899E-1  -1.367206871509552E-1  -5.937224030494690E-1   7.566865682601929E-1  
 5.236000000000000E7    -5.968071818351746E-1   7.602254748344421E-1  -1.718207895755768E-1  -1.362124085426331E-1  -1.716632097959518E-1  -1.362892389297485E-1  -5.930049419403076E-1   7.575678229331970E-1  
 5.238000000000000E7    -5.958561897277832E-1   7.607221007347107E-1  -1.713885962963104E-1  -1.356933116912842E-1  -1.712376028299332E-1  -1.355615109205246E-1  -5.920042991638184E-1   7.584093213081360E-1  
 5.240000000000000E7    -5.949854254722595E-1   7.612425684928894E-1  -1.708228886127472E-1  -1.350619345903397E-1  -1.707842051982880E-1  -1.349270790815353E-1  -5.916584730148315E-1   7.592867016792297E-1  
 5.242000000000000E7    -5.939270853996277E-1   7.624542117118835E-1  -1.705184280872345E-1  -1.342478543519974E-1  -1.703878343105316E-1  -1.341824531555176E-1  -5.905640721321106E-1   7.598496079444885E-1  
 5.244000000000000E7    -5.934851765632629E-1   7.630780339241028E-1  -1.700352877378464E-1  -1.336843669414520E-1  -1.698875874280930E-1  -1.336054354906082E-1  -5.898130536079407E-1   7.605204582214356E-1  
 5.246000000000000E7    -5.926037430763245E-1   7.640644311904907E-1  -1.696849763393402E-1  -1.329420357942581E-1  -1.695859730243683E-1  -1.329329758882523E-1  -5.889126062393189E-1   7.616257667541504E-1  
 5.248000000000000E7    -5.915703773498535E-1   7.648242115974426E-1  -1.694912165403366E-1  -1.323647052049637E-1  -1.692366003990173E-1  -1.323115229606628E-1  -5.881477594375610E-1   7.626780867576599E-1  
 5.250000000000000E7    -5.910429954528809E-1   7.657702565193176E-1  -1.688582599163055E-1  -1.317048221826553E-1  -1.688647419214249E-1  -1.318448185920715E-1  -5.872246623039246E-1   7.629606127738953E-1  
 5.252000000000000E7    -5.902254581451416E-1   7.665663957595825E-1  -1.683716922998428E-1  -1.311217099428177E-1  -1.682721376419067E-1  -1.311770230531693E-1  -5.867304205894470E-1   7.640421390533447E-1  
 5.254000000000000E7    -5.896850228309631E-1   7.673552036285400E-1  -1.681203544139862E-1  -1.306238323450089E-1  -1.682245433330536E-1  -1.305885612964630E-1  -5.860558152198792E-1   7.651160359382629E-1  
 5.256000000000000E7    -5.884565711021423E-1   7.683897018432617E-1  -1.677150875329971E-1  -1.298880279064179E-1  -1.676246970891953E-1  -1.298631876707077E-1  -5.849905610084534E-1   7.658766508102417E-1  
 5.258000000000000E7    -5.877906084060669E-1   7.687656283378601E-1  -1.672192513942719E-1  -1.293211579322815E-1  -1.670181155204773E-1  -1.293376535177231E-1  -5.843130350112915E-1   7.662029266357422E-1  
 5.260000000000000E7    -5.870236158370972E-1   7.693616747856140E-1  -1.667183488607407E-1  -1.286393553018570E-1  -1.667349487543106E-1  -1.286174654960632E-1  -5.839100480079651E-1   7.671914696693420E-1  
 5.262000000000000E7    -5.862551927566528E-1   7.704085707664490E-1  -1.663308739662170E-1  -1.281541138887405E-1  -1.662772297859192E-1  -1.280996501445770E-1  -5.829449295997620E-1   7.680749893188477E-1  
 5.264000000000000E7    -5.854562520980835E-1   7.711806893348694E-1  -1.660112142562866E-1  -1.273775994777679E-1  -1.659663915634155E-1  -1.273516714572907E-1  -5.816624760627747E-1   7.690659761428833E-1  
 5.266000000000000E7    -5.846496224403381E-1   7.718345522880554E-1  -1.655241847038269E-1  -1.267379224300385E-1  -1.654964685440064E-1  -1.267104893922806E-1  -5.809310674667358E-1   7.696558833122253E-1  
 5.268000000000000E7    -5.838265419006348E-1   7.728484272956848E-1  -1.651258915662766E-1  -1.262371242046356E-1  -1.651402562856674E-1  -1.262260526418686E-1  -5.805183053016663E-1   7.704824209213257E-1  
 5.270000000000000E7    -5.830128192901611E-1   7.738691568374634E-1  -1.647840440273285E-1  -1.256912946701050E-1  -1.646126359701157E-1  -1.255602389574051E-1  -5.793119072914124E-1   7.712162137031555E-1  
 5.272000000000000E7    -5.821332335472107E-1   7.745270729064941E-1  -1.643687486648560E-1  -1.249424964189529E-1  -1.641689687967300E-1  -1.248741969466209E-1  -5.784041285514832E-1   7.719609737396240E-1  
 5.274000000000000E7    -5.813911557197571E-1   7.749975323677063E-1  -1.638989746570587E-1  -1.243194639682770E-1  -1.637343019247055E-1  -1.244455426931381E-1  -5.776481032371521E-1   7.728565335273743E-1  
 5.276000000000000E7    -5.805628299713135E-1   7.759361863136292E-1  -1.635700762271881E-1  -1.237078979611397E-1  -1.633629053831101E-1  -1.236455142498016E-1  -5.770782232284546E-1   7.738201618194580E-1  
 5.278000000000000E7    -5.795401930809021E-1   7.767783403396606E-1  -1.631623953580856E-1  -1.231495440006256E-1  -1.629327237606049E-1  -1.231029853224754E-1  -5.766351819038391E-1   7.744137644767761E-1  
 5.280000000000000E7    -5.793553590774536E-1   7.776748538017273E-1  -1.628347635269165E-1  -1.226119101047516E-1  -1.627180129289627E-1  -1.227127760648727E-1  -5.753811001777649E-1   7.752686738967896E-1  
 5.282000000000000E7    -5.782396793365479E-1   7.783405780792236E-1  -1.622012257575989E-1  -1.219030842185020E-1  -1.621862500905991E-1  -1.220100522041321E-1  -5.746330022811890E-1   7.762196063995361E-1  
 5.284000000000000E7    -5.774898529052734E-1   7.793371677398682E-1  -1.619016081094742E-1  -1.212200224399567E-1  -1.616984307765961E-1  -1.214845851063728E-1  -5.739490389823914E-1   7.767662405967712E-1  
 5.286000000000000E7    -5.768985748291016E-1   7.799765467643738E-1  -1.612656712532044E-1  -1.208062171936035E-1  -1.613151878118515E-1  -1.206918582320213E-1  -5.730718374252319E-1   7.773458361625671E-1  
 5.288000000000000E7    -5.755882263183594E-1   7.808967232704163E-1  -1.611798852682114E-1  -1.201915070414543E-1  -1.609793007373810E-1  -1.201061457395554E-1  -5.719803571701050E-1   7.784222364425659E-1  
 5.290000000000000E7    -5.748465657234192E-1   7.814807295799255E-1  -1.604662537574768E-1  -1.196472644805908E-1  -1.605745404958725E-1  -1.195623874664307E-1  -5.713669061660767E-1   7.792553901672363E-1  
 5.292000000000000E7    -5.740651488304138E-1   7.823362946510315E-1  -1.600440442562103E-1  -1.189673542976379E-1  -1.601569354534149E-1  -1.190978512167931E-1  -5.707086920738220E-1   7.798673510551453E-1  
 5.294000000000000E7    -5.734433531761169E-1   7.831497192382813E-1  -1.597416847944260E-1  -1.184847801923752E-1  -1.596717536449432E-1  -1.184212118387222E-1  -5.697734355926514E-1   7.804648876190186E-1  
 5.296000000000000E7    -5.727020502090454E-1   7.836737036705017E-1  -1.594000011682510E-1  -1.178740411996841E-1  -1.591274440288544E-1  -1.177330613136292E-1  -5.687590837478638E-1   7.814373970031738E-1  
 5.298000000000000E7    -5.717949867248535E-1   7.845466136932373E-1  -1.590114682912827E-1  -1.172187477350235E-1  -1.588435024023056E-1  -1.170283630490303E-1  -5.678523182868958E-1   7.821537256240845E-1  
 5.300000000000000E7    -5.708272457122803E-1   7.851762175559998E-1  -1.584771871566773E-1  -1.165101677179337E-1  -1.584163457155228E-1  -1.166032552719116E-1  -5.672511458396912E-1   7.829390168190002E-1  
 5.302000000000000E7    -5.700615644454956E-1   7.863889932632446E-1  -1.581417024135590E-1  -1.157903820276260E-1  -1.581023484468460E-1  -1.159238144755364E-1  -5.662739276885986E-1   7.837380170822144E-1  
 5.304000000000000E7    -5.692574381828308E-1   7.866817712783814E-1  -1.575853824615479E-1  -1.154020801186562E-1  -1.574834138154984E-1  -1.153846234083176E-1  -5.653582811355591E-1   7.843637466430664E-1  
 5.306000000000000E7    -5.685504674911499E-1   7.874896526336670E-1  -1.571256071329117E-1  -1.148461028933525E-1  -1.570611298084259E-1  -1.149448901414871E-1  -5.649653077125549E-1   7.848837375640869E-1  
 5.308000000000000E7    -5.674028396606445E-1   7.882578969001770E-1  -1.564851403236389E-1  -1.142329871654511E-1  -1.565260440111160E-1  -1.142987012863159E-1  -5.640216469764710E-1   7.856895923614502E-1  
 5.310000000000000E7    -5.668002963066101E-1   7.892638444900513E-1  -1.563563495874405E-1  -1.137336269021034E-1  -1.562497615814209E-1  -1.136371865868568E-1  -5.632941126823425E-1   7.867699265480042E-1  
 5.312000000000000E7    -5.657215118408203E-1   7.900387048721314E-1  -1.559904515743256E-1  -1.131396591663361E-1  -1.558761894702911E-1  -1.131069511175156E-1  -5.628183484077454E-1   7.874605059623718E-1  
 5.314000000000000E7    -5.648699402809143E-1   7.903847694396973E-1  -1.554996073246002E-1  -1.125231012701988E-1  -1.553306132555008E-1  -1.124949082732201E-1  -5.616043806076050E-1   7.881280183792114E-1  
 5.316000000000000E7    -5.641956925392151E-1   7.911930680274963E-1  -1.549874991178513E-1  -1.119411513209343E-1  -1.548094600439072E-1  -1.119676232337952E-1  -5.607169270515442E-1   7.891185283660889E-1  
 5.318000000000000E7    -5.634289979934692E-1   7.923099994659424E-1  -1.547024250030518E-1  -1.113648489117622E-1  -1.546506434679031E-1  -1.114230379462242E-1  -5.598158240318298E-1   7.899401187896729E-1  
 5.320000000000000E7    -5.623657107353210E-1   7.928952574729919E-1  -1.541071236133575E-1  -1.107147112488747E-1  -1.541990041732788E-1  -1.106602475047112E-1  -5.591550469398499E-1   7.903917431831360E-1  
 5.322000000000000E7    -5.616518855094910E-1   7.936193943023682E-1  -1.537730097770691E-1  -1.101212501525879E-1  -1.536877900362015E-1  -1.101889237761498E-1  -5.583649277687073E-1   7.912244200706482E-1  
 5.324000000000000E7    -5.610351562500000E-1   7.942992448806763E-1  -1.533142775297165E-1  -1.096014380455017E-1  -1.532945632934570E-1  -1.095943674445152E-1  -5.574293136596680E-1   7.918105721473694E-1  
 5.326000000000000E7    -5.603746175765991E-1   7.954338192939758E-1  -1.528888791799545E-1  -1.089738532900810E-1  -1.527542471885681E-1  -1.091231703758240E-1  -5.565637946128845E-1   7.925151586532593E-1  
 5.328000000000000E7    -5.594595670700073E-1   7.959377765655518E-1  -1.525922715663910E-1  -1.085560321807861E-1  -1.523661017417908E-1  -1.085379049181938E-1  -5.557202100753784E-1   7.935929894447327E-1  
 5.330000000000000E7    -5.585485696792603E-1   7.967912554740906E-1  -1.520880162715912E-1  -1.080262213945389E-1  -1.520438343286514E-1  -1.079820543527603E-1  -5.551984310150147E-1   7.944836020469666E-1  
 5.332000000000000E7    -5.575979351997376E-1   7.972258925437927E-1  -1.515063941478729E-1  -1.073251962661743E-1  -1.515290588140488E-1  -1.073842048645020E-1  -5.540727972984314E-1   7.951356172561646E-1  
 5.334000000000000E7    -5.567820072174072E-1   7.982991933822632E-1  -1.509893834590912E-1  -1.068385392427445E-1  -1.510718166828156E-1  -1.068273186683655E-1  -5.533468723297119E-1   7.956125736236572E-1  
 5.336000000000000E7    -5.558455586433411E-1   7.988275885581970E-1  -1.507032215595245E-1  -1.062459647655487E-1  -1.505706757307053E-1  -1.061619520187378E-1  -5.523282885551453E-1   7.963021993637085E-1  
 5.338000000000000E7    -5.549631118774414E-1   7.995179891586304E-1  -1.503115594387054E-1  -1.057711243629456E-1  -1.502034664154053E-1  -1.056466475129128E-1  -5.516370534896851E-1   7.971574068069458E-1  
 5.340000000000000E7    -5.544677376747131E-1   8.002434968948364E-1  -1.497478783130646E-1  -1.051568686962128E-1  -1.497629284858704E-1  -1.051937565207481E-1  -5.508070588111877E-1   7.979914546012878E-1  
 5.342000000000000E7    -5.534810423851013E-1   8.011341094970703E-1  -1.494369208812714E-1  -1.044722348451614E-1  -1.493397206068039E-1  -1.045875176787376E-1  -5.497971773147583E-1   7.986130714416504E-1  
 5.344000000000000E7    -5.525942444801331E-1   8.016627430915833E-1  -1.488751769065857E-1  -1.039438918232918E-1  -1.488983035087585E-1  -1.040266975760460E-1  -5.488756895065308E-1   7.995501160621643E-1  
 5.346000000000000E7    -5.519133806228638E-1   8.023574948310852E-1  -1.485195755958557E-1  -1.034131944179535E-1  -1.483811140060425E-1  -1.033893823623657E-1  -5.479502677917481E-1   8.002491593360901E-1  
 5.348000000000000E7    -5.510825514793396E-1   8.034209609031677E-1  -1.480392664670944E-1  -1.030616164207459E-1  -1.480666995048523E-1  -1.030471622943878E-1  -5.473784804344177E-1   8.008730411529541E-1  
 5.350000000000000E7    -5.502230525016785E-1   8.035156130790710E-1  -1.476374119520187E-1  -1.025300472974777E-1  -1.474567055702210E-1  -1.023635044693947E-1  -5.467436909675598E-1   8.016993403434753E-1  
 5.352000000000000E7    -5.493789315223694E-1   8.046121597290039E-1  -1.472114473581314E-1  -1.018918156623840E-1  -1.471480727195740E-1  -1.017911210656166E-1  -5.455875992774963E-1   8.022577166557312E-1  
 5.354000000000000E7    -5.484418869018555E-1   8.052598237991333E-1  -1.467441022396088E-1  -1.012365221977234E-1  -1.465909332036972E-1  -1.012168750166893E-1  -5.445217490196228E-1   8.029830455780029E-1  
 5.356000000000000E7    -5.476993918418884E-1   8.061608672142029E-1  -1.463147401809692E-1  -1.006681323051453E-1  -1.461731344461441E-1  -1.007242798805237E-1  -5.440316796302795E-1   8.035109639167786E-1  
 5.358000000000000E7    -5.469053983688355E-1   8.065404295921326E-1  -1.459013670682907E-1  -1.002831682562828E-1  -1.457821428775787E-1  -1.002514734864235E-1  -5.434436202049255E-1   8.046070933341980E-1  
 5.360000000000000E7    -5.459851622581482E-1   8.075322508811951E-1  -1.454439610242844E-1  -9.964213520288467E-2  -1.452483236789703E-1  -9.963971376419067E-2  -5.423265695571899E-1   8.049764633178711E-1  
 5.362000000000000E7    -5.449531674385071E-1   8.081231713294983E-1  -1.450733840465546E-1  -9.911456704139710E-2  -1.448709219694138E-1  -9.903354197740555E-2  -5.414481163024902E-1   8.060478568077087E-1  
 5.364000000000000E7    -5.443258881568909E-1   8.092446327209473E-1  -1.445215046405792E-1  -9.851524233818054E-2  -1.445287168025971E-1  -9.855405241250992E-2  -5.404400229454041E-1   8.062130808830261E-1  
 5.366000000000000E7    -5.432127118110657E-1   8.095356225967407E-1  -1.441760361194611E-1  -9.806028008460999E-2  -1.440961062908173E-1  -9.800173342227936E-2  -5.399296879768372E-1   8.073229789733887E-1  
 5.368000000000000E7    -5.428505539894104E-1   8.105363249778748E-1  -1.436485052108765E-1  -9.760350733995438E-2  -1.436993777751923E-1  -9.757665544748306E-2  -5.390982627868652E-1   8.082304000854492E-1  
 5.370000000000000E7    -5.414332747459412E-1   8.108422160148621E-1  -1.431936025619507E-1  -9.687391668558121E-2  -1.430839598178864E-1  -9.697983413934708E-2  -5.379174947738648E-1   8.086866736412048E-1  
 5.372000000000000E7    -5.406703948974609E-1   8.116774559020996E-1  -1.428560763597488E-1  -9.646862000226975E-2  -1.426267474889755E-1  -9.638716280460358E-2  -5.372515916824341E-1   8.093209266662598E-1  
 5.374000000000000E7    -5.398477315902710E-1   8.121500015258789E-1  -1.423510909080505E-1  -9.596078842878342E-2  -1.420703232288361E-1  -9.588053077459335E-2  -5.363983511924744E-1   8.098340630531311E-1  
 5.376000000000000E7    -5.392607450485230E-1   8.132421374320984E-1  -1.418628990650177E-1  -9.548662602901459E-2  -1.418950557708740E-1  -9.542018175125122E-2  -5.355451703071594E-1   8.106951713562012E-1  
 5.378000000000000E7    -5.382906198501587E-1   8.138329982757568E-1  -1.414261311292648E-1  -9.493721276521683E-2  -1.412891149520874E-1  -9.485888481140137E-2  -5.346222519874573E-1   8.115661740303040E-1  
 5.380000000000000E7    -5.374969840049744E-1   8.146058320999146E-1  -1.409642547369003E-1  -9.437254816293716E-2  -1.409135013818741E-1  -9.436500817537308E-2  -5.338594913482666E-1   8.119995594024658E-1  
 5.382000000000000E7    -5.363112688064575E-1   8.152624964714050E-1  -1.404367685317993E-1  -9.386075288057327E-2  -1.403821557760239E-1  -9.384347498416901E-2  -5.332303643226624E-1   8.125517964363098E-1  
 5.384000000000000E7    -5.358649492263794E-1   8.160264492034912E-1  -1.400372385978699E-1  -9.339007735252380E-2  -1.399843841791153E-1  -9.336964786052704E-2  -5.326302647590637E-1   8.134463429450989E-1  
 5.386000000000000E7    -5.349450707435608E-1   8.163473010063171E-1  -1.395718008279800E-1  -9.281287342309952E-2  -1.395103484392166E-1  -9.289535135030747E-2  -5.318331718444824E-1   8.145998716354370E-1  
 5.388000000000000E7    -5.340531468391419E-1   8.174999952316284E-1  -1.391463875770569E-1  -9.240335971117020E-2  -1.392124891281128E-1  -9.226708114147186E-2  -5.307386517524719E-1   8.152690529823303E-1  
 5.390000000000000E7    -5.332689881324768E-1   8.182855844497681E-1  -1.385947912931442E-1  -9.180685132741928E-2  -1.386078298091888E-1  -9.180126339197159E-2  -5.299821496009827E-1   8.153935670852661E-1  
 5.392000000000000E7    -5.320459604263306E-1   8.191039562225342E-1  -1.382411867380142E-1  -9.131986647844315E-2  -1.382745802402496E-1  -9.119229763746262E-2  -5.290359854698181E-1   8.163941502571106E-1  
 5.394000000000000E7    -5.313606858253479E-1   8.192160725593567E-1  -1.377743929624558E-1  -9.072232246398926E-2  -1.376997381448746E-1  -9.069068729877472E-2  -5.280196666717529E-1   8.168993592262268E-1  
 5.396000000000000E7    -5.306820869445801E-1   8.201096057891846E-1  -1.373978704214096E-1  -9.031472355127335E-2  -1.373009532690048E-1  -9.026847034692764E-2  -5.274508595466614E-1   8.180413246154785E-1  
 5.398000000000000E7    -5.298036932945252E-1   8.206292390823364E-1  -1.368248909711838E-1  -8.969662338495255E-2  -1.368339359760284E-1  -8.971919119358063E-2  -5.261510014533997E-1   8.182739019393921E-1  
 5.400000000000000E7    -5.290406346321106E-1   8.211285471916199E-1  -1.363813430070877E-1  -8.924479037523270E-2  -1.363604515790939E-1  -8.914434909820557E-2  -5.254279375076294E-1   8.189866542816162E-1  
 5.402000000000000E7    -5.279204845428467E-1   8.223912715911865E-1  -1.359164714813232E-1  -8.860892057418823E-2  -1.359063237905502E-1  -8.857713639736176E-2  -5.244289636611939E-1   8.191724419593811E-1  
 5.404000000000000E7    -5.270916819572449E-1   8.226761817932129E-1  -1.355674564838409E-1  -8.810918778181076E-2  -1.354555338621140E-1  -8.817400783300400E-2  -5.235534310340881E-1   8.204919099807739E-1  
 5.406000000000000E7    -5.266975760459900E-1   8.234636187553406E-1  -1.350825726985931E-1  -8.771144598722458E-2  -1.350409388542175E-1  -8.766472339630127E-2  -5.228804349899292E-1   8.213429450988770E-1  
 5.408000000000000E7    -5.255648493766785E-1   8.242158889770508E-1  -1.346170604228973E-1  -8.715845644474030E-2  -1.345188617706299E-1  -8.706069737672806E-2  -5.220479965209961E-1   8.218354582786560E-1  
 5.410000000000000E7    -5.247420072555542E-1   8.249977231025696E-1  -1.342700123786926E-1  -8.670243620872498E-2  -1.340480446815491E-1  -8.667425066232681E-2  -5.212213397026062E-1   8.227615952491760E-1  
 5.412000000000000E7    -5.235314369201660E-1   8.250961899757385E-1  -1.336736381053925E-1  -8.613707125186920E-2  -1.335716694593430E-1  -8.613214641809464E-2  -5.205926299095154E-1   8.231935501098633E-1  
 5.414000000000000E7    -5.229359269142151E-1   8.261920809745789E-1  -1.333010792732239E-1  -8.568485081195831E-2  -1.331690400838852E-1  -8.562412112951279E-2  -5.194523334503174E-1   8.238366246223450E-1  
 5.416000000000000E7    -5.218018889427185E-1   8.267909288406372E-1  -1.327024400234222E-1  -8.510487526655197E-2  -1.326765418052673E-1  -8.509796857833862E-2  -5.185012221336365E-1   8.242925405502319E-1  
 5.418000000000000E7    -5.211651921272278E-1   8.270277380943298E-1  -1.322955787181854E-1  -8.468677103519440E-2  -1.321471184492111E-1  -8.460006862878799E-2  -5.174548625946045E-1   8.250876665115356E-1  
 5.420000000000000E7    -5.203411579132080E-1   8.281586766242981E-1  -1.319444924592972E-1  -8.415227383375168E-2  -1.317643374204636E-1  -8.428400754928589E-2  -5.169123411178589E-1   8.260995149612427E-1  
 5.422000000000000E7    -5.194336175918579E-1   8.287904858589172E-1  -1.314640492200851E-1  -8.373859524726868E-2  -1.313611567020416E-1  -8.366201072931290E-2  -5.165176987648010E-1   8.266013860702515E-1  
 5.424000000000000E7    -5.183033943176270E-1   8.294444084167481E-1  -1.309681832790375E-1  -8.315414935350418E-2  -1.308367401361466E-1  -8.310487866401672E-2  -5.152405500411987E-1   8.269752264022827E-1  
 5.426000000000000E7    -5.176784992218018E-1   8.301491141319275E-1  -1.305140256881714E-1  -8.265023678541184E-2  -1.303522139787674E-1  -8.265755325555801E-2  -5.142517685890198E-1   8.277551531791687E-1  
 5.428000000000000E7    -5.167890787124634E-1   8.308578729629517E-1  -1.300641745328903E-1  -8.222904801368713E-2  -1.300406455993652E-1  -8.219994604587555E-2  -5.132677555084229E-1   8.287536501884460E-1  
 5.430000000000000E7    -5.161420106887817E-1   8.314861655235291E-1  -1.295906007289887E-1  -8.177308738231659E-2  -1.294462531805039E-1  -8.170017600059509E-2  -5.126648545265198E-1   8.290038704872131E-1  
 5.432000000000000E7    -5.150375962257385E-1   8.322374224662781E-1  -1.291012018918991E-1  -8.122468739748001E-2  -1.291048824787140E-1  -8.122548460960388E-2  -5.117834210395813E-1   8.298010826110840E-1  
 5.434000000000000E7    -5.146301984786987E-1   8.326652646064758E-1  -1.285121738910675E-1  -8.084852248430252E-2  -1.286292374134064E-1  -8.083948493003845E-2  -5.110001564025879E-1   8.304383754730225E-1  
 5.436000000000000E7    -5.132591128349304E-1   8.333315849304199E-1  -1.279978901147842E-1  -8.031614124774933E-2  -1.280648559331894E-1  -8.019953966140747E-2  -5.102509260177612E-1   8.307899832725525E-1  
 5.438000000000000E7    -5.124190449714661E-1   8.338500857353210E-1  -1.277353614568710E-1  -7.973643392324448E-2  -1.276104897260666E-1  -7.976523041725159E-2  -5.092612504959106E-1   8.317404389381409E-1  
 5.440000000000000E7    -5.113977193832398E-1   8.348343968391419E-1  -1.273359656333923E-1  -7.920230180025101E-2  -1.272228956222534E-1  -7.923905551433563E-2  -5.081830024719238E-1   8.327684998512268E-1  
 5.442000000000000E7    -5.105468630790710E-1   8.351314663887024E-1  -1.266777366399765E-1  -7.879686355590820E-2  -1.266220360994339E-1  -7.891848683357239E-2  -5.078555345535278E-1   8.326836824417114E-1  
 5.444000000000000E7    -5.097506046295166E-1   8.357916474342346E-1  -1.262790411710739E-1  -7.830090820789337E-2  -1.262443363666534E-1  -7.835042476654053E-2  -5.065414905548096E-1   8.336532115936279E-1  
 5.446000000000000E7    -5.091224312782288E-1   8.365368247032166E-1  -1.257715225219727E-1  -7.786465436220169E-2  -1.256140619516373E-1  -7.784997671842575E-2  -5.058625340461731E-1   8.342190980911255E-1  
 5.448000000000000E7    -5.079793334007263E-1   8.372178077697754E-1  -1.252906024456024E-1  -7.745156437158585E-2  -1.252627223730087E-1  -7.738319039344788E-2  -5.050217509269714E-1   8.346968889236450E-1  
 5.450000000000000E7    -5.070762038230896E-1   8.380393981933594E-1  -1.250363439321518E-1  -7.685216516256332E-2  -1.248169392347336E-1  -7.690738141536713E-2  -5.040634870529175E-1   8.356806635856628E-1  
 5.452000000000000E7    -5.064648389816284E-1   8.385176062583923E-1  -1.245267465710640E-1  -7.641110569238663E-2  -1.243894845247269E-1  -7.655230164527893E-2  -5.029863119125366E-1   8.363958001136780E-1  
 5.454000000000000E7    -5.056321620941162E-1   8.388410806655884E-1  -1.239877715706825E-1  -7.594349980354309E-2  -1.239193603396416E-1  -7.594568282365799E-2  -5.022761225700378E-1   8.372544050216675E-1  
 5.456000000000000E7    -5.050767064094544E-1   8.398125767707825E-1  -1.235292330384255E-1  -7.556641101837158E-2  -1.235032007098198E-1  -7.555680721998215E-2  -5.012414455413818E-1   8.375106453895569E-1  
 5.458000000000000E7    -5.039757490158081E-1   8.405271172523499E-1  -1.231605410575867E-1  -7.505189627408981E-2  -1.230731904506683E-1  -7.506640255451202E-2  -5.006829500198364E-1   8.383710980415344E-1  
 5.460000000000000E7    -5.028492212295532E-1   8.407793045043945E-1  -1.224911436438561E-1  -7.454535365104675E-2  -1.225670129060745E-1  -7.454346120357513E-2  -4.998582601547241E-1   8.386475443840027E-1  
 5.462000000000000E7    -5.020810961723328E-1   8.416247367858887E-1  -1.221529617905617E-1  -7.409285753965378E-2  -1.220609173178673E-1  -7.420498132705689E-2  -4.987605512142181E-1   8.392654657363892E-1  
 5.464000000000000E7    -5.014202594757080E-1   8.423857092857361E-1  -1.217951327562332E-1  -7.373256981372833E-2  -1.216041818261147E-1  -7.370246946811676E-2  -4.976247549057007E-1   8.402583599090576E-1  
 5.466000000000000E7    -5.004948973655701E-1   8.427587151527405E-1  -1.211494356393814E-1  -7.324163615703583E-2  -1.210727766156197E-1  -7.331861555576325E-2  -4.971661865711212E-1   8.403432369232178E-1  
 5.468000000000000E7    -4.992903769016266E-1   8.434084653854370E-1  -1.207546815276146E-1  -7.275140285491943E-2  -1.205446124076843E-1  -7.274957746267319E-2  -4.958662688732147E-1   8.412857055664063E-1  
 5.470000000000000E7    -4.988726079463959E-1   8.442624211311340E-1  -1.202000230550766E-1  -7.233844697475433E-2  -1.202549412846565E-1  -7.234837859869003E-2  -4.954129159450531E-1   8.419339656829834E-1  
 5.472000000000000E7    -4.976823031902313E-1   8.448917269706726E-1  -1.196188628673554E-1  -7.181899994611740E-2  -1.197505295276642E-1  -7.179962843656540E-2  -4.943673908710480E-1   8.423013091087341E-1  
 5.474000000000000E7    -4.970320761203766E-1   8.452423214912415E-1  -1.192428097128868E-1  -7.139329612255096E-2  -1.192318350076675E-1  -7.136698067188263E-2  -4.933272898197174E-1   8.432058691978455E-1  
 5.476000000000000E7    -4.961478710174561E-1   8.460358381271362E-1  -1.188693791627884E-1  -7.092520594596863E-2  -1.187088340520859E-1  -7.086621224880219E-2  -4.923306107521057E-1   8.435193300247192E-1  
 5.478000000000000E7    -4.947035014629364E-1   8.463022112846375E-1  -1.183159500360489E-1  -7.045271992683411E-2  -1.182897537946701E-1  -7.055170089006424E-2  -4.920252561569214E-1   8.443279862403870E-1  
 5.480000000000000E7    -4.940266907215118E-1   8.472852110862732E-1  -1.179809123277664E-1  -6.999704241752625E-2  -1.178266555070877E-1  -6.995280086994171E-2  -4.905991554260254E-1   8.452417254447937E-1  
 5.482000000000000E7    -4.933833479881287E-1   8.478065729141235E-1  -1.173546463251114E-1  -6.958743929862976E-2  -1.172550022602081E-1  -6.964585930109024E-2  -4.902122914791107E-1   8.454501628875732E-1  
 5.484000000000000E7    -4.927230775356293E-1   8.486439585685730E-1  -1.169153526425362E-1  -6.911621987819672E-2  -1.168807744979858E-1  -6.900881975889206E-2  -4.889361858367920E-1   8.461980819702148E-1  
 5.486000000000000E7    -4.917863011360169E-1   8.490459918975830E-1  -1.164935454726219E-1  -6.869861483573914E-2  -1.163687184453011E-1  -6.863115727901459E-2  -4.881740510463715E-1   8.467840552330017E-1  
 5.488000000000000E7    -4.908225834369659E-1   8.496443629264832E-1  -1.160121485590935E-1  -6.824038922786713E-2  -1.159056350588799E-1  -6.817511469125748E-2  -4.874439239501953E-1   8.476490974426270E-1  
 5.490000000000000E7    -4.899342358112335E-1   8.501709699630737E-1  -1.155661940574646E-1  -6.773442029953003E-2  -1.154324486851692E-1  -6.776250153779984E-2  -4.863648414611816E-1   8.478742241859436E-1  
 5.492000000000000E7    -4.892327189445496E-1   8.511174917221069E-1  -1.150265485048294E-1  -6.738687306642532E-2  -1.150124743580818E-1  -6.741487979888916E-2  -4.858990609645844E-1   8.486565351486206E-1  
 5.494000000000000E7    -4.884797930717468E-1   8.510130047798157E-1  -1.145102828741074E-1  -6.694792956113815E-2  -1.144953295588493E-1  -6.698156148195267E-2  -4.849281609058380E-1   8.494887948036194E-1  
 5.496000000000000E7    -4.870934784412384E-1   8.518513441085815E-1  -1.140928864479065E-1  -6.644926965236664E-2  -1.140363290905953E-1  -6.644230335950851E-2  -4.839452207088471E-1   8.502107262611389E-1  
 5.498000000000000E7    -4.867275655269623E-1   8.523262739181519E-1  -1.135743111371994E-1  -6.616326421499252E-2  -1.134120002388954E-1  -6.609773635864258E-2  -4.831581115722656E-1   8.503904938697815E-1  
 5.500000000000000E7    -4.853167235851288E-1   8.534160852432251E-1  -1.132178902626038E-1  -6.553180515766144E-2  -1.130905449390411E-1  -6.559141725301743E-2  -4.821290373802185E-1   8.509962558746338E-1  
 5.502000000000000E7    -4.847303032875061E-1   8.541716337203980E-1  -1.126942485570908E-1  -6.527511030435562E-2  -1.125998497009277E-1  -6.523412466049194E-2  -4.814490079879761E-1   8.518419265747070E-1  
 5.504000000000000E7    -4.836048781871796E-1   8.544772863388062E-1  -1.121602952480316E-1  -6.475650519132614E-2  -1.122085675597191E-1  -6.471809744834900E-2  -4.804549813270569E-1   8.522900938987732E-1  
 5.506000000000000E7    -4.826058447360992E-1   8.551993966102600E-1  -1.117207854986191E-1  -6.434736400842667E-2  -1.116992309689522E-1  -6.426513940095902E-2  -4.796193838119507E-1   8.529829978942871E-1  
 5.508000000000000E7    -4.820567965507507E-1   8.557099699974060E-1  -1.112825050950050E-1  -6.398827582597733E-2  -1.111739277839661E-1  -6.395675987005234E-2  -4.787239134311676E-1   8.534216880798340E-1  
 5.510000000000000E7    -4.809304773807526E-1   8.558552861213684E-1  -1.107011288404465E-1  -6.345888972282410E-2  -1.106536537408829E-1  -6.335808336734772E-2  -4.777776300907135E-1   8.540736436843872E-1  
 5.512000000000000E7    -4.801675081253052E-1   8.569774627685547E-1  -1.102729365229607E-1  -6.309597194194794E-2  -1.103139817714691E-1  -6.299334019422531E-2  -4.771073758602142E-1   8.548759222030640E-1  
 5.514000000000000E7    -4.796584248542786E-1   8.575690984725952E-1  -1.097907498478890E-1  -6.271570175886154E-2  -1.098017022013664E-1  -6.271010637283325E-2  -4.763123691082001E-1   8.553342819213867E-1  
 5.516000000000000E7    -4.785510897636414E-1   8.581901192665100E-1  -1.093481034040451E-1  -6.226811558008194E-2  -1.092529445886612E-1  -6.224139407277107E-2  -4.755894243717194E-1   8.558731675148010E-1  
 5.518000000000000E7    -4.777696430683136E-1   8.585166931152344E-1  -1.088607534766197E-1  -6.177915632724762E-2  -1.086628064513207E-1  -6.170631945133209E-2  -4.740912914276123E-1   8.559515476226807E-1  
 5.520000000000000E7    -4.770278334617615E-1   8.593728542327881E-1  -1.084300130605698E-1  -6.136832013726234E-2  -1.084234789013863E-1  -6.129203364253044E-2  -4.732446968555450E-1   8.571602106094360E-1  
 5.522000000000000E7    -4.761131405830383E-1   8.600043058395386E-1  -1.079497486352921E-1  -6.096654385328293E-2  -1.078905537724495E-1  -6.100241094827652E-2  -4.724180400371552E-1   8.576149344444275E-1  
 5.524000000000000E7    -4.749491512775421E-1   8.604987859725952E-1  -1.073181480169296E-1  -6.056610494852066E-2  -1.074097976088524E-1  -6.053339317440987E-2  -4.718597233295441E-1   8.580121994018555E-1  
 5.526000000000000E7    -4.742152094841003E-1   8.607738614082336E-1  -1.068438068032265E-1  -6.012293696403503E-2  -1.068179756402969E-1  -6.001377850770950E-2  -4.703909158706665E-1   8.587757945060730E-1  
 5.528000000000000E7    -4.732537567615509E-1   8.616784811019898E-1  -1.064689010381699E-1  -5.963654816150665E-2  -1.064056381583214E-1  -5.968235805630684E-2  -4.697783887386322E-1   8.593558073043823E-1  
 5.530000000000000E7    -4.721794128417969E-1   8.621162772178650E-1  -1.059003919363022E-1  -5.932978540658951E-2  -1.059071794152260E-1  -5.927156284451485E-2  -4.691444635391235E-1   8.598650097846985E-1  
 5.532000000000000E7    -4.714066088199616E-1   8.626075387001038E-1  -1.055095717310906E-1  -5.883029103279114E-2  -1.054645553231239E-1  -5.885351076722145E-2  -4.682159125804901E-1   8.607613444328308E-1  
 5.534000000000000E7    -4.707752466201782E-1   8.634583353996277E-1  -1.050583049654961E-1  -5.848193541169167E-2  -1.049869880080223E-1  -5.855472758412361E-2  -4.669984579086304E-1   8.611997365951538E-1  
 5.536000000000000E7    -4.696649014949799E-1   8.639735579490662E-1  -1.045551970601082E-1  -5.801508575677872E-2  -1.045158207416534E-1  -5.800886824727058E-2  -4.663292467594147E-1   8.616250753402710E-1  
 5.538000000000000E7    -4.687060117721558E-1   8.645419478416443E-1  -1.040226966142654E-1  -5.759849399328232E-2  -1.039032787084580E-1  -5.771336704492569E-2  -4.655387401580811E-1   8.621428012847900E-1  
 5.540000000000000E7    -4.679754674434662E-1   8.652597665786743E-1  -1.036319807171822E-1  -5.726727470755577E-2  -1.035612300038338E-1  -5.725358799099922E-2  -4.646649956703186E-1   8.629269599914551E-1  
 5.542000000000000E7    -4.672279953956604E-1   8.655581474304199E-1  -1.030917763710022E-1  -5.692150443792343E-2  -1.030233651399612E-1  -5.684068053960800E-2  -4.635772109031677E-1   8.633846044540405E-1  
 5.544000000000000E7    -4.659708440303803E-1   8.665674328804016E-1  -1.026907116174698E-1  -5.641001090407372E-2  -1.026273593306541E-1  -5.636261403560638E-2  -4.627447128295898E-1   8.638458847999573E-1  
 5.546000000000000E7    -4.654471576213837E-1   8.667306900024414E-1  -1.021250784397125E-1  -5.599816516041756E-2  -1.020821481943131E-1  -5.598106607794762E-2  -4.616173505783081E-1   8.644583821296692E-1  
 5.548000000000000E7    -4.644984900951386E-1   8.677899241447449E-1  -1.016725525259972E-1  -5.565561726689339E-2  -1.016633361577988E-1  -5.555688217282295E-2  -4.611155092716217E-1   8.649824261665344E-1  
 5.550000000000000E7    -4.636071324348450E-1   8.676236867904663E-1  -1.010907292366028E-1  -5.521703511476517E-2  -1.010517627000809E-1  -5.520492047071457E-2  -4.601825475692749E-1   8.655901551246643E-1  
 5.552000000000000E7    -4.622893929481506E-1   8.685536980628967E-1  -1.006772667169571E-1  -5.479013919830322E-2  -1.006133109331131E-1  -5.474442988634110E-2  -4.592016041278839E-1   8.664182424545288E-1  
 5.554000000000000E7    -4.615627825260162E-1   8.691329956054688E-1  -1.002336740493774E-1  -5.439998954534531E-2  -1.001591533422470E-1  -5.435879901051521E-2  -4.583791792392731E-1   8.670210838317871E-1  
 5.556000000000000E7    -4.606563448905945E-1   8.694315552711487E-1  -9.971915930509567E-2  -5.398666486144066E-2  -9.963344037532806E-2  -5.398948863148689E-2  -4.574481844902039E-1   8.675132989883423E-1  
 5.558000000000000E7    -4.595485627651215E-1   8.702902793884277E-1  -9.925662726163864E-2  -5.359342694282532E-2  -9.922250360250473E-2  -5.362008512020111E-2  -4.564911723136902E-1   8.682665824890137E-1  
 5.560000000000000E7    -4.592002034187317E-1   8.707925677299500E-1  -9.880671650171280E-2  -5.331186577677727E-2  -9.869854897260666E-2  -5.328715965151787E-2  -4.558424055576325E-1   8.683752417564392E-1  
 5.562000000000000E7    -4.582946598529816E-1   8.712468147277832E-1  -9.827543795108795E-2  -5.280323326587677E-2  -9.816144406795502E-2  -5.288489907979965E-2  -4.546809494495392E-1   8.689830303192139E-1  
 5.564000000000000E7    -4.571376442909241E-1   8.716228008270264E-1  -9.776154160499573E-2  -5.248654261231422E-2  -9.770575165748596E-2  -5.243916809558868E-2  -4.536080360412598E-1   8.697715401649475E-1  
 5.566000000000000E7    -4.563583135604858E-1   8.721356391906738E-1  -9.725050628185272E-2  -5.206972360610962E-2  -9.711591899394989E-2  -5.203805863857269E-2  -4.529975652694702E-1   8.699524402618408E-1  
 5.568000000000000E7    -4.553762972354889E-1   8.728625178337097E-1  -9.676323831081390E-2  -5.159023031592369E-2  -9.666282683610916E-2  -5.161166936159134E-2  -4.520763754844666E-1   8.705061674118042E-1  
 5.570000000000000E7    -4.547469019889832E-1   8.735464215278626E-1  -9.628939628601074E-2  -5.135681480169296E-2  -9.623257815837860E-2  -5.128974094986916E-2  -4.512050747871399E-1   8.713292479515076E-1  
 5.572000000000000E7    -4.535995423793793E-1   8.742265701293945E-1  -9.580020606517792E-2  -5.091310292482376E-2  -9.574344754219055E-2  -5.091436207294464E-2  -4.502287507057190E-1   8.715437054634094E-1  
 5.574000000000000E7    -4.525997638702393E-1   8.743757009506226E-1  -9.526630491018295E-2  -5.050531402230263E-2  -9.525902569293976E-2  -5.052090808749199E-2  -4.494273364543915E-1   8.720855116844177E-1  
 5.576000000000000E7    -4.518964290618897E-1   8.750715851783752E-1  -9.494541585445404E-2  -5.020277947187424E-2  -9.482594579458237E-2  -5.017769336700440E-2  -4.489311575889587E-1   8.729025125503540E-1  
 5.578000000000000E7    -4.511178731918335E-1   8.756964802742004E-1  -9.442947804927826E-2  -4.973033815622330E-2  -9.429641067981720E-2  -4.970551654696465E-2  -4.476723074913025E-1   8.737710118293762E-1  
 5.580000000000000E7    -4.498071074485779E-1   8.761630654335022E-1  -9.385213255882263E-2  -4.931772872805595E-2  -9.378316998481751E-2  -4.934424906969070E-2  -4.466063678264618E-1   8.740614056587219E-1  
 5.582000000000000E7    -4.490094482898712E-1   8.764545321464539E-1  -9.334880858659744E-2  -4.896066710352898E-2  -9.328607469797134E-2  -4.891293495893478E-2  -4.458812475204468E-1   8.740563988685608E-1  
 5.584000000000000E7    -4.484729766845703E-1   8.771594762802124E-1  -9.285905212163925E-2  -4.866042733192444E-2  -9.284576773643494E-2  -4.865696281194687E-2  -4.450388848781586E-1   8.748669028282166E-1  
 5.586000000000000E7    -4.474305510520935E-1   8.780050873756409E-1  -9.250125288963318E-2  -4.832788184285164E-2  -9.243658185005188E-2  -4.827879741787911E-2  -4.439026713371277E-1   8.755486607551575E-1  
 5.588000000000000E7    -4.461184740066528E-1   8.782027959823608E-1  -9.188143908977509E-2  -4.782938957214356E-2  -9.186574816703796E-2  -4.790564253926277E-2  -4.433367252349854E-1   8.758043646812439E-1  
 5.590000000000000E7    -4.454731047153473E-1   8.786793351173401E-1  -9.138150513172150E-2  -4.745167866349220E-2  -9.135115146636963E-2  -4.748841375112534E-2  -4.422184824943543E-1   8.764082789421082E-1  
 5.592000000000000E7    -4.447411596775055E-1   8.793804645538330E-1  -9.090864658355713E-2  -4.716432094573975E-2  -9.077697247266769E-2  -4.709266871213913E-2  -4.412862658500671E-1   8.769485950469971E-1  
 5.594000000000000E7    -4.440157115459442E-1   8.799889683723450E-1  -9.048543870449066E-2  -4.682243615388870E-2  -9.043838083744049E-2  -4.669957607984543E-2  -4.400790035724640E-1   8.777050375938416E-1  
 5.596000000000000E7    -4.430372416973114E-1   8.805180788040161E-1  -8.989236503839493E-2  -4.640664532780647E-2  -8.992984890937805E-2  -4.644039645791054E-2  -4.396639764308929E-1   8.780051469802856E-1  
 5.598000000000000E7    -4.419879913330078E-1   8.811591863632202E-1  -8.955866098403931E-2  -4.598424211144447E-2  -8.949484676122665E-2  -4.607029631733894E-2  -4.383493065834045E-1   8.790530562400818E-1  
 5.600000000000000E7    -4.410101771354675E-1   8.811381459236145E-1  -8.892486244440079E-2  -4.568858817219734E-2  -8.892682194709778E-2  -4.562247917056084E-2  -4.378671944141388E-1   8.794577121734619E-1  
 5.602000000000000E7    -4.398429393768311E-1   8.819794058799744E-1  -8.843576908111572E-2  -4.527370259165764E-2  -8.845291286706924E-2  -4.523257911205292E-2  -4.368541240692139E-1   8.795469403266907E-1  
 5.604000000000000E7    -4.388535022735596E-1   8.824279308319092E-1  -8.792854100465775E-2  -4.488770663738251E-2  -8.799865841865540E-2  -4.486969485878944E-2  -4.358123242855072E-1   8.803656697273254E-1  
 5.606000000000000E7    -4.382624626159668E-1   8.831046223640442E-1  -8.749796450138092E-2  -4.454878717660904E-2  -8.743813633918762E-2  -4.453937709331513E-2  -4.351076781749725E-1   8.809128403663635E-1  
 5.608000000000000E7    -4.373976588249207E-1   8.834972977638245E-1  -8.704914897680283E-2  -4.418319836258888E-2  -8.692514151334763E-2  -4.421989247202873E-2  -4.340825974941254E-1   8.811756968498230E-1  
 5.610000000000000E7    -4.364401698112488E-1   8.840671181678772E-1  -8.655265718698502E-2  -4.391297325491905E-2  -8.648012578487396E-2  -4.387032240629196E-2  -4.332347512245178E-1   8.820363283157349E-1  
 5.612000000000000E7    -4.354187548160553E-1   8.843861222267151E-1  -8.599045872688294E-2  -4.343280941247940E-2  -8.592488616704941E-2  -4.351826757192612E-2  -4.323671758174896E-1   8.820494413375855E-1  
 5.614000000000000E7    -4.351384639739990E-1   8.850845694541931E-1  -8.556084334850311E-2  -4.309910163283348E-2  -8.550847321748734E-2  -4.316471517086029E-2  -4.312009215354919E-1   8.829180002212524E-1  
 5.616000000000000E7    -4.337941110134125E-1   8.854792714118958E-1  -8.498774468898773E-2  -4.268399253487587E-2  -8.494146913290024E-2  -4.273555427789688E-2  -4.303641915321350E-1   8.829904198646545E-1  
 5.618000000000000E7    -4.326338469982147E-1   8.857790827751160E-1  -8.454327285289764E-2  -4.245086014270783E-2  -8.448983728885651E-2  -4.237753525376320E-2  -4.295643270015717E-1   8.838824033737183E-1  
 5.620000000000000E7    -4.321416318416596E-1   8.867669105529785E-1  -8.405359089374542E-2  -4.206526651978493E-2  -8.393028378486633E-2  -4.217184707522392E-2  -4.291484951972961E-1   8.842181563377380E-1  
 5.622000000000000E7    -4.313261508941650E-1   8.871408700942993E-1  -8.359052985906601E-2  -4.175844788551331E-2  -8.352362364530563E-2  -4.174304381012917E-2  -4.275476932525635E-1   8.849942684173584E-1  
 5.624000000000000E7    -4.300981163978577E-1   8.877114653587341E-1  -8.310082554817200E-2  -4.127381742000580E-2  -8.305165916681290E-2  -4.134628176689148E-2  -4.267722368240356E-1   8.851901888847351E-1  
 5.626000000000000E7    -4.293411672115326E-1   8.883917331695557E-1  -8.253882825374603E-2  -4.098717123270035E-2  -8.247464895248413E-2  -4.103263467550278E-2  -4.260523617267609E-1   8.855400085449219E-1  
 5.628000000000000E7    -4.283492565155029E-1   8.885174393653870E-1  -8.204435557126999E-2  -4.073619842529297E-2  -8.200673013925552E-2  -4.065810143947601E-2  -4.250078797340393E-1   8.865483999252319E-1  
 5.630000000000000E7    -4.272712767124176E-1   8.888918757438660E-1  -8.153385668992996E-2  -4.027971252799034E-2  -8.150620758533478E-2  -4.024655744433403E-2  -4.239578843116760E-1   8.868988156318665E-1  
 5.632000000000000E7    -4.265972375869751E-1   8.898420929908752E-1  -8.111103624105454E-2  -4.001195356249809E-2  -8.105022460222244E-2  -4.002381116151810E-2  -4.230561554431915E-1   8.874240517616272E-1  
 5.634000000000000E7    -4.258235692977905E-1   8.902198076248169E-1  -8.055026084184647E-2  -3.962937742471695E-2  -8.051498234272003E-2  -3.964802250266075E-2  -4.224268496036530E-1   8.876853585243225E-1  
 5.636000000000000E7    -4.250672459602356E-1   8.907088637351990E-1  -8.006907999515533E-2  -3.934129700064659E-2  -8.007189631462097E-2  -3.931266441941261E-2  -4.216373860836029E-1   8.885440826416016E-1  
 5.638000000000000E7    -4.239380955696106E-1   8.911554813385010E-1  -7.958024740219116E-2  -3.893600776791573E-2  -7.955680787563324E-2  -3.895146399736404E-2  -4.205811619758606E-1   8.890119791030884E-1  
 5.640000000000000E7    -4.230287075042725E-1   8.915443420410156E-1  -7.909576594829559E-2  -3.863567486405373E-2  -7.906507700681686E-2  -3.857421875000000E-2  -4.196253120899200E-1   8.892343640327454E-1  
 5.642000000000000E7    -4.221749305725098E-1   8.920629620552063E-1  -7.863603532314301E-2  -3.832467645406723E-2  -7.855431735515595E-2  -3.826642408967018E-2  -4.190694093704224E-1   8.900302052497864E-1  
 5.644000000000000E7    -4.209454357624054E-1   8.925361037254334E-1  -7.810790836811066E-2  -3.789240494370461E-2  -7.803808897733688E-2  -3.792718797922134E-2  -4.180690050125122E-1   8.899767994880676E-1  
 5.646000000000000E7    -4.201144576072693E-1   8.930974602699280E-1  -7.757122814655304E-2  -3.758703172206879E-2  -7.757613062858582E-2  -3.756299242377281E-2  -4.169960021972656E-1   8.907104730606079E-1  
 5.648000000000000E7    -4.192096590995789E-1   8.937965035438538E-1  -7.715073972940445E-2  -3.726349025964737E-2  -7.714474946260452E-2  -3.727524727582932E-2  -4.161945879459381E-1   8.916374444961548E-1  
 5.650000000000000E7    -4.185032844543457E-1   8.938826918601990E-1  -7.663321495056152E-2  -3.695426881313324E-2  -7.658819854259491E-2  -3.691783547401428E-2  -4.151022732257843E-1   8.918360471725464E-1  
 5.652000000000000E7    -4.169514179229736E-1   8.947489857673645E-1  -7.612929493188858E-2  -3.660727664828301E-2  -7.612869888544083E-2  -3.651065379381180E-2  -4.139780998229981E-1   8.923606276512146E-1  
 5.654000000000000E7    -4.167955517768860E-1   8.952920436859131E-1  -7.560887187719345E-2  -3.635255992412567E-2  -7.560257613658905E-2  -3.635257482528687E-2  -4.136470556259155E-1   8.927268385887146E-1  
 5.656000000000000E7    -4.158320426940918E-1   8.954967260360718E-1  -7.516289502382278E-2  -3.592149913311005E-2  -7.507967203855515E-2  -3.594387322664261E-2  -4.121159911155701E-1   8.934878110885620E-1  
 5.658000000000000E7    -4.147828817367554E-1   8.959383964538574E-1  -7.460349053144455E-2  -3.555477038025856E-2  -7.455938309431076E-2  -3.561270609498024E-2  -4.111588597297669E-1   8.934133648872376E-1  
 5.660000000000000E7    -4.138383269309998E-1   8.966181278228760E-1  -7.414310425519943E-2  -3.525546193122864E-2  -7.407515496015549E-2  -3.530965372920036E-2  -4.106358587741852E-1   8.937900662422180E-1  
 5.662000000000000E7    -4.131140708923340E-1   8.969870209693909E-1  -7.370071858167648E-2  -3.496881946921349E-2  -7.363825291395187E-2  -3.493113443255425E-2  -4.096374809741974E-1   8.949727416038513E-1  
 5.664000000000000E7    -4.119897186756134E-1   8.968196511268616E-1  -7.315070927143097E-2  -3.460407629609108E-2  -7.307799905538559E-2  -3.461707010865212E-2  -4.088950753211975E-1   8.952897787094116E-1  
 5.666000000000000E7    -4.112162590026856E-1   8.977867960929871E-1  -7.269375771284103E-2  -3.431444987654686E-2  -7.257740199565888E-2  -3.431243449449539E-2  -4.080280363559723E-1   8.957327604293823E-1  
 5.668000000000000E7    -4.103395640850067E-1   8.984242081642151E-1  -7.222098112106323E-2  -3.406386449933052E-2  -7.205840200185776E-2  -3.399114683270454E-2  -4.070993065834045E-1   8.961170911788940E-1  
 5.670000000000000E7    -4.096971750259399E-1   8.987542986869812E-1  -7.162460684776306E-2  -3.369248285889626E-2  -7.159796357154846E-2  -3.366284072399139E-2  -4.061172902584076E-1   8.968070745468140E-1  
 5.672000000000000E7    -4.085576236248016E-1   8.992459774017334E-1  -7.120144367218018E-2  -3.337134420871735E-2  -7.116056978702545E-2  -3.333035856485367E-2  -4.050317704677582E-1   8.973015546798706E-1  
 5.674000000000000E7    -4.075917899608612E-1   8.998682498931885E-1  -7.066414505243301E-2  -3.306107968091965E-2  -7.071328908205032E-2  -3.305005282163620E-2  -4.040881693363190E-1   8.976894617080689E-1  
 5.676000000000000E7    -4.063965976238251E-1   9.002779126167297E-1  -7.017029076814652E-2  -3.272281214594841E-2  -7.013554871082306E-2  -3.272542729973793E-2  -4.033170342445374E-1   8.982269763946533E-1  
 5.678000000000000E7    -4.058376550674439E-1   9.006775617599487E-1  -6.963628530502319E-2  -3.237065672874451E-2  -6.962153315544128E-2  -3.242418169975281E-2  -4.022647738456726E-1   8.985727429389954E-1  
 5.680000000000000E7    -4.046289622783661E-1   9.008559584617615E-1  -6.918758898973465E-2  -3.207309171557427E-2  -6.911480426788330E-2  -3.204900771379471E-2  -4.015707075595856E-1   8.989847898483276E-1  
 5.682000000000000E7    -4.040684998035431E-1   9.015563726425171E-1  -6.866699457168579E-2  -3.179550915956497E-2  -6.860706955194473E-2  -3.179869800806046E-2  -4.007572531700134E-1   8.994548320770264E-1  
 5.684000000000000E7    -4.029331505298615E-1   9.023680686950684E-1  -6.820955872535706E-2  -3.148457407951355E-2  -6.813313066959381E-2  -3.145873919129372E-2  -3.997121453285217E-1   8.997371792793274E-1  
 5.686000000000000E7    -4.018369317054749E-1   9.023686051368713E-1  -6.769626587629318E-2  -3.119241632521153E-2  -6.764584034681320E-2  -3.117268718779087E-2  -3.988724052906036E-1   9.004528522491455E-1  
 5.688000000000000E7    -4.014214873313904E-1   9.032617807388306E-1  -6.722808629274368E-2  -3.086899034678936E-2  -6.713502109050751E-2  -3.086550347507000E-2  -3.976563215255737E-1   9.007893800735474E-1  
 5.690000000000000E7    -4.001024961471558E-1   9.036872386932373E-1  -6.671055406332016E-2  -3.058699890971184E-2  -6.669836491346359E-2  -3.056314215064049E-2  -3.966355323791504E-1   9.016711115837097E-1  
 5.692000000000000E7    -3.994015455245972E-1   9.039800763130188E-1  -6.615937501192093E-2  -3.025956824421883E-2  -6.612610071897507E-2  -3.024569898843765E-2  -3.962123394012451E-1   9.016441106796265E-1  
 5.694000000000000E7    -3.983795940876007E-1   9.044569134712219E-1  -6.569606810808182E-2  -3.000921383500099E-2  -6.565511971712112E-2  -2.992426976561546E-2  -3.953767120838165E-1   9.020665884017944E-1  
 5.696000000000000E7    -3.976113200187683E-1   9.048673510551453E-1  -6.521218270063400E-2  -2.964635938405991E-2  -6.511323899030685E-2  -2.965002506971359E-2  -3.940522372722626E-1   9.027003049850464E-1  
 5.698000000000000E7    -3.964088559150696E-1   9.053117632865906E-1  -6.465402245521545E-2  -2.935524284839630E-2  -6.463174521923065E-2  -2.938506007194519E-2  -3.932172954082489E-1   9.028552770614624E-1  
 5.700000000000000E7    -3.955101370811462E-1   9.056614637374878E-1  -6.415076553821564E-2  -2.904422581195831E-2  -6.413508951663971E-2  -2.901994995772839E-2  -3.922208547592163E-1   9.033856987953186E-1  
 5.702000000000000E7    -3.948993086814880E-1   9.061104059219360E-1  -6.365505605936050E-2  -2.875297144055367E-2  -6.366001069545746E-2  -2.873589843511581E-2  -3.915959596633911E-1   9.036421775817871E-1  
 5.704000000000000E7    -3.937300443649292E-1   9.067093133926392E-1  -6.319808959960938E-2  -2.842241898179054E-2  -6.310676783323288E-2  -2.841614559292793E-2  -3.905823826789856E-1   9.041475057601929E-1  
 5.706000000000000E7    -3.929897248744965E-1   9.072899222373962E-1  -6.270618736743927E-2  -2.813819609582424E-2  -6.271138787269592E-2  -2.809388376772404E-2  -3.890641629695892E-1   9.048506021499634E-1  
 5.708000000000000E7    -3.920747339725494E-1   9.075307250022888E-1  -6.213206797838211E-2  -2.788234874606133E-2  -6.211713328957558E-2  -2.785509452223778E-2  -3.887343108654022E-1   9.053034186363220E-1  
 5.710000000000000E7    -3.910439312458038E-1   9.079306721687317E-1  -6.168846786022186E-2  -2.753239870071411E-2  -6.166464090347290E-2  -2.758910134434700E-2  -3.878159224987030E-1   9.060086011886597E-1  
 5.712000000000000E7    -3.905777037143707E-1   9.083287715911865E-1  -6.118527054786682E-2  -2.729202061891556E-2  -6.113208830356598E-2  -2.728869020938873E-2  -3.865666985511780E-1   9.059854149818420E-1  
 5.714000000000000E7    -3.894301950931549E-1   9.089212417602539E-1  -6.068757548928261E-2  -2.699726819992065E-2  -6.063978746533394E-2  -2.699907124042511E-2  -3.861182034015656E-1   9.066613912582398E-1  
 5.716000000000000E7    -3.883601427078247E-1   9.091924428939819E-1  -6.014351919293404E-2  -2.667600288987160E-2  -6.013322249054909E-2  -2.666137367486954E-2  -3.847848773002625E-1   9.069474935531616E-1  
 5.718000000000000E7    -3.873767554759979E-1   9.101115465164185E-1  -5.970051884651184E-2  -2.634586766362190E-2  -5.965999141335487E-2  -2.636253647506237E-2  -3.838486373424530E-1   9.074702858924866E-1  
 5.720000000000000E7    -3.866373300552368E-1   9.103639721870422E-1  -5.919086560606957E-2  -2.610484883189201E-2  -5.914377421140671E-2  -2.611833065748215E-2  -3.833664953708649E-1   9.078814387321472E-1  
 5.722000000000000E7    -3.853772580623627E-1   9.108381271362305E-1  -5.867743864655495E-2  -2.578916214406490E-2  -5.867063254117966E-2  -2.580897696316242E-2  -3.823074400424957E-1   9.085835814476013E-1  
 5.724000000000000E7    -3.848908543586731E-1   9.109078645706177E-1  -5.816761031746864E-2  -2.555493265390396E-2  -5.815685912966728E-2  -2.553878724575043E-2  -3.813268244266510E-1   9.088637232780457E-1  
 5.726000000000000E7    -3.838791549205780E-1   9.116638898849487E-1  -5.768100917339325E-2  -2.525274083018303E-2  -5.765197426080704E-2  -2.525621280074120E-2  -3.802723586559296E-1   9.095552563667297E-1  
 5.728000000000000E7    -3.827643692493439E-1   9.120222330093384E-1  -5.719047784805298E-2  -2.497334592044354E-2  -5.709428712725639E-2  -2.497953921556473E-2  -3.795799016952515E-1   9.097500443458557E-1  
 5.730000000000000E7    -3.818664848804474E-1   9.126635193824768E-1  -5.671760067343712E-2  -2.468302845954895E-2  -5.663229152560234E-2  -2.468148618936539E-2  -3.786546885967255E-1   9.101202487945557E-1  
 5.732000000000000E7    -3.806623220443726E-1   9.128496646881104E-1  -5.622170865535736E-2  -2.439326047897339E-2  -5.611903220415115E-2  -2.435501292347908E-2  -3.776417672634125E-1   9.108296632766724E-1  
 5.734000000000000E7    -3.797669708728790E-1   9.134021401405335E-1  -5.570898577570915E-2  -2.411775290966034E-2  -5.566657707095146E-2  -2.411223202943802E-2  -3.765676617622376E-1   9.110654592514038E-1  
 5.736000000000000E7    -3.792907893657684E-1   9.135747551918030E-1  -5.518970638513565E-2  -2.384003065526485E-2  -5.513615161180496E-2  -2.386620268225670E-2  -3.759151995182037E-1   9.116166234016419E-1  
 5.738000000000000E7    -3.781182467937470E-1   9.141862988471985E-1  -5.466479808092117E-2  -2.355896867811680E-2  -5.462601035833359E-2  -2.357269823551178E-2  -3.747048079967499E-1   9.117582440376282E-1  
 5.740000000000000E7    -3.776350021362305E-1   9.143289327621460E-1  -5.414598807692528E-2  -2.331163547933102E-2  -5.413832515478134E-2  -2.325085178017616E-2  -3.737103343009949E-1   9.122440814971924E-1  
 5.742000000000000E7    -3.764046132564545E-1   9.152024984359741E-1  -5.366375669836998E-2  -2.302546612918377E-2  -5.359954759478569E-2  -2.301225811243057E-2  -3.729840815067291E-1   9.125149250030518E-1  
 5.744000000000000E7    -3.753449916839600E-1   9.151262044906616E-1  -5.311765521764755E-2  -2.276347205042839E-2  -5.313856899738312E-2  -2.272520959377289E-2  -3.719313740730286E-1   9.131063818931580E-1  
 5.746000000000000E7    -3.743628859519959E-1   9.157631993293762E-1  -5.262449011206627E-2  -2.250099554657936E-2  -5.262461304664612E-2  -2.246719039976597E-2  -3.711853921413422E-1   9.132771492004395E-1  
 5.748000000000000E7    -3.736490309238434E-1   9.162840247154236E-1  -5.220797285437584E-2  -2.217509970068932E-2  -5.218416079878807E-2  -2.219761908054352E-2  -3.699472844600678E-1   9.143232107162476E-1  
 5.750000000000000E7    -3.726409673690796E-1   9.163742661476135E-1  -5.161373317241669E-2  -2.196578867733479E-2  -5.157937854528427E-2  -2.194038033485413E-2  -3.692911565303803E-1   9.144712686538696E-1  
 5.752000000000000E7    -3.717776536941528E-1   9.168847799301148E-1  -5.117045342922211E-2  -2.167689055204392E-2  -5.111372843384743E-2  -2.165254205465317E-2  -3.682058751583099E-1   9.149837493896484E-1  
 5.754000000000000E7    -3.708580136299133E-1   9.174112081527710E-1  -5.063720047473908E-2  -2.137530595064163E-2  -5.058243125677109E-2  -2.141867019236088E-2  -3.674123287200928E-1   9.148160815238953E-1  
 5.756000000000000E7    -3.697430789470673E-1   9.182476401329041E-1  -5.016468465328217E-2  -2.111844718456268E-2  -5.012542381882668E-2  -2.109620906412602E-2  -3.665599524974823E-1   9.155914783477783E-1  
 5.758000000000000E7    -3.691878616809845E-1   9.183900356292725E-1  -4.966584593057632E-2  -2.090473286807537E-2  -4.958306252956390E-2  -2.085804566740990E-2  -3.658739924430847E-1   9.161534309387207E-1  
 5.760000000000000E7    -3.681793510913849E-1   9.190068244934082E-1  -4.916494712233543E-2  -2.061930857598782E-2  -4.911226034164429E-2  -2.060228213667870E-2  -3.648889064788818E-1   9.162917733192444E-1  
 5.762000000000000E7    -3.674483597278595E-1   9.191351532936096E-1  -4.864717274904251E-2  -2.038903534412384E-2  -4.857460409402847E-2  -2.038510516285896E-2  -3.640874326229096E-1   9.167189002037048E-1  
 5.764000000000000E7    -3.666287064552307E-1   9.195170998573303E-1  -4.813520982861519E-2  -2.011698298156261E-2  -4.810316488146782E-2  -2.009892277419567E-2  -3.628862798213959E-1   9.170029759407044E-1  
 5.766000000000000E7    -3.655683100223541E-1   9.200693964958191E-1  -4.765970632433891E-2  -1.984100230038166E-2  -4.759808629751205E-2  -1.981190964579582E-2  -3.618550300598145E-1   9.176624417304993E-1  
 5.768000000000000E7    -3.643865883350372E-1   9.204658865928650E-1  -4.714119061827660E-2  -1.959811896085739E-2  -4.705158248543739E-2  -1.955037936568260E-2  -3.612712323665619E-1   9.178181886672974E-1  
 5.770000000000000E7    -3.634605109691620E-1   9.209936857223511E-1  -4.665062576532364E-2  -1.928366534411907E-2  -4.657923430204392E-2  -1.928739622235298E-2  -3.600903451442719E-1   9.185176491737366E-1  
 5.772000000000000E7    -3.624958097934723E-1   9.209526777267456E-1  -4.609939083456993E-2  -1.910122483968735E-2  -4.606888070702553E-2  -1.902831345796585E-2  -3.594548106193543E-1   9.184744954109192E-1  
 5.774000000000000E7    -3.616485595703125E-1   9.216247797012329E-1  -4.564316943287849E-2  -1.884837448596954E-2  -4.558624327182770E-2  -1.876754686236382E-2  -3.582354485988617E-1   9.192734956741333E-1  
 5.776000000000000E7    -3.606386482715607E-1   9.221290349960327E-1  -4.512624815106392E-2  -1.854232698678970E-2  -4.508213326334953E-2  -1.853638142347336E-2  -3.573859632015228E-1   9.194611907005310E-1  
 5.778000000000000E7    -3.601577281951904E-1   9.223065376281738E-1  -4.460835829377174E-2  -1.830464974045754E-2  -4.453288018703461E-2  -1.827843114733696E-2  -3.562792241573334E-1   9.197535514831543E-1  
 5.780000000000000E7    -3.591394722461700E-1   9.226294159889221E-1  -4.412493854761124E-2  -1.806213334202766E-2  -4.405407607555389E-2  -1.807057671248913E-2  -3.555735349655151E-1   9.201657176017761E-1  
 5.782000000000000E7    -3.583806455135346E-1   9.232255816459656E-1  -4.360285028815270E-2  -1.782537810504437E-2  -4.359475150704384E-2  -1.781943812966347E-2  -3.544290363788605E-1   9.209192395210266E-1  
 5.784000000000000E7    -3.572653830051422E-1   9.234030246734619E-1  -4.309056326746941E-2  -1.757917739450932E-2  -4.304125159978867E-2  -1.756858825683594E-2  -3.537873029708862E-1   9.210599660873413E-1  
 5.786000000000000E7    -3.561938405036926E-1   9.242627024650574E-1  -4.262029752135277E-2  -1.733378320932388E-2  -4.257236793637276E-2  -1.732276193797588E-2  -3.535597920417786E-1   9.219176769256592E-1  
 5.788000000000000E7    -3.554674983024597E-1   9.242021441459656E-1  -4.208327457308769E-2  -1.706516370177269E-2  -4.206727445125580E-2  -1.706956326961517E-2  -3.516583144664764E-1   9.220695495605469E-1  
 5.790000000000000E7    -3.544005453586578E-1   9.244999885559082E-1  -4.157117754220963E-2  -1.680987700819969E-2  -4.153359681367874E-2  -1.682021655142307E-2  -3.510242700576782E-1   9.225001335144043E-1  
 5.792000000000000E7    -3.534450232982636E-1   9.251999258995056E-1  -4.108667746186256E-2  -1.658029109239578E-2  -4.103329032659531E-2  -1.654871180653572E-2  -3.502041101455689E-1   9.226886034011841E-1  
 5.794000000000000E7    -3.524697124958038E-1   9.254012703895569E-1  -4.056806862354279E-2  -1.633661240339279E-2  -4.054064676165581E-2  -1.635914295911789E-2  -3.490223586559296E-1   9.231270551681519E-1  
 5.796000000000000E7    -3.518225252628326E-1   9.257366061210632E-1  -4.004139080643654E-2  -1.608211547136307E-2  -4.001024365425110E-2  -1.606232486665249E-2  -3.481817543506622E-1   9.234879612922669E-1  
 5.798000000000000E7    -3.506379723548889E-1   9.263222813606262E-1  -3.958370536565781E-2  -1.583647727966309E-2  -3.952465951442719E-2  -1.583039946854115E-2  -3.471662104129791E-1   9.238650798797607E-1  
 5.800000000000000E7    -3.495714962482452E-1   9.264719486236572E-1  -3.903774544596672E-2  -1.560729276388884E-2  -3.901930525898933E-2  -1.562197320163250E-2  -3.463258147239685E-1   9.242179393768311E-1  
 5.802000000000000E7    -3.488520085811615E-1   9.273838400840759E-1  -3.854995593428612E-2  -1.537705492228270E-2  -3.852914646267891E-2  -1.539232395589352E-2  -3.453049361705780E-1   9.244491457939148E-1  
 5.804000000000000E7    -3.478294909000397E-1   9.275364875793457E-1  -3.802087903022766E-2  -1.509939786046743E-2  -3.803799673914909E-2  -1.512661948800087E-2  -3.442681133747101E-1   9.250594973564148E-1  
 5.806000000000000E7    -3.468244075775147E-1   9.276198148727417E-1  -3.752601146697998E-2  -1.490267459303141E-2  -3.751987591385841E-2  -1.489526219666004E-2  -3.438789248466492E-1   9.252143502235413E-1  
 5.808000000000000E7    -3.459631800651550E-1   9.282807111740112E-1  -3.704969957470894E-2  -1.467323116958141E-2  -3.701429069042206E-2  -1.468687597662211E-2  -3.425853252410889E-1   9.256695508956909E-1  
 5.810000000000000E7    -3.449377417564392E-1   9.286118149757385E-1  -3.653746843338013E-2  -1.442193426191807E-2  -3.648662939667702E-2  -1.443705521523953E-2  -3.416722416877747E-1   9.258805513381958E-1  
 5.812000000000000E7    -3.440140187740326E-1   9.285758733749390E-1  -3.601627796888351E-2  -1.422986760735512E-2  -3.598475083708763E-2  -1.421787776052952E-2  -3.412508666515350E-1   9.263824224472046E-1  
 5.814000000000000E7    -3.429470360279083E-1   9.293969869613648E-1  -3.551586717367172E-2  -1.396754290908575E-2  -3.548054397106171E-2  -1.396421343088150E-2  -3.397742807865143E-1   9.266537427902222E-1  
 5.816000000000000E7    -3.422733843326569E-1   9.297297596931458E-1  -3.502755239605904E-2  -1.376113295555115E-2  -3.497542440891266E-2  -1.373945735394955E-2  -3.390464186668396E-1   9.273391962051392E-1  
 5.818000000000000E7    -3.416051268577576E-1   9.300948977470398E-1  -3.451718389987946E-2  -1.352520287036896E-2  -3.445444256067276E-2  -1.350923255085945E-2  -3.383081853389740E-1   9.277175068855286E-1  
 5.820000000000000E7    -3.406308889389038E-1   9.305133819580078E-1  -3.401884064078331E-2  -1.330572366714478E-2  -3.400326520204544E-2  -1.329520158469677E-2  -3.370448648929596E-1   9.281653165817261E-1  
 5.822000000000000E7    -3.397333920001984E-1   9.305540919303894E-1  -3.348911181092262E-2  -1.308779325336218E-2  -3.346773609519005E-2  -1.306014228612185E-2  -3.363277316093445E-1   9.282898306846619E-1  
 5.824000000000000E7    -3.388441801071167E-1   9.309776425361633E-1  -3.297659754753113E-2  -1.285940967500210E-2  -3.293996304273605E-2  -1.280634850263596E-2  -3.351579010486603E-1   9.285755753517151E-1  
 5.826000000000000E7    -3.376534879207611E-1   9.318711757659912E-1  -3.249106928706169E-2  -1.263553835451603E-2  -3.245591744780541E-2  -1.264169812202454E-2  -3.346862792968750E-1   9.286519289016724E-1  
 5.828000000000000E7    -3.366141915321350E-1   9.318223595619202E-1  -3.201144561171532E-2  -1.237766630947590E-2  -3.197362273931503E-2  -1.238844171166420E-2  -3.333684802055359E-1   9.298006296157837E-1  
 5.830000000000000E7    -3.356825411319733E-1   9.324482679367065E-1  -3.149045258760452E-2  -1.215634495019913E-2  -3.144674003124237E-2  -1.215421408414841E-2  -3.326312601566315E-1   9.296776652336121E-1  
 5.832000000000000E7    -3.349721133708954E-1   9.328349232673645E-1  -3.098034672439098E-2  -1.196266151964665E-2  -3.094252385199070E-2  -1.194264832884073E-2  -3.316197693347931E-1   9.298317432403565E-1  
 5.834000000000000E7    -3.339463472366333E-1   9.329144358634949E-1  -3.044708445668221E-2  -1.174310036003590E-2  -3.044850006699562E-2  -1.172444690018892E-2  -3.307409286499023E-1   9.302058815956116E-1  
 5.836000000000000E7    -3.332003057003021E-1   9.331846833229065E-1  -2.992874756455421E-2  -1.152007747441530E-2  -2.992375940084457E-2  -1.150429435074329E-2  -3.294256031513214E-1   9.306963086128235E-1  
 5.838000000000000E7    -3.321955204010010E-1   9.335976839065552E-1  -2.947029098868370E-2  -1.128494367003441E-2  -2.942922897636890E-2  -1.130709610879421E-2  -3.286680281162262E-1   9.311638474464417E-1  
 5.840000000000000E7    -3.314276337623596E-1   9.340838789939880E-1  -2.894825302064419E-2  -1.109766121953726E-2  -2.892327681183815E-2  -1.107069663703442E-2  -3.279668390750885E-1   9.314662814140320E-1  
 5.842000000000000E7    -3.304511010646820E-1   9.342331290245056E-1  -2.844686433672905E-2  -1.088093128055334E-2  -2.838332392275333E-2  -1.088558044284582E-2  -3.266952633857727E-1   9.319541454315186E-1  
 5.844000000000000E7    -3.293351829051971E-1   9.346167445182800E-1  -2.794089913368225E-2  -1.065748091787100E-2  -2.791588380932808E-2  -1.066696364432573E-2  -3.262282013893127E-1   9.320420026779175E-1  
 5.846000000000000E7    -3.284918963909149E-1   9.350950121879578E-1  -2.743672952055931E-2  -1.045821793377399E-2  -2.742193080484867E-2  -1.041608303785324E-2  -3.250262141227722E-1   9.326588511466980E-1  
 5.848000000000000E7    -3.274210393428803E-1   9.356732368469238E-1  -2.695438265800476E-2  -1.024241652339697E-2  -2.692316845059395E-2  -1.022989489138126E-2  -3.242256045341492E-1   9.332222342491150E-1  
 5.850000000000000E7    -3.265646994113922E-1   9.358201622962952E-1  -2.641676738858223E-2  -1.004329230636358E-2  -2.639506384730339E-2  -1.001321524381638E-2  -3.230020403862000E-1   9.332259297370911E-1  
 5.852000000000000E7    -3.258121609687805E-1   9.358704686164856E-1  -2.590648829936981E-2  -9.809562936425209E-3  -2.587538026273251E-2  -9.840736165642738E-3  -3.221827149391174E-1   9.336109161376953E-1  
 5.854000000000000E7    -3.247187733650208E-1   9.363514780998230E-1  -2.540367096662521E-2  -9.625469334423542E-3  -2.536986395716667E-2  -9.620784781873226E-3  -3.214595317840576E-1   9.335790872573853E-1  
 5.856000000000000E7    -3.240678906440735E-1   9.368748664855957E-1  -2.493088692426682E-2  -9.424045681953430E-3  -2.487146481871605E-2  -9.409102611243725E-3  -3.206179440021515E-1   9.341120123863220E-1  
 5.858000000000000E7    -3.230622410774231E-1   9.371228218078613E-1  -2.441756054759026E-2  -9.201105684041977E-3  -2.439336478710175E-2  -9.213710203766823E-3  -3.191661834716797E-1   9.350005984306335E-1  
 5.860000000000000E7    -3.218940794467926E-1   9.377470612525940E-1  -2.391951344907284E-2  -8.979622274637222E-3  -2.389943227171898E-2  -9.006656706333160E-3  -3.183410167694092E-1   9.348077774047852E-1  
 5.862000000000000E7    -3.214756548404694E-1   9.379928708076477E-1  -2.340275235474110E-2  -8.815417066216469E-3  -2.336706966161728E-2  -8.803947828710079E-3  -3.173946142196655E-1   9.351953268051148E-1  
 5.864000000000000E7    -3.202539384365082E-1   9.382307529449463E-1  -2.287955023348332E-2  -8.598780259490013E-3  -2.286146581172943E-2  -8.597438223659992E-3  -3.167450726032257E-1   9.355900287628174E-1  
 5.866000000000000E7    -3.192524313926697E-1   9.385222196578980E-1  -2.237550914287567E-2  -8.399854414165020E-3  -2.235271409153938E-2  -8.380493149161339E-3  -3.159111142158508E-1   9.358105659484863E-1  
 5.868000000000000E7    -3.182633817195892E-1   9.391274452209473E-1  -2.188619226217270E-2  -8.194291032850742E-3  -2.186641469597817E-2  -8.225295692682266E-3  -3.145553469657898E-1   9.364834427833557E-1  
 5.870000000000000E7    -3.173549473285675E-1   9.392284750938416E-1  -2.137396670877934E-2  -8.011560887098312E-3  -2.134888619184494E-2  -8.046716451644898E-3  -3.138263821601868E-1   9.369534254074097E-1  
 5.872000000000000E7    -3.166239857673645E-1   9.395013451576233E-1  -2.085934393107891E-2  -7.807518355548382E-3  -2.084835991263390E-2  -7.800047285854816E-3  -3.129191398620606E-1   9.370060563087463E-1  
 5.874000000000000E7    -3.156270682811737E-1   9.396334290504456E-1  -2.037429623305798E-2  -7.608197163790464E-3  -2.031579799950123E-2  -7.637485861778259E-3  -3.123232722282410E-1   9.375057220458984E-1  
 5.876000000000000E7    -3.147567212581635E-1   9.401745200157166E-1  -1.986777968704701E-2  -7.417594082653523E-3  -1.984608359634876E-2  -7.434160448610783E-3  -3.111520409584045E-1   9.378084540367127E-1  
 5.878000000000000E7    -3.137430548667908E-1   9.406355023384094E-1  -1.934865675866604E-2  -7.228489965200424E-3  -1.934508606791496E-2  -7.222328335046768E-3  -3.098590970039368E-1   9.378517866134644E-1  
 5.880000000000000E7    -3.126387596130371E-1   9.407413601875305E-1  -1.883647218346596E-2  -7.029762491583824E-3  -1.881111972033978E-2  -7.058699615299702E-3  -3.095987737178803E-1   9.383493065834045E-1  
 5.882000000000000E7    -3.124234676361084E-1   9.409964084625244E-1  -1.833638735115528E-2  -6.838084198534489E-3  -1.830788329243660E-2  -6.868332158774138E-3  -3.081915676593781E-1   9.386190176010132E-1  
 5.884000000000000E7    -3.109757304191589E-1   9.417983889579773E-1  -1.783194392919540E-2  -6.651841104030609E-3  -1.781126670539379E-2  -6.651824805885553E-3  -3.071540594100952E-1   9.390752911567688E-1  
 5.886000000000000E7    -3.098480105400085E-1   9.420154094696045E-1  -1.732318289577961E-2  -6.477039773017168E-3  -1.729844696819782E-2  -6.486746482551098E-3  -3.067333698272705E-1   9.393040537834168E-1  
 5.888000000000000E7    -3.091047108173370E-1   9.420430660247803E-1  -1.681797578930855E-2  -6.280738860368729E-3  -1.679723151028156E-2  -6.297394167631865E-3  -3.055814504623413E-1   9.396079182624817E-1  
 5.890000000000000E7    -3.082260489463806E-1   9.423493146896362E-1  -1.630113646388054E-2  -6.116205826401711E-3  -1.628892123699188E-2  -6.098700221627951E-3  -3.045243024826050E-1   9.402346014976502E-1  
 5.892000000000000E7    -3.074224889278412E-1   9.426605701446533E-1  -1.578338630497456E-2  -5.910825915634632E-3  -1.577945984899998E-2  -5.913144443184137E-3  -3.033329248428345E-1   9.401714801788330E-1  
 5.894000000000000E7    -3.061873614788055E-1   9.432408809661865E-1  -1.529650762677193E-2  -5.722503177821636E-3  -1.528619881719351E-2  -5.724849645048380E-3  -3.027985990047455E-1   9.408411979675293E-1  
 5.896000000000000E7    -3.051308095455170E-1   9.434665441513062E-1  -1.479128096252680E-2  -5.547948647290468E-3  -1.478776708245277E-2  -5.546011030673981E-3  -3.019105792045593E-1   9.407003521919251E-1  
 5.898000000000000E7    -3.044979870319367E-1   9.439822435379028E-1  -1.428309921175242E-2  -5.369428545236588E-3  -1.426270976662636E-2  -5.360239185392857E-3  -3.008703291416168E-1   9.411427378654480E-1  
 5.900000000000000E7    -3.032965362071991E-1   9.443591237068176E-1  -1.377717033028603E-2  -5.181129090487957E-3  -1.376276183873415E-2  -5.183110013604164E-3  -3.003225922584534E-1   9.417641162872315E-1  
 5.902000000000000E7    -3.024729192256928E-1   9.442907571792603E-1  -1.327751949429512E-2  -4.997670650482178E-3  -1.327413786202669E-2  -5.005345214158297E-3  -2.988974750041962E-1   9.422731399536133E-1  
 5.904000000000000E7    -3.017807304859161E-1   9.445266127586365E-1  -1.277119014412165E-2  -4.829138517379761E-3  -1.275737769901753E-2  -4.830845631659031E-3  -2.982452213764191E-1   9.423817396163940E-1  
 5.906000000000000E7    -3.007358908653259E-1   9.453386068344116E-1  -1.227420475333929E-2  -4.643172025680542E-3  -1.225198805332184E-2  -4.643707536160946E-3  -2.969640195369721E-1   9.425566196441650E-1  
 5.908000000000000E7    -2.998155057430267E-1   9.453582763671875E-1  -1.175709627568722E-2  -4.484046716243029E-3  -1.174992602318525E-2  -4.477385897189379E-3  -2.965916693210602E-1   9.429364204406738E-1  
 5.910000000000000E7    -2.988004088401794E-1   9.457684755325317E-1  -1.125112455338240E-2  -4.298036452382803E-3  -1.124331075698137E-2  -4.291546531021595E-3  -2.951447367668152E-1   9.427933096885681E-1  
 5.912000000000000E7    -2.980633378028870E-1   9.457176923751831E-1  -1.075435709208250E-2  -4.133285023272038E-3  -1.073897164314985E-2  -4.128249827772379E-3  -2.945865988731384E-1   9.436290264129639E-1  
 5.914000000000000E7    -2.969539761543274E-1   9.465550184249878E-1  -1.024937443435192E-2  -3.956145606935024E-3  -1.023508328944445E-2  -3.951023332774639E-3  -2.934904992580414E-1   9.438281655311585E-1  
 5.916000000000000E7    -2.961782515048981E-1   9.462913274765015E-1  -9.734014980494976E-3  -3.783087246119976E-3  -9.739794768393040E-3  -3.781456267461181E-3  -2.927733659744263E-1   9.441435337066650E-1  
 5.918000000000000E7    -2.948933839797974E-1   9.469724297523499E-1  -9.244483895599842E-3  -3.601585980504751E-3  -9.231455624103546E-3  -3.603169927373529E-3  -2.917602360248566E-1   9.446726441383362E-1  
 5.920000000000000E7    -2.939124405384064E-1   9.469345211982727E-1  -8.729363791644573E-3  -3.433999605476856E-3  -8.721382357180119E-3  -3.437925595790148E-3  -2.907583415508270E-1   9.445067644119263E-1  
 5.922000000000000E7    -2.931983768939972E-1   9.474472999572754E-1  -8.230809122323990E-3  -3.265595529228449E-3  -8.227548561990261E-3  -3.271701047196984E-3  -2.899209558963776E-1   9.451049566268921E-1  
 5.924000000000000E7    -2.921433448791504E-1   9.477543234825134E-1  -7.714109495282173E-3  -3.103793365880847E-3  -7.711241953074932E-3  -3.101162379607558E-3  -2.891889214515686E-1   9.449986219406128E-1  
 5.926000000000000E7    -2.917881309986115E-1   9.480155110359192E-1  -7.217497564852238E-3  -2.941899001598358E-3  -7.207259535789490E-3  -2.937102224677801E-3  -2.881080210208893E-1   9.456376433372498E-1  
 5.928000000000000E7    -2.903241217136383E-1   9.480249285697937E-1  -6.709786131978035E-3  -2.758761867880821E-3  -6.707377731800079E-3  -2.768919337540865E-3  -2.868454158306122E-1   9.458658099174500E-1  
 5.930000000000000E7    -2.895570397377014E-1   9.487425088882446E-1  -6.212848704308271E-3  -2.607979346066713E-3  -6.205393932759762E-3  -2.602652646601200E-3  -2.861251831054688E-1   9.463619589805603E-1  
 5.932000000000000E7    -2.886212468147278E-1   9.487636089324951E-1  -5.703329574316740E-3  -2.439580159261823E-3  -5.696706939488649E-3  -2.435065340250731E-3  -2.853023707866669E-1   9.465085268020630E-1  
 5.934000000000000E7    -2.875455021858215E-1   9.490755200386047E-1  -5.198220256716013E-3  -2.273053862154484E-3  -5.191002506762743E-3  -2.275769831612706E-3  -2.839286625385284E-1   9.466456770896912E-1  
 5.936000000000000E7    -2.866548597812653E-1   9.493291974067688E-1  -4.693491384387016E-3  -2.117627300322056E-3  -4.682130180299282E-3  -2.119923476129770E-3  -2.836477160453796E-1   9.467266798019409E-1  
 5.938000000000000E7    -2.857460081577301E-1   9.497076869010925E-1  -4.185486584901810E-3  -1.957446103915572E-3  -4.183395300060511E-3  -1.954847481101751E-3  -2.825257182121277E-1   9.470878243446350E-1  
 5.940000000000000E7    -2.849453985691071E-1   9.499003291130066E-1  -3.690628102049232E-3  -1.797562930732966E-3  -3.683305811136961E-3  -1.804529107175767E-3  -2.815525829792023E-1   9.476091861724854E-1  
 5.942000000000000E7    -2.840923368930817E-1   9.500667452812195E-1  -3.181152744218707E-3  -1.642958726733923E-3  -3.177069127559662E-3  -1.643471652641892E-3  -2.805627584457398E-1   9.479317665100098E-1  
 5.944000000000000E7    -2.832410037517548E-1   9.508815407752991E-1  -2.676433185115457E-3  -1.487284316681325E-3  -2.674888120964170E-3  -1.488864189013839E-3  -2.796309292316437E-1   9.481117725372315E-1  
 5.946000000000000E7    -2.822049260139465E-1   9.508669376373291E-1  -2.171716885641217E-3  -1.333472551777959E-3  -2.167178085073829E-3  -1.331176143139601E-3  -2.785604298114777E-1   9.484090805053711E-1  
 5.948000000000000E7    -2.815900146961212E-1   9.511627554893494E-1  -1.671819598414004E-3  -1.177882659249008E-3  -1.667796052061021E-3  -1.175965066067874E-3  -2.778251767158508E-1   9.489662647247315E-1  
 5.950000000000000E7    -2.802554368972778E-1   9.514357447624207E-1  -1.166554284282029E-3  -1.026436453685165E-3  -1.163622131571174E-3  -1.019724877551198E-3  -2.769522368907929E-1   9.489635229110718E-1  
 5.952000000000000E7    -2.797363102436066E-1   9.518692493438721E-1  -6.618619663640857E-4  -8.747365209273994E-4  -6.573186838068068E-4  -8.688081288710237E-4  -2.758818566799164E-1   9.489214420318604E-1  
 5.954000000000000E7    -2.785111069679260E-1   9.520794749259949E-1  -1.580712851136923E-4  -7.212432101368904E-4  -1.557556970510632E-4  -7.188750314526260E-4  -2.750866711139679E-1   9.493170976638794E-1  
 5.956000000000000E7    -2.774449288845062E-1   9.521834850311279E-1   3.495492564979941E-4  -5.727693787775934E-4   3.427377087064087E-4  -5.740871420130134E-4  -2.740140855312347E-1   9.498502612113953E-1  
 5.958000000000000E7    -2.765366733074188E-1   9.526339769363403E-1   8.564242161810398E-4  -4.219093243591487E-4   8.475085487589240E-4  -4.250771598890424E-4  -2.729354202747345E-1   9.502038955688477E-1  
 5.960000000000000E7    -2.754749655723572E-1   9.529517889022827E-1   1.357947709038854E-3  -2.731517306528986E-4   1.352461520582438E-3  -2.745468518696725E-4  -2.719571888446808E-1   9.500414729118347E-1  
 5.962000000000000E7    -2.744652628898621E-1   9.531717896461487E-1   1.858234521932900E-3  -1.284471654798836E-4   1.853478723205626E-3  -1.257465046364814E-4  -2.711807191371918E-1   9.505587220191956E-1  
 5.964000000000000E7    -2.737698554992676E-1   9.532493948936462E-1   2.361420309171081E-3   1.898972550407052E-5   2.357452642172575E-3   2.039931314357091E-5  -2.703512609004974E-1   9.510089159011841E-1  
 5.966000000000000E7    -2.728121876716614E-1   9.536671042442322E-1   2.864685142412782E-3   1.624109572730959E-4   2.863424830138683E-3   1.607536687515676E-4  -2.695067822933197E-1   9.510945081710815E-1  
 5.968000000000000E7    -2.716537415981293E-1   9.539155364036560E-1   3.375337226316333E-3   3.042255993932486E-4   3.368583275005221E-3   3.093849809374660E-4  -2.683214545249939E-1   9.515199661254883E-1  
 5.970000000000000E7    -2.707698345184326E-1   9.541489481925964E-1   3.873663954436779E-3   4.449836560525000E-4   3.865692298859358E-3   4.457461182028055E-4  -2.675384581089020E-1   9.516461491584778E-1  
 5.972000000000000E7    -2.697761058807373E-1   9.545308351516724E-1   4.380019847303629E-3   5.857555079273880E-4   4.371139686554670E-3   5.890437169000506E-4  -2.666198313236237E-1   9.519553780555725E-1  
 5.974000000000000E7    -2.689142227172852E-1   9.545847177505493E-1   4.881069064140320E-3   7.295478135347366E-4   4.868313204497099E-3   7.333334651775658E-4  -2.663209438323975E-1   9.524446129798889E-1  
 5.976000000000000E7    -2.679561674594879E-1   9.552260637283325E-1   5.382616538554430E-3   8.602674352005124E-4   5.374919623136520E-3   8.678315789438784E-4  -2.647086679935455E-1   9.526442885398865E-1  
 5.978000000000000E7    -2.671315371990204E-1   9.554987549781799E-1   5.883491598069668E-3   1.005252124741674E-3   5.877641960978508E-3   1.007095561362803E-3  -2.638690769672394E-1   9.525817036628723E-1  
 5.980000000000000E7    -2.664912045001984E-1   9.555036425590515E-1   6.394148804247379E-3   1.147027127444744E-3   6.378949154168367E-3   1.144403242506087E-3  -2.629556059837341E-1   9.533650279045105E-1  
 5.982000000000000E7    -2.654661834239960E-1   9.557613730430603E-1   6.887238938361406E-3   1.275475835427642E-3   6.888356525450945E-3   1.277931383810937E-3  -2.620767951011658E-1   9.532095789909363E-1  
 5.984000000000000E7    -2.646680474281311E-1   9.562736749649048E-1   7.394073996692896E-3   1.411541714332998E-3   7.386578246951103E-3   1.415401929989457E-3  -2.607475221157074E-1   9.535529613494873E-1  
 5.986000000000000E7    -2.641958296298981E-1   9.560773968696594E-1   7.895779795944691E-3   1.550307031720877E-3   7.885153405368328E-3   1.555520342662931E-3  -2.599734961986542E-1   9.538825750350952E-1  
 5.988000000000000E7    -2.629548311233521E-1   9.566402435302734E-1   8.398355916142464E-3   1.679704757407308E-3   8.389070630073547E-3   1.685606432147324E-3  -2.591152191162109E-1   9.544231891632080E-1  
 5.990000000000000E7    -2.617646455764771E-1   9.568772912025452E-1   8.900043554604054E-3   1.809400739148259E-3   8.897862397134304E-3   1.813395763747394E-3  -2.575285732746124E-1   9.544563889503479E-1  
 5.992000000000000E7    -2.606835365295410E-1   9.569821357727051E-1   9.403725154697895E-3   1.934072934091091E-3   9.399765171110630E-3   1.938210800290108E-3  -2.568539083003998E-1   9.548316597938538E-1  
 5.994000000000000E7    -2.597441375255585E-1   9.575492143630981E-1   9.909466840326786E-3   2.071808557957411E-3   9.901607409119606E-3   2.076226752251387E-3  -2.564396858215332E-1   9.548448920249939E-1  
 5.996000000000000E7    -2.588943541049957E-1   9.573882222175598E-1   1.040977612137795E-2   2.196667715907097E-3   1.039475575089455E-2   2.197218360379338E-3  -2.553430497646332E-1   9.551744461059570E-1  
 5.998000000000000E7    -2.582312822341919E-1   9.580497145652771E-1   1.090503018349409E-2   2.336326753720641E-3   1.089538354426622E-2   2.336774487048388E-3  -2.548265159130096E-1   9.549265503883362E-1  
 6.000000000000000E7    -2.568218111991882E-1   9.583182334899902E-1   1.141957100480795E-2   2.454787958413363E-3   1.140972506254911E-2   2.445743884891272E-3  -2.532705962657929E-1   9.557142257690430E-1  
 6.002000000000000E7    -2.561628818511963E-1   9.583734273910523E-1   1.191728189587593E-2   2.577235689386725E-3   1.190171018242836E-2   2.571608871221542E-3  -2.525245547294617E-1   9.558680057525635E-1  
 6.004000000000000E7    -2.551424205303192E-1   9.584382772445679E-1   1.241513527929783E-2   2.716568997129798E-3   1.239968184381723E-2   2.711959648877382E-3  -2.516573965549469E-1   9.563008546829224E-1  
 6.006000000000000E7    -2.543118000030518E-1   9.588924050331116E-1   1.292292401194572E-2   2.828842727467418E-3   1.290899701416493E-2   2.820194698870182E-3  -2.506292760372162E-1   9.564126133918762E-1  
 6.008000000000000E7    -2.529951930046082E-1   9.593244194984436E-1   1.342579349875450E-2   2.945463173091412E-3   1.341243553906679E-2   2.941549057140946E-3  -2.496036440134049E-1   9.566684961318970E-1  
 6.010000000000000E7    -2.525869607925415E-1   9.597659111022949E-1   1.393045019358397E-2   3.064516000449657E-3   1.391675136983395E-2   3.083422314375639E-3  -2.486515790224075E-1   9.568288326263428E-1  
 6.012000000000000E7    -2.514714598655701E-1   9.595361948013306E-1   1.442356873303652E-2   3.192105563357472E-3   1.440157461911440E-2   3.188600763678551E-3  -2.478399425745010E-1   9.569488763809204E-1  
 6.014000000000000E7    -2.504088282585144E-1   9.599913358688355E-1   1.493483409285545E-2   3.300755284726620E-3   1.490753144025803E-2   3.292892826721072E-3  -2.469250410795212E-1   9.574537277221680E-1  
 6.016000000000000E7    -2.495352029800415E-1   9.601145982742310E-1   1.543003786355257E-2   3.425586037337780E-3   1.540907938033342E-2   3.424284048378468E-3  -2.462736070156097E-1   9.575574398040772E-1  
 6.018000000000000E7    -2.486277818679810E-1   9.604989290237427E-1   1.593932509422302E-2   3.525653621181846E-3   1.591180078685284E-2   3.541944548487663E-3  -2.450536787509918E-1   9.577838778495789E-1  
 6.020000000000000E7    -2.475844621658325E-1   9.605140089988709E-1   1.642493158578873E-2   3.644964890554547E-3   1.641033403575420E-2   3.655965439975262E-3  -2.440061122179031E-1   9.580953121185303E-1  
 6.022000000000000E7    -2.466581761837006E-1   9.608548879623413E-1   1.695076003670692E-2   3.755011595785618E-3   1.691393181681633E-2   3.779639955610037E-3  -2.432730942964554E-1   9.581569433212280E-1  
 6.024000000000000E7    -2.460038810968399E-1   9.612720608711243E-1   1.744606159627438E-2   3.872295841574669E-3   1.741393841803074E-2   3.878934308886528E-3  -2.421392649412155E-1   9.586161971092224E-1  
 6.026000000000000E7    -2.448690980672836E-1   9.614071846008301E-1   1.794254779815674E-2   3.999277483671904E-3   1.792731322348118E-2   4.013167694211006E-3  -2.417089939117432E-1   9.588019251823425E-1  
 6.028000000000000E7    -2.440412938594818E-1   9.616233706474304E-1   1.843962073326111E-2   4.108281806111336E-3   1.841916516423225E-2   4.116613883525133E-3  -2.404438108205795E-1   9.588941931724548E-1  
 6.030000000000000E7    -2.430232912302017E-1   9.619235396385193E-1   1.894226856529713E-2   4.221232142299414E-3   1.891946047544479E-2   4.223984200507402E-3  -2.396480590105057E-1   9.591437578201294E-1  
 6.032000000000000E7    -2.420548647642136E-1   9.618107676506043E-1   1.943868398666382E-2   4.325696732848883E-3   1.942151598632336E-2   4.340726882219315E-3  -2.387284338474274E-1   9.595071077346802E-1  
 6.034000000000000E7    -2.413390874862671E-1   9.623741507530212E-1   1.994769088923931E-2   4.417341202497482E-3   1.992768421769142E-2   4.448086023330689E-3  -2.375917881727219E-1   9.596618413925171E-1  
 6.036000000000000E7    -2.403773665428162E-1   9.622572064399719E-1   2.043210715055466E-2   4.539464134722948E-3   2.041382715106010E-2   4.531814251095057E-3  -2.370578795671463E-1   9.599503874778748E-1  
 6.038000000000000E7    -2.394304275512695E-1   9.629191160202026E-1   2.095433138310909E-2   4.650471266359091E-3   2.091079764068127E-2   4.657138604670763E-3  -2.360852807760239E-1   9.600498676300049E-1  
 6.040000000000000E7    -2.383368909358978E-1   9.627363681793213E-1   2.145333960652351E-2   4.742129705846310E-3   2.141664735972881E-2   4.748586565256119E-3  -2.349311709403992E-1   9.601711034774780E-1  
 6.042000000000000E7    -2.374145388603210E-1   9.633570909500122E-1   2.194702439010143E-2   4.849768243730068E-3   2.194127067923546E-2   4.833773244172335E-3  -2.339117527008057E-1   9.605265855789185E-1  
 6.044000000000000E7    -2.365709394216538E-1   9.631224870681763E-1   2.243694290518761E-2   4.946549423038960E-3   2.244037017226219E-2   4.953761585056782E-3  -2.330093681812286E-1   9.607856869697571E-1  
 6.046000000000000E7    -2.356302589178085E-1   9.635409712791443E-1   2.294758148491383E-2   5.063517019152641E-3   2.292187698185444E-2   5.050333682447672E-3  -2.323893755674362E-1   9.613389968872070E-1  
 6.048000000000000E7    -2.349053323268890E-1   9.637714624404907E-1   2.346220426261425E-2   5.156019236892462E-3   2.341959811747074E-2   5.156031809747219E-3  -2.311555296182632E-1   9.612575173377991E-1  
 6.050000000000000E7    -2.338890284299851E-1   9.639568924903870E-1   2.394772320985794E-2   5.254531279206276E-3   2.393878437578678E-2   5.253464449197054E-3  -2.301065474748612E-1   9.618660211563110E-1  
 6.052000000000000E7    -2.328923344612122E-1   9.646257758140564E-1   2.444319054484367E-2   5.353605374693871E-3   2.441761828958988E-2   5.343968980014324E-3  -2.292702943086624E-1   9.616967439651489E-1  
 6.054000000000000E7    -2.322491854429245E-1   9.644771218299866E-1   2.494952082633972E-2   5.458056926727295E-3   2.492604032158852E-2   5.447931587696075E-3  -2.284155339002609E-1   9.617791771888733E-1  
 6.056000000000000E7    -2.308354824781418E-1   9.644606709480286E-1   2.544781193137169E-2   5.527165718376637E-3   2.540137618780136E-2   5.508249159902334E-3  -2.270963191986084E-1   9.618979096412659E-1  
 6.058000000000000E7    -2.301878780126572E-1   9.648914337158203E-1   2.593934722244740E-2   5.644283257424831E-3   2.590964920818806E-2   5.632329732179642E-3  -2.264060974121094E-1   9.623971581459045E-1  
 6.060000000000000E7    -2.293088734149933E-1   9.649864435195923E-1   2.642021514475346E-2   5.732375197112560E-3   2.639326825737953E-2   5.729595199227333E-3  -2.256810814142227E-1   9.623827934265137E-1  
 6.062000000000000E7    -2.283743321895599E-1   9.650859236717224E-1   2.695991471409798E-2   5.855721421539784E-3   2.687295526266098E-2   5.818498320877552E-3  -2.248917371034622E-1   9.625783562660217E-1  
 6.064000000000000E7    -2.277091294527054E-1   9.654775857925415E-1   2.745523862540722E-2   5.935162771493197E-3   2.739997394382954E-2   5.927279591560364E-3  -2.237876504659653E-1   9.631661176681519E-1  
 6.066000000000000E7    -2.265152484178543E-1   9.656815528869629E-1   2.792336419224739E-2   6.029374431818724E-3   2.789415791630745E-2   6.029014475643635E-3  -2.231556475162506E-1   9.631754755973816E-1  
 6.068000000000000E7    -2.254654467105866E-1   9.661117792129517E-1   2.843218110501766E-2   6.107881199568510E-3   2.842505462467670E-2   6.104118190705776E-3  -2.221354544162750E-1   9.633696079254150E-1  
 6.070000000000000E7    -2.244732379913330E-1   9.663226604461670E-1   2.892540022730827E-2   6.189987529069185E-3   2.889983542263508E-2   6.184288300573826E-3  -2.209882438182831E-1   9.632618427276611E-1  
 6.072000000000000E7    -2.238651961088181E-1   9.665889143943787E-1   2.944757603108883E-2   6.296807900071144E-3   2.941774949431419E-2   6.273549981415272E-3  -2.201326787471771E-1   9.637655019760132E-1  
 6.074000000000000E7    -2.226471751928330E-1   9.667637944221497E-1   2.992961555719376E-2   6.362083368003368E-3   2.989720739424229E-2   6.372376345098019E-3  -2.190078496932983E-1   9.637301564216614E-1  
 6.076000000000000E7    -2.218699753284454E-1   9.668599367141724E-1   3.042675927281380E-2   6.438935175538063E-3   3.039117716252804E-2   6.426611915230751E-3  -2.179969549179077E-1   9.637410044670105E-1  
 6.078000000000000E7    -2.209236323833466E-1   9.669891595840454E-1   3.094851598143578E-2   6.537692621350288E-3   3.087298572063446E-2   6.513750180602074E-3  -2.170908749103546E-1   9.641623497009277E-1  
 6.080000000000000E7    -2.194098234176636E-1   9.672462344169617E-1   3.141257539391518E-2   6.623677909374237E-3   3.138507530093193E-2   6.577547173947096E-3  -2.161537855863571E-1   9.643514752388001E-1  
 6.082000000000000E7    -2.190414518117905E-1   9.677901864051819E-1   3.191411495208740E-2   6.726465187966824E-3   3.189618140459061E-2   6.712808739393950E-3  -2.156353145837784E-1   9.645885825157166E-1  
 6.084000000000000E7    -2.182688117027283E-1   9.677057862281799E-1   3.241775557398796E-2   6.778180599212647E-3   3.239587694406509E-2   6.787307560443878E-3  -2.142729759216309E-1   9.650024175643921E-1  
 6.086000000000000E7    -2.171418815851212E-1   9.679215550422669E-1   3.289444372057915E-2   6.860380992293358E-3   3.289402648806572E-2   6.860985420644283E-3  -2.135182917118073E-1   9.650623202323914E-1  
 6.088000000000000E7    -2.163537889719009E-1   9.681274294853210E-1   3.342666476964951E-2   6.954058073461056E-3   3.338086977601051E-2   6.947544403374195E-3  -2.123599797487259E-1   9.651066660881043E-1  
 6.090000000000000E7    -2.153352946043015E-1   9.681622385978699E-1   3.392948210239410E-2   7.028569467365742E-3   3.390550240874291E-2   7.013727910816670E-3  -2.116710990667343E-1   9.658313393592835E-1  
 6.092000000000000E7    -2.143409997224808E-1   9.684803485870361E-1   3.441219776868820E-2   7.094995118677616E-3   3.438573703169823E-2   7.110079750418663E-3  -2.104919403791428E-1   9.655762910842896E-1  
 6.094000000000000E7    -2.132023721933365E-1   9.685695767402649E-1   3.490829840302467E-2   7.176421117037535E-3   3.487651050090790E-2   7.182743865996599E-3  -2.097599059343338E-1   9.659104943275452E-1  
 6.096000000000000E7    -2.119619399309158E-1   9.688172936439514E-1   3.539852797985077E-2   7.229144684970379E-3   3.538274392485619E-2   7.242363411933184E-3  -2.084867656230927E-1   9.659749269485474E-1  
 6.098000000000000E7    -2.114259153604507E-1   9.689798355102539E-1   3.590502962470055E-2   7.328035775572062E-3   3.585950657725334E-2   7.327425293624401E-3  -2.080659866333008E-1   9.664302468299866E-1  
 6.100000000000000E7    -2.102163583040237E-1   9.688372611999512E-1   3.639264777302742E-2   7.401619106531143E-3   3.633707761764526E-2   7.388771045953035E-3  -2.068332433700562E-1   9.663199782371521E-1  
 6.102000000000000E7    -2.096868306398392E-1   9.693923592567444E-1   3.688096627593041E-2   7.480405736714602E-3   3.686547651886940E-2   7.471807766705751E-3  -2.059840708971024E-1   9.667024016380310E-1  
 6.104000000000000E7    -2.085521966218948E-1   9.696914553642273E-1   3.739835694432259E-2   7.536603137850761E-3   3.735406324267387E-2   7.562238723039627E-3  -2.053291648626328E-1   9.666576981544495E-1  
 6.106000000000000E7    -2.080418467521668E-1   9.698024988174439E-1   3.786949068307877E-2   7.644239813089371E-3   3.782738000154495E-2   7.624394726008177E-3  -2.042467594146729E-1   9.669176340103149E-1  
 6.108000000000000E7    -2.069459259510040E-1   9.697855114936829E-1   3.836423531174660E-2   7.696003653109074E-3   3.833223506808281E-2   7.703315932303667E-3  -2.031636685132980E-1   9.669666290283203E-1  
 6.110000000000000E7    -2.058695256710053E-1   9.698363542556763E-1   3.884906694293022E-2   7.767104543745518E-3   3.881568461656570E-2   7.772253826260567E-3  -2.026253193616867E-1   9.671792984008789E-1  
 6.112000000000000E7    -2.051841467618942E-1   9.702508449554443E-1   3.938408568501473E-2   7.870581932365894E-3   3.934190422296524E-2   7.848321460187435E-3  -2.013498693704605E-1   9.678775668144226E-1  
 6.114000000000000E7    -2.039131522178650E-1   9.703287482261658E-1   3.983513638377190E-2   7.900210097432137E-3   3.982213512063026E-2   7.887072861194611E-3  -2.004098147153854E-1   9.676371812820435E-1  
 6.116000000000000E7    -2.026104182004929E-1   9.706037044525147E-1   4.035399481654167E-2   7.930303923785687E-3   4.030644521117210E-2   7.943894714117050E-3  -1.995314806699753E-1   9.680259823799133E-1  
 6.118000000000000E7    -2.022170424461365E-1   9.707648754119873E-1   4.082086682319641E-2   8.053101599216461E-3   4.080069810152054E-2   8.001112379133701E-3  -1.987733840942383E-1   9.675551056861877E-1  
 6.120000000000000E7    -2.013843655586243E-1   9.709451794624329E-1   4.135094583034515E-2   8.092327043414116E-3   4.132595658302307E-2   8.084734901785851E-3  -1.975082457065582E-1   9.684342145919800E-1  
 6.122000000000000E7    -2.004998177289963E-1   9.711685180664063E-1   4.182565584778786E-2   8.153162896633148E-3   4.177652299404144E-2   8.167945779860020E-3  -1.969199925661087E-1   9.683718085289002E-1  
 6.124000000000000E7    -1.992738991975784E-1   9.712373018264771E-1   4.231616482138634E-2   8.218747563660145E-3   4.226816818118095E-2   8.232390508055687E-3  -1.956010609865189E-1   9.687147736549377E-1  
 6.126000000000000E7    -1.985345035791397E-1   9.716842770576477E-1   4.280455410480499E-2   8.269427344202995E-3   4.278684780001640E-2   8.290085941553116E-3  -1.950922012329102E-1   9.685236215591431E-1  
 6.128000000000000E7    -1.971879303455353E-1   9.716212749481201E-1   4.333537071943283E-2   8.355262689292431E-3   4.328619316220284E-2   8.347434923052788E-3  -1.941335797309876E-1   9.689084887504578E-1  
 6.130000000000000E7    -1.967188417911530E-1   9.717692136764526E-1   4.379346966743469E-2   8.411508053541184E-3   4.374440759420395E-2   8.410340175032616E-3  -1.929754167795181E-1   9.689714312553406E-1  
 6.132000000000000E7    -1.957229822874069E-1   9.721226692199707E-1   4.431020468473434E-2   8.462117984890938E-3   4.426700994372368E-2   8.409254252910614E-3  -1.921166479587555E-1   9.692512750625610E-1  
 6.134000000000000E7    -1.945710778236389E-1   9.721280932426453E-1   4.479822888970375E-2   8.502244018018246E-3   4.479608684778214E-2   8.542409166693687E-3  -1.915329396724701E-1   9.695584177970886E-1  
 6.136000000000000E7    -1.939056813716888E-1   9.724906682968140E-1   4.526209086179733E-2   8.576244115829468E-3   4.521721601486206E-2   8.582448586821556E-3  -1.901840567588806E-1   9.693693518638611E-1  
 6.138000000000000E7    -1.928028613328934E-1   9.725861549377441E-1   4.579245299100876E-2   8.614250458776951E-3   4.575508832931519E-2   8.653539232909679E-3  -1.892019659280777E-1   9.698720574378967E-1  
 6.140000000000000E7    -1.918607652187347E-1   9.728648066520691E-1   4.624879732728005E-2   8.667390793561935E-3   4.624747112393379E-2   8.684488013386726E-3  -1.884985566139221E-1   9.698017239570618E-1  
 6.142000000000000E7    -1.908123791217804E-1   9.727572798728943E-1   4.678608477115631E-2   8.722037076950073E-3   4.670478031039238E-2   8.710284717381001E-3  -1.876576691865921E-1   9.698034524917603E-1  
 6.144000000000000E7    -1.900697648525238E-1   9.732559919357300E-1   4.726331681013107E-2   8.768035098910332E-3   4.722515866160393E-2   8.786639198660851E-3  -1.865066885948181E-1   9.703376293182373E-1  
 6.146000000000000E7    -1.890970021486282E-1   9.731191992759705E-1   4.774492233991623E-2   8.830533362925053E-3   4.771357029676437E-2   8.827805519104004E-3  -1.856002211570740E-1   9.703173637390137E-1  
 6.148000000000000E7    -1.882003396749497E-1   9.735213518142700E-1   4.825996235013008E-2   8.888352662324905E-3   4.820504039525986E-2   8.888735435903072E-3  -1.849246025085449E-1   9.704303145408630E-1  
 6.150000000000000E7    -1.875275224447250E-1   9.734128117561340E-1   4.872516170144081E-2   8.985990658402443E-3   4.869140684604645E-2   8.965622633695602E-3  -1.842035055160523E-1   9.706448912620544E-1  
 6.152000000000000E7    -1.864915788173676E-1   9.736531376838684E-1   4.921067878603935E-2   8.990406058728695E-3   4.915476962924004E-2   8.971415460109711E-3  -1.829382032155991E-1   9.705228805541992E-1  
 6.154000000000000E7    -1.856352388858795E-1   9.738050103187561E-1   4.972391203045845E-2   9.043937548995018E-3   4.967777803540230E-2   9.049935266375542E-3  -1.820552200078964E-1   9.712108969688416E-1  
 6.156000000000000E7    -1.848596483469009E-1   9.740919470787048E-1   5.018875375390053E-2   9.060513228178024E-3   5.018719658255577E-2   9.110980667173863E-3  -1.809058487415314E-1   9.713310599327087E-1  
 6.158000000000000E7    -1.835670173168182E-1   9.740356206893921E-1   5.071033909916878E-2   9.128380566835403E-3   5.069494992494583E-2   9.138602763414383E-3  -1.800871938467026E-1   9.714528918266296E-1  
 6.160000000000000E7    -1.829105317592621E-1   9.741814732551575E-1   5.119396373629570E-2   9.187621064484119E-3   5.114455893635750E-2   9.149838238954544E-3  -1.794096082448959E-1   9.715633988380432E-1  
 6.162000000000000E7    -1.818358600139618E-1   9.744773507118225E-1   5.167373269796372E-2   9.223038330674171E-3   5.164517462253571E-2   9.259652346372604E-3  -1.783983856439591E-1   9.717001318931580E-1  
 6.164000000000000E7    -1.809466779232025E-1   9.746652841567993E-1   5.216487497091293E-2   9.245445951819420E-3   5.215634033083916E-2   9.266560897231102E-3  -1.774895489215851E-1   9.718663692474365E-1  
 6.166000000000000E7    -1.802059710025787E-1   9.746505022048950E-1   5.263439565896988E-2   9.348203428089619E-3   5.256016924977303E-2   9.334414266049862E-3  -1.766023635864258E-1   9.717266559600830E-1  
 6.168000000000000E7    -1.789712160825729E-1   9.747669100761414E-1   5.312675982713699E-2   9.362867102026939E-3   5.312265828251839E-2   9.362951852381229E-3  -1.756378114223480E-1   9.717612862586975E-1  
 6.170000000000000E7    -1.780331730842590E-1   9.749604463577271E-1   5.362443625926971E-2   9.391417726874352E-3   5.357547104358673E-2   9.387191385030747E-3  -1.747179627418518E-1   9.720038175582886E-1  
 6.172000000000000E7    -1.771659106016159E-1   9.755373597145081E-1   5.417119339108467E-2   9.425478056073189E-3   5.411667749285698E-2   9.443830698728561E-3  -1.736913621425629E-1   9.723806977272034E-1  
 6.174000000000000E7    -1.763329952955246E-1   9.751811027526856E-1   5.461758747696877E-2   9.491791948676109E-3   5.456332117319107E-2   9.486541152000427E-3  -1.728781610727310E-1   9.722368717193604E-1  
 6.176000000000000E7    -1.756100654602051E-1   9.753661751747131E-1   5.509002134203911E-2   9.511743672192097E-3   5.503187328577042E-2   9.505477733910084E-3  -1.718015968799591E-1   9.726230502128601E-1  
 6.178000000000000E7    -1.744407713413239E-1   9.754133820533752E-1   5.560932680964470E-2   9.565794840455055E-3   5.559160932898521E-2   9.530808776617050E-3  -1.707619726657867E-1   9.729834198951721E-1  
 6.180000000000000E7    -1.739698946475983E-1   9.758997559547424E-1   5.607850104570389E-2   9.564927779138088E-3   5.603266134858131E-2   9.579516947269440E-3  -1.697723865509033E-1   9.727876186370850E-1  
 6.182000000000000E7    -1.728100627660751E-1   9.760528802871704E-1   5.656704679131508E-2   9.655875153839588E-3   5.653441324830055E-2   9.612200781702995E-3  -1.690687835216522E-1   9.731400609016419E-1  
 6.184000000000000E7    -1.718313694000244E-1   9.761510491371155E-1   5.704612284898758E-2   9.626759216189385E-3   5.698596313595772E-2   9.657874703407288E-3  -1.681657880544663E-1   9.731034040451050E-1  
 6.186000000000000E7    -1.706335842609406E-1   9.763090014457703E-1   5.751860141754150E-2   9.732458740472794E-3   5.747225135564804E-2   9.640030562877655E-3  -1.673011481761932E-1   9.733119606971741E-1  
 6.188000000000000E7    -1.697125136852264E-1   9.766678214073181E-1   5.804111808538437E-2   9.708205237984657E-3   5.800985172390938E-2   9.713618084788322E-3  -1.662053018808365E-1   9.736179113388062E-1  
 6.190000000000000E7    -1.689223200082779E-1   9.760796427726746E-1   5.852322280406952E-2   9.737264364957809E-3   5.849440023303032E-2   9.743066504597664E-3  -1.654289215803146E-1   9.738744497299194E-1  
 6.192000000000000E7    -1.680742949247360E-1   9.764523506164551E-1   5.900536105036736E-2   9.781496599316597E-3   5.895306169986725E-2   9.800148196518421E-3  -1.646029800176621E-1   9.739802479743958E-1  
 6.194000000000000E7    -1.671609878540039E-1   9.767127037048340E-1   5.951878800988197E-2   9.804015979170799E-3   5.944732576608658E-2   9.771995246410370E-3  -1.634729206562042E-1   9.738088846206665E-1  
 6.196000000000000E7    -1.658624410629273E-1   9.770107269287109E-1   5.999691784381867E-2   9.803764522075653E-3   5.997617542743683E-2   9.780634194612503E-3  -1.624593436717987E-1   9.741623997688294E-1  
 6.198000000000000E7    -1.651745736598969E-1   9.772331714630127E-1   6.053768470883369E-2   9.833520278334618E-3   6.046027317643166E-2   9.822660125792027E-3  -1.617327183485031E-1   9.743450880050659E-1  
 6.200000000000000E7    -1.640324443578720E-1   9.770913124084473E-1   6.098742783069611E-2   9.832203388214111E-3   6.096956878900528E-2   9.885279461741447E-3  -1.607377082109451E-1   9.742452502250671E-1  
 6.202000000000000E7    -1.630987077951431E-1   9.773889183998108E-1   6.152135878801346E-2   9.866166859865189E-3   6.139677390456200E-2   9.917996823787689E-3  -1.597489416599274E-1   9.744794368743897E-1  
 6.204000000000000E7    -1.627344042062759E-1   9.773875474929810E-1   6.197756901383400E-2   9.993508458137512E-3   6.190189719200134E-2   9.934876114130020E-3  -1.588401496410370E-1   9.746313691139221E-1  
 6.206000000000000E7    -1.610925644636154E-1   9.778178930282593E-1   6.250932812690735E-2   9.935772977769375E-3   6.242427974939346E-2   9.917261078953743E-3  -1.579503566026688E-1   9.749219417572022E-1  
 6.208000000000000E7    -1.604043543338776E-1   9.775263667106628E-1   6.297603249549866E-2   9.957144036889076E-3   6.292932480573654E-2   9.991964325308800E-3  -1.572197228670120E-1   9.752844572067261E-1  
 6.210000000000000E7    -1.598450988531113E-1   9.775761961936951E-1   6.345515698194504E-2   9.990801103413105E-3   6.337155401706696E-2   1.003561355173588E-2  -1.561720669269562E-1   9.753131866455078E-1  
 6.212000000000000E7    -1.584955155849457E-1   9.780127406120300E-1   6.391518563032150E-2   9.985266253352165E-3   6.382568180561066E-2   9.968820959329605E-3  -1.551603674888611E-1   9.750128388404846E-1  
 6.214000000000000E7    -1.577465534210205E-1   9.779710769653320E-1   6.436926126480103E-2   1.003526337444782E-2   6.434004753828049E-2   1.003918517380953E-2  -1.542457789182663E-1   9.752081632614136E-1  
 6.216000000000000E7    -1.571591347455978E-1   9.782586693763733E-1   6.484427303075790E-2   1.001894474029541E-2   6.481596827507019E-2   1.004849653691053E-2  -1.535021960735321E-1   9.753944277763367E-1  
 6.218000000000000E7    -1.560483723878861E-1   9.781498908996582E-1   6.537131220102310E-2   1.007720734924078E-2   6.533741950988770E-2   1.007543504238129E-2  -1.524912267923355E-1   9.755900502204895E-1  
 6.220000000000000E7    -1.551560908555985E-1   9.782604575157166E-1   6.585545837879181E-2   1.009881123900414E-2   6.581181287765503E-2   1.011618226766586E-2  -1.519220620393753E-1   9.758775234222412E-1  
 6.222000000000000E7    -1.542613655328751E-1   9.783496260643005E-1   6.633571535348892E-2   1.005800068378449E-2   6.625770032405853E-2   1.006515603512526E-2  -1.503895223140717E-1   9.758465290069580E-1  
 6.224000000000000E7    -1.530054807662964E-1   9.783675074577332E-1   6.684129685163498E-2   1.006702147424221E-2   6.672178208827972E-2   1.011839881539345E-2  -1.496052145957947E-1   9.763578176498413E-1  
 6.226000000000000E7    -1.520773321390152E-1   9.788220524787903E-1   6.731202453374863E-2   1.008659508079290E-2   6.730244308710098E-2   1.007542945444584E-2  -1.483059525489807E-1   9.761472940444946E-1  
 6.228000000000000E7    -1.515823006629944E-1   9.788386225700378E-1   6.777364015579224E-2   1.015277951955795E-2   6.773686408996582E-2   1.016962528228760E-2  -1.477972120046616E-1   9.761709570884705E-1  
 6.230000000000000E7    -1.504834741353989E-1   9.787225127220154E-1   6.825339049100876E-2   1.012326590716839E-2   6.820693612098694E-2   1.013336703181267E-2  -1.465637236833572E-1   9.764440059661865E-1  
 6.232000000000000E7    -1.493636071681976E-1   9.790182709693909E-1   6.876769661903381E-2   1.015369966626167E-2   6.873236596584320E-2   1.019465550780296E-2  -1.460154056549072E-1   9.765884280204773E-1  
 6.234000000000000E7    -1.486810892820358E-1   9.793441891670227E-1   6.925463676452637E-2   1.017575711011887E-2   6.917499750852585E-2   1.014540903270245E-2  -1.451453417539597E-1   9.763299226760864E-1  
 6.236000000000000E7    -1.476673632860184E-1   9.790975451469421E-1   6.970167905092239E-2   1.018186938017607E-2   6.965125352144241E-2   1.019594445824623E-2  -1.439293771982193E-1   9.765806198120117E-1  
 6.238000000000000E7    -1.466368287801743E-1   9.795306921005249E-1   7.022018730640411E-2   1.017497293651104E-2   7.018155604600906E-2   1.017358805984259E-2  -1.432446539402008E-1   9.768677353858948E-1  
 6.240000000000000E7    -1.459276527166367E-1   9.795138835906982E-1   7.062207162380219E-2   1.019827090203762E-2   7.064764946699143E-2   1.022698916494846E-2  -1.425423324108124E-1   9.766992330551148E-1  
 6.242000000000000E7    -1.448652297258377E-1   9.793320894241333E-1   7.112006843090057E-2   1.022017467767000E-2   7.109051197767258E-2   1.014162413775921E-2  -1.417699009180069E-1   9.767938852310181E-1  
 6.244000000000000E7    -1.440998613834381E-1   9.796143770217896E-1   7.163815945386887E-2   1.022503897547722E-2   7.157191634178162E-2   1.018101908266544E-2  -1.403436213731766E-1   9.767415523529053E-1  
 6.246000000000000E7    -1.432090252637863E-1   9.800399541854858E-1   7.214636355638504E-2   1.021292712539434E-2   7.211498916149139E-2   1.020758412778378E-2  -1.395087540149689E-1   9.772098660469055E-1  
 6.248000000000000E7    -1.422461420297623E-1   9.800345301628113E-1   7.262594252824783E-2   1.018545962870121E-2   7.254194468259811E-2   1.027544122189283E-2  -1.386320441961289E-1   9.768848419189453E-1  
 6.250000000000000E7    -1.412442773580551E-1   9.799550771713257E-1   7.307512313127518E-2   1.022642292082310E-2   7.302992790937424E-2   1.018412411212921E-2  -1.378796249628067E-1   9.770377278327942E-1  
 6.252000000000000E7    -1.402923315763474E-1   9.800744056701660E-1   7.356055080890656E-2   1.017985492944717E-2   7.351065427064896E-2   1.019118260592222E-2  -1.367992311716080E-1   9.771653413772583E-1  
 6.254000000000000E7    -1.396922022104263E-1   9.800944924354553E-1   7.402487099170685E-2   1.025583315640688E-2   7.398617267608643E-2   1.021729037165642E-2  -1.360361278057098E-1   9.772701263427734E-1  
 6.256000000000000E7    -1.382893770933151E-1   9.805279970169067E-1   7.453963160514832E-2   1.016804948449135E-2   7.450797408819199E-2   1.020693592727184E-2  -1.350726932287216E-1   9.775276780128479E-1  
 6.258000000000000E7    -1.373905837535858E-1   9.808161258697510E-1   7.507394999265671E-2   1.019373070448637E-2   7.498271018266678E-2   1.022082567214966E-2  -1.342604607343674E-1   9.777057170867920E-1  
 6.260000000000000E7    -1.370816528797150E-1   9.805117249488831E-1   7.551430910825729E-2   1.023305766284466E-2   7.543118298053742E-2   1.019983179867268E-2  -1.331284195184708E-1   9.780985116958618E-1  
 6.262000000000000E7    -1.357148736715317E-1   9.806224703788757E-1   7.592874020338059E-2   1.020929217338562E-2   7.593063265085220E-2   1.023196056485176E-2  -1.322828084230423E-1   9.777266979217529E-1  
 6.264000000000000E7    -1.349351555109024E-1   9.807115793228149E-1   7.645020633935928E-2   1.014369167387486E-2   7.645161449909210E-2   1.021516416221857E-2  -1.313823163509369E-1   9.775651693344116E-1  
 6.266000000000000E7    -1.340477168560028E-1   9.807791709899902E-1   7.691917568445206E-2   1.020110771059990E-2   7.686903327703476E-2   1.019625551998615E-2  -1.304667294025421E-1   9.779499173164368E-1  
 6.268000000000000E7    -1.331854313611984E-1   9.808365702629089E-1   7.742936909198761E-2   1.025894656777382E-2   7.736663520336151E-2   1.022441685199738E-2  -1.296479254961014E-1   9.778488278388977E-1  
 6.270000000000000E7    -1.320142298936844E-1   9.811639189720154E-1   7.792650163173676E-2   1.018109731376171E-2   7.793269306421280E-2   1.018314249813557E-2  -1.284763664007187E-1   9.782996177673340E-1  
 6.272000000000000E7    -1.312502473592758E-1   9.809226393699646E-1   7.835123687982559E-2   1.018030382692814E-2   7.832160592079163E-2   1.014853920787573E-2  -1.280063390731812E-1   9.782815575599670E-1  
 6.274000000000000E7    -1.301790326833725E-1   9.810158610343933E-1   7.880382239818573E-2   1.017543580383062E-2   7.874763756990433E-2   1.013123150914908E-2  -1.267835944890976E-1   9.782316088676453E-1  
 6.276000000000000E7    -1.294481605291367E-1   9.816200733184815E-1   7.934707403182983E-2   1.022653095424175E-2   7.929787039756775E-2   1.020858809351921E-2  -1.261486560106278E-1   9.782326221466065E-1  
 6.278000000000000E7    -1.286185979843140E-1   9.809994101524353E-1   7.979937642812729E-2   1.014064811170101E-2   7.976622134447098E-2   1.015741378068924E-2  -1.247456967830658E-1   9.785628318786621E-1  
 6.280000000000000E7    -1.275012046098709E-1   9.814360737800598E-1   8.031329512596130E-2   1.011184789240360E-2   8.022762835025787E-2   1.014147326350212E-2  -1.239472478628159E-1   9.784688353538513E-1  
 6.282000000000000E7    -1.266146898269653E-1   9.813994765281677E-1   8.079924434423447E-2   1.014737319201231E-2   8.067335933446884E-2   1.013649068772793E-2  -1.230886727571487E-1   9.786400198936462E-1  
 6.284000000000000E7    -1.257960051298142E-1   9.813534617424011E-1   8.114981651306152E-2   1.012081280350685E-2   8.117102831602097E-2   1.011830382049084E-2  -1.219095438718796E-1   9.786072969436646E-1  
 6.286000000000000E7    -1.249180734157562E-1   9.818989634513855E-1   8.168189227581024E-2   1.012697443366051E-2   8.166285604238510E-2   1.010072231292725E-2  -1.215991899371147E-1   9.786606431007385E-1  
 6.288000000000000E7    -1.244190037250519E-1   9.820529818534851E-1   8.222399652004242E-2   1.009608339518309E-2   8.214753866195679E-2   1.012382376939058E-2  -1.205313876271248E-1   9.787166118621826E-1  
 6.290000000000000E7    -1.231203004717827E-1   9.818173646926880E-1   8.265680074691773E-2   1.005842071026564E-2   8.266703039407730E-2   1.006417069584131E-2  -1.194231137633324E-1   9.785718321800232E-1  
 6.292000000000000E7    -1.220710799098015E-1   9.819371104240418E-1   8.318306505680084E-2   1.010653190314770E-2   8.312902599573135E-2   1.007387507706881E-2  -1.188091263175011E-1   9.792045354843140E-1  
 6.294000000000000E7    -1.217124685645104E-1   9.820728302001953E-1   8.366586267948151E-2   1.009677909314632E-2   8.359651267528534E-2   1.011852826923132E-2  -1.177920699119568E-1   9.792068004608154E-1  
 6.296000000000000E7    -1.202044785022736E-1   9.822985529899597E-1   8.409845829010010E-2   1.004726160317659E-2   8.404678851366043E-2   9.994623251259327E-3  -1.168312653899193E-1   9.790960550308228E-1  
 6.298000000000000E7    -1.194306537508965E-1   9.822667241096497E-1   8.454158902168274E-2   1.001627929508686E-2   8.453605324029923E-2   1.004124805331230E-2  -1.157677844166756E-1   9.791229367256165E-1  
 6.300000000000000E7    -1.184637472033501E-1   9.825129508972168E-1   8.505912870168686E-2   9.992398321628571E-3   8.502078056335449E-2   1.007138472050428E-2  -1.153387725353241E-1   9.794428944587708E-1  
 6.302000000000000E7    -1.171956211328507E-1   9.826087355613709E-1   8.551631122827530E-2   9.971944615244865E-3   8.554339408874512E-2   9.910753928124905E-3  -1.140471696853638E-1   9.793459177017212E-1  
 6.304000000000000E7    -1.165332868695259E-1   9.825124740600586E-1   8.601658046245575E-2   9.877322241663933E-3   8.596491813659668E-2   9.932242333889008E-3  -1.131289154291153E-1   9.792766571044922E-1  
 6.306000000000000E7    -1.156160235404968E-1   9.824876189231873E-1   8.644032478332520E-2   9.934607893228531E-3   8.640669286251068E-2   9.875773452222347E-3  -1.121439710259438E-1   9.791646599769592E-1  
 6.308000000000000E7    -1.144141107797623E-1   9.825104475021362E-1   8.694142103195190E-2   9.849171154201031E-3   8.692873269319534E-2   9.862355887889862E-3  -1.112336367368698E-1   9.797890782356262E-1  
 6.310000000000000E7    -1.138986870646477E-1   9.829176068305969E-1   8.746172487735748E-2   9.872619062662125E-3   8.737299591302872E-2   9.886754676699638E-3  -1.105481088161469E-1   9.794813990592957E-1  
 6.312000000000000E7    -1.127789840102196E-1   9.824827909469605E-1   8.791171759366989E-2   9.845193475484848E-3   8.781293034553528E-2   9.826060384511948E-3  -1.095346957445145E-1   9.797266125679016E-1  
 6.314000000000000E7    -1.121231839060783E-1   9.827999472618103E-1   8.836036920547485E-2   9.796628728508949E-3   8.830343931913376E-2   9.878177195787430E-3  -1.087063774466515E-1   9.797468185424805E-1  
 6.316000000000000E7    -1.110905557870865E-1   9.826523065567017E-1   8.882167935371399E-2   9.811837226152420E-3   8.877943456172943E-2   9.776221588253975E-3  -1.076247096061707E-1   9.797132015228272E-1  
 6.318000000000000E7    -1.099165603518486E-1   9.830371141433716E-1   8.938052505254746E-2   9.810643270611763E-3   8.929294347763062E-2   9.736472740769386E-3  -1.065451428294182E-1   9.800673723220825E-1  
 6.320000000000000E7    -1.092697158455849E-1   9.827681183815002E-1   8.979541063308716E-2   9.705649688839912E-3   8.975297957658768E-2   9.765280410647392E-3  -1.057507246732712E-1   9.800251722335815E-1  
 6.322000000000000E7    -1.084900572896004E-1   9.831714034080505E-1   9.029053151607513E-2   9.718685410916805E-3   9.021464735269547E-2   9.703584946691990E-3  -1.049349978566170E-1   9.801179766654968E-1  
 6.324000000000000E7    -1.073677316308022E-1   9.831135869026184E-1   9.071537852287293E-2   9.669401682913303E-3   9.066231548786163E-2   9.682675823569298E-3  -1.039544641971588E-1   9.802496433258057E-1  
 6.326000000000000E7    -1.066717654466629E-1   9.831475615501404E-1   9.113629907369614E-2   9.619353339076042E-3   9.107040613889694E-2   9.607289917767048E-3  -1.032211408019066E-1   9.799075126647949E-1  
 6.328000000000000E7    -1.058423295617104E-1   9.829879403114319E-1   9.162807464599609E-2   9.620582684874535E-3   9.151671081781387E-2   9.624123573303223E-3  -1.022071242332459E-1   9.800496101379395E-1  
 6.330000000000000E7    -1.047310978174210E-1   9.833642840385437E-1   9.211644530296326E-2   9.519306942820549E-3   9.208896756172180E-2   9.569499641656876E-3  -1.016473397612572E-1   9.804193973541260E-1  
 6.332000000000000E7    -1.039942577481270E-1   9.833745360374451E-1   9.262707829475403E-2   9.526137262582779E-3   9.258353710174561E-2   9.603040292859078E-3  -1.007893159985542E-1   9.806139469146729E-1  
 6.334000000000000E7    -1.029176861047745E-1   9.832820296287537E-1   9.307049214839935E-2   9.561958722770214E-3   9.298381209373474E-2   9.450697340071201E-3  -9.939381480216980E-2   9.802994132041931E-1  
 6.336000000000000E7    -1.018069535493851E-1   9.832482337951660E-1   9.352841973304749E-2   9.420837275683880E-3   9.346260130405426E-2   9.440099820494652E-3  -9.839193522930145E-2   9.802716970443726E-1  
 6.338000000000000E7    -1.012505367398262E-1   9.834371805191040E-1   9.392058104276657E-2   9.447621181607246E-3   9.393660724163055E-2   9.458089247345924E-3  -9.758538752794266E-2   9.804008007049561E-1  
 6.340000000000000E7    -1.001737490296364E-1   9.837374091148377E-1   9.449581801891327E-2   9.349683299660683E-3   9.451141953468323E-2   9.400416165590286E-3  -9.700388461351395E-2   9.807328581809998E-1  
 6.342000000000000E7    -9.927121549844742E-2   9.835747480392456E-1   9.495728462934494E-2   9.309919551014900E-3   9.489657729864121E-2   9.362922981381416E-3  -9.585878252983093E-2   9.805523753166199E-1  
 6.344000000000000E7    -9.856478869915009E-2   9.836689829826355E-1   9.539147466421127E-2   9.257156401872635E-3   9.539149701595306E-2   9.266396984457970E-3  -9.496036171913147E-2   9.804744720458984E-1  
 6.346000000000000E7    -9.717770665884018E-2   9.836486577987671E-1   9.598787128925324E-2   9.260525926947594E-3   9.587203711271286E-2   9.303100407123566E-3  -9.390173852443695E-2   9.809595346450806E-1  
 6.348000000000000E7    -9.672152251005173E-2   9.836658239364624E-1   9.632974863052368E-2   9.270173497498035E-3   9.627440571784973E-2   9.237534366548061E-3  -9.292998909950256E-2   9.805188179016113E-1  
 6.350000000000000E7    -9.583363682031632E-2   9.838283658027649E-1   9.683345258235931E-2   9.220275096595287E-3   9.678346663713455E-2   9.231779724359512E-3  -9.250809997320175E-2   9.809534549713135E-1  
 6.352000000000000E7    -9.456515312194824E-2   9.839612245559692E-1   9.725084900856018E-2   9.078907780349255E-3   9.727234393358231E-2   9.124483913183212E-3  -9.123200923204422E-2   9.806033968925476E-1  
 6.354000000000000E7    -9.360747784376144E-2   9.838166832923889E-1   9.774436801671982E-2   9.021092206239700E-3   9.769354015588760E-2   9.154832921922207E-3  -9.028315544128418E-2   9.809554219245911E-1  
 6.356000000000000E7    -9.295741468667984E-2   9.839869737625122E-1   9.828011691570282E-2   8.964488282799721E-3   9.815495461225510E-2   9.055794216692448E-3  -8.952558040618897E-2   9.809868335723877E-1  
 6.358000000000000E7    -9.208732843399048E-2   9.838975667953491E-1   9.864937514066696E-2   8.889185264706612E-3   9.854586422443390E-2   9.024221450090408E-3  -8.842886239290237E-2   9.807710051536560E-1  
 6.360000000000000E7    -9.146804362535477E-2   9.838384985923767E-1   9.915108233690262E-2   8.935132995247841E-3   9.910085797309876E-2   8.924402296543121E-3  -8.754329383373261E-2   9.811562299728394E-1  
 6.362000000000000E7    -9.053084254264832E-2   9.841926097869873E-1   9.962469339370728E-2   8.914085105061531E-3   9.962282329797745E-2   8.956874720752239E-3  -8.681319653987885E-2   9.811567664146423E-1  
 6.364000000000000E7    -8.925459533929825E-2   9.839817881584168E-1   1.000976935029030E-1   8.779079653322697E-3   9.995974600315094E-2   8.855774067342281E-3  -8.572173863649368E-2   9.811370968818665E-1  
 6.366000000000000E7    -8.847443014383316E-2   9.844630956649780E-1   1.005875393748283E-1   8.856550790369511E-3   1.005569249391556E-1   8.824552409350872E-3  -8.514215797185898E-2   9.809640049934387E-1  
 6.368000000000000E7    -8.723547309637070E-2   9.842581152915955E-1   1.009785458445549E-1   8.707154542207718E-3   1.009662076830864E-1   8.782099001109600E-3  -8.396808058023453E-2   9.811441898345947E-1  
 6.370000000000000E7    -8.649474382400513E-2   9.845438599586487E-1   1.015732064843178E-1   8.689932525157929E-3   1.014371886849403E-1   8.677280507981777E-3  -8.308769762516022E-2   9.813110828399658E-1  
 6.372000000000000E7    -8.551567792892456E-2   9.840370416641235E-1   1.019969582557678E-1   8.662795647978783E-3   1.019144579768181E-1   8.645626716315746E-3  -8.208485692739487E-2   9.814369082450867E-1  
 6.374000000000000E7    -8.493936061859131E-2   9.847494959831238E-1   1.024764627218247E-1   8.667191490530968E-3   1.024093404412270E-1   8.627203293144703E-3  -8.144475519657135E-2   9.811489582061768E-1  
 6.376000000000000E7    -8.388794213533402E-2   9.841926693916321E-1   1.028762757778168E-1   8.566959761083126E-3   1.028136014938355E-1   8.568596094846726E-3  -8.045458048582077E-2   9.814540743827820E-1  
 6.378000000000000E7    -8.287575840950012E-2   9.844229817390442E-1   1.034883111715317E-1   8.417649194598198E-3   1.034065037965775E-1   8.439532481133938E-3  -7.967576384544373E-2   9.814219474792481E-1  
 6.380000000000000E7    -8.196461945772171E-2   9.843791127204895E-1   1.038254573941231E-1   8.394076488912106E-3   1.038071885704994E-1   8.454125374555588E-3  -7.861149311065674E-2   9.813805818557739E-1  
 6.382000000000000E7    -8.135374635457993E-2   9.843568205833435E-1   1.042657941579819E-1   8.337406441569328E-3   1.042772904038429E-1   8.397971279919148E-3  -7.752677053213120E-2   9.816666245460510E-1  
 6.384000000000000E7    -8.011322468519211E-2   9.843064546585083E-1   1.047615408897400E-1   8.197429589927197E-3   1.046608388423920E-1   8.344026282429695E-3  -7.658678293228149E-2   9.814488291740418E-1  
 6.386000000000000E7    -7.926265150308609E-2   9.842733144760132E-1   1.051737368106842E-1   8.237803354859352E-3   1.051611676812172E-1   8.261187002062798E-3  -7.587806880474091E-2   9.817168712615967E-1  
 6.388000000000000E7    -7.825388759374619E-2   9.845603704452515E-1   1.057322546839714E-1   8.084122091531754E-3   1.056519746780396E-1   8.190990425646305E-3  -7.503762841224670E-2   9.816111922264099E-1  
 6.390000000000000E7    -7.721153646707535E-2   9.844901561737061E-1   1.061674728989601E-1   8.169041946530342E-3   1.061012595891953E-1   8.174729533493519E-3  -7.427807152271271E-2   9.817660450935364E-1  
 6.392000000000000E7    -7.666675746440888E-2   9.845954775810242E-1   1.065370664000511E-1   8.068006485700607E-3   1.066587716341019E-1   8.014712482690811E-3  -7.287476956844330E-2   9.815020561218262E-1  
 6.394000000000000E7    -7.559146732091904E-2   9.845338463783264E-1   1.070234104990959E-1   7.932823151350021E-3   1.070688962936401E-1   7.984670810401440E-3  -7.231403142213821E-2   9.815548658370972E-1  
 6.396000000000000E7    -7.481810450553894E-2   9.847442507743835E-1   1.074727699160576E-1   7.898394018411636E-3   1.074704676866531E-1   7.954895496368408E-3  -7.145398110151291E-2   9.814212322235107E-1  
 6.398000000000000E7    -7.394966483116150E-2   9.844329357147217E-1   1.079692095518112E-1   7.856263779103756E-3   1.078698039054871E-1   7.909868843853474E-3  -7.062372565269470E-2   9.815570712089539E-1  
 6.400000000000000E7    -7.291311770677567E-2   9.847497344017029E-1   1.084782779216766E-1   7.844602689146996E-3   1.083817183971405E-1   7.748650386929512E-3  -6.964085251092911E-2   9.817286729812622E-1  
 6.402000000000000E7    -7.219699025154114E-2   9.844833612442017E-1   1.088450253009796E-1   7.808647118508816E-3   1.088415086269379E-1   7.806681562215090E-3  -6.905874609947205E-2   9.815714955329895E-1  
 6.404000000000000E7    -7.126497477293015E-2   9.848713874816895E-1   1.093308553099632E-1   7.721990346908569E-3   1.092415153980255E-1   7.680838927626610E-3  -6.798332184553146E-2   9.819020032882690E-1  
 6.406000000000000E7    -7.048646360635757E-2   9.846718311309815E-1   1.098382920026779E-1   7.656328845769167E-3   1.097001582384110E-1   7.640756666660309E-3  -6.693100929260254E-2   9.815740585327148E-1  
 6.408000000000000E7    -6.909766048192978E-2   9.847949147224426E-1   1.102951765060425E-1   7.564337458461523E-3   1.102575063705444E-1   7.480288855731487E-3  -6.583103537559509E-2   9.815968275070190E-1  
 6.410000000000000E7    -6.846637278795242E-2   9.846802353858948E-1   1.107989400625229E-1   7.435016334056854E-3   1.106915697455406E-1   7.495761848986149E-3  -6.490311771631241E-2   9.817947149276733E-1  
 6.412000000000000E7    -6.740413606166840E-2   9.849703311920166E-1   1.111961305141449E-1   7.361321244388819E-3   1.111543476581574E-1   7.442620582878590E-3  -6.412654370069504E-2   9.816469550132752E-1  
 6.414000000000000E7    -6.673961877822876E-2   9.848755002021790E-1   1.117341071367264E-1   7.326144725084305E-3   1.116635203361511E-1   7.379410788416863E-3  -6.285715848207474E-2   9.818446040153503E-1  
 6.416000000000000E7    -6.567686051130295E-2   9.848994016647339E-1   1.120941638946533E-1   7.294695358723402E-3   1.120194718241692E-1   7.329605519771576E-3  -6.240578740835190E-2   9.819435477256775E-1  
 6.418000000000000E7    -6.498456001281738E-2   9.848896861076355E-1   1.125456541776657E-1   7.212409283965826E-3   1.125165224075317E-1   7.249496411532164E-3  -6.163636967539787E-2   9.816918969154358E-1  
 6.420000000000000E7    -6.399349123239517E-2   9.847748279571533E-1   1.130626648664475E-1   7.162671070545912E-3   1.129871085286140E-1   7.146442774683237E-3  -6.060908362269402E-2   9.818606972694397E-1  
 6.422000000000000E7    -6.328109651803970E-2   9.849365353584290E-1   1.134965941309929E-1   7.024679798632860E-3   1.135079637169838E-1   7.068528793752194E-3  -5.986765772104263E-2   9.815320968627930E-1  
 6.424000000000000E7    -6.241551414132118E-2   9.844945073127747E-1   1.138728410005570E-1   7.028358988463879E-3   1.138473004102707E-1   6.987719330936670E-3  -5.908828601241112E-2   9.816849231719971E-1  
 6.426000000000000E7    -6.146914884448052E-2   9.844759702682495E-1   1.143582537770271E-1   6.918034050613642E-3   1.143010556697846E-1   6.970395799726248E-3  -5.795908346772194E-2   9.818085432052612E-1  
 6.428000000000000E7    -6.042205542325974E-2   9.848235249519348E-1   1.148145869374275E-1   6.717622280120850E-3   1.148122102022171E-1   6.848805584013462E-3  -5.695750564336777E-2   9.817459583282471E-1  
 6.430000000000000E7    -5.951240286231041E-2   9.849250316619873E-1   1.153309419751167E-1   6.740783341228962E-3   1.152423545718193E-1   6.680297665297985E-3  -5.587446689605713E-2   9.820347428321838E-1  
 6.432000000000000E7    -5.880022421479225E-2   9.847816824913025E-1   1.158049106597900E-1   6.660860031843185E-3   1.156700178980827E-1   6.669504567980766E-3  -5.513139814138413E-2   9.814639687538147E-1  
 6.434000000000000E7    -5.767945945262909E-2   9.843075275421143E-1   1.161523237824440E-1   6.594487931579351E-3   1.161228120326996E-1   6.563456263393164E-3  -5.426573008298874E-2   9.815629720687866E-1  
 6.436000000000000E7    -5.684029683470726E-2   9.849488735198975E-1   1.166705861687660E-1   6.581800524145365E-3   1.166661232709885E-1   6.554977968335152E-3  -5.362172797322273E-2   9.816799759864807E-1  
 6.438000000000000E7    -5.574008449912071E-2   9.845647811889648E-1   1.170734614133835E-1   6.442552432417870E-3   1.170230805873871E-1   6.357148755341768E-3  -5.254215002059937E-2   9.817916154861450E-1  
 6.440000000000000E7    -5.507628247141838E-2   9.846721291542053E-1   1.176024898886681E-1   6.336900405585766E-3   1.176028326153755E-1   6.407439708709717E-3  -5.155165493488312E-2   9.818692803382874E-1  
 6.442000000000000E7    -5.400060862302780E-2   9.850535392761231E-1   1.180811971426010E-1   6.328359711915255E-3   1.180877313017845E-1   6.314395926892757E-3  -5.113295465707779E-2   9.817920327186585E-1  
 6.444000000000000E7    -5.309515073895454E-2   9.847279787063599E-1   1.184571906924248E-1   6.187987048178911E-3   1.184229925274849E-1   6.176015362143517E-3  -4.974130168557167E-2   9.816920757293701E-1  
 6.446000000000000E7    -5.224248021841049E-2   9.847496151924133E-1   1.190267875790596E-1   6.133384071290493E-3   1.189167052507401E-1   6.102009676396847E-3  -4.905183240771294E-2   9.817885756492615E-1  
 6.448000000000000E7    -5.149126797914505E-2   9.849718213081360E-1   1.193839609622955E-1   6.059743929654360E-3   1.192800924181938E-1   6.080810911953449E-3  -4.805612191557884E-2   9.814121127128601E-1  
 6.450000000000000E7    -5.060596391558647E-2   9.846298098564148E-1   1.198283731937408E-1   5.963995121419430E-3   1.197805926203728E-1   6.011537276208401E-3  -4.750324785709381E-2   9.814863801002502E-1  
 6.452000000000000E7    -4.973224550485611E-2   9.844253063201904E-1   1.202229410409927E-1   5.929474718868733E-3   1.201642677187920E-1   5.900040268898010E-3  -4.623673483729363E-2   9.814524054527283E-1  
 6.454000000000000E7    -4.876797646284103E-2   9.848926663398743E-1   1.207589209079742E-1   5.803927779197693E-3   1.207103803753853E-1   5.834225565195084E-3  -4.565524309873581E-2   9.815407991409302E-1  
 6.456000000000000E7    -4.745915159583092E-2   9.847328066825867E-1   1.211535036563873E-1   5.569222848862410E-3   1.211784482002258E-1   5.653245840221643E-3  -4.449864476919174E-2   9.815788865089417E-1  
 6.458000000000000E7    -4.670131579041481E-2   9.849559068679810E-1   1.216798573732376E-1   5.599808879196644E-3   1.216467171907425E-1   5.534044466912746E-3  -4.330359026789665E-2   9.815688133239746E-1  
 6.460000000000000E7    -4.618111997842789E-2   9.848698973655701E-1   1.220442950725555E-1   5.515265278518200E-3   1.220974028110504E-1   5.612412001937628E-3  -4.264348000288010E-2   9.818205833435059E-1  
 6.462000000000000E7    -4.499230906367302E-2   9.845992326736450E-1   1.226217672228813E-1   5.434402264654636E-3   1.225793957710266E-1   5.487067159265280E-3  -4.182923585176468E-2   9.819091558456421E-1  
 6.464000000000000E7    -4.418575391173363E-2   9.847512245178223E-1   1.230289116501808E-1   5.277178250253201E-3   1.229699552059174E-1   5.322263576090336E-3  -4.083511605858803E-2   9.817614555358887E-1  
 6.466000000000000E7    -4.321768507361412E-2   9.844985008239746E-1   1.234912872314453E-1   5.215518642216921E-3   1.233665868639946E-1   5.188110750168562E-3  -3.949540853500366E-2   9.817891716957092E-1  
 6.468000000000000E7    -4.196319356560707E-2   9.846967458724976E-1   1.239358410239220E-1   5.060473456978798E-3   1.239179074764252E-1   5.137524101883173E-3  -3.891297057271004E-2   9.820551872253418E-1  
 6.470000000000000E7    -4.151315614581108E-2   9.849789738655090E-1   1.244083642959595E-1   5.016422830522060E-3   1.243986338376999E-1   5.074746906757355E-3  -3.840386122465134E-2   9.817271828651428E-1  
 6.472000000000000E7    -4.053742811083794E-2   9.849436283111572E-1   1.247736439108849E-1   5.027056206017733E-3   1.247745603322983E-1   4.964280873537064E-3  -3.718151152133942E-2   9.815295934677124E-1  
 6.474000000000000E7    -4.005011916160584E-2   9.845660328865051E-1   1.253000199794769E-1   4.882142879068852E-3   1.252219825983048E-1   4.927127622067928E-3  -3.620735555887222E-2   9.817763566970825E-1  
 6.476000000000000E7    -3.899709507822990E-2   9.850531220436096E-1   1.257146894931793E-1   4.851969890296459E-3   1.256359815597534E-1   4.803949035704136E-3  -3.573784604668617E-2   9.818289279937744E-1  
 6.478000000000000E7    -3.814597800374031E-2   9.848182201385498E-1   1.262019127607346E-1   4.704740829765797E-3   1.261200308799744E-1   4.784992896020412E-3  -3.450084105134010E-2   9.816356897354126E-1  
 6.480000000000000E7    -3.685811534523964E-2   9.846377968788147E-1   1.265927851200104E-1   4.526217002421618E-3   1.265683770179749E-1   4.584941081702709E-3  -3.372124582529068E-2   9.816060662269592E-1  
 6.482000000000000E7    -3.642535954713821E-2   9.847642183303833E-1   1.271409094333649E-1   4.386829212307930E-3   1.271060109138489E-1   4.442230798304081E-3  -3.231289610266686E-2   9.816434383392334E-1  
 6.484000000000000E7    -3.534102067351341E-2   9.848201870918274E-1   1.275643110275269E-1   4.342368803918362E-3   1.273870766162872E-1   4.272303543984890E-3  -3.188272565603256E-2   9.817259907722473E-1  
 6.486000000000000E7    -3.422334045171738E-2   9.845897555351257E-1   1.280282735824585E-1   4.314406774938107E-3   1.278895139694214E-1   4.271251615136862E-3  -3.142328187823296E-2   9.817218184471130E-1  
 6.488000000000000E7    -3.347565978765488E-2   9.845797419548035E-1   1.284376084804535E-1   4.203767515718937E-3   1.283454596996307E-1   4.240061156451702E-3  -3.011225350201130E-2   9.817379713058472E-1  
 6.490000000000000E7    -3.269360587000847E-2   9.845940470695496E-1   1.287735998630524E-1   4.051933530718088E-3   1.289146691560745E-1   4.064157139509916E-3  -2.933767437934876E-2   9.813355803489685E-1  
 6.492000000000000E7    -3.190695866942406E-2   9.843245744705200E-1   1.292900741100311E-1   3.965635783970356E-3   1.291789561510086E-1   3.902950789779425E-3  -2.836560644209385E-2   9.815986156463623E-1  
 6.494000000000000E7    -3.077512420713902E-2   9.846253395080566E-1   1.297777742147446E-1   3.969278186559677E-3   1.296378374099731E-1   3.907858394086361E-3  -2.763391286134720E-2   9.816917777061462E-1  
 6.496000000000000E7    -3.006090223789215E-2   9.846583008766174E-1   1.301081031560898E-1   3.789417445659638E-3   1.301285624504089E-1   3.840547986328602E-3  -2.664347551763058E-2   9.815353751182556E-1  
 6.498000000000000E7    -2.916252985596657E-2   9.846801161766052E-1   1.307474672794342E-1   3.667076118290424E-3   1.306006908416748E-1   3.740996355190873E-3  -2.571235038340092E-2   9.816028475761414E-1  
 6.500000000000000E7    -2.811184525489807E-2   9.843625426292419E-1   1.309893280267716E-1   3.498469479382038E-3   1.309409588575363E-1   3.565938211977482E-3  -2.474723011255264E-2   9.812071323394775E-1  
 6.502000000000000E7    -2.756515890359879E-2   9.845328330993652E-1   1.315697133541107E-1   3.518734825775027E-3   1.314330250024796E-1   3.580706892535090E-3  -2.398396469652653E-2   9.814348816871643E-1  
 6.504000000000000E7    -2.663231827318668E-2   9.846258759498596E-1   1.319097429513931E-1   3.395688254386187E-3   1.319724917411804E-1   3.462733933702111E-3  -2.323140390217304E-2   9.813246130943298E-1  
 6.506000000000000E7    -2.587405219674110E-2   9.843000769615173E-1   1.323595643043518E-1   3.262159414589405E-3   1.323626637458801E-1   3.248730674386025E-3  -2.231476828455925E-2   9.813722968101502E-1  
 6.508000000000000E7    -2.500187978148460E-2   9.843642711639404E-1   1.329004168510437E-1   3.105147276073694E-3   1.327964812517166E-1   3.157094353809953E-3  -2.110183797776699E-2   9.811235070228577E-1  
 6.510000000000000E7    -2.376584708690643E-2   9.844237565994263E-1   1.333860605955124E-1   3.047273727133870E-3   1.331980526447296E-1   3.165894187986851E-3  -2.090904116630554E-2   9.809921979904175E-1  
 6.512000000000000E7    -2.271805517375469E-2   9.842451810836792E-1   1.337166428565979E-1   2.834956161677837E-3   1.336434781551361E-1   2.957617398351431E-3  -1.952273584902287E-2   9.811599254608154E-1  
 6.514000000000000E7    -2.195576019585133E-2   9.843055605888367E-1   1.341993659734726E-1   2.923660911619663E-3   1.341267377138138E-1   2.847819589078426E-3  -1.875917240977287E-2   9.808692932128906E-1  
 6.516000000000000E7    -2.125996910035610E-2   9.842391610145569E-1   1.346149891614914E-1   2.705400111153722E-3   1.346890479326248E-1   2.680445322766900E-3  -1.763225533068180E-2   9.809934496879578E-1  
 6.518000000000000E7    -2.029471285641193E-2   9.843503832817078E-1   1.350653469562531E-1   2.603982575237751E-3   1.349411010742188E-1   2.672400325536728E-3  -1.701269112527371E-2   9.808639883995056E-1  
 6.520000000000000E7    -1.897667162120342E-2   9.844242334365845E-1   1.355372518301010E-1   2.472154330462217E-3   1.355328410863876E-1   2.420855220407248E-3  -1.582066901028156E-2   9.813247323036194E-1  
 6.522000000000000E7    -1.850017718970776E-2   9.840548634529114E-1   1.359795480966568E-1   2.334341173991561E-3   1.358751505613327E-1   2.375220414251089E-3  -1.531838160008192E-2   9.810342788696289E-1  
 6.524000000000000E7    -1.734407804906368E-2   9.842643737792969E-1   1.363935172557831E-1   2.276483457535505E-3   1.363835036754608E-1   2.191051142290235E-3  -1.400073245167732E-2   9.813076853752136E-1  
 6.526000000000000E7    -1.656584069132805E-2   9.840158820152283E-1   1.367740333080292E-1   2.037800382822752E-3   1.368714570999146E-1   2.116562100127339E-3  -1.308995299041271E-2   9.809354543685913E-1  
 6.528000000000000E7    -1.586101949214935E-2   9.841217398643494E-1   1.371789872646332E-1   1.982289832085371E-3   1.371144205331802E-1   1.968810800462961E-3  -1.272738445550203E-2   9.804475903511047E-1  
 6.530000000000000E7    -1.512053329497576E-2   9.838442802429199E-1   1.376864612102509E-1   1.855714479461312E-3   1.376529335975647E-1   1.843437668867409E-3  -1.149301044642925E-2   9.808161854743958E-1  
 6.532000000000000E7    -1.429102011024952E-2   9.837147593498230E-1   1.380712836980820E-1   1.785175874829292E-3   1.380916982889175E-1   1.937983208335936E-3  -1.079413108527660E-2   9.805291295051575E-1  
 6.534000000000000E7    -1.331896521151066E-2   9.835533499717712E-1   1.385862827301025E-1   1.526927109807730E-3   1.385543644428253E-1   1.702234032563865E-3  -9.803005494177342E-3   9.806733727455139E-1  
 6.536000000000000E7    -1.258766278624535E-2   9.842012524604797E-1   1.389243304729462E-1   1.562469173222780E-3   1.390775144100189E-1   1.569853047840297E-3  -8.917532861232758E-3   9.806383252143860E-1  
 6.538000000000000E7    -1.140378229320049E-2   9.836429953575134E-1   1.394860297441483E-1   1.451420946978033E-3   1.394405663013458E-1   1.444705994799733E-3  -8.004961535334587E-3   9.805797934532166E-1  
 6.540000000000000E7    -1.015635300427675E-2   9.835868477821350E-1   1.399684548377991E-1   1.331715960986912E-3   1.397812217473984E-1   1.313764718361199E-3  -7.177456282079220E-3   9.804613590240479E-1  
 6.542000000000000E7    -1.001690607517958E-2   9.834094047546387E-1   1.403758376836777E-1   1.225926913321018E-3   1.403387188911438E-1   1.311520813032985E-3  -6.502916105091572E-3   9.807676672935486E-1  
 6.544000000000000E7    -8.661140687763691E-3   9.837090969085693E-1   1.407272368669510E-1   1.068476820364595E-3   1.406502574682236E-1   1.139666885137558E-3  -5.696158390492201E-3   9.802886247634888E-1  
 6.546000000000000E7    -7.914060726761818E-3   9.835924506187439E-1   1.412336528301239E-1   9.652569424360991E-4   1.411773264408112E-1   9.696703637018800E-4  -4.443505778908730E-3   9.803149104118347E-1  
 6.548000000000000E7    -7.284700404852629E-3   9.837147593498230E-1   1.416991055011749E-1   8.797569898888469E-4   1.416389346122742E-1   9.947319049388170E-4  -3.693625563755631E-3   9.802771210670471E-1  
 6.550000000000000E7    -6.076878402382135E-3   9.835435748100281E-1   1.421311050653458E-1   7.593038608320057E-4   1.420211344957352E-1   6.695686606690288E-4  -2.896270947530866E-3   9.801589846611023E-1  
 6.552000000000000E7    -5.222243722528219E-3   9.834846258163452E-1   1.425148099660873E-1   4.915762110613287E-4   1.425276249647141E-1   6.627215188927949E-4  -2.102764556184411E-3   9.801735877990723E-1  
 6.554000000000000E7    -4.548674449324608E-3   9.834776520729065E-1   1.429500430822372E-1   5.209019873291254E-4   1.428722739219666E-1   5.324789672158659E-4  -1.054728170856834E-3   9.802753329277039E-1  
 6.556000000000000E7    -3.641998395323753E-3   9.834294319152832E-1   1.434053778648377E-1   2.964366576634347E-4   1.433187127113342E-1   3.970231045968831E-4  -9.317087096860632E-5   9.800226092338562E-1  
 6.558000000000000E7    -2.927613211795688E-3   9.832762479782105E-1   1.437688469886780E-1   2.225956413894892E-4   1.437465548515320E-1   2.986438921652734E-4   6.165564409457147E-4   9.801359176635742E-1  
 6.560000000000000E7    -1.973517006263137E-3   9.833374619483948E-1   1.442876905202866E-1   1.221729326061904E-4   1.441658586263657E-1   1.015433226712048E-4   1.455686055123806E-3   9.801340103149414E-1  
 6.562000000000000E7    -9.667149279266596E-4   9.831709265708923E-1   1.446692794561386E-1   1.108768719859654E-5   1.447022408246994E-1  -9.235512698069215E-5   2.305182162672281E-3   9.801472425460815E-1  
 6.564000000000000E7    -3.646817640401423E-4   9.832098484039307E-1   1.450664103031158E-1  -1.904745586216450E-4   1.450965404510498E-1  -1.837413292378187E-4   3.457464743405581E-3   9.797770977020264E-1  
 6.566000000000000E7     1.070005702786148E-3   9.829453825950623E-1   1.455157846212387E-1  -2.731495187617838E-4   1.455053091049194E-1  -3.846794716082513E-4   4.346062894910574E-3   9.798663258552551E-1  
 6.568000000000000E7     1.749653834849596E-3   9.830778241157532E-1   1.461148858070374E-1  -4.737098934128881E-4   1.459335386753082E-1  -5.061695701442659E-4   5.289025139063597E-3   9.798170328140259E-1  
 6.570000000000000E7     2.664573956280947E-3   9.827583432197571E-1   1.463511735200882E-1  -5.528980982489884E-4   1.463443636894226E-1  -5.232578841969371E-4   5.867180414497852E-3   9.796764254570007E-1  
 6.572000000000000E7     3.356281900778413E-3   9.828921556472778E-1   1.468986123800278E-1  -6.407475448213518E-4   1.468377709388733E-1  -6.320215761661530E-4   6.672840099781752E-3   9.798394441604614E-1  
 6.574000000000000E7     4.340781364589930E-3   9.828889369964600E-1   1.472511142492294E-1  -7.364461198449135E-4   1.472255736589432E-1  -7.277303375303745E-4   7.392112165689468E-3   9.795401692390442E-1  
 6.576000000000000E7     5.150717217475176E-3   9.828323721885681E-1   1.477613300085068E-1  -1.047355355694890E-3   1.476318389177322E-1  -8.974476950243115E-4   8.675159886479378E-3   9.794925451278687E-1  
 6.578000000000000E7     6.139427423477173E-3   9.823981523513794E-1   1.482158750295639E-1  -1.163019100204110E-3   1.480441391468048E-1  -1.173394266515970E-3   9.518614970147610E-3   9.793668985366821E-1  
 6.580000000000000E7     6.620649714022875E-3   9.825978279113770E-1   1.485563963651657E-1  -1.164507237263024E-3   1.485450118780136E-1  -1.169022871181369E-3   1.047900225967169E-2   9.792881608009338E-1  
 6.582000000000000E7     8.009900338947773E-3   9.822853207588196E-1   1.490884721279144E-1  -1.388018717989326E-3   1.489554047584534E-1  -1.392362406477332E-3   1.094469521194696E-2   9.793170094490051E-1  
 6.584000000000000E7     8.510420098900795E-3   9.825711846351624E-1   1.494804322719574E-1  -1.529475441202521E-3   1.494125276803970E-1  -1.565729966387153E-3   1.228716503828764E-2   9.794172048568726E-1  
 6.586000000000000E7     9.602125734090805E-3   9.822311401367188E-1   1.498072743415833E-1  -1.667399890720844E-3   1.497943550348282E-1  -1.598991919308901E-3   1.268667820841074E-2   9.789808392524719E-1  
 6.588000000000000E7     1.030109263956547E-2   9.820286631584168E-1   1.502850651741028E-1  -1.865219324827194E-3   1.501304209232330E-1  -1.729362527839840E-3   1.412300486117601E-2   9.788781404495239E-1  
 6.590000000000000E7     1.107100304216147E-2   9.819899797439575E-1   1.508063077926636E-1  -1.908061210997403E-3   1.506563425064087E-1  -1.942684873938561E-3   1.519726216793060E-2   9.789677262306213E-1  
 6.592000000000000E7     1.227523572742939E-2   9.818918108940125E-1   1.511204838752747E-1  -2.249352168291807E-3   1.509965509176254E-1  -2.082885242998600E-3   1.594603434205055E-2   9.791026711463928E-1  
 6.594000000000000E7     1.282876450568438E-2   9.819834828376770E-1   1.515623033046722E-1  -2.156777074560523E-3   1.515318751335144E-1  -2.049347152933478E-3   1.634115725755692E-2   9.791423678398132E-1  
 6.596000000000000E7     1.383727043867111E-2   9.819858074188232E-1   1.519621312618256E-1  -2.390474546700716E-3   1.519557833671570E-1  -2.299007494002581E-3   1.748628541827202E-2   9.786594510078430E-1  
 6.598000000000000E7     1.482959929853678E-2   9.818859100341797E-1   1.524999290704727E-1  -2.538540400564671E-3   1.524266749620438E-1  -2.371630631387234E-3   1.848444342613220E-2   9.785502552986145E-1  
 6.600000000000000E7     1.584519445896149E-2   9.817205071449280E-1   1.529416590929031E-1  -2.628342248499394E-3   1.527738273143768E-1  -2.555524930357933E-3   1.894729398190975E-2   9.784066677093506E-1  
 6.602000000000000E7     1.668281853199005E-2   9.819343090057373E-1   1.532358080148697E-1  -2.779828151687980E-3   1.532142460346222E-1  -2.669993322342634E-3   1.961342990398407E-2   9.784917235374451E-1  
 6.604000000000000E7     1.734291762113571E-2   9.811194539070129E-1   1.537493020296097E-1  -2.890615025535226E-3   1.536109149456024E-1  -2.983931452035904E-3   2.099369093775749E-2   9.787132143974304E-1  
 6.606000000000000E7     1.846840232610703E-2   9.817278385162354E-1   1.541239172220230E-1  -3.161404747515917E-3   1.540827900171280E-1  -3.134801983833313E-3   2.171912044286728E-2   9.782963991165161E-1  
 6.608000000000000E7     1.937068253755570E-2   9.813095927238464E-1   1.545808166265488E-1  -3.208405571058393E-3   1.546549201011658E-1  -3.180715255439282E-3   2.241877652704716E-2   9.783266186714172E-1  
 6.610000000000000E7     2.012144774198532E-2   9.813119769096375E-1   1.551117897033691E-1  -3.330205567181110E-3   1.549025028944016E-1  -3.364220261573792E-3   2.349652908742428E-2   9.786543250083923E-1  
 6.612000000000000E7     2.122915908694267E-2   9.812011718750000E-1   1.554194688796997E-1  -3.588163992390037E-3   1.553908735513687E-1  -3.593088127672672E-3   2.426015399396420E-2   9.780542850494385E-1  
 6.614000000000000E7     2.146866545081139E-2   9.811426401138306E-1   1.558085530996323E-1  -3.711374476552010E-3   1.557804495096207E-1  -3.464468754827976E-3   2.553297206759453E-2   9.782522916793823E-1  
 6.616000000000000E7     2.265754342079163E-2   9.811880588531494E-1   1.562690883874893E-1  -3.803569125011563E-3   1.560425758361816E-1  -3.850507549941540E-3   2.616242505609989E-2   9.777027368545532E-1  
 6.618000000000000E7     2.314180321991444E-2   9.810196161270142E-1   1.565940678119659E-1  -3.877931507304311E-3   1.566366404294968E-1  -3.968471661210060E-3   2.709786593914032E-2   9.777070283889771E-1  
 6.620000000000000E7     2.431554906070232E-2   9.810169339179993E-1   1.570290476083756E-1  -4.087371286004782E-3   1.570662260055542E-1  -4.007432144135237E-3   2.799029834568501E-2   9.774299263954163E-1  
 6.622000000000000E7     2.530451677739620E-2   9.810457229614258E-1   1.575560569763184E-1  -4.255843348801136E-3   1.575026661157608E-1  -4.297089762985706E-3   2.886643819510937E-2   9.778728485107422E-1  
 6.624000000000000E7     2.626421302556992E-2   9.811013936996460E-1   1.579364389181137E-1  -4.477337934076786E-3   1.579133570194244E-1  -4.361825063824654E-3   2.952928468585014E-2   9.774566888809204E-1  
 6.626000000000000E7     2.728942222893238E-2   9.806838631629944E-1   1.583479940891266E-1  -4.623626358807087E-3   1.583226770162582E-1  -4.521069116890431E-3   3.039613738656044E-2   9.775238633155823E-1  
 6.628000000000000E7     2.763736620545387E-2   9.807199835777283E-1   1.587926447391510E-1  -4.745337180793285E-3   1.587005257606506E-1  -4.676345735788345E-3   3.102818690240383E-2   9.772213697433472E-1  
 6.630000000000000E7     2.857774682343006E-2   9.807690978050232E-1   1.593432724475861E-1  -4.780608229339123E-3   1.591759175062180E-1  -4.745813086628914E-3   3.204919770359993E-2   9.774680733680725E-1  
 6.632000000000000E7     2.965020015835762E-2   9.804435968399048E-1   1.596848517656326E-1  -5.007455125451088E-3   1.595601141452789E-1  -4.983171820640564E-3   3.285784646868706E-2   9.775992631912231E-1  
 6.634000000000000E7     3.055030480027199E-2   9.804447889328003E-1   1.599600315093994E-1  -5.200261250138283E-3   1.599385589361191E-1  -5.119645502418280E-3   3.385420888662338E-2   9.772660732269287E-1  
 6.636000000000000E7     3.132288530468941E-2   9.800459742546082E-1   1.604773998260498E-1  -5.296567454934120E-3   1.604336351156235E-1  -5.335935857146978E-3   3.474047407507896E-2   9.772917628288269E-1  
 6.638000000000000E7     3.189627453684807E-2   9.804683327674866E-1   1.609271466732025E-1  -5.510501563549042E-3   1.608654111623764E-1  -5.480047315359116E-3   3.550143912434578E-2   9.770810604095459E-1  
 6.640000000000000E7     3.294605761766434E-2   9.800084233283997E-1   1.613637804985046E-1  -5.674008280038834E-3   1.612690687179565E-1  -5.657606758177280E-3   3.667173534631729E-2   9.766849875450134E-1  
 6.642000000000000E7     3.358201682567596E-2   9.799597859382629E-1   1.617260426282883E-1  -5.753925070166588E-3   1.616365611553192E-1  -5.751666612923145E-3   3.722694143652916E-2   9.769449234008789E-1  
 6.644000000000000E7     3.457057476043701E-2   9.801543354988098E-1   1.622027158737183E-1  -6.007796153426170E-3   1.619904637336731E-1  -5.905336700379849E-3   3.814947977662087E-2   9.764113426208496E-1  
 6.646000000000000E7     3.555805608630180E-2   9.798583388328552E-1   1.624119877815247E-1  -6.105403881520033E-3   1.625130027532578E-1  -6.142342463135719E-3   3.915117681026459E-2   9.762180447578430E-1  
 6.648000000000000E7     3.650115057826042E-2   9.798946380615234E-1   1.629931926727295E-1  -6.390040740370750E-3   1.627160161733627E-1  -6.162688136100769E-3   3.993510454893112E-2   9.767170548439026E-1  
 6.650000000000000E7     3.707236424088478E-2   9.794580936431885E-1   1.633723080158234E-1  -6.396318785846233E-3   1.633099913597107E-1  -6.342055276036263E-3   4.071678221225739E-2   9.764400124549866E-1  
 6.652000000000000E7     3.794457763433456E-2   9.791905879974365E-1   1.637229919433594E-1  -6.555463187396526E-3   1.636684387922287E-1  -6.555047351866961E-3   4.178323969244957E-2   9.765614271163940E-1  
 6.654000000000000E7     3.907265886664391E-2   9.795650243759155E-1   1.640436798334122E-1  -6.697657052427530E-3   1.641037315130234E-1  -6.718242075294256E-3   4.213415458798409E-2   9.760762453079224E-1  
 6.656000000000000E7     3.969907015562058E-2   9.794406890869141E-1   1.646657437086105E-1  -6.915054284036160E-3   1.646497696638107E-1  -6.786932703107595E-3   4.325564950704575E-2   9.760377407073975E-1  
 6.658000000000000E7     4.086669534444809E-2   9.793618917465210E-1   1.650022417306900E-1  -7.050747051835060E-3   1.651082485914230E-1  -7.045441772788763E-3   4.391488060355187E-2   9.761291742324829E-1  
 6.660000000000000E7     4.147103056311607E-2   9.789823293685913E-1   1.653797030448914E-1  -7.209452800452709E-3   1.653507947921753E-1  -7.152791135013104E-3   4.500095918774605E-2   9.757701158523560E-1  
 6.662000000000000E7     4.214145243167877E-2   9.789146780967712E-1   1.658484637737274E-1  -7.481390610337257E-3   1.657731384038925E-1  -7.149963639676571E-3   4.561224207282066E-2   9.756829738616943E-1  
 6.664000000000000E7     4.315027222037315E-2   9.786831140518189E-1   1.662425100803375E-1  -7.651263382285833E-3   1.661612540483475E-1  -7.584660314023495E-3   4.704689607024193E-2   9.758247733116150E-1  
 6.666000000000000E7     4.374707490205765E-2   9.785877466201782E-1   1.666563153266907E-1  -7.745459210127592E-3   1.665487885475159E-1  -7.745711598545313E-3   4.740085452795029E-2   9.757441878318787E-1  
 6.668000000000000E7     4.513258859515190E-2   9.787571430206299E-1   1.670058220624924E-1  -7.938316091895104E-3   1.671685874462128E-1  -7.808985654264689E-3   4.825479909777641E-2   9.753108024597168E-1  
 6.670000000000000E7     4.573601856827736E-2   9.786096215248108E-1   1.673410236835480E-1  -8.127207867801189E-3   1.674827933311462E-1  -8.059726096689701E-3   4.942225292325020E-2   9.753733873367310E-1  
 6.672000000000000E7     4.682347923517227E-2   9.781306982040405E-1   1.678084880113602E-1  -8.353775367140770E-3   1.677607297897339E-1  -8.215988054871559E-3   5.020445957779884E-2   9.749159216880798E-1  
 6.674000000000000E7     4.748101904988289E-2   9.784502387046814E-1   1.684749722480774E-1  -8.491794578731060E-3   1.683378368616104E-1  -8.321169763803482E-3   5.144155770540237E-2   9.752138853073120E-1  
 6.676000000000000E7     4.815234243869782E-2   9.779083728790283E-1   1.687384098768234E-1  -8.574320934712887E-3   1.686493009328842E-1  -8.570948615670204E-3   5.151598900556564E-2   9.749459624290466E-1  
 6.678000000000000E7     4.943358898162842E-2   9.777979254722595E-1   1.692139506340027E-1  -8.764357306063175E-3   1.689462959766388E-1  -8.787902072072029E-3   5.249068886041641E-2   9.749219417572022E-1  
 6.680000000000000E7     5.020020529627800E-2   9.778684377670288E-1   1.696011275053024E-1  -8.867204189300537E-3   1.695679277181625E-1  -8.899047039449215E-3   5.363936722278595E-2   9.748611450195313E-1  
 6.682000000000000E7     5.111207813024521E-2   9.779927134513855E-1   1.699293553829193E-1  -9.133907966315746E-3   1.699154525995255E-1  -9.091703221201897E-3   5.439686402678490E-2   9.745652079582214E-1  
 6.684000000000000E7     5.220573022961617E-2   9.775813817977905E-1   1.703360527753830E-1  -9.265508502721787E-3   1.702572852373123E-1  -9.299480356276035E-3   5.530890449881554E-2   9.743639230728149E-1  
 6.686000000000000E7     5.277883261442184E-2   9.774252176284790E-1   1.708035469055176E-1  -9.370984509587288E-3   1.706936657428742E-1  -9.457975625991821E-3   5.582747980952263E-2   9.744507074356079E-1  
 6.688000000000000E7     5.339555442333221E-2   9.776650071144104E-1   1.712907552719116E-1  -9.538638405501843E-3   1.711010783910751E-1  -9.471406228840351E-3   5.687890946865082E-2   9.743510484695435E-1  
 6.690000000000000E7     5.438771843910217E-2   9.774824976921082E-1   1.717580854892731E-1  -9.667456150054932E-3   1.717283129692078E-1  -9.600767865777016E-3   5.743068084120750E-2   9.745626449584961E-1  
 6.692000000000000E7     5.542703717947006E-2   9.770907163619995E-1   1.720223128795624E-1  -1.004724204540253E-2   1.719810664653778E-1  -9.914315305650234E-3   5.878549069166184E-2   9.742488861083984E-1  
 6.694000000000000E7     5.617717280983925E-2   9.770491123199463E-1   1.724436879158020E-1  -1.013651676476002E-2   1.722466498613358E-1  -1.010262407362461E-2   5.956482514739037E-2   9.737873673439026E-1  
 6.696000000000000E7     5.709242448210716E-2   9.769311547279358E-1   1.728718578815460E-1  -1.027930714190006E-2   1.726468950510025E-1  -1.029913313686848E-2   6.038528680801392E-2   9.742984771728516E-1  
 6.698000000000000E7     5.745954811573029E-2   9.766017794609070E-1   1.731754839420319E-1  -1.040479727089405E-2   1.730007827281952E-1  -1.038302853703499E-2   6.102610751986504E-2   9.735373258590698E-1  
 6.700000000000000E7     5.848303437232971E-2   9.765719175338745E-1   1.735586971044540E-1  -1.065941061824560E-2   1.735506951808929E-1  -1.057434640824795E-2   6.217940524220467E-2   9.733604192733765E-1  
 6.702000000000000E7     5.957204475998879E-2   9.763683080673218E-1   1.741048544645309E-1  -1.088062860071659E-2   1.738578677177429E-1  -1.070615462958813E-2   6.296961754560471E-2   9.735052585601807E-1  
 6.704000000000000E7     6.025022268295288E-2   9.765756726264954E-1   1.743720322847366E-1  -1.110672950744629E-2   1.743989288806915E-1  -1.092994492501020E-2   6.383820623159409E-2   9.734835624694824E-1  
 6.706000000000000E7     6.137911602854729E-2   9.763307571411133E-1   1.749132871627808E-1  -1.121656410396099E-2   1.746983081102371E-1  -1.132387854158878E-2   6.473159044981003E-2   9.732895493507385E-1  
 6.708000000000000E7     6.218456849455833E-2   9.761596918106079E-1   1.754386425018311E-1  -1.135807111859322E-2   1.751926243305206E-1  -1.145171374082565E-2   6.546090543270111E-2   9.730672240257263E-1  
 6.710000000000000E7     6.287816911935806E-2   9.761785268783569E-1   1.757177114486694E-1  -1.155912969261408E-2   1.755904108285904E-1  -1.149822678416967E-2   6.615338474512100E-2   9.729948639869690E-1  
 6.712000000000000E7     6.380930542945862E-2   9.764404296875000E-1   1.761023849248886E-1  -1.171644404530525E-2   1.759700626134872E-1  -1.162871159613133E-2   6.673447787761688E-2   9.727103114128113E-1  
 6.714000000000000E7     6.473477929830551E-2   9.762514233589172E-1   1.765665709972382E-1  -1.196522265672684E-2   1.764387786388397E-1  -1.199558563530445E-2   6.790040433406830E-2   9.725789427757263E-1  
 6.716000000000000E7     6.557844579219818E-2   9.756164550781250E-1   1.769000291824341E-1  -1.196271367371082E-2   1.768278330564499E-1  -1.198936440050602E-2   6.836063414812088E-2   9.726699590682983E-1  
 6.718000000000000E7     6.650117784738541E-2   9.754323959350586E-1   1.772349476814270E-1  -1.240663230419159E-2   1.771108955144882E-1  -1.238520815968514E-2   6.963939964771271E-2   9.724537134170532E-1  
 6.720000000000000E7     6.754229217767716E-2   9.757381081581116E-1   1.776650100946426E-1  -1.250371895730496E-2   1.775576919317246E-1  -1.239312998950481E-2   7.042250037193298E-2   9.723699092864990E-1  
 6.722000000000000E7     6.804855912923813E-2   9.758195281028748E-1   1.781384348869324E-1  -1.252056844532490E-2   1.780335009098053E-1  -1.256219111382961E-2   7.119993120431900E-2   9.725834131240845E-1  
 6.724000000000000E7     6.919582188129425E-2   9.752967357635498E-1   1.785178631544113E-1  -1.301542483270168E-2   1.784269511699677E-1  -1.290935464203358E-2   7.214170694351196E-2   9.717210531234741E-1  
 6.726000000000000E7     6.991430371999741E-2   9.750968217849731E-1   1.789034157991409E-1  -1.312231086194515E-2   1.788724809885025E-1  -1.317760162055492E-2   7.311197370290756E-2   9.719803333282471E-1  
 6.728000000000000E7     7.042980939149857E-2   9.748613238334656E-1   1.792903691530228E-1  -1.322399638593197E-2   1.792291998863220E-1  -1.315841265022755E-2   7.373388111591339E-2   9.720486998558044E-1  
 6.730000000000000E7     7.118730992078781E-2   9.751276969909668E-1   1.798573285341263E-1  -1.336374599486589E-2   1.797454655170441E-1  -1.334220729768276E-2   7.482733577489853E-2   9.718464016914368E-1  
 6.732000000000000E7     7.246386259794235E-2   9.747917652130127E-1   1.800519526004791E-1  -1.359675824642181E-2   1.799993813037872E-1  -1.348417997360230E-2   7.508622854948044E-2   9.714300036430359E-1  
 6.734000000000000E7     7.345129549503326E-2   9.750033020973206E-1   1.805176436901093E-1  -1.378903724253178E-2   1.804706454277039E-1  -1.377271488308907E-2   7.637556642293930E-2   9.712778925895691E-1  
 6.736000000000000E7     7.413973659276962E-2   9.745146632194519E-1   1.809324771165848E-1  -1.399421133100987E-2   1.808648854494095E-1  -1.382225193083286E-2   7.685650885105133E-2   9.715495109558106E-1  
 6.738000000000000E7     7.501126825809479E-2   9.746184349060059E-1   1.812397241592407E-1  -1.413543336093426E-2   1.813077628612518E-1  -1.419735793024302E-2   7.852768898010254E-2   9.712648391723633E-1  
 6.740000000000000E7     7.569960504770279E-2   9.741277694702148E-1   1.817396581172943E-1  -1.425283122807741E-2   1.815563887357712E-1  -1.444988697767258E-2   7.891756296157837E-2   9.710152745246887E-1  
 6.742000000000000E7     7.655645161867142E-2   9.740200042724609E-1   1.819993406534195E-1  -1.451168581843376E-2   1.820670813322067E-1  -1.449002791196108E-2   7.956708222627640E-2   9.710298776626587E-1  
 6.744000000000000E7     7.749333232641220E-2   9.739488959312439E-1   1.824342459440231E-1  -1.473432499915361E-2   1.824791133403778E-1  -1.475759502500296E-2   8.034181594848633E-2   9.707055091857910E-1  
 6.746000000000000E7     7.834748923778534E-2   9.735077619552612E-1   1.828045994043350E-1  -1.511072274297476E-2   1.827406436204910E-1  -1.488638576120138E-2   8.160006999969482E-2   9.704003930091858E-1  
 6.748000000000000E7     7.904548943042755E-2   9.733698964118958E-1   1.832010149955750E-1  -1.503402180969715E-2   1.831128001213074E-1  -1.510898955166340E-2   8.240152895450592E-2   9.706458449363709E-1  
 6.750000000000000E7     7.945457100868225E-2   9.736478924751282E-1   1.835239082574844E-1  -1.527889631688595E-2   1.836153864860535E-1  -1.517476979643107E-2   8.314135670661926E-2   9.702295064926148E-1  
 6.752000000000000E7     8.053909987211227E-2   9.734441041946411E-1   1.840563118457794E-1  -1.554827205836773E-2   1.838647425174713E-1  -1.545030437409878E-2   8.416648954153061E-2   9.698576927185059E-1  
 6.754000000000000E7     8.162236958742142E-2   9.734012484550476E-1   1.845351606607437E-1  -1.573327742516995E-2   1.843872070312500E-1  -1.570527255535126E-2   8.492324501276016E-2   9.700428247451782E-1  
 6.756000000000000E7     8.222972601652145E-2   9.728522896766663E-1   1.848562955856323E-1  -1.585683971643448E-2   1.846742033958435E-1  -1.588659547269344E-2   8.569949865341187E-2   9.697414040565491E-1  
 6.758000000000000E7     8.317348361015320E-2   9.727096557617188E-1   1.852916032075882E-1  -1.620849594473839E-2   1.852808147668839E-1  -1.610551401972771E-2   8.656126260757446E-2   9.699324369430542E-1  
 6.760000000000000E7     8.370904624462128E-2   9.725357294082642E-1   1.857165396213532E-1  -1.620874181389809E-2   1.856193393468857E-1  -1.629745960235596E-2   8.763774484395981E-2   9.697757959365845E-1  
 6.762000000000000E7     8.511248230934143E-2   9.724298119544983E-1   1.859459578990936E-1  -1.657341048121452E-2   1.859667748212814E-1  -1.647103577852249E-2   8.828204125165939E-2   9.696477055549622E-1  
 6.764000000000000E7     8.581955730915070E-2   9.725649952888489E-1   1.865797340869904E-1  -1.668503880500794E-2   1.865351796150208E-1  -1.666515320539475E-2   8.902499824762344E-2   9.694322347640991E-1  
 6.766000000000000E7     8.643324673175812E-2   9.723519682884216E-1   1.868721246719360E-1  -1.694216206669807E-2   1.868908405303955E-1  -1.687715016305447E-2   8.994424343109131E-2   9.694329500198364E-1  
 6.768000000000000E7     8.743210881948471E-2   9.720084071159363E-1   1.872529089450836E-1  -1.708618178963661E-2   1.871704310178757E-1  -1.704385690391064E-2   9.054102748632431E-2   9.691559076309204E-1  
 6.770000000000000E7     8.826536685228348E-2   9.723740816116333E-1   1.875789314508438E-1  -1.735726557672024E-2   1.875063776969910E-1  -1.733842119574547E-2   9.160549193620682E-2   9.686267971992493E-1  
 6.772000000000000E7     8.909446001052856E-2   9.717536568641663E-1   1.880077421665192E-1  -1.742224395275116E-2   1.879309117794037E-1  -1.743187569081783E-2   9.244553744792938E-2   9.689682722091675E-1  
 6.774000000000000E7     8.960209041833878E-2   9.716807007789612E-1   1.883270442485809E-1  -1.768504083156586E-2   1.882775425910950E-1  -1.759550906717777E-2   9.309233725070953E-2   9.684719443321228E-1  
 6.776000000000000E7     9.102558344602585E-2   9.715825915336609E-1   1.887708455324173E-1  -1.791109144687653E-2   1.888719350099564E-1  -1.787010021507740E-2   9.415720403194428E-2   9.684357643127441E-1  
 6.778000000000000E7     9.138093888759613E-2   9.711782336235046E-1   1.890195161104202E-1  -1.806434057652950E-2   1.889966428279877E-1  -1.804626546800137E-2   9.474760293960571E-2   9.682167768478394E-1  
 6.780000000000000E7     9.224579483270645E-2   9.710729718208313E-1   1.895669698715210E-1  -1.833882555365562E-2   1.894532144069672E-1  -1.826634630560875E-2   9.574542939662933E-2   9.680289030075073E-1  
 6.782000000000000E7     9.337981790304184E-2   9.709365367889404E-1   1.898023039102554E-1  -1.861584745347500E-2   1.898288130760193E-1  -1.837552711367607E-2   9.662152081727982E-2   9.679151177406311E-1  
 6.784000000000000E7     9.354750066995621E-2   9.710971713066101E-1   1.902579367160797E-1  -1.860853284597397E-2   1.901697665452957E-1  -1.856576651334763E-2   9.735181182622910E-2   9.676494598388672E-1  
 6.786000000000000E7     9.486673027276993E-2   9.707645773887634E-1   1.906633824110031E-1  -1.890705898404121E-2   1.906520873308182E-1  -1.899246871471405E-2   9.859266877174377E-2   9.674215316772461E-1  
 6.788000000000000E7     9.575416892766953E-2   9.707487225532532E-1   1.910820901393890E-1  -1.911924034357071E-2   1.910071671009064E-1  -1.897608861327171E-2   9.892899543046951E-2   9.674989581108093E-1  
 6.790000000000000E7     9.692969918251038E-2   9.704818725585938E-1   1.914711147546768E-1  -1.950587145984173E-2   1.914176642894745E-1  -1.918854936957359E-2   1.001834198832512E-1   9.672393202781677E-1  
 6.792000000000000E7     9.755106270313263E-2   9.704229235649109E-1   1.918232589960098E-1  -1.945025101304054E-2   1.916946768760681E-1  -1.945885457098484E-2   1.006635725498200E-1   9.669350981712341E-1  
 6.794000000000000E7     9.838757663965225E-2   9.698981046676636E-1   1.923328638076782E-1  -1.987075060606003E-2   1.922120749950409E-1  -1.970785669982433E-2   1.016046777367592E-1   9.671461582183838E-1  
 6.796000000000000E7     9.940284490585327E-2   9.699244499206543E-1   1.926015913486481E-1  -2.004779130220413E-2   1.926496475934982E-1  -1.982534304261208E-2   1.022003889083862E-1   9.667901992797852E-1  
 6.798000000000000E7     9.989290684461594E-2   9.695670604705811E-1   1.930270642042160E-1  -2.012716978788376E-2   1.929965019226074E-1  -2.011121250689030E-2   1.032544970512390E-1   9.667726159095764E-1  
 6.800000000000000E7     1.005590856075287E-1   9.694944024085999E-1   1.933789849281311E-1  -2.039513178169727E-2   1.933087706565857E-1  -2.031079120934010E-2   1.043272241950035E-1   9.665471911430359E-1  
 6.802000000000000E7     1.017866730690002E-1   9.694333672523499E-1   1.937840729951859E-1  -2.069993503391743E-2   1.937895417213440E-1  -2.042378485202789E-2   1.049707084894180E-1   9.667348265647888E-1  
 6.804000000000000E7     1.022558212280273E-1   9.695475101470947E-1   1.942666918039322E-1  -2.072818204760552E-2   1.940537244081497E-1  -2.060209400951862E-2   1.057650446891785E-1   9.662154912948608E-1  
 6.806000000000000E7     1.032755374908447E-1   9.688522219657898E-1   1.946156919002533E-1  -2.102449908852577E-2   1.945045143365860E-1  -2.085519768297672E-2   1.064328849315643E-1   9.660430550575256E-1  
 6.808000000000000E7     1.038560941815376E-1   9.688671231269836E-1   1.949414312839508E-1  -2.123592793941498E-2   1.948607414960861E-1  -2.098163589835167E-2   1.074218377470970E-1   9.658204317092896E-1  
 6.810000000000000E7     1.048649847507477E-1   9.685469865798950E-1   1.953015476465225E-1  -2.134808897972107E-2   1.952325403690338E-1  -2.133695222437382E-2   1.082433909177780E-1   9.656473994255066E-1  
 6.812000000000000E7     1.055111587047577E-1   9.686485528945923E-1   1.957451403141022E-1  -2.163466252386570E-2   1.956287622451782E-1  -2.155045792460442E-2   1.092356145381928E-1   9.655011296272278E-1  
 6.814000000000000E7     1.062833964824677E-1   9.684612751007080E-1   1.961387395858765E-1  -2.188334055244923E-2   1.960666626691818E-1  -2.172331139445305E-2   1.102227792143822E-1   9.649685025215149E-1  
 6.816000000000000E7     1.075697466731072E-1   9.681810140609741E-1   1.964556574821472E-1  -2.208786830306053E-2   1.963764876127243E-1  -2.207715995609760E-2   1.108972951769829E-1   9.651499986648560E-1  
 6.818000000000000E7     1.084128916263580E-1   9.679841399192810E-1   1.969005316495895E-1  -2.241277322173119E-2   1.967808306217194E-1  -2.222959324717522E-2   1.116713210940361E-1   9.649091362953186E-1  
 6.820000000000000E7     1.089533716440201E-1   9.677430391311646E-1   1.971629858016968E-1  -2.247961238026619E-2   1.971247494220734E-1  -2.244553714990616E-2   1.125894859433174E-1   9.646712541580200E-1  
 6.822000000000000E7     1.103786900639534E-1   9.677942395210266E-1   1.976762712001801E-1  -2.285614609718323E-2   1.975508183240891E-1  -2.276278287172318E-2   1.132248714566231E-1   9.645508527755737E-1  
 6.824000000000000E7     1.106823459267616E-1   9.670860171318054E-1   1.980199515819550E-1  -2.305464819073677E-2   1.978093087673187E-1  -2.296395041048527E-2   1.143199279904366E-1   9.644535779953003E-1  
 6.826000000000000E7     1.116099357604981E-1   9.674075841903687E-1   1.983050405979157E-1  -2.309933491051197E-2   1.982495188713074E-1  -2.310189977288246E-2   1.147732660174370E-1   9.641346931457520E-1  
 6.828000000000000E7     1.124723777174950E-1   9.672147035598755E-1   1.987617313861847E-1  -2.336698211729527E-2   1.986666619777679E-1  -2.346593886613846E-2   1.156004667282105E-1   9.642197489738464E-1  
 6.830000000000000E7     1.131470352411270E-1   9.669373631477356E-1   1.989843845367432E-1  -2.358486130833626E-2   1.990790218114853E-1  -2.349274046719074E-2   1.163977980613709E-1   9.637626409530640E-1  
 6.832000000000000E7     1.139911711215973E-1   9.667944908142090E-1   1.994298100471497E-1  -2.381847240030766E-2   1.993172466754913E-1  -2.370553091168404E-2   1.173117384314537E-1   9.635874032974243E-1  
 6.834000000000000E7     1.147281900048256E-1   9.664509296417236E-1   1.999673247337341E-1  -2.405540272593498E-2   1.998962908983231E-1  -2.408162131905556E-2   1.183183416724205E-1   9.636371135711670E-1  
 6.836000000000000E7     1.155695170164108E-1   9.666072130203247E-1   2.002780586481094E-1  -2.430196851491928E-2   2.001120299100876E-1  -2.423735894262791E-2   1.190093606710434E-1   9.632878899574280E-1  
 6.838000000000000E7     1.162775903940201E-1   9.661383628845215E-1   2.007174938917160E-1  -2.459295094013214E-2   2.005288749933243E-1  -2.442103251814842E-2   1.199999302625656E-1   9.630464315414429E-1  
 6.840000000000000E7     1.174135729670525E-1   9.659303426742554E-1   2.010298967361450E-1  -2.482090890407562E-2   2.009205073118210E-1  -2.475014887750149E-2   1.208749040961266E-1   9.628717899322510E-1  
 6.842000000000000E7     1.178048998117447E-1   9.656043052673340E-1   2.013146877288818E-1  -2.494237944483757E-2   2.012930065393448E-1  -2.471668459475040E-2   1.217870861291885E-1   9.626521468162537E-1  
 6.844000000000000E7     1.190974488854408E-1   9.659233689308167E-1   2.018968164920807E-1  -2.522905915975571E-2   2.018135637044907E-1  -2.516993694007397E-2   1.225071996450424E-1   9.629117250442505E-1  
 6.846000000000000E7     1.198710948228836E-1   9.656007885932922E-1   2.021868079900742E-1  -2.534436807036400E-2   2.021065950393677E-1  -2.534234151244164E-2   1.228458881378174E-1   9.624999165534973E-1  
 6.848000000000000E7     1.202538236975670E-1   9.651197195053101E-1   2.022643238306046E-1  -2.548455819487572E-2   2.023375630378723E-1  -2.545830979943276E-2   1.238125711679459E-1   9.624043107032776E-1  
 6.850000000000000E7     1.213757544755936E-1   9.652539491653442E-1   2.028383612632752E-1  -2.591107226908207E-2   2.027449607849121E-1  -2.580912411212921E-2   1.248971968889237E-1   9.618965983390808E-1  
 6.852000000000000E7     1.224252134561539E-1   9.648898839950562E-1   2.033098936080933E-1  -2.613321319222450E-2   2.030724436044693E-1  -2.597983926534653E-2   1.254077851772308E-1   9.620646238327026E-1  
 6.854000000000000E7     1.230391040444374E-1   9.648026823997498E-1   2.036634981632233E-1  -2.632564678788185E-2   2.034836560487747E-1  -2.628821134567261E-2   1.264466345310211E-1   9.616042375564575E-1  
 6.856000000000000E7     1.239924803376198E-1   9.646967649459839E-1   2.039771676063538E-1  -2.663020417094231E-2   2.039499431848526E-1  -2.648528479039669E-2   1.269932836294174E-1   9.613841772079468E-1  
 6.858000000000000E7     1.248332113027573E-1   9.645259380340576E-1   2.043226957321167E-1  -2.683366090059280E-2   2.043636441230774E-1  -2.667212113738060E-2   1.281853169202805E-1   9.613107442855835E-1  
 6.860000000000000E7     1.251205056905747E-1   9.640904068946838E-1   2.046337574720383E-1  -2.707895264029503E-2   2.046337574720383E-1  -2.686884999275208E-2   1.292700022459030E-1   9.611185193061829E-1  
 6.862000000000000E7     1.265294253826141E-1   9.642969965934753E-1   2.051891088485718E-1  -2.722144126892090E-2   2.049541622400284E-1  -2.723286300897598E-2   1.297586858272553E-1   9.609826803207398E-1  
 6.864000000000000E7     1.273118853569031E-1   9.636786580085754E-1   2.053880542516708E-1  -2.742355130612850E-2   2.053664475679398E-1  -2.738996595144272E-2   1.303803771734238E-1   9.607840776443481E-1  
 6.866000000000000E7     1.281909793615341E-1   9.638845324516296E-1   2.058281302452087E-1  -2.766437456011772E-2   2.057330757379532E-1  -2.751692384481430E-2   1.309756040573120E-1   9.604414701461792E-1  
 6.868000000000000E7     1.286235898733139E-1   9.636331200599670E-1   2.061907649040222E-1  -2.788258343935013E-2   2.061992436647415E-1  -2.778030186891556E-2   1.321867406368256E-1   9.603809714317322E-1  
 6.870000000000000E7     1.296928375959396E-1   9.633496403694153E-1   2.065888941287994E-1  -2.829719707369804E-2   2.065316885709763E-1  -2.825018577277660E-2   1.331900954246521E-1   9.600080847740173E-1  
 6.872000000000000E7     1.305287331342697E-1   9.630519747734070E-1   2.068521231412888E-1  -2.850111946463585E-2   2.069145292043686E-1  -2.829583361744881E-2   1.340214014053345E-1   9.600094556808472E-1  
 6.874000000000000E7     1.307294219732285E-1   9.626815915107727E-1   2.074680030345917E-1  -2.860402688384056E-2   2.071785181760788E-1  -2.845693565905094E-2   1.347443908452988E-1   9.600223302841187E-1  
 6.876000000000000E7     1.319498717784882E-1   9.629013538360596E-1   2.076431959867477E-1  -2.880643680691719E-2   2.076006382703781E-1  -2.879219502210617E-2   1.354118138551712E-1   9.594315290451050E-1  
 6.878000000000000E7     1.328700035810471E-1   9.623374938964844E-1   2.079990804195404E-1  -2.904871292412281E-2   2.080837041139603E-1  -2.900411188602448E-2   1.363823413848877E-1   9.593833088874817E-1  
 6.880000000000000E7     1.338278204202652E-1   9.622665047645569E-1   2.083614170551300E-1  -2.930989116430283E-2   2.082941234111786E-1  -2.925686910748482E-2   1.369195431470871E-1   9.591750502586365E-1  
 6.882000000000000E7     1.341822296380997E-1   9.621951580047607E-1   2.088378220796585E-1  -2.951897494494915E-2   2.087973207235336E-1  -2.953079156577587E-2   1.378788352012634E-1   9.590572118759155E-1  
 6.884000000000000E7     1.350446641445160E-1   9.618160128593445E-1   2.090343832969666E-1  -2.971355244517326E-2   2.090933322906494E-1  -2.947539836168289E-2   1.384532302618027E-1   9.589706063270569E-1  
 6.886000000000000E7     1.359963864088059E-1   9.615453481674194E-1   2.094420641660690E-1  -3.001803345978260E-2   2.094142735004425E-1  -2.991092763841152E-2   1.394708603620529E-1   9.587125778198242E-1  
 6.888000000000000E7     1.372329294681549E-1   9.614967703819275E-1   2.098351418972015E-1  -3.029761463403702E-2   2.098476439714432E-1  -3.021102957427502E-2   1.401508897542954E-1   9.584367275238037E-1  
 6.890000000000000E7     1.376894414424896E-1   9.610659480094910E-1   2.101547271013260E-1  -3.064519539475441E-2   2.101886272430420E-1  -3.033638000488281E-2   1.408663243055344E-1   9.579887986183167E-1  
 6.892000000000000E7     1.386629045009613E-1   9.610951542854309E-1   2.104466110467911E-1  -3.079777210950851E-2   2.104981839656830E-1  -3.056982718408108E-2   1.416241228580475E-1   9.580433964729309E-1  
 6.894000000000000E7     1.391327530145645E-1   9.609421491622925E-1   2.108697444200516E-1  -3.071785345673561E-2   2.109710723161697E-1  -3.069090470671654E-2   1.421110033988953E-1   9.579377174377441E-1  
 6.896000000000000E7     1.401899456977844E-1   9.608122110366821E-1   2.114104032516480E-1  -3.107271343469620E-2   2.113948166370392E-1  -3.109063953161240E-2   1.430986970663071E-1   9.575130343437195E-1  
 6.898000000000000E7     1.408587098121643E-1   9.604652523994446E-1   2.117043584585190E-1  -3.127031028270721E-2   2.116094529628754E-1  -3.123196400702000E-2   1.440681368112564E-1   9.574312567710877E-1  
 6.900000000000000E7     1.418269723653793E-1   9.602613449096680E-1   2.120360881090164E-1  -3.160465881228447E-2   2.118791788816452E-1  -3.164456039667130E-2   1.450687795877457E-1   9.571558833122253E-1  
 6.902000000000000E7     1.422760635614395E-1   9.601171016693115E-1   2.123913466930389E-1  -3.179716318845749E-2   2.123425900936127E-1  -3.181497007608414E-2   1.459499001502991E-1   9.569169282913208E-1  
 6.904000000000000E7     1.435751914978027E-1   9.598413705825806E-1   2.128539532423019E-1  -3.231413662433624E-2   2.127214372158051E-1  -3.202065825462341E-2   1.468510776758194E-1   9.570161700248718E-1  
 6.906000000000000E7     1.443576663732529E-1   9.593666195869446E-1   2.130651175975800E-1  -3.238413482904434E-2   2.130061239004135E-1  -3.240721672773361E-2   1.474076360464096E-1   9.565207362174988E-1  
 6.908000000000000E7     1.449131667613983E-1   9.593244791030884E-1   2.134811729192734E-1  -3.245402500033379E-2   2.133302688598633E-1  -3.249176964163780E-2   1.484811604022980E-1   9.562485218048096E-1  
 6.910000000000000E7     1.458101570606232E-1   9.590477943420410E-1   2.137668728828430E-1  -3.281037509441376E-2   2.138568311929703E-1  -3.296940028667450E-2   1.493373215198517E-1   9.562230110168457E-1  
 6.912000000000000E7     1.467040777206421E-1   9.588116407394409E-1   2.142146825790405E-1  -3.298752009868622E-2   2.141176164150238E-1  -3.306057304143906E-2   1.497956216335297E-1   9.560694098472595E-1  
 6.914000000000000E7     1.470595151185989E-1   9.588042497634888E-1   2.144616991281509E-1  -3.328079730272293E-2   2.144634872674942E-1  -3.327127546072006E-2   1.508938372135162E-1   9.559959173202515E-1  
 6.916000000000000E7     1.481530964374542E-1   9.588639140129089E-1   2.149699926376343E-1  -3.362760692834854E-2   2.149251848459244E-1  -3.343307226896286E-2   1.515873223543167E-1   9.558045268058777E-1  
 6.918000000000000E7     1.488064825534821E-1   9.586009979248047E-1   2.153274416923523E-1  -3.386732935905457E-2   2.151992321014404E-1  -3.367511183023453E-2   1.524853855371475E-1   9.555156826972961E-1  
 6.920000000000000E7     1.496717184782028E-1   9.582462906837463E-1   2.155896276235580E-1  -3.406816720962524E-2   2.156462073326111E-1  -3.411904349923134E-2   1.534038335084915E-1   9.551640748977661E-1  
 6.922000000000000E7     1.506076306104660E-1   9.581984281539917E-1   2.161932438611984E-1  -3.435150533914566E-2   2.158320248126984E-1  -3.425727039575577E-2   1.542199552059174E-1   9.551628828048706E-1  
 6.924000000000000E7     1.515101790428162E-1   9.576504230499268E-1   2.163521945476532E-1  -3.470366075634956E-2   2.163626998662949E-1  -3.448911756277084E-2   1.546353995800018E-1   9.545857310295105E-1  
 6.926000000000000E7     1.517521888017654E-1   9.573259949684143E-1   2.167360931634903E-1  -3.486178070306778E-2   2.164846658706665E-1  -3.469945117831230E-2   1.558693647384644E-1   9.545800685882568E-1  
 6.928000000000000E7     1.529720723628998E-1   9.571659564971924E-1   2.170616984367371E-1  -3.509427234530449E-2   2.168965488672257E-1  -3.482486680150032E-2   1.562686860561371E-1   9.541616439819336E-1  
 6.930000000000000E7     1.540217846632004E-1   9.572778940200806E-1   2.176220715045929E-1  -3.548213839530945E-2   2.174024730920792E-1  -3.536725044250488E-2   1.572714596986771E-1   9.543264508247376E-1  
 6.932000000000000E7     1.551367789506912E-1   9.566769003868103E-1   2.178281843662262E-1  -3.579933941364288E-2   2.176992893218994E-1  -3.556814044713974E-2   1.580076813697815E-1   9.538546800613403E-1  
 6.934000000000000E7     1.554503142833710E-1   9.567021727561951E-1   2.181318104267120E-1  -3.594078868627548E-2   2.180985808372498E-1  -3.579320758581162E-2   1.587406992912293E-1   9.534929990768433E-1  
 6.936000000000000E7     1.564809083938599E-1   9.567693471908569E-1   2.185256928205490E-1  -3.612174838781357E-2   2.183290123939514E-1  -3.613276034593582E-2   1.597325354814529E-1   9.532617926597595E-1  
 6.938000000000000E7     1.568628251552582E-1   9.561804533004761E-1   2.187639921903610E-1  -3.641928732395172E-2   2.187523692846298E-1  -3.620440140366554E-2   1.605731993913651E-1   9.531396031379700E-1  
 6.940000000000000E7     1.574743390083313E-1   9.562424421310425E-1   2.192156463861466E-1  -3.658685833215714E-2   2.191119939088821E-1  -3.642943128943443E-2   1.614077240228653E-1   9.530399441719055E-1  
 6.942000000000000E7     1.585053354501724E-1   9.557692408561707E-1   2.194386720657349E-1  -3.689033910632134E-2   2.193758636713028E-1  -3.659443557262421E-2   1.620425879955292E-1   9.527447223663330E-1  
 6.944000000000000E7     1.590846329927445E-1   9.554472565650940E-1   2.198144644498825E-1  -3.704161569476128E-2   2.198108732700348E-1  -3.694508597254753E-2   1.625876277685165E-1   9.524226784706116E-1  
 6.946000000000000E7     1.602426171302795E-1   9.553760886192322E-1   2.201662361621857E-1  -3.742844983935356E-2   2.201346158981323E-1  -3.727502375841141E-2   1.637602150440216E-1   9.522135853767395E-1  
 6.948000000000000E7     1.608093529939652E-1   9.549069404602051E-1   2.205362319946289E-1  -3.772985562682152E-2   2.203984856605530E-1  -3.746302425861359E-2   1.641308516263962E-1   9.522125720977783E-1  
 6.950000000000000E7     1.620173305273056E-1   9.548807740211487E-1   2.209261506795883E-1  -3.797790780663490E-2   2.208414375782013E-1  -3.787451982498169E-2   1.652257442474365E-1   9.517031908035278E-1  
 6.952000000000000E7     1.622601598501205E-1   9.547844529151917E-1   2.214204519987106E-1  -3.784732148051262E-2   2.213319987058640E-1  -3.787771612405777E-2   1.658946871757507E-1   9.520050287246704E-1  
 6.954000000000000E7     1.628900915384293E-1   9.542221426963806E-1   2.214888483285904E-1  -3.837910294532776E-2   2.214744091033936E-1  -3.824632614850998E-2   1.667660027742386E-1   9.512332081794739E-1  
 6.956000000000000E7     1.640226542949677E-1   9.544127583503723E-1   2.218610197305679E-1  -3.867746144533157E-2   2.218887507915497E-1  -3.831275179982185E-2   1.672085821628571E-1   9.509477019309998E-1  
 6.958000000000000E7     1.648754179477692E-1   9.539595246315002E-1   2.223629653453827E-1  -3.899084776639938E-2   2.221349179744721E-1  -3.872779756784439E-2   1.684342324733734E-1   9.507030248641968E-1  
 6.960000000000000E7     1.659931093454361E-1   9.539296030998230E-1   2.225347459316254E-1  -3.924461826682091E-2   2.226043194532394E-1  -3.908583149313927E-2   1.690346747636795E-1   9.506160020828247E-1  
 6.962000000000000E7     1.662539392709732E-1   9.536748528480530E-1   2.229741364717484E-1  -3.953579813241959E-2   2.230251282453537E-1  -3.936579823493958E-2   1.702098846435547E-1   9.504125714302063E-1  
 6.964000000000000E7     1.673592627048492E-1   9.534435868263245E-1   2.233197242021561E-1  -3.977621346712112E-2   2.233254164457321E-1  -3.949640318751335E-2   1.708616614341736E-1   9.503443837165833E-1  
 6.966000000000000E7     1.678606271743774E-1   9.529523253440857E-1   2.236035764217377E-1  -3.996668383479118E-2   2.236344814300537E-1  -3.966790437698364E-2   1.713596731424332E-1   9.499097466468811E-1  
 6.968000000000000E7     1.687971353530884E-1   9.526433348655701E-1   2.241262197494507E-1  -4.028791189193726E-2   2.239513248205185E-1  -4.003582894802094E-2   1.725873947143555E-1   9.496607780456543E-1  
 6.970000000000000E7     1.695829331874847E-1   9.522382020950317E-1   2.243921160697937E-1  -4.039690643548966E-2   2.242683470249176E-1  -4.026205092668533E-2   1.729753613471985E-1   9.493786096572876E-1  
 6.972000000000000E7     1.704225838184357E-1   9.524730443954468E-1   2.248322069644928E-1  -4.083608835935593E-2   2.245256155729294E-1  -4.067983478307724E-2   1.739422082901001E-1   9.490517973899841E-1  
 6.974000000000000E7     1.712763756513596E-1   9.522660374641419E-1   2.251017242670059E-1  -4.090699553489685E-2   2.250819802284241E-1  -4.090271145105362E-2   1.747127026319504E-1   9.491368532180786E-1  
 6.976000000000000E7     1.718723773956299E-1   9.517444372177124E-1   2.253832966089249E-1  -4.134906083345413E-2   2.253726422786713E-1  -4.117124155163765E-2   1.755692213773727E-1   9.489313364028931E-1  
 6.978000000000000E7     1.727644056081772E-1   9.516846537590027E-1   2.259901165962219E-1  -4.137457162141800E-2   2.258706837892532E-1  -4.134348779916763E-2   1.762422174215317E-1   9.486658573150635E-1  
 6.980000000000000E7     1.737959682941437E-1   9.512228965759277E-1   2.260358780622482E-1  -4.195537790656090E-2   2.259607762098312E-1  -4.171831160783768E-2   1.770315021276474E-1   9.484297037124634E-1  
 6.982000000000000E7     1.743330210447311E-1   9.513849020004273E-1   2.263671904802322E-1  -4.195956885814667E-2   2.263212651014328E-1  -4.174991697072983E-2   1.777667999267578E-1   9.480234384536743E-1  
 6.984000000000000E7     1.752897053956986E-1   9.508576393127441E-1   2.267038822174072E-1  -4.239009320735931E-2   2.267484366893768E-1  -4.209223389625549E-2   1.787874847650528E-1   9.478797912597656E-1  
 6.986000000000000E7     1.762416958808899E-1   9.510751962661743E-1   2.273161113262177E-1  -4.245308041572571E-2   2.271019369363785E-1  -4.244768619537354E-2   1.792357116937637E-1   9.477612972259522E-1  
 6.988000000000000E7     1.767918169498444E-1   9.499950408935547E-1   2.273934334516525E-1  -4.279443249106407E-2   2.274025827646256E-1  -4.276569932699204E-2   1.803342998027802E-1   9.474965929985046E-1  
 6.990000000000000E7     1.778811663389206E-1   9.502579569816589E-1   2.278036475181580E-1  -4.311724007129669E-2   2.277280390262604E-1  -4.302444681525230E-2   1.811773478984833E-1   9.471487998962402E-1  
 6.992000000000000E7     1.787010729312897E-1   9.501190781593323E-1   2.281484007835388E-1  -4.323054477572441E-2   2.280116677284241E-1  -4.320202022790909E-2   1.817863732576370E-1   9.469321966171265E-1  
 6.994000000000000E7     1.793821901082993E-1   9.498782753944397E-1   2.283944785594940E-1  -4.363454878330231E-2   2.284772843122482E-1  -4.349437355995178E-2   1.827349662780762E-1   9.465883970260620E-1  
 6.996000000000000E7     1.800992935895920E-1   9.495474100112915E-1   2.288988381624222E-1  -4.379889369010925E-2   2.288249433040619E-1  -4.378445446491242E-2   1.833444982767105E-1   9.463096261024475E-1  
 6.998000000000000E7     1.809799522161484E-1   9.490903615951538E-1   2.289904206991196E-1  -4.420196264982224E-2   2.291202992200851E-1  -4.404593631625176E-2   1.842128634452820E-1   9.461368918418884E-1  
 7.000000000000000E7     1.813623309135437E-1   9.489108920097351E-1   2.293826639652252E-1  -4.429682716727257E-2   2.294778376817703E-1  -4.427785798907280E-2   1.850811094045639E-1   9.463501572608948E-1  
