#  HZ   S   RI   R     50.00 
! Rohde & Schwarz ZVT8 8Ports - Version 4.11 - 1300.0000k08 SN: 100242
! Date: 2026-07-13 13:51:27
! Measurements: S11 S21 S12 S22 
! 
 1.000000000000000E7    -8.490671515464783E-1   4.380430579185486E-1   1.158282682299614E-1   2.247592359781265E-1   1.161624267697334E-1   2.245407402515411E-1  -8.467593193054199E-1   4.351518154144287E-1  
 1.002000000000000E7    -8.484872579574585E-1   4.387561380863190E-1   1.161361634731293E-1   2.253808081150055E-1   1.164650171995163E-1   2.253426164388657E-1  -8.465453982353210E-1   4.354591965675354E-1  
 1.004000000000000E7    -8.475832343101502E-1   4.394007623195648E-1   1.168761998414993E-1   2.258961647748947E-1   1.169967502355576E-1   2.254854142665863E-1  -8.457334637641907E-1   4.366612732410431E-1  
 1.006000000000000E7    -8.473217487335205E-1   4.405981004238129E-1   1.171918883919716E-1   2.259673029184341E-1   1.176457181572914E-1   2.260191440582275E-1  -8.451508879661560E-1   4.375997483730316E-1  
 1.008000000000000E7    -8.468382358551025E-1   4.415695369243622E-1   1.177678778767586E-1   2.264383733272553E-1   1.179915964603424E-1   2.263744026422501E-1  -8.445059657096863E-1   4.381739199161530E-1  
 1.010000000000000E7    -8.462351560592651E-1   4.421060979366303E-1   1.180929318070412E-1   2.269144952297211E-1   1.182452440261841E-1   2.267971932888031E-1  -8.442093133926392E-1   4.386025369167328E-1  
 1.012000000000000E7    -8.459660410881043E-1   4.423497617244721E-1   1.186291873455048E-1   2.273240685462952E-1   1.190914213657379E-1   2.269692718982697E-1  -8.432441949844360E-1   4.399183094501495E-1  
 1.014000000000000E7    -8.450722694396973E-1   4.436672031879425E-1   1.193877309560776E-1   2.275328785181046E-1   1.196446344256401E-1   2.274126410484314E-1  -8.425363302230835E-1   4.403911828994751E-1  
 1.016000000000000E7    -8.442460894584656E-1   4.440193474292755E-1   1.196601837873459E-1   2.281208932399750E-1   1.200059726834297E-1   2.278235405683518E-1  -8.423247933387756E-1   4.414530098438263E-1  
 1.018000000000000E7    -8.440663218498230E-1   4.452006518840790E-1   1.201782524585724E-1   2.285828739404678E-1   1.205877289175987E-1   2.283881306648254E-1  -8.422496914863586E-1   4.418135583400726E-1  
 1.020000000000000E7    -8.432186245918274E-1   4.458916783332825E-1   1.206887513399124E-1   2.286284863948822E-1   1.208252385258675E-1   2.284860312938690E-1  -8.411071896553040E-1   4.427033364772797E-1  
 1.022000000000000E7    -8.424000144004822E-1   4.468733966350555E-1   1.210046336054802E-1   2.292288541793823E-1   1.213402971625328E-1   2.288926541805267E-1  -8.406544923782349E-1   4.433126747608185E-1  
 1.024000000000000E7    -8.419833779335022E-1   4.477316439151764E-1   1.218208670616150E-1   2.295268177986145E-1   1.222142949700356E-1   2.291646450757980E-1  -8.399986028671265E-1   4.448398351669312E-1  
 1.026000000000000E7    -8.413644433021545E-1   4.481850266456604E-1   1.220642775297165E-1   2.301059067249298E-1   1.222987547516823E-1   2.296803593635559E-1  -8.395425081253052E-1   4.447870850563049E-1  
 1.028000000000000E7    -8.406605720520020E-1   4.490593969821930E-1   1.226105839014053E-1   2.304522395133972E-1   1.230319291353226E-1   2.300664782524109E-1  -8.388324379920960E-1   4.455739855766296E-1  
 1.030000000000000E7    -8.405201435089111E-1   4.499362707138062E-1   1.234588772058487E-1   2.307269573211670E-1   1.236241832375526E-1   2.305421084165573E-1  -8.380289673805237E-1   4.469791948795319E-1  
 1.032000000000000E7    -8.398572206497192E-1   4.504456222057343E-1   1.238088607788086E-1   2.311444878578186E-1   1.240770518779755E-1   2.309723943471909E-1  -8.378443121910095E-1   4.477221667766571E-1  
 1.034000000000000E7    -8.394414782524109E-1   4.516525566577911E-1   1.243525967001915E-1   2.315836846828461E-1   1.245646104216576E-1   2.313673049211502E-1  -8.370410799980164E-1   4.484152197837830E-1  
 1.036000000000000E7    -8.386904597282410E-1   4.519084692001343E-1   1.247957274317741E-1   2.318304032087326E-1   1.248801648616791E-1   2.316710799932480E-1  -8.364018201828003E-1   4.487905800342560E-1  
 1.038000000000000E7    -8.378069400787354E-1   4.529885649681091E-1   1.252032369375229E-1   2.321087718009949E-1   1.256549805402756E-1   2.321955561637878E-1  -8.357238769531250E-1   4.500289559364319E-1  
 1.040000000000000E7    -8.371304869651794E-1   4.536328315734863E-1   1.257522702217102E-1   2.326347231864929E-1   1.261619776487351E-1   2.323626577854157E-1  -8.352262973785400E-1   4.506334662437439E-1  
 1.042000000000000E7    -8.365793824195862E-1   4.541226923465729E-1   1.262841075658798E-1   2.329124808311462E-1   1.266171634197235E-1   2.328144311904907E-1  -8.343055844306946E-1   4.514512121677399E-1  
 1.044000000000000E7    -8.359999656677246E-1   4.552113413810730E-1   1.269130855798721E-1   2.332315444946289E-1   1.272902488708496E-1   2.330379337072372E-1  -8.336283564567566E-1   4.522460997104645E-1  
 1.046000000000000E7    -8.357725143432617E-1   4.556930959224701E-1   1.274434328079224E-1   2.336922883987427E-1   1.273561865091324E-1   2.335248291492462E-1  -8.332188129425049E-1   4.526722133159638E-1  
 1.048000000000000E7    -8.349072933197022E-1   4.567815065383911E-1   1.278374642133713E-1   2.342710793018341E-1   1.281023025512695E-1   2.338114976882935E-1  -8.329989314079285E-1   4.534747004508972E-1  
 1.050000000000000E7    -8.343361020088196E-1   4.579045772552490E-1   1.284516602754593E-1   2.347547113895416E-1   1.288072168827057E-1   2.343233823776245E-1  -8.319732546806335E-1   4.545721709728241E-1  
 1.052000000000000E7    -8.342083096504211E-1   4.584884047508240E-1   1.291024535894394E-1   2.350132763385773E-1   1.292217671871185E-1   2.347046732902527E-1  -8.312791585922241E-1   4.552423954010010E-1  
 1.054000000000000E7    -8.333357572555542E-1   4.591298103332520E-1   1.295460909605026E-1   2.355318963527679E-1   1.296048164367676E-1   2.352958321571350E-1  -8.310201764106751E-1   4.558424055576325E-1  
 1.056000000000000E7    -8.329854011535645E-1   4.600017964839935E-1   1.298080235719681E-1   2.358340770006180E-1   1.299659162759781E-1   2.353565692901611E-1  -8.302051424980164E-1   4.563774764537811E-1  
 1.058000000000000E7    -8.319460749626160E-1   4.606075286865234E-1   1.306142210960388E-1   2.361509054899216E-1   1.307643949985504E-1   2.359950095415115E-1  -8.299881219863892E-1   4.575240612030029E-1  
 1.060000000000000E7    -8.313860297203064E-1   4.615217149257660E-1   1.308982670307159E-1   2.363783568143845E-1   1.313909590244293E-1   2.361489832401276E-1  -8.291432261466980E-1   4.582563936710358E-1  
 1.062000000000000E7    -8.305236101150513E-1   4.622539877891541E-1   1.317028850317001E-1   2.370610684156418E-1   1.321495771408081E-1   2.366010546684265E-1  -8.285982012748718E-1   4.595144689083099E-1  
 1.064000000000000E7    -8.301484584808350E-1   4.629991054534912E-1   1.324258595705032E-1   2.370591759681702E-1   1.323989778757095E-1   2.369573265314102E-1  -8.276485204696655E-1   4.598115086555481E-1  
 1.066000000000000E7    -8.296366333961487E-1   4.637843966484070E-1   1.327332109212875E-1   2.375080585479736E-1   1.330898851156235E-1   2.374125570058823E-1  -8.273684382438660E-1   4.610134661197662E-1  
 1.068000000000000E7    -8.290456533432007E-1   4.646540582180023E-1   1.330355107784271E-1   2.380809038877487E-1   1.333484351634979E-1   2.377282977104187E-1  -8.268768191337585E-1   4.615546166896820E-1  
 1.070000000000000E7    -8.282362222671509E-1   4.653959274291992E-1   1.334209889173508E-1   2.381563335657120E-1   1.338265240192413E-1   2.379967719316483E-1  -8.258797526359558E-1   4.615774750709534E-1  
 1.072000000000000E7    -8.278790712356567E-1   4.662689864635468E-1   1.341736167669296E-1   2.389158904552460E-1   1.344900429248810E-1   2.384596914052963E-1  -8.252630233764648E-1   4.627282917499542E-1  
 1.074000000000000E7    -8.269914984703064E-1   4.669704139232636E-1   1.350701153278351E-1   2.391014993190765E-1   1.351220011711121E-1   2.387898713350296E-1  -8.246212005615234E-1   4.640677273273468E-1  
 1.076000000000000E7    -8.262264728546143E-1   4.678494930267334E-1   1.356060504913330E-1   2.392683029174805E-1   1.355600655078888E-1   2.392869591712952E-1  -8.240780830383301E-1   4.642556011676788E-1  
 1.078000000000000E7    -8.259192705154419E-1   4.682479500770569E-1   1.359440982341766E-1   2.398427277803421E-1   1.360551118850708E-1   2.396180033683777E-1  -8.230764269828796E-1   4.651568830013275E-1  
 1.080000000000000E7    -8.251411914825440E-1   4.689754843711853E-1   1.362566202878952E-1   2.400098741054535E-1   1.363691091537476E-1   2.398228943347931E-1  -8.225812315940857E-1   4.656900465488434E-1  
 1.082000000000000E7    -8.248574733734131E-1   4.702576398849487E-1   1.368529349565506E-1   2.404571622610092E-1   1.371365338563919E-1   2.402312606573105E-1  -8.218250870704651E-1   4.664073288440704E-1  
 1.084000000000000E7    -8.239489197731018E-1   4.706784188747406E-1   1.376101672649384E-1   2.409040480852127E-1   1.379873156547546E-1   2.404528111219406E-1  -8.212535381317139E-1   4.676307737827301E-1  
 1.086000000000000E7    -8.229973316192627E-1   4.712375402450562E-1   1.381985247135162E-1   2.411247342824936E-1   1.382639110088348E-1   2.407621145248413E-1  -8.207680583000183E-1   4.682352244853973E-1  
 1.088000000000000E7    -8.226509690284729E-1   4.719222187995911E-1   1.387228369712830E-1   2.416706234216690E-1   1.388306021690369E-1   2.412991374731064E-1  -8.203546404838562E-1   4.692510962486267E-1  
 1.090000000000000E7    -8.216522336006165E-1   4.724442362785339E-1   1.389603167772293E-1   2.420508712530136E-1   1.391516625881195E-1   2.420122027397156E-1  -8.201155662536621E-1   4.695130884647369E-1  
 1.092000000000000E7    -8.211818933486939E-1   4.740231335163117E-1   1.398065686225891E-1   2.423422634601593E-1   1.400600522756577E-1   2.421439141035080E-1  -8.189644217491150E-1   4.703433513641357E-1  
 1.094000000000000E7    -8.201122283935547E-1   4.748300313949585E-1   1.402128040790558E-1   2.425111979246140E-1   1.405330747365952E-1   2.423212230205536E-1  -8.184940218925476E-1   4.712038338184357E-1  
 1.096000000000000E7    -8.201087117195129E-1   4.753281474113464E-1   1.409459710121155E-1   2.430200129747391E-1   1.409585773944855E-1   2.428181916475296E-1  -8.176521062850952E-1   4.718460738658905E-1  
 1.098000000000000E7    -8.192490935325623E-1   4.761968851089478E-1   1.416080445051193E-1   2.433293163776398E-1   1.413782685995102E-1   2.430464029312134E-1  -8.170555233955383E-1   4.723247885704041E-1  
 1.100000000000000E7    -8.190028667449951E-1   4.771519601345062E-1   1.421459764242172E-1   2.439530044794083E-1   1.424874961376190E-1   2.436531335115433E-1  -8.161777257919312E-1   4.734143912792206E-1  
 1.102000000000000E7    -8.181604743003845E-1   4.778504073619843E-1   1.425431370735169E-1   2.441021203994751E-1   1.426842212677002E-1   2.439796030521393E-1  -8.156726956367493E-1   4.740473926067352E-1  
 1.104000000000000E7    -8.168079853057861E-1   4.782672822475433E-1   1.430723667144775E-1   2.443090081214905E-1   1.431169360876083E-1   2.440121918916702E-1  -8.150476813316345E-1   4.751659929752350E-1  
 1.106000000000000E7    -8.164961338043213E-1   4.787218868732452E-1   1.436259299516678E-1   2.449097633361816E-1   1.439228951931000E-1   2.445769608020783E-1  -8.144142627716065E-1   4.763241708278656E-1  
 1.108000000000000E7    -8.162017464637756E-1   4.793917834758759E-1   1.442143768072128E-1   2.450293600559235E-1   1.442941725254059E-1   2.449187934398651E-1  -8.130550384521484E-1   4.765703380107880E-1  
 1.110000000000000E7    -8.151318430900574E-1   4.803445339202881E-1   1.443931013345718E-1   2.455445080995560E-1   1.448789834976196E-1   2.454631775617600E-1  -8.131851553916931E-1   4.776138365268707E-1  
 1.112000000000000E7    -8.144741058349609E-1   4.812085330486298E-1   1.452837884426117E-1   2.459712922573090E-1   1.454098373651505E-1   2.456731051206589E-1  -8.123555183410645E-1   4.779930114746094E-1  
 1.114000000000000E7    -8.138836026191711E-1   4.819896519184113E-1   1.459082663059235E-1   2.464452087879181E-1   1.461097896099091E-1   2.459974139928818E-1  -8.118742704391480E-1   4.786885082721710E-1  
 1.116000000000000E7    -8.131471872329712E-1   4.824724197387695E-1   1.463911235332489E-1   2.463316768407822E-1   1.464551240205765E-1   2.463010847568512E-1  -8.112108111381531E-1   4.800356626510620E-1  
 1.118000000000000E7    -8.125312924385071E-1   4.836504161357880E-1   1.468049436807632E-1   2.468508034944534E-1   1.469099372625351E-1   2.469186633825302E-1  -8.104934096336365E-1   4.805216789245606E-1  
 1.120000000000000E7    -8.120535612106323E-1   4.844857156276703E-1   1.476368010044098E-1   2.473321557044983E-1   1.476640254259110E-1   2.468350976705551E-1  -8.094050288200378E-1   4.810415208339691E-1  
 1.122000000000000E7    -8.116838335990906E-1   4.849954247474670E-1   1.480926722288132E-1   2.476433962583542E-1   1.482945084571838E-1   2.475274801254273E-1  -8.087828159332275E-1   4.820481538772583E-1  
 1.124000000000000E7    -8.108397126197815E-1   4.859771430492401E-1   1.483391374349594E-1   2.481404244899750E-1   1.487600803375244E-1   2.478763163089752E-1  -8.083716034889221E-1   4.819786846637726E-1  
 1.126000000000000E7    -8.100834488868713E-1   4.863494336605072E-1   1.492559909820557E-1   2.484928518533707E-1   1.495853811502457E-1   2.481414824724197E-1  -8.075075745582581E-1   4.833354651927948E-1  
 1.128000000000000E7    -8.096166849136353E-1   4.870144426822662E-1   1.497615575790405E-1   2.488135099411011E-1   1.501039713621140E-1   2.487425655126572E-1  -8.069165945053101E-1   4.841043949127197E-1  
 1.130000000000000E7    -8.085603713989258E-1   4.878946542739868E-1   1.503204554319382E-1   2.490162849426270E-1   1.507995873689652E-1   2.491511106491089E-1  -8.063212037086487E-1   4.849016368389130E-1  
 1.132000000000000E7    -8.077235817909241E-1   4.894128441810608E-1   1.510526239871979E-1   2.493099868297577E-1   1.513626575469971E-1   2.489857971668243E-1  -8.053019046783447E-1   4.851838350296021E-1  
 1.134000000000000E7    -8.077067136764526E-1   4.894688129425049E-1   1.516288965940476E-1   2.500288188457489E-1   1.517285704612732E-1   2.496430724859238E-1  -8.046928048133850E-1   4.857764244079590E-1  
 1.136000000000000E7    -8.065817952156067E-1   4.906392693519592E-1   1.521538943052292E-1   2.502631843090057E-1   1.522089242935181E-1   2.501068711280823E-1  -8.044537901878357E-1   4.869324862957001E-1  
 1.138000000000000E7    -8.059591650962830E-1   4.908437728881836E-1   1.524863690137863E-1   2.501846551895142E-1   1.528546810150147E-1   2.504320144653320E-1  -8.036949038505554E-1   4.877252578735352E-1  
 1.140000000000000E7    -8.054712414741516E-1   4.917386770248413E-1   1.529062986373901E-1   2.510788142681122E-1   1.531560122966766E-1   2.506482303142548E-1  -8.031460046768189E-1   4.883044958114624E-1  
 1.142000000000000E7    -8.045793771743774E-1   4.924880862236023E-1   1.536962389945984E-1   2.512062788009644E-1   1.540085226297379E-1   2.509097754955292E-1  -8.020457625389099E-1   4.889931678771973E-1  
 1.144000000000000E7    -8.036243915557861E-1   4.933330416679382E-1   1.543856710195541E-1   2.514930963516235E-1   1.546690165996552E-1   2.512549161911011E-1  -8.020521998405457E-1   4.899913966655731E-1  
 1.146000000000000E7    -8.031862974166870E-1   4.939926564693451E-1   1.548330932855606E-1   2.520000338554382E-1   1.552072763442993E-1   2.518658339977264E-1  -8.011702299118042E-1   4.904105067253113E-1  
 1.148000000000000E7    -8.025930523872376E-1   4.949946105480194E-1   1.554759442806244E-1   2.521625459194183E-1   1.559044569730759E-1   2.518398463726044E-1  -7.999933362007141E-1   4.916334450244904E-1  
 1.150000000000000E7    -8.014202117919922E-1   4.953837096691132E-1   1.559821665287018E-1   2.525838017463684E-1   1.563220769166946E-1   2.521777451038361E-1  -7.992770075798035E-1   4.921761751174927E-1  
 1.152000000000000E7    -8.008912801742554E-1   4.959771037101746E-1   1.566348522901535E-1   2.529000937938690E-1   1.568817198276520E-1   2.527904510498047E-1  -7.991482615470886E-1   4.927721023559570E-1  
 1.154000000000000E7    -8.002073168754578E-1   4.968121051788330E-1   1.571847945451737E-1   2.529641985893250E-1   1.572887450456619E-1   2.528697848320007E-1  -7.979869842529297E-1   4.936957955360413E-1  
 1.156000000000000E7    -7.997993826866150E-1   4.977611303329468E-1   1.580590009689331E-1   2.535468041896820E-1   1.582214236259460E-1   2.535465061664581E-1  -7.977114319801331E-1   4.942196905612946E-1  
 1.158000000000000E7    -7.987967729568481E-1   4.983274936676025E-1   1.583260893821716E-1   2.538702189922333E-1   1.586113423109055E-1   2.537704408168793E-1  -7.969458103179932E-1   4.951587319374085E-1  
 1.160000000000000E7    -7.979152202606201E-1   4.987999200820923E-1   1.587670892477036E-1   2.542869150638580E-1   1.592404246330261E-1   2.541681230068207E-1  -7.963581085205078E-1   4.953607320785523E-1  
 1.162000000000000E7    -7.973275184631348E-1   5.001451373100281E-1   1.595423668622971E-1   2.547398507595062E-1   1.599247008562088E-1   2.544189095497131E-1  -7.951040267944336E-1   4.965273737907410E-1  
 1.164000000000000E7    -7.967157959938049E-1   5.008932352066040E-1   1.601728945970535E-1   2.550947070121765E-1   1.607064753770828E-1   2.548931241035461E-1  -7.946630120277405E-1   4.969626367092133E-1  
 1.166000000000000E7    -7.960793972015381E-1   5.013927221298218E-1   1.610588729381561E-1   2.554578781127930E-1   1.610458195209503E-1   2.553353309631348E-1  -7.944405078887940E-1   4.977867007255554E-1  
 1.168000000000000E7    -7.957308888435364E-1   5.020909309387207E-1   1.615825146436691E-1   2.560532987117767E-1   1.617071479558945E-1   2.554778456687927E-1  -7.939692139625549E-1   4.989800155162811E-1  
 1.170000000000000E7    -7.946354150772095E-1   5.031449794769287E-1   1.622266769409180E-1   2.558564543724060E-1   1.624295115470886E-1   2.559036910533905E-1  -7.921787500381470E-1   4.995818436145783E-1  
 1.172000000000000E7    -7.937965393066406E-1   5.033432841300964E-1   1.624975800514221E-1   2.563176453113556E-1   1.629656255245209E-1   2.560873925685883E-1  -7.920682430267334E-1   5.005304217338562E-1  
 1.174000000000000E7    -7.930545210838318E-1   5.043175220489502E-1   1.630991995334625E-1   2.568104863166809E-1   1.634501367807388E-1   2.566874325275421E-1  -7.917796969413757E-1   5.006254911422730E-1  
 1.176000000000000E7    -7.929427027702332E-1   5.050876736640930E-1   1.636353284120560E-1   2.570593953132629E-1   1.640084683895111E-1   2.567559182643890E-1  -7.903730273246765E-1   5.014501810073853E-1  
 1.178000000000000E7    -7.921712994575501E-1   5.060809254646301E-1   1.646384745836258E-1   2.574403285980225E-1   1.650068908929825E-1   2.572719454765320E-1  -7.901307940483093E-1   5.022593736648560E-1  
 1.180000000000000E7    -7.915040254592896E-1   5.064303278923035E-1   1.649465858936310E-1   2.577338218688965E-1   1.652896255254746E-1   2.575481832027435E-1  -7.890209555625916E-1   5.029602050781250E-1  
 1.182000000000000E7    -7.902913689613342E-1   5.078644752502441E-1   1.655761152505875E-1   2.581612169742584E-1   1.658420562744141E-1   2.576180398464203E-1  -7.884113788604736E-1   5.037829875946045E-1  
 1.184000000000000E7    -7.898832559585571E-1   5.082598924636841E-1   1.664267629384995E-1   2.580821216106415E-1   1.666546761989594E-1   2.579797208309174E-1  -7.875473499298096E-1   5.046902894973755E-1  
 1.186000000000000E7    -7.892461419105530E-1   5.089334845542908E-1   1.670152097940445E-1   2.588476836681366E-1   1.672701835632324E-1   2.587035298347473E-1  -7.871587872505188E-1   5.052938461303711E-1  
 1.188000000000000E7    -7.876967787742615E-1   5.098701119422913E-1   1.675730794668198E-1   2.591368257999420E-1   1.677263081073761E-1   2.588104307651520E-1  -7.863875031471252E-1   5.061784982681274E-1  
 1.190000000000000E7    -7.872569561004639E-1   5.102538466453552E-1   1.678156852722168E-1   2.593851387500763E-1   1.682439297437668E-1   2.590082287788391E-1  -7.859767675399780E-1   5.064640045166016E-1  
 1.192000000000000E7    -7.870522141456604E-1   5.106551647186279E-1   1.683698147535324E-1   2.595549225807190E-1   1.687645018100739E-1   2.594716250896454E-1  -7.851730585098267E-1   5.072523355484009E-1  
 1.194000000000000E7    -7.861709594726563E-1   5.115070939064026E-1   1.692922264337540E-1   2.600015699863434E-1   1.695992201566696E-1   2.597590088844299E-1  -7.842921614646912E-1   5.081595182418823E-1  
 1.196000000000000E7    -7.855469584465027E-1   5.125883817672730E-1   1.698109358549118E-1   2.602161169052124E-1   1.700759828090668E-1   2.600577473640442E-1  -7.831262946128845E-1   5.085106492042542E-1  
 1.198000000000000E7    -7.848795652389526E-1   5.132324099540710E-1   1.706556230783463E-1   2.608850300312042E-1   1.708636581897736E-1   2.605255246162415E-1  -7.829729914665222E-1   5.097515583038330E-1  
 1.200000000000000E7    -7.838450074195862E-1   5.140339136123657E-1   1.710198223590851E-1   2.612692713737488E-1   1.714126020669937E-1   2.607670426368713E-1  -7.818951606750488E-1   5.104241967201233E-1  
 1.202000000000000E7    -7.829502820968628E-1   5.146696567535400E-1   1.717689484357834E-1   2.610880434513092E-1   1.723573952913284E-1   2.612777650356293E-1  -7.812499403953552E-1   5.112977027893066E-1  
 1.204000000000000E7    -7.824044227600098E-1   5.157623887062073E-1   1.721064597368240E-1   2.616042792797089E-1   1.725902408361435E-1   2.615090012550354E-1  -7.804365158081055E-1   5.118086338043213E-1  
 1.206000000000000E7    -7.816725373268127E-1   5.159134864807129E-1   1.728812009096146E-1   2.619037926197052E-1   1.734262257814407E-1   2.616804540157318E-1  -7.798574566841126E-1   5.122393965721130E-1  
 1.208000000000000E7    -7.806294560432434E-1   5.169405937194824E-1   1.737180501222611E-1   2.619921565055847E-1   1.741509437561035E-1   2.621988356113434E-1  -7.790616154670715E-1   5.132210850715637E-1  
 1.210000000000000E7    -7.807081937789917E-1   5.172142982482910E-1   1.740662753582001E-1   2.630777955055237E-1   1.744406819343567E-1   2.624718844890595E-1  -7.786002159118652E-1   5.138555765151978E-1  
 1.212000000000000E7    -7.796279788017273E-1   5.182587504386902E-1   1.749866455793381E-1   2.629830539226532E-1   1.751637011766434E-1   2.627367675304413E-1  -7.772985100746155E-1   5.142893791198731E-1  
 1.214000000000000E7    -7.790191173553467E-1   5.194041132926941E-1   1.753977835178375E-1   2.633511722087860E-1   1.758478581905365E-1   2.633006274700165E-1  -7.773385047912598E-1   5.148313641548157E-1  
 1.216000000000000E7    -7.779592275619507E-1   5.198982357978821E-1   1.761582195758820E-1   2.637689709663391E-1   1.765564084053040E-1   2.634793817996979E-1  -7.764824032783508E-1   5.164670348167419E-1  
 1.218000000000000E7    -7.776114940643311E-1   5.203437209129334E-1   1.766121685504913E-1   2.639874219894409E-1   1.768591701984406E-1   2.635241448879242E-1  -7.753248214721680E-1   5.166038870811462E-1  
 1.220000000000000E7    -7.768583893775940E-1   5.212265253067017E-1   1.774392873048782E-1   2.643093764781952E-1   1.779696792364121E-1   2.640289664268494E-1  -7.745763659477234E-1   5.177531242370606E-1  
 1.222000000000000E7    -7.758048772811890E-1   5.219304561614990E-1   1.779066771268845E-1   2.644833624362946E-1   1.782568097114563E-1   2.644206285476685E-1  -7.735074758529663E-1   5.176231265068054E-1  
 1.224000000000000E7    -7.752303481101990E-1   5.228266716003418E-1   1.788831502199173E-1   2.649034261703491E-1   1.791333407163620E-1   2.644909024238586E-1  -7.731248140335083E-1   5.191439390182495E-1  
 1.226000000000000E7    -7.741168737411499E-1   5.232311487197876E-1   1.797734797000885E-1   2.652909755706787E-1   1.797228008508682E-1   2.651401758193970E-1  -7.723565697669983E-1   5.198779702186585E-1  
 1.228000000000000E7    -7.734358906745911E-1   5.238959193229675E-1   1.799828112125397E-1   2.655255496501923E-1   1.804304718971252E-1   2.652981579303742E-1  -7.716512084007263E-1   5.205814242362976E-1  
 1.230000000000000E7    -7.730926871299744E-1   5.245825648307800E-1   1.805384159088135E-1   2.657944858074188E-1   1.809344738721848E-1   2.658115327358246E-1  -7.709168195724487E-1   5.212599635124207E-1  
 1.232000000000000E7    -7.721128463745117E-1   5.255301594734192E-1   1.813041418790817E-1   2.663131952285767E-1   1.818237453699112E-1   2.661245465278626E-1  -7.702903151512146E-1   5.218399167060852E-1  
 1.234000000000000E7    -7.714244127273560E-1   5.263447165489197E-1   1.816048473119736E-1   2.663636207580566E-1   1.821358948945999E-1   2.661494910717011E-1  -7.694110870361328E-1   5.220970511436462E-1  
 1.236000000000000E7    -7.703365683555603E-1   5.263506770133972E-1   1.823476105928421E-1   2.669258117675781E-1   1.826564967632294E-1   2.667030990123749E-1  -7.690581083297730E-1   5.231583118438721E-1  
 1.238000000000000E7    -7.700223922729492E-1   5.276075005531311E-1   1.830587089061737E-1   2.673922181129456E-1   1.835380941629410E-1   2.673122584819794E-1  -7.679697871208191E-1   5.240600109100342E-1  
 1.240000000000000E7    -7.691220045089722E-1   5.286495685577393E-1   1.839579045772553E-1   2.673936486244202E-1   1.841102391481400E-1   2.673073709011078E-1  -7.669690847396851E-1   5.242177248001099E-1  
 1.242000000000000E7    -7.680593729019165E-1   5.288136601448059E-1   1.842526197433472E-1   2.678613364696503E-1   1.847728937864304E-1   2.675488889217377E-1  -7.664067745208740E-1   5.252228379249573E-1  
 1.244000000000000E7    -7.669957876205444E-1   5.297226905822754E-1   1.850810050964356E-1   2.682651877403259E-1   1.853446811437607E-1   2.680305838584900E-1  -7.657229900360107E-1   5.259869098663330E-1  
 1.246000000000000E7    -7.667274475097656E-1   5.302553772926331E-1   1.858396679162979E-1   2.685387432575226E-1   1.859471946954727E-1   2.684158980846405E-1  -7.647203207015991E-1   5.267748832702637E-1  
 1.248000000000000E7    -7.658693194389343E-1   5.313313007354736E-1   1.866608858108521E-1   2.685584127902985E-1   1.867290288209915E-1   2.686517834663391E-1  -7.642037272453308E-1   5.274231433868408E-1  
 1.250000000000000E7    -7.650825381278992E-1   5.317331552505493E-1   1.868746429681778E-1   2.689194977283478E-1   1.871334910392761E-1   2.690199017524719E-1  -7.633293271064758E-1   5.280669331550598E-1  
 1.252000000000000E7    -7.642960548400879E-1   5.330247879028320E-1   1.878088861703873E-1   2.693071961402893E-1   1.882355809211731E-1   2.691089510917664E-1  -7.624881267547607E-1   5.290499329566956E-1  
 1.254000000000000E7    -7.632987499237061E-1   5.332975983619690E-1   1.885606199502945E-1   2.692622244358063E-1   1.886493116617203E-1   2.692445218563080E-1  -7.615672349929810E-1   5.297770500183106E-1  
 1.256000000000000E7    -7.626743912696838E-1   5.342969894409180E-1   1.887798756361008E-1   2.700429558753967E-1   1.894481778144836E-1   2.698655128479004E-1  -7.608885169029236E-1   5.299906730651856E-1  
 1.258000000000000E7    -7.617506980895996E-1   5.349611639976502E-1   1.896595805883408E-1   2.701746821403503E-1   1.899683475494385E-1   2.701090872287750E-1  -7.601349353790283E-1   5.307462811470032E-1  
 1.260000000000000E7    -7.612544894218445E-1   5.354220867156982E-1   1.901070028543472E-1   2.705803513526917E-1   1.905750185251236E-1   2.706500291824341E-1  -7.593166232109070E-1   5.315247178077698E-1  
 1.262000000000000E7    -7.606137394905090E-1   5.360350608825684E-1   1.908521950244904E-1   2.708667516708374E-1   1.913253515958786E-1   2.707730233669281E-1  -7.588352560997009E-1   5.322227478027344E-1  
 1.264000000000000E7    -7.597234845161438E-1   5.365120172500610E-1   1.916403323411942E-1   2.712540924549103E-1   1.918960213661194E-1   2.711525857448578E-1  -7.579837441444397E-1   5.333372354507446E-1  
 1.266000000000000E7    -7.593504190444946E-1   5.370453596115112E-1   1.923070400953293E-1   2.715824246406555E-1   1.923007667064667E-1   2.713335752487183E-1  -7.570131421089172E-1   5.339205265045166E-1  
 1.268000000000000E7    -7.588571906089783E-1   5.385246872901917E-1   1.931389272212982E-1   2.721070349216461E-1   1.931831240653992E-1   2.718168199062347E-1  -7.562076449394226E-1   5.338956117630005E-1  
 1.270000000000000E7    -7.574399113655090E-1   5.396320819854736E-1   1.934427320957184E-1   2.721907496452332E-1   1.941685378551483E-1   2.719206511974335E-1  -7.556243538856506E-1   5.345754623413086E-1  
 1.272000000000000E7    -7.566686272621155E-1   5.393966436386108E-1   1.943303197622299E-1   2.726006507873535E-1   1.948327124118805E-1   2.724648118019104E-1  -7.549877166748047E-1   5.360879898071289E-1  
 1.274000000000000E7    -7.556980252265930E-1   5.400318503379822E-1   1.947990506887436E-1   2.728539407253265E-1   1.951802223920822E-1   2.725700736045837E-1  -7.542362213134766E-1   5.361717343330383E-1  
 1.276000000000000E7    -7.552663087844849E-1   5.408655405044556E-1   1.959892660379410E-1   2.731454968452454E-1   1.961574405431747E-1   2.727874815464020E-1  -7.527866959571838E-1   5.373096466064453E-1  
 1.278000000000000E7    -7.545912861824036E-1   5.418526530265808E-1   1.965854465961456E-1   2.734831571578980E-1   1.967446655035019E-1   2.731810212135315E-1  -7.523456215858460E-1   5.380595922470093E-1  
 1.280000000000000E7    -7.534078955650330E-1   5.425797104835510E-1   1.970963180065155E-1   2.736551463603973E-1   1.971945762634277E-1   2.733836770057678E-1  -7.514185905456543E-1   5.382388830184937E-1  
 1.282000000000000E7    -7.526114583015442E-1   5.428736805915833E-1   1.975018680095673E-1   2.738731205463409E-1   1.979577839374542E-1   2.740312814712524E-1  -7.510490417480469E-1   5.391919612884522E-1  
 1.284000000000000E7    -7.517248988151550E-1   5.439211130142212E-1   1.982464343309403E-1   2.746096551418304E-1   1.986621618270874E-1   2.740055024623871E-1  -7.502542734146118E-1   5.401460528373718E-1  
 1.286000000000000E7    -7.509416937828064E-1   5.441457629203796E-1   1.990020275115967E-1   2.747142314910889E-1   1.993263661861420E-1   2.744531333446503E-1  -7.491931915283203E-1   5.406865477561951E-1  
 1.288000000000000E7    -7.501632571220398E-1   5.451366305351257E-1   1.994799375534058E-1   2.750343978404999E-1   2.000225931406021E-1   2.745699584484100E-1  -7.486645579338074E-1   5.414449572563171E-1  
 1.290000000000000E7    -7.496491074562073E-1   5.453156232833862E-1   2.000582665205002E-1   2.753489017486572E-1   2.004683315753937E-1   2.749497890472412E-1  -7.477559447288513E-1   5.418245792388916E-1  
 1.292000000000000E7    -7.486250400543213E-1   5.462327003479004E-1   2.005812376737595E-1   2.754665911197662E-1   2.008380591869354E-1   2.753266394138336E-1  -7.470510601997376E-1   5.423264503479004E-1  
 1.294000000000000E7    -7.479687929153442E-1   5.471692085266113E-1   2.014099210500717E-1   2.759951949119568E-1   2.021117657423019E-1   2.756227850914002E-1  -7.461258172988892E-1   5.435788035392761E-1  
 1.296000000000000E7    -7.467448711395264E-1   5.477407574653626E-1   2.024613171815872E-1   2.763962745666504E-1   2.029263675212860E-1   2.758784294128418E-1  -7.458297014236450E-1   5.441173911094666E-1  
 1.298000000000000E7    -7.462248802185059E-1   5.485600829124451E-1   2.035176008939743E-1   2.762172818183899E-1   2.034675478935242E-1   2.761507928371429E-1  -7.444467544555664E-1   5.444532632827759E-1  
 1.300000000000000E7    -7.454063892364502E-1   5.492742657661438E-1   2.038544416427612E-1   2.767156064510346E-1   2.038561254739761E-1   2.765199542045593E-1  -7.433816194534302E-1   5.449753999710083E-1  
 1.302000000000000E7    -7.443552613258362E-1   5.502819418907166E-1   2.046298831701279E-1   2.766211032867432E-1   2.047694027423859E-1   2.765162289142609E-1  -7.426172494888306E-1   5.460295677185059E-1  
 1.304000000000000E7    -7.436987757682800E-1   5.507852435112000E-1   2.048608660697937E-1   2.775205075740814E-1   2.054070532321930E-1   2.769368290901184E-1  -7.420049905776978E-1   5.462084412574768E-1  
 1.306000000000000E7    -7.429032325744629E-1   5.517968535423279E-1   2.064789980649948E-1   2.773393988609314E-1   2.064151614904404E-1   2.772589921951294E-1  -7.410501241683960E-1   5.474826693534851E-1  
 1.308000000000000E7    -7.424542307853699E-1   5.521664023399353E-1   2.066099494695664E-1   2.776368558406830E-1   2.069868892431259E-1   2.776361405849457E-1  -7.403543591499329E-1   5.480266213417053E-1  
 1.310000000000000E7    -7.412311434745789E-1   5.525042414665222E-1   2.073335647583008E-1   2.781263887882233E-1   2.076454162597656E-1   2.776952683925629E-1  -7.396457791328430E-1   5.487920641899109E-1  
 1.312000000000000E7    -7.404680848121643E-1   5.533919334411621E-1   2.079003602266312E-1   2.784173786640167E-1   2.082536965608597E-1   2.783897519111633E-1  -7.392449975013733E-1   5.494933128356934E-1  
 1.314000000000000E7    -7.396088838577271E-1   5.543488264083862E-1   2.090932875871658E-1   2.789316773414612E-1   2.089108973741531E-1   2.787587940692902E-1  -7.383592724800110E-1   5.499643683433533E-1  
 1.316000000000000E7    -7.387492656707764E-1   5.550100803375244E-1   2.093404978513718E-1   2.792537510395050E-1   2.097965180873871E-1   2.787623405456543E-1  -7.373341321945190E-1   5.506943464279175E-1  
 1.318000000000000E7    -7.378991246223450E-1   5.555678606033325E-1   2.104618102312088E-1   2.795171737670898E-1   2.106907367706299E-1   2.794588506221771E-1  -7.368947863578796E-1   5.519133806228638E-1  
 1.320000000000000E7    -7.370876669883728E-1   5.560880899429321E-1   2.109615802764893E-1   2.796262800693512E-1   2.110938280820847E-1   2.791773080825806E-1  -7.354732751846314E-1   5.522511601448059E-1  
 1.322000000000000E7    -7.359331846237183E-1   5.566993355751038E-1   2.116800546646118E-1   2.800410091876984E-1   2.119294106960297E-1   2.795959413051605E-1  -7.346972227096558E-1   5.530057549476624E-1  
 1.324000000000000E7    -7.356674671173096E-1   5.575935244560242E-1   2.123466283082962E-1   2.801067531108856E-1   2.127060145139694E-1   2.798312604427338E-1  -7.336339354515076E-1   5.534733533859253E-1  
 1.326000000000000E7    -7.348064184188843E-1   5.582758188247681E-1   2.132500261068344E-1   2.804064154624939E-1   2.132788151502609E-1   2.805279195308685E-1  -7.333708405494690E-1   5.541735291481018E-1  
 1.328000000000000E7    -7.338617444038391E-1   5.590037107467651E-1   2.137554287910461E-1   2.808536887168884E-1   2.139397710561752E-1   2.805534303188324E-1  -7.324211597442627E-1   5.548666119575501E-1  
 1.330000000000000E7    -7.330865263938904E-1   5.593650937080383E-1   2.143946439027786E-1   2.811601758003235E-1   2.147512584924698E-1   2.809517979621887E-1  -7.318038344383240E-1   5.553993582725525E-1  
 1.332000000000000E7    -7.321006655693054E-1   5.603748559951782E-1   2.150442600250244E-1   2.816118597984314E-1   2.155416905879974E-1   2.810709476470947E-1  -7.306959033012390E-1   5.562151074409485E-1  
 1.334000000000000E7    -7.316575646400452E-1   5.605393052101135E-1   2.158102244138718E-1   2.821311354637146E-1   2.160511016845703E-1   2.815625667572022E-1  -7.299101948738098E-1   5.571677088737488E-1  
 1.336000000000000E7    -7.304222583770752E-1   5.614426136016846E-1   2.166423648595810E-1   2.821285426616669E-1   2.164811789989471E-1   2.817113995552063E-1  -7.291628718376160E-1   5.575794577598572E-1  
 1.338000000000000E7    -7.297959327697754E-1   5.623542666435242E-1   2.172468900680542E-1   2.822727859020233E-1   2.177960425615311E-1   2.821882963180542E-1  -7.282897233963013E-1   5.584979653358460E-1  
 1.340000000000000E7    -7.288715243339539E-1   5.627199411392212E-1   2.182851135730743E-1   2.826796472072601E-1   2.185111492872238E-1   2.824046611785889E-1  -7.270334362983704E-1   5.592277646064758E-1  
 1.342000000000000E7    -7.277357578277588E-1   5.634225606918335E-1   2.188967317342758E-1   2.829034328460693E-1   2.191711068153381E-1   2.825738489627838E-1  -7.267673015594482E-1   5.597121119499207E-1  
 1.344000000000000E7    -7.273746132850647E-1   5.642754435539246E-1   2.193128466606140E-1   2.829067707061768E-1   2.194575518369675E-1   2.826826870441437E-1  -7.252053022384644E-1   5.599697828292847E-1  
 1.346000000000000E7    -7.264704704284668E-1   5.653204917907715E-1   2.203660011291504E-1   2.833696603775024E-1   2.206191867589951E-1   2.831764519214630E-1  -7.248141765594482E-1   5.604476332664490E-1  
 1.348000000000000E7    -7.251204848289490E-1   5.656903386116028E-1   2.208173125982285E-1   2.833192348480225E-1   2.212997972965241E-1   2.832947671413422E-1  -7.242310047149658E-1   5.615605711936951E-1  
 1.350000000000000E7    -7.245376110076904E-1   5.658482313156128E-1   2.214094251394272E-1   2.837678194046021E-1   2.221434265375137E-1   2.834160625934601E-1  -7.226520776748657E-1   5.622674822807312E-1  
 1.352000000000000E7    -7.235274314880371E-1   5.668865442276001E-1   2.226158678531647E-1   2.839227020740509E-1   2.226264178752899E-1   2.837837934494019E-1  -7.220127582550049E-1   5.627068877220154E-1  
 1.354000000000000E7    -7.226819396018982E-1   5.675727725028992E-1   2.232346832752228E-1   2.840409278869629E-1   2.235399633646011E-1   2.840174138545990E-1  -7.207722067832947E-1   5.632269382476807E-1  
 1.356000000000000E7    -7.219301462173462E-1   5.681169033050537E-1   2.235905230045319E-1   2.844354510307312E-1   2.240152060985565E-1   2.842181324958801E-1  -7.201069593429565E-1   5.641230344772339E-1  
 1.358000000000000E7    -7.211395502090454E-1   5.688101053237915E-1   2.248162031173706E-1   2.850577533245087E-1   2.250867486000061E-1   2.848078012466431E-1  -7.196061015129089E-1   5.650186538696289E-1  
 1.360000000000000E7    -7.202256917953491E-1   5.699456930160523E-1   2.254670858383179E-1   2.854282259941101E-1   2.256657481193543E-1   2.852348089218140E-1  -7.184751629829407E-1   5.655143857002258E-1  
 1.362000000000000E7    -7.198430895805359E-1   5.703518986701965E-1   2.260332256555557E-1   2.857222557067871E-1   2.268176227807999E-1   2.855932712554932E-1  -7.176871895790100E-1   5.661945939064026E-1  
 1.364000000000000E7    -7.186712026596069E-1   5.708050727844238E-1   2.266945987939835E-1   2.857030034065247E-1   2.268463969230652E-1   2.854689657688141E-1  -7.168053984642029E-1   5.664635300636292E-1  
 1.366000000000000E7    -7.177711725234985E-1   5.715790390968323E-1   2.274026423692703E-1   2.861445844173431E-1   2.279596179723740E-1   2.860819697380066E-1  -7.162805795669556E-1   5.672367215156555E-1  
 1.368000000000000E7    -7.167401909828186E-1   5.724258422851563E-1   2.282321602106094E-1   2.861552536487579E-1   2.286748439073563E-1   2.861360609531403E-1  -7.155192494392395E-1   5.678455829620361E-1  
 1.370000000000000E7    -7.157713174819946E-1   5.727740526199341E-1   2.291230559349060E-1   2.867357134819031E-1   2.294615656137466E-1   2.862483561038971E-1  -7.142122983932495E-1   5.687312483787537E-1  
 1.372000000000000E7    -7.154097557067871E-1   5.733352899551392E-1   2.294033914804459E-1   2.870578169822693E-1   2.300284951925278E-1   2.866278886795044E-1  -7.136806845664978E-1   5.692147612571716E-1  
 1.374000000000000E7    -7.141656875610352E-1   5.739067196846008E-1   2.304423749446869E-1   2.871077358722687E-1   2.305287420749664E-1   2.869144678115845E-1  -7.127709388732910E-1   5.696623921394348E-1  
 1.376000000000000E7    -7.134747505187988E-1   5.747122168540955E-1   2.312480807304382E-1   2.876459956169128E-1   2.318289130926132E-1   2.870644629001617E-1  -7.118204236030579E-1   5.706743597984314E-1  
 1.378000000000000E7    -7.125367522239685E-1   5.755502581596375E-1   2.317859828472138E-1   2.872515320777893E-1   2.321826219558716E-1   2.873121500015259E-1  -7.105808258056641E-1   5.708052515983582E-1  
 1.380000000000000E7    -7.113699913024902E-1   5.761186480522156E-1   2.327793985605240E-1   2.878663241863251E-1   2.329854518175125E-1   2.874780297279358E-1  -7.098613977432251E-1   5.719563364982605E-1  
 1.382000000000000E7    -7.105153203010559E-1   5.766804814338684E-1   2.334906458854675E-1   2.880334258079529E-1   2.336498498916626E-1   2.878083288669586E-1  -7.090327143669128E-1   5.720720291137695E-1  
 1.384000000000000E7    -7.097663879394531E-1   5.774621963500977E-1   2.341403812170029E-1   2.883473932743073E-1   2.346679568290710E-1   2.884359359741211E-1  -7.081197500228882E-1   5.729300379753113E-1  
 1.386000000000000E7    -7.092798352241516E-1   5.782566070556641E-1   2.351613938808441E-1   2.886622548103333E-1   2.352893501520157E-1   2.886492609977722E-1  -7.074433565139771E-1   5.737165808677673E-1  
 1.388000000000000E7    -7.081348896026611E-1   5.784166455268860E-1   2.355393469333649E-1   2.890297472476959E-1   2.360344678163528E-1   2.886060178279877E-1  -7.063915133476257E-1   5.746586918830872E-1  
 1.390000000000000E7    -7.067456841468811E-1   5.796741843223572E-1   2.367262691259384E-1   2.892432808876038E-1   2.371120005846024E-1   2.891612350940704E-1  -7.059558629989624E-1   5.750360488891602E-1  
 1.392000000000000E7    -7.064347267150879E-1   5.799248218536377E-1   2.372793108224869E-1   2.894359529018402E-1   2.375172227621079E-1   2.894161343574524E-1  -7.050259709358215E-1   5.757048130035400E-1  
 1.394000000000000E7    -7.052209377288818E-1   5.809029340744019E-1   2.383532226085663E-1   2.893165349960327E-1   2.388929873704910E-1   2.891760766506195E-1  -7.036421298980713E-1   5.764439105987549E-1  
 1.396000000000000E7    -7.041485309600830E-1   5.815666317939758E-1   2.390462458133698E-1   2.900856733322144E-1   2.395044118165970E-1   2.896414101123810E-1  -7.034198045730591E-1   5.772533416748047E-1  
 1.398000000000000E7    -7.035551071166992E-1   5.818768143653870E-1   2.393810898065567E-1   2.901289165019989E-1   2.400104999542236E-1   2.898720502853394E-1  -7.023547887802124E-1   5.776420235633850E-1  
 1.400000000000000E7    -7.030436396598816E-1   5.823969244956970E-1   2.401580214500427E-1   2.904188632965088E-1   2.407957613468170E-1   2.902539670467377E-1  -7.012213468551636E-1   5.783869624137878E-1  
 1.402000000000000E7    -7.019702792167664E-1   5.831589698791504E-1   2.414264976978302E-1   2.906307876110077E-1   2.414618730545044E-1   2.903805971145630E-1  -7.003181576728821E-1   5.787135362625122E-1  
 1.404000000000000E7    -7.009583115577698E-1   5.838883519172669E-1   2.421730458736420E-1   2.912134826183319E-1   2.420504987239838E-1   2.906368672847748E-1  -6.995145678520203E-1   5.799055099487305E-1  
 1.406000000000000E7    -6.998795866966248E-1   5.845364332199097E-1   2.425051033496857E-1   2.911372780799866E-1   2.429662495851517E-1   2.910811603069305E-1  -6.983845233917236E-1   5.805857181549072E-1  
 1.408000000000000E7    -6.994844079017639E-1   5.852569937705994E-1   2.435978800058365E-1   2.913528680801392E-1   2.441451102495194E-1   2.912344932556152E-1  -6.974968910217285E-1   5.810599923133850E-1  
 1.410000000000000E7    -6.981678605079651E-1   5.856072902679443E-1   2.443639039993286E-1   2.918306887149811E-1   2.445384562015533E-1   2.913818061351776E-1  -6.965868473052979E-1   5.818793773651123E-1  
 1.412000000000000E7    -6.970989108085632E-1   5.863842964172363E-1   2.450004070997238E-1   2.917238175868988E-1   2.456242144107819E-1   2.917774319648743E-1  -6.961106061935425E-1   5.823756456375122E-1  
 1.414000000000000E7    -6.963661909103394E-1   5.866647362709045E-1   2.460952997207642E-1   2.921099960803986E-1   2.463764250278473E-1   2.916652858257294E-1  -6.946877837181091E-1   5.830614566802979E-1  
 1.416000000000000E7    -6.953340768814087E-1   5.871974825859070E-1   2.468850016593933E-1   2.923005819320679E-1   2.470626682043076E-1   2.920686006546021E-1  -6.937601566314697E-1   5.838781595230103E-1  
 1.418000000000000E7    -6.942559480667114E-1   5.878230929374695E-1   2.473851293325424E-1   2.925225198268890E-1   2.475868910551071E-1   2.925589680671692E-1  -6.932974457740784E-1   5.840153098106384E-1  
 1.420000000000000E7    -6.936420202255249E-1   5.886450409889221E-1   2.484518140554428E-1   2.932415306568146E-1   2.485435307025909E-1   2.924971878528595E-1  -6.925379037857056E-1   5.851514339447022E-1  
 1.422000000000000E7    -6.926846504211426E-1   5.892876982688904E-1   2.490089088678360E-1   2.930434644222260E-1   2.494666576385498E-1   2.932612895965576E-1  -6.915752887725830E-1   5.852723717689514E-1  
 1.424000000000000E7    -6.916553378105164E-1   5.899510383605957E-1   2.496363222599030E-1   2.935744822025299E-1   2.499175816774368E-1   2.930683791637421E-1  -6.906173825263977E-1   5.859237909317017E-1  
 1.426000000000000E7    -6.907108426094055E-1   5.908053517341614E-1   2.504611611366272E-1   2.934461832046509E-1   2.509927749633789E-1   2.933035194873810E-1  -6.892564892768860E-1   5.866968631744385E-1  
 1.428000000000000E7    -6.900139451026917E-1   5.915475487709045E-1   2.511989772319794E-1   2.937645614147186E-1   2.518672347068787E-1   2.933160662651062E-1  -6.884033083915710E-1   5.870901346206665E-1  
 1.430000000000000E7    -6.891362667083740E-1   5.918628573417664E-1   2.522562742233276E-1   2.939551472663879E-1   2.526913881301880E-1   2.937957942485809E-1  -6.873542070388794E-1   5.874533057212830E-1  
 1.432000000000000E7    -6.875922679901123E-1   5.926665663719177E-1   2.530582249164581E-1   2.946002781391144E-1   2.535418570041657E-1   2.939844429492950E-1  -6.872617006301880E-1   5.882067084312439E-1  
 1.434000000000000E7    -6.868871450424194E-1   5.933522582054138E-1   2.540096938610077E-1   2.946895658969879E-1   2.543754875659943E-1   2.944079041481018E-1  -6.860477328300476E-1   5.894259810447693E-1  
 1.436000000000000E7    -6.866732835769653E-1   5.935397148132324E-1   2.542861402034760E-1   2.950056195259094E-1   2.548205554485321E-1   2.943874597549439E-1  -6.848464012145996E-1   5.898041725158691E-1  
 1.438000000000000E7    -6.851772665977478E-1   5.939374566078186E-1   2.553827166557312E-1   2.947451472282410E-1   2.553058266639710E-1   2.947470545768738E-1  -6.839931011199951E-1   5.904249548912048E-1  
 1.440000000000000E7    -6.844536066055298E-1   5.948582291603088E-1   2.560014128684998E-1   2.952020764350891E-1   2.565361559391022E-1   2.945892810821533E-1  -6.832085251808167E-1   5.908322334289551E-1  
 1.442000000000000E7    -6.835620403289795E-1   5.956323146820068E-1   2.573252916336060E-1   2.954011559486389E-1   2.576962709426880E-1   2.953838706016541E-1  -6.822814345359802E-1   5.918208360671997E-1  
 1.444000000000000E7    -6.825907230377197E-1   5.964106321334839E-1   2.579120993614197E-1   2.957315444946289E-1   2.580962777137756E-1   2.951361238956451E-1  -6.812551617622376E-1   5.919705629348755E-1  
 1.446000000000000E7    -6.813815236091614E-1   5.967024564743042E-1   2.583770751953125E-1   2.961009442806244E-1   2.586835920810700E-1   2.955975532531738E-1  -6.804232001304627E-1   5.923212766647339E-1  
 1.448000000000000E7    -6.803836822509766E-1   5.976304411888123E-1   2.590709924697876E-1   2.961583137512207E-1   2.596274912357330E-1   2.959505915641785E-1  -6.792448759078980E-1   5.930657982826233E-1  
 1.450000000000000E7    -6.797311902046204E-1   5.982332229614258E-1   2.603405714035034E-1   2.966347634792328E-1   2.605340182781220E-1   2.963613867759705E-1  -6.786566972732544E-1   5.939199328422546E-1  
 1.452000000000000E7    -6.787727475166321E-1   5.987241268157959E-1   2.609710693359375E-1   2.966441810131073E-1   2.615068554878235E-1   2.961328327655792E-1  -6.777472496032715E-1   5.941226482391357E-1  
 1.454000000000000E7    -6.774676442146301E-1   5.991736650466919E-1   2.619572281837463E-1   2.969157695770264E-1   2.623365521430969E-1   2.963749766349793E-1  -6.767366528511047E-1   5.950641036033630E-1  
 1.456000000000000E7    -6.768178343772888E-1   5.995544195175171E-1   2.624498605728149E-1   2.972124516963959E-1   2.626474201679230E-1   2.966534495353699E-1  -6.755464076995850E-1   5.954393148422241E-1  
 1.458000000000000E7    -6.757324934005737E-1   6.002543568611145E-1   2.634955942630768E-1   2.969309985637665E-1   2.637634575366974E-1   2.967377901077271E-1  -6.745418310165405E-1   5.961840748786926E-1  
 1.460000000000000E7    -6.749829649925232E-1   6.011745929718018E-1   2.643597424030304E-1   2.976139783859253E-1   2.645689249038696E-1   2.966584563255310E-1  -6.735625267028809E-1   5.967589020729065E-1  
 1.462000000000000E7    -6.737487912178040E-1   6.015512347221375E-1   2.653214335441589E-1   2.974466383457184E-1   2.656123042106628E-1   2.970031499862671E-1  -6.725811362266541E-1   5.974012017250061E-1  
 1.464000000000000E7    -6.733424067497253E-1   6.019955277442932E-1   2.662512362003326E-1   2.978038489818573E-1   2.663256525993347E-1   2.977118194103241E-1  -6.717838048934937E-1   5.982534885406494E-1  
 1.466000000000000E7    -6.716322302818298E-1   6.025014519691467E-1   2.666949331760407E-1   2.980501949787140E-1   2.670323252677918E-1   2.979725301265717E-1  -6.710528731346130E-1   5.984274148941040E-1  
 1.468000000000000E7    -6.711860895156860E-1   6.034770011901856E-1   2.676680684089661E-1   2.982163429260254E-1   2.680979967117310E-1   2.982757091522217E-1  -6.702373623847961E-1   5.987861752510071E-1  
 1.470000000000000E7    -6.699811816215515E-1   6.040596961975098E-1   2.686481773853302E-1   2.982557713985443E-1   2.690306901931763E-1   2.981046140193939E-1  -6.689615249633789E-1   5.993844270706177E-1  
 1.472000000000000E7    -6.693005561828613E-1   6.041840314865112E-1   2.692275047302246E-1   2.984946370124817E-1   2.698431909084320E-1   2.985469400882721E-1  -6.680510044097900E-1   6.003527045249939E-1  
 1.474000000000000E7    -6.680966615676880E-1   6.047956943511963E-1   2.703247070312500E-1   2.985613048076630E-1   2.706691622734070E-1   2.985690534114838E-1  -6.667561531066895E-1   6.009421944618225E-1  
 1.476000000000000E7    -6.670405864715576E-1   6.059510707855225E-1   2.711127996444702E-1   2.993235588073731E-1   2.714868783950806E-1   2.988650500774384E-1  -6.665086150169373E-1   6.017797589302063E-1  
 1.478000000000000E7    -6.662250161170960E-1   6.062496900558472E-1   2.716218233108521E-1   2.992008626461029E-1   2.718749642372131E-1   2.990249991416931E-1  -6.651425361633301E-1   6.021414995193481E-1  
 1.480000000000000E7    -6.649928689002991E-1   6.069608926773071E-1   2.725951075553894E-1   2.995184659957886E-1   2.727933824062347E-1   2.993736565113068E-1  -6.641987562179565E-1   6.028443574905396E-1  
 1.482000000000000E7    -6.643915772438049E-1   6.077017188072205E-1   2.738032639026642E-1   3.000309765338898E-1   2.738789618015289E-1   2.996231019496918E-1  -6.636256575584412E-1   6.033304929733276E-1  
 1.484000000000000E7    -6.634804606437683E-1   6.084313988685608E-1   2.746109366416931E-1   3.001319169998169E-1   2.749906778335571E-1   2.994642257690430E-1  -6.619725823402405E-1   6.043539643287659E-1  
 1.486000000000000E7    -6.626577973365784E-1   6.087383031845093E-1   2.751907706260681E-1   3.002752959728241E-1   2.754845023155212E-1   3.001198768615723E-1  -6.613907814025879E-1   6.041457653045654E-1  
 1.488000000000000E7    -6.615498661994934E-1   6.092938184738159E-1   2.760071456432343E-1   3.004624247550964E-1   2.764853537082672E-1   2.999005913734436E-1  -6.604719758033752E-1   6.048073768615723E-1  
 1.490000000000000E7    -6.602023839950562E-1   6.098530888557434E-1   2.768456041812897E-1   3.004823029041290E-1   2.774060964584351E-1   3.002428710460663E-1  -6.593023538589478E-1   6.053926348686218E-1  
 1.492000000000000E7    -6.590792536735535E-1   6.102247834205627E-1   2.776610851287842E-1   3.007614314556122E-1   2.782723307609558E-1   2.999993860721588E-1  -6.584261655807495E-1   6.064112782478333E-1  
 1.494000000000000E7    -6.586322784423828E-1   6.114503741264343E-1   2.789784669876099E-1   3.008974492549896E-1   2.790900468826294E-1   3.005010187625885E-1  -6.572602391242981E-1   6.066704392433167E-1  
 1.496000000000000E7    -6.573736071586609E-1   6.115301251411438E-1   2.795299291610718E-1   3.011090159416199E-1   2.800232470035553E-1   3.007734417915344E-1  -6.565086245536804E-1   6.073417067527771E-1  
 1.498000000000000E7    -6.564975976943970E-1   6.119763255119324E-1   2.800042033195496E-1   3.012347817420960E-1   2.808806300163269E-1   3.008615374565125E-1  -6.552947163581848E-1   6.081433296203613E-1  
 1.500000000000000E7    -6.557464599609375E-1   6.125612258911133E-1   2.813849449157715E-1   3.016103506088257E-1   2.815810143947601E-1   3.013824224472046E-1  -6.544977426528931E-1   6.088805794715881E-1  
 1.502000000000000E7    -6.545628905296326E-1   6.132701635360718E-1   2.821986973285675E-1   3.019122779369354E-1   2.820873558521271E-1   3.012835979461670E-1  -6.534764766693115E-1   6.094688177108765E-1  
 1.504000000000000E7    -6.535153985023499E-1   6.141533851623535E-1   2.832697331905365E-1   3.020604550838471E-1   2.837252616882324E-1   3.016762137413025E-1  -6.528570055961609E-1   6.100271940231323E-1  
 1.506000000000000E7    -6.527730822563171E-1   6.142335534095764E-1   2.840337157249451E-1   3.021138012409210E-1   2.839302122592926E-1   3.018085658550263E-1  -6.513041853904724E-1   6.105285286903381E-1  
 1.508000000000000E7    -6.517049670219421E-1   6.151418685913086E-1   2.848109304904938E-1   3.025565147399902E-1   2.849099338054657E-1   3.019494116306305E-1  -6.504122018814087E-1   6.111384034156799E-1  
 1.510000000000000E7    -6.506181359291077E-1   6.154875755310059E-1   2.856355905532837E-1   3.025383353233337E-1   2.859615087509155E-1   3.022747039794922E-1  -6.496907472610474E-1   6.115875840187073E-1  
 1.512000000000000E7    -6.496420502662659E-1   6.157424449920654E-1   2.867674231529236E-1   3.024982810020447E-1   2.869764864444733E-1   3.022947311401367E-1  -6.485772728919983E-1   6.125018596649170E-1  
 1.514000000000000E7    -6.488667130470276E-1   6.170315146446228E-1   2.872241735458374E-1   3.028574585914612E-1   2.879005372524262E-1   3.027874827384949E-1  -6.482547521591187E-1   6.123492717742920E-1  
 1.516000000000000E7    -6.474133133888245E-1   6.172900795936585E-1   2.884404659271240E-1   3.029186427593231E-1   2.883680462837219E-1   3.031010031700134E-1  -6.469517946243286E-1   6.132965087890625E-1  
 1.518000000000000E7    -6.467569470405579E-1   6.173399686813355E-1   2.890000343322754E-1   3.035184741020203E-1   2.892570793628693E-1   3.030671775341034E-1  -6.456153392791748E-1   6.142452359199524E-1  
 1.520000000000000E7    -6.453161835670471E-1   6.185324192047119E-1   2.902101874351502E-1   3.030234575271606E-1   2.905433773994446E-1   3.031433820724487E-1  -6.443557739257813E-1   6.142820119857788E-1  
 1.522000000000000E7    -6.446592807769775E-1   6.193004846572876E-1   2.910376787185669E-1   3.036321401596069E-1   2.912390232086182E-1   3.031646609306335E-1  -6.436166167259216E-1   6.151297092437744E-1  
 1.524000000000000E7    -6.432482004165649E-1   6.195629835128784E-1   2.915095984935761E-1   3.037614524364471E-1   2.919470667839050E-1   3.032726645469666E-1  -6.426237225532532E-1   6.157524585723877E-1  
 1.526000000000000E7    -6.426120400428772E-1   6.203976869583130E-1   2.930262088775635E-1   3.038598001003265E-1   2.930696606636047E-1   3.036234974861145E-1  -6.416965126991272E-1   6.164226531982422E-1  
 1.528000000000000E7    -6.414554715156555E-1   6.210823059082031E-1   2.937473952770233E-1   3.041157424449921E-1   2.943390607833862E-1   3.039874732494354E-1  -6.407940983772278E-1   6.171372532844544E-1  
 1.530000000000000E7    -6.406769752502441E-1   6.214777827262878E-1   2.942236065864563E-1   3.041934669017792E-1   2.948429286479950E-1   3.038407564163208E-1  -6.390028595924377E-1   6.170068979263306E-1  
 1.532000000000000E7    -6.396272778511047E-1   6.215405464172363E-1   2.951206564903259E-1   3.042298555374146E-1   2.956337630748749E-1   3.040800690650940E-1  -6.381729841232300E-1   6.177040338516235E-1  
 1.534000000000000E7    -6.383195519447327E-1   6.225382089614868E-1   2.961449325084686E-1   3.046993315219879E-1   2.963932156562805E-1   3.043193221092224E-1  -6.380952000617981E-1   6.180958151817322E-1  
 1.536000000000000E7    -6.375685930252075E-1   6.230749487876892E-1   2.970188260078430E-1   3.048194348812103E-1   2.975407838821411E-1   3.046267032623291E-1  -6.363778710365295E-1   6.189852952957153E-1  
 1.538000000000000E7    -6.364494562149048E-1   6.239185929298401E-1   2.982120215892792E-1   3.049227297306061E-1   2.983451485633850E-1   3.044685125350952E-1  -6.353148221969605E-1   6.193338036537170E-1  
 1.540000000000000E7    -6.353102922439575E-1   6.240768432617188E-1   2.987280189990997E-1   3.048372566699982E-1   2.991839945316315E-1   3.045891821384430E-1  -6.340309381484985E-1   6.198872327804565E-1  
 1.542000000000000E7    -6.341521739959717E-1   6.243256926536560E-1   2.998428940773010E-1   3.049292564392090E-1   3.001516461372376E-1   3.048656582832336E-1  -6.327710747718811E-1   6.206513047218323E-1  
 1.544000000000000E7    -6.335244774818420E-1   6.255602240562439E-1   3.009515404701233E-1   3.051391541957855E-1   3.009975552558899E-1   3.049240708351135E-1  -6.321681737899780E-1   6.209040284156799E-1  
 1.546000000000000E7    -6.325475573539734E-1   6.255486011505127E-1   3.017313182353973E-1   3.051484227180481E-1   3.023257553577423E-1   3.051449656486511E-1  -6.311206221580505E-1   6.216049790382385E-1  
 1.548000000000000E7    -6.312620639801025E-1   6.264232397079468E-1   3.027167916297913E-1   3.059906065464020E-1   3.030480146408081E-1   3.054834902286530E-1  -6.302690505981445E-1   6.224250793457031E-1  
 1.550000000000000E7    -6.301229000091553E-1   6.267808675765991E-1   3.034000992774963E-1   3.058352768421173E-1   3.035801351070404E-1   3.053191006183624E-1  -6.290664672851563E-1   6.227077245712280E-1  
 1.552000000000000E7    -6.292474269866943E-1   6.274127364158630E-1   3.045922517776489E-1   3.060075938701630E-1   3.048438131809235E-1   3.057199120521545E-1  -6.283345222473145E-1   6.231288313865662E-1  
 1.554000000000000E7    -6.285901069641113E-1   6.282049417495728E-1   3.048046827316284E-1   3.065321445465088E-1   3.060200214385986E-1   3.058300912380219E-1  -6.270363926887512E-1   6.241296529769898E-1  
 1.556000000000000E7    -6.270993947982788E-1   6.282522678375244E-1   3.059778809547424E-1   3.063110113143921E-1   3.063310384750366E-1   3.060191869735718E-1  -6.261347532272339E-1   6.241320967674255E-1  
 1.558000000000000E7    -6.267402172088623E-1   6.291311979293823E-1   3.071023821830750E-1   3.068158030509949E-1   3.079573512077332E-1   3.063343465328217E-1  -6.248447299003601E-1   6.250669360160828E-1  
 1.560000000000000E7    -6.250199675559998E-1   6.295354366302490E-1   3.078767359256744E-1   3.064825236797333E-1   3.086698353290558E-1   3.064649701118469E-1  -6.242055892944336E-1   6.256924271583557E-1  
 1.562000000000000E7    -6.240461468696594E-1   6.299706697463989E-1   3.088562488555908E-1   3.065801262855530E-1   3.087847530841827E-1   3.063874244689941E-1  -6.225634813308716E-1   6.253342628479004E-1  
 1.564000000000000E7    -6.230769157409668E-1   6.303925514221191E-1   3.096387982368469E-1   3.071573972702026E-1   3.101117014884949E-1   3.065720200538635E-1  -6.222529411315918E-1   6.258018612861633E-1  
 1.566000000000000E7    -6.219491958618164E-1   6.315803527832031E-1   3.109167516231537E-1   3.070107698440552E-1   3.110888004302979E-1   3.066756129264832E-1  -6.212348937988281E-1   6.261336207389832E-1  
 1.568000000000000E7    -6.209698319435120E-1   6.318663358688355E-1   3.119944930076599E-1   3.069900274276733E-1   3.120266795158386E-1   3.067365288734436E-1  -6.196498870849609E-1   6.275008916854858E-1  
 1.570000000000000E7    -6.198084950447083E-1   6.325401663780212E-1   3.130722343921661E-1   3.074275255203247E-1   3.130320012569428E-1   3.069179952144623E-1  -6.182252764701843E-1   6.281453967094421E-1  
 1.572000000000000E7    -6.184484362602234E-1   6.331983804702759E-1   3.134503960609436E-1   3.072988688945770E-1   3.145540654659271E-1   3.071486055850983E-1  -6.180039048194885E-1   6.283631324768066E-1  
 1.574000000000000E7    -6.176692843437195E-1   6.332078576087952E-1   3.145963251590729E-1   3.078481256961823E-1   3.149529099464417E-1   3.073092997074127E-1  -6.165363788604736E-1   6.291139125823975E-1  
 1.576000000000000E7    -6.167299747467041E-1   6.341787576675415E-1   3.157453238964081E-1   3.076844513416290E-1   3.160935342311859E-1   3.074051737785339E-1  -6.153426170349121E-1   6.292162537574768E-1  
 1.578000000000000E7    -6.156004667282105E-1   6.342698335647583E-1   3.161981403827667E-1   3.081359565258026E-1   3.162368535995483E-1   3.075090646743774E-1  -6.143740415573120E-1   6.300242543220520E-1  
 1.580000000000000E7    -6.142523884773254E-1   6.346953511238098E-1   3.175383806228638E-1   3.082505464553833E-1   3.177740871906281E-1   3.077780306339264E-1  -6.136374473571777E-1   6.308164000511169E-1  
 1.582000000000000E7    -6.132402420043945E-1   6.353669762611389E-1   3.181541562080383E-1   3.081510365009308E-1   3.186796009540558E-1   3.075867593288422E-1  -6.124848723411560E-1   6.313835382461548E-1  
 1.584000000000000E7    -6.122772097587585E-1   6.354061365127564E-1   3.191252350807190E-1   3.083508610725403E-1   3.195814192295075E-1   3.080499470233917E-1  -6.112617254257202E-1   6.317635178565979E-1  
 1.586000000000000E7    -6.113260984420776E-1   6.364737749099731E-1   3.202262818813324E-1   3.085454404354096E-1   3.204154372215271E-1   3.080568313598633E-1  -6.101635694503784E-1   6.320114135742188E-1  
 1.588000000000000E7    -6.101604104042053E-1   6.366078257560730E-1   3.212197124958038E-1   3.084935545921326E-1   3.216158151626587E-1   3.082204759120941E-1  -6.095768809318543E-1   6.325626969337463E-1  
 1.590000000000000E7    -6.090147495269775E-1   6.370591521263123E-1   3.220424950122833E-1   3.088260293006897E-1   3.222856223583221E-1   3.081488609313965E-1  -6.080050468444824E-1   6.329398751258850E-1  
 1.592000000000000E7    -6.077294945716858E-1   6.383663415908814E-1   3.231331408023834E-1   3.084320425987244E-1   3.233406543731690E-1   3.081302940845490E-1  -6.071392297744751E-1   6.334437131881714E-1  
 1.594000000000000E7    -6.066522002220154E-1   6.386433839797974E-1   3.239708244800568E-1   3.085505962371826E-1   3.245748281478882E-1   3.082996606826782E-1  -6.057324409484863E-1   6.336854696273804E-1  
 1.596000000000000E7    -6.060460805892944E-1   6.385480761528015E-1   3.251424431800842E-1   3.087047934532166E-1   3.246355056762695E-1   3.087714910507202E-1  -6.050112247467041E-1   6.348096728324890E-1  
 1.598000000000000E7    -6.042430996894836E-1   6.391925811767578E-1   3.258378505706787E-1   3.091535866260529E-1   3.259101510047913E-1   3.085572421550751E-1  -6.038178205490112E-1   6.357026696205139E-1  
 1.600000000000000E7    -6.038885116577148E-1   6.391510367393494E-1   3.268659114837647E-1   3.091709017753601E-1   3.269376456737518E-1   3.087894320487976E-1  -6.025130748748779E-1   6.359066963195801E-1  
 1.602000000000000E7    -6.029421091079712E-1   6.404527425765991E-1   3.279605507850647E-1   3.094206452369690E-1   3.283483982086182E-1   3.092467188835144E-1  -6.015845537185669E-1   6.365729570388794E-1  
 1.604000000000000E7    -6.013045310974121E-1   6.409765481948853E-1   3.286849260330200E-1   3.087234497070313E-1   3.288555145263672E-1   3.087423443794251E-1  -6.003699898719788E-1   6.363142132759094E-1  
 1.606000000000000E7    -6.002460122108460E-1   6.414951086044312E-1   3.297579288482666E-1   3.092364370822907E-1   3.302285373210907E-1   3.094260096549988E-1  -5.992978215217590E-1   6.373084783554077E-1  
 1.608000000000000E7    -5.994127392768860E-1   6.421008706092835E-1   3.305093050003052E-1   3.103709518909454E-1   3.309396505355835E-1   3.092288672924042E-1  -5.985268354415894E-1   6.373315453529358E-1  
 1.610000000000000E7    -5.984814763069153E-1   6.422699093818665E-1   3.320412337779999E-1   3.097091019153595E-1   3.323549926280975E-1   3.096968233585358E-1  -5.970531105995178E-1   6.383073925971985E-1  
 1.612000000000000E7    -5.971372127532959E-1   6.430799961090088E-1   3.326883316040039E-1   3.097376227378845E-1   3.332238495349884E-1   3.093563914299011E-1  -5.959304571151733E-1   6.385136842727661E-1  
 1.614000000000000E7    -5.961447954177856E-1   6.431889533996582E-1   3.333320617675781E-1   3.100774586200714E-1   3.338195681571960E-1   3.096675872802734E-1  -5.950391292572022E-1   6.391745209693909E-1  
 1.616000000000000E7    -5.947154164314270E-1   6.437164545059204E-1   3.346462845802307E-1   3.102344870567322E-1   3.350405693054199E-1   3.094543218612671E-1  -5.938432812690735E-1   6.399251222610474E-1  
 1.618000000000000E7    -5.935804843902588E-1   6.447166800498962E-1   3.356410264968872E-1   3.102992773056030E-1   3.363105654716492E-1   3.095120489597321E-1  -5.926026105880737E-1   6.402764916419983E-1  
 1.620000000000000E7    -5.923511981964111E-1   6.450022459030151E-1   3.369060754776001E-1   3.103903234004974E-1   3.372121751308441E-1   3.095846176147461E-1  -5.917709469795227E-1   6.405673623085022E-1  
 1.622000000000000E7    -5.917694568634033E-1   6.453803181648254E-1   3.375482857227325E-1   3.105130195617676E-1   3.380267620086670E-1   3.100765943527222E-1  -5.902000665664673E-1   6.411860585212708E-1  
 1.624000000000000E7    -5.903983712196350E-1   6.459656953811646E-1   3.388846516609192E-1   3.106660246849060E-1   3.389783799648285E-1   3.099934160709381E-1  -5.895824432373047E-1   6.417049765586853E-1  
 1.626000000000000E7    -5.888618826866150E-1   6.461066007614136E-1   3.394036889076233E-1   3.105224967002869E-1   3.398614227771759E-1   3.099757730960846E-1  -5.885063409805298E-1   6.426559090614319E-1  
 1.628000000000000E7    -5.881977081298828E-1   6.466720700263977E-1   3.405673205852509E-1   3.106272518634796E-1   3.407070934772492E-1   3.107199966907501E-1  -5.872824192047119E-1   6.425995230674744E-1  
 1.630000000000000E7    -5.871518254280090E-1   6.467220783233643E-1   3.414663374423981E-1   3.104411959648132E-1   3.420691490173340E-1   3.102838993072510E-1  -5.860705971717835E-1   6.431003212928772E-1  
 1.632000000000000E7    -5.860016345977783E-1   6.477419137954712E-1   3.423590660095215E-1   3.109332323074341E-1   3.425069153308868E-1   3.107596635818481E-1  -5.851097702980042E-1   6.431217193603516E-1  
 1.634000000000000E7    -5.849938988685608E-1   6.484158635139465E-1   3.437445163726807E-1   3.107500672340393E-1   3.436698615550995E-1   3.105692267417908E-1  -5.834285616874695E-1   6.435496807098389E-1  
 1.636000000000000E7    -5.833483934402466E-1   6.485296487808228E-1   3.446313738822937E-1   3.110111355781555E-1   3.447517454624176E-1   3.105227649211884E-1  -5.828459262847900E-1   6.446935534477234E-1  
 1.638000000000000E7    -5.825467109680176E-1   6.489146351814270E-1   3.455241024494171E-1   3.111555874347687E-1   3.456800878047943E-1   3.105318844318390E-1  -5.818060636520386E-1   6.446502804756165E-1  
 1.640000000000000E7    -5.813437700271606E-1   6.493304371833801E-1   3.462717831134796E-1   3.110255897045136E-1   3.468104600906372E-1   3.109464049339294E-1  -5.805906653404236E-1   6.459255218505859E-1  
 1.642000000000000E7    -5.800229310989380E-1   6.502926945686340E-1   3.476513028144836E-1   3.107956051826477E-1   3.481715917587280E-1   3.105294108390808E-1  -5.789706707000732E-1   6.459484100341797E-1  
 1.644000000000000E7    -5.788181424140930E-1   6.505011320114136E-1   3.484371900558472E-1   3.111966848373413E-1   3.493824899196625E-1   3.108078539371491E-1  -5.788136720657349E-1   6.462735533714294E-1  
 1.646000000000000E7    -5.778542160987854E-1   6.510560512542725E-1   3.491495251655579E-1   3.107942938804627E-1   3.496772348880768E-1   3.107159733772278E-1  -5.766195058822632E-1   6.461855769157410E-1  
 1.648000000000000E7    -5.766956210136414E-1   6.514084339141846E-1   3.501722812652588E-1   3.115401268005371E-1   3.509519994258881E-1   3.111554980278015E-1  -5.761441588401794E-1   6.470609903335571E-1  
 1.650000000000000E7    -5.756948590278626E-1   6.520431041717529E-1   3.518328070640564E-1   3.114476501941681E-1   3.521667420864105E-1   3.110651373863220E-1  -5.753636956214905E-1   6.476085186004639E-1  
 1.652000000000000E7    -5.748295187950134E-1   6.523316502571106E-1   3.527920544147492E-1   3.116345703601837E-1   3.528655767440796E-1   3.110495507717133E-1  -5.737016201019287E-1   6.481389999389648E-1  
 1.654000000000000E7    -5.735057592391968E-1   6.530883312225342E-1   3.535000979900360E-1   3.117170035839081E-1   3.539247214794159E-1   3.110590875148773E-1  -5.723897814750671E-1   6.487540006637573E-1  
 1.656000000000000E7    -5.718761086463928E-1   6.532574295997620E-1   3.544633686542511E-1   3.116939663887024E-1   3.548014163970947E-1   3.111082315444946E-1  -5.713463425636292E-1   6.487617492675781E-1  
 1.658000000000000E7    -5.707392096519470E-1   6.538217663764954E-1   3.550953269004822E-1   3.115453422069550E-1   3.559578955173492E-1   3.112524151802063E-1  -5.703929066658020E-1   6.495151519775391E-1  
 1.660000000000000E7    -5.698852539062500E-1   6.537572741508484E-1   3.562122285366058E-1   3.116149306297302E-1   3.565185070037842E-1   3.109468221664429E-1  -5.691301822662354E-1   6.500923633575440E-1  
 1.662000000000000E7    -5.685126185417175E-1   6.548048257827759E-1   3.578413724899292E-1   3.117195367813110E-1   3.581868112087250E-1   3.114466965198517E-1  -5.679798126220703E-1   6.504164934158325E-1  
 1.664000000000000E7    -5.674962997436523E-1   6.547465324401856E-1   3.583095669746399E-1   3.116733133792877E-1   3.593809008598328E-1   3.112860321998596E-1  -5.668230652809143E-1   6.507150530815125E-1  
 1.666000000000000E7    -5.663985013961792E-1   6.554695367813110E-1   3.596507906913757E-1   3.118433356285095E-1   3.598634004592896E-1   3.113512992858887E-1  -5.656200051307678E-1   6.510601043701172E-1  
 1.668000000000000E7    -5.655899643898010E-1   6.562042832374573E-1   3.609890043735504E-1   3.115954995155335E-1   3.609426617622376E-1   3.111360669136047E-1  -5.645926594734192E-1   6.517360210418701E-1  
 1.670000000000000E7    -5.637661814689636E-1   6.559942960739136E-1   3.618550002574921E-1   3.118456006050110E-1   3.618855774402618E-1   3.112844824790955E-1  -5.636100172996521E-1   6.520118713378906E-1  
 1.672000000000000E7    -5.629177689552307E-1   6.564379334449768E-1   3.628515005111694E-1   3.118192255496979E-1   3.631413578987122E-1   3.117940723896027E-1  -5.622031092643738E-1   6.525875329971314E-1  
 1.674000000000000E7    -5.616654157638550E-1   6.569252014160156E-1   3.637971878051758E-1   3.121687769889832E-1   3.642879128456116E-1   3.115193545818329E-1  -5.610799193382263E-1   6.531341075897217E-1  
 1.676000000000000E7    -5.606554746627808E-1   6.577097773551941E-1   3.650977015495300E-1   3.119806051254273E-1   3.651179373264313E-1   3.112648427486420E-1  -5.596362948417664E-1   6.533926129341126E-1  
 1.678000000000000E7    -5.593525767326355E-1   6.579719781875610E-1   3.653210103511810E-1   3.121524751186371E-1   3.659238517284393E-1   3.119157552719116E-1  -5.588304996490479E-1   6.540120244026184E-1  
 1.680000000000000E7    -5.580149292945862E-1   6.584246158599854E-1   3.671374022960663E-1   3.118845820426941E-1   3.671302795410156E-1   3.116363883018494E-1  -5.575121045112610E-1   6.544262766838074E-1  
 1.682000000000000E7    -5.571760535240173E-1   6.587419509887695E-1   3.684104382991791E-1   3.120812177658081E-1   3.681828379631043E-1   3.117677271366119E-1  -5.565323233604431E-1   6.545539498329163E-1  
 1.684000000000000E7    -5.558965206146240E-1   6.593848466873169E-1   3.692208230495453E-1   3.120753467082977E-1   3.692599534988403E-1   3.119517564773560E-1  -5.552423596382141E-1   6.552413105964661E-1  
 1.686000000000000E7    -5.547032356262207E-1   6.595226526260376E-1   3.701501786708832E-1   3.118000030517578E-1   3.703164458274841E-1   3.121185600757599E-1  -5.544187426567078E-1   6.554443240165710E-1  
 1.688000000000000E7    -5.533962249755859E-1   6.602956056594849E-1   3.711810708045960E-1   3.124530017375946E-1   3.717128038406372E-1   3.116960823535919E-1  -5.530636310577393E-1   6.563740372657776E-1  
 1.690000000000000E7    -5.526424646377564E-1   6.604258418083191E-1   3.720189034938812E-1   3.125737309455872E-1   3.724071979522705E-1   3.123144209384918E-1  -5.516570806503296E-1   6.563414931297302E-1  
 1.692000000000000E7    -5.512994527816773E-1   6.606054902076721E-1   3.733904957771301E-1   3.123495876789093E-1   3.735065460205078E-1   3.118270635604858E-1  -5.502280592918396E-1   6.572622060775757E-1  
 1.694000000000000E7    -5.503681898117065E-1   6.614353656768799E-1   3.744263350963593E-1   3.123656213283539E-1   3.748995959758759E-1   3.118941485881805E-1  -5.489425659179688E-1   6.571189165115356E-1  
 1.696000000000000E7    -5.488483905792236E-1   6.619001626968384E-1   3.753325641155243E-1   3.127391934394836E-1   3.757114708423615E-1   3.120660185813904E-1  -5.480174422264099E-1   6.575217247009277E-1  
 1.698000000000000E7    -5.474946498870850E-1   6.620660424232483E-1   3.764497041702271E-1   3.121140599250794E-1   3.771509826183319E-1   3.117026090621948E-1  -5.469473600387573E-1   6.576175093650818E-1  
 1.700000000000000E7    -5.469712018966675E-1   6.627167463302612E-1   3.775301873683929E-1   3.121920824050903E-1   3.778663873672485E-1   3.120188117027283E-1  -5.456484556198120E-1   6.581937074661255E-1  
 1.702000000000000E7    -5.451661944389343E-1   6.633324027061462E-1   3.788707256317139E-1   3.123208582401276E-1   3.789803981781006E-1   3.124761283397675E-1  -5.445160865783691E-1   6.592825055122376E-1  
 1.704000000000000E7    -5.440074205398560E-1   6.634233593940735E-1   3.795263469219208E-1   3.121021091938019E-1   3.799792528152466E-1   3.119672238826752E-1  -5.437290668487549E-1   6.591377854347229E-1  
 1.706000000000000E7    -5.423923730850220E-1   6.636525392532349E-1   3.806424736976624E-1   3.126383721828461E-1   3.811067342758179E-1   3.116049170494080E-1  -5.424782633781433E-1   6.600558757781982E-1  
 1.708000000000000E7    -5.417875647544861E-1   6.642736792564392E-1   3.823352754116058E-1   3.122539520263672E-1   3.819662034511566E-1   3.119103908538818E-1  -5.406199693679810E-1   6.600275635719299E-1  
 1.710000000000000E7    -5.404216051101685E-1   6.642093658447266E-1   3.829609453678131E-1   3.126583099365234E-1   3.828990459442139E-1   3.122197985649109E-1  -5.401599407196045E-1   6.609562039375305E-1  
 1.712000000000000E7    -5.392611026763916E-1   6.653183698654175E-1   3.842518925666809E-1   3.123980760574341E-1   3.843171000480652E-1   3.122462928295136E-1  -5.383076667785645E-1   6.607245206832886E-1  
 1.714000000000000E7    -5.378029942512512E-1   6.652650237083435E-1   3.847543895244598E-1   3.120836913585663E-1   3.853056728839874E-1   3.119944930076599E-1  -5.374226570129395E-1   6.614844202995300E-1  
 1.716000000000000E7    -5.366221070289612E-1   6.657119989395142E-1   3.867155015468597E-1   3.123580515384674E-1   3.862623870372772E-1   3.120543062686920E-1  -5.362673997879028E-1   6.620529890060425E-1  
 1.718000000000000E7    -5.356829762458801E-1   6.660405993461609E-1   3.872166872024536E-1   3.126187324523926E-1   3.873812556266785E-1   3.122926354408264E-1  -5.345610380172730E-1   6.618844270706177E-1  
 1.720000000000000E7    -5.343268513679504E-1   6.661978960037231E-1   3.881324529647827E-1   3.121005594730377E-1   3.882867395877838E-1   3.118365406990051E-1  -5.335790514945984E-1   6.625686883926392E-1  
 1.722000000000000E7    -5.329383015632629E-1   6.667829155921936E-1   3.894539177417755E-1   3.120605647563934E-1   3.898047506809235E-1   3.120565712451935E-1  -5.319956541061401E-1   6.630446910858154E-1  
 1.724000000000000E7    -5.314296483993530E-1   6.673225760459900E-1   3.905328512191773E-1   3.124739527702332E-1   3.906905055046082E-1   3.116537928581238E-1  -5.314853191375732E-1   6.628453731536865E-1  
 1.726000000000000E7    -5.304424762725830E-1   6.678932309150696E-1   3.914626836776733E-1   3.123991787433624E-1   3.916207849979401E-1   3.116732835769653E-1  -5.298884510993958E-1   6.635005474090576E-1  
 1.728000000000000E7    -5.293800234794617E-1   6.676146388053894E-1   3.927263617515564E-1   3.122379183769226E-1   3.926555216312408E-1   3.119354844093323E-1  -5.283805131912231E-1   6.639529466629028E-1  
 1.730000000000000E7    -5.276524424552918E-1   6.682525277137756E-1   3.937847018241882E-1   3.122963309288025E-1   3.937309086322784E-1   3.120390474796295E-1  -5.276341438293457E-1   6.642140150070190E-1  
 1.732000000000000E7    -5.265939235687256E-1   6.686702370643616E-1   3.947018980979919E-1   3.123846054077148E-1   3.955292403697968E-1   3.117569684982300E-1  -5.266788601875305E-1   6.649588346481323E-1  
 1.734000000000000E7    -5.260753631591797E-1   6.689627170562744E-1   3.960045576095581E-1   3.120351731777191E-1   3.964317440986633E-1   3.120221197605133E-1  -5.251503586769104E-1   6.649752259254456E-1  
 1.736000000000000E7    -5.245740413665772E-1   6.692292094230652E-1   3.967172205448151E-1   3.123023509979248E-1   3.971320986747742E-1   3.115858733654022E-1  -5.237772464752197E-1   6.658483743667603E-1  
 1.738000000000000E7    -5.227456092834473E-1   6.697466373443604E-1   3.980503380298615E-1   3.122194409370422E-1   3.982864618301392E-1   3.109691739082336E-1  -5.223433971405029E-1   6.655092239379883E-1  
 1.740000000000000E7    -5.222269892692566E-1   6.702419519424439E-1   3.995878398418427E-1   3.120446205139160E-1   3.990503847599030E-1   3.115519285202026E-1  -5.208657979965210E-1   6.660531759262085E-1  
 1.742000000000000E7    -5.204937458038330E-1   6.699938178062439E-1   4.004524946212769E-1   3.121238052845001E-1   4.001204669475555E-1   3.113342523574829E-1  -5.201402306556702E-1   6.664573550224304E-1  
 1.744000000000000E7    -5.196938514709473E-1   6.708296537399292E-1   4.019311368465424E-1   3.116142153739929E-1   4.014713168144226E-1   3.114501535892487E-1  -5.184107422828674E-1   6.664597988128662E-1  
 1.746000000000000E7    -5.187175869941711E-1   6.713422536849976E-1   4.028911292552948E-1   3.118230998516083E-1   4.027240276336670E-1   3.119621276855469E-1  -5.176774859428406E-1   6.671307682991028E-1  
 1.748000000000000E7    -5.166032910346985E-1   6.717917323112488E-1   4.037016332149506E-1   3.117857277393341E-1   4.041379094123840E-1   3.114546835422516E-1  -5.162474513053894E-1   6.673485636711121E-1  
 1.750000000000000E7    -5.155524611473084E-1   6.724110245704651E-1   4.044834375381470E-1   3.118213117122650E-1   4.045248627662659E-1   3.114476203918457E-1  -5.151911377906799E-1   6.674662232398987E-1  
 1.752000000000000E7    -5.144667625427246E-1   6.728821396827698E-1   4.059973955154419E-1   3.117293715476990E-1   4.062393903732300E-1   3.113352656364441E-1  -5.138709545135498E-1   6.681830286979675E-1  
 1.754000000000000E7    -5.134345889091492E-1   6.727077960968018E-1   4.074169695377350E-1   3.116816282272339E-1   4.071682989597321E-1   3.111927807331085E-1  -5.125347375869751E-1   6.688754558563232E-1  
 1.756000000000000E7    -5.118052959442139E-1   6.731715798377991E-1   4.082802236080170E-1   3.118669390678406E-1   4.086367189884186E-1   3.108907043933868E-1  -5.112743973731995E-1   6.687785387039185E-1  
 1.758000000000000E7    -5.106773376464844E-1   6.733094453811646E-1   4.090662300586700E-1   3.120004832744598E-1   4.093456268310547E-1   3.110102415084839E-1  -5.100839138031006E-1   6.690393686294556E-1  
 1.760000000000000E7    -5.096191763877869E-1   6.739268302917481E-1   4.104526638984680E-1   3.117120862007141E-1   4.108715653419495E-1   3.110575079917908E-1  -5.087590217590332E-1   6.695211529731751E-1  
 1.762000000000000E7    -5.082238316535950E-1   6.733610630035400E-1   4.117466807365418E-1   3.114076554775238E-1   4.118129312992096E-1   3.107318878173828E-1  -5.072572231292725E-1   6.697772145271301E-1  
 1.764000000000000E7    -5.068797469139099E-1   6.743694543838501E-1   4.129552543163300E-1   3.113517761230469E-1   4.127279520034790E-1   3.111354410648346E-1  -5.062589049339294E-1   6.702262759208679E-1  
 1.766000000000000E7    -5.056372284889221E-1   6.747715473175049E-1   4.140503704547882E-1   3.114843964576721E-1   4.140146076679230E-1   3.112320601940155E-1  -5.048331618309021E-1   6.705167293548584E-1  
 1.768000000000000E7    -5.044139027595520E-1   6.748340725898743E-1   4.147796630859375E-1   3.113095760345459E-1   4.151426553726196E-1   3.112353384494782E-1  -5.033171772956848E-1   6.707925200462341E-1  
 1.770000000000000E7    -5.028394460678101E-1   6.753003597259522E-1   4.159913957118988E-1   3.116223514080048E-1   4.163929522037506E-1   3.109548687934876E-1  -5.021764636039734E-1   6.710669398307800E-1  
 1.772000000000000E7    -5.018744468688965E-1   6.755933761596680E-1   4.171021282672882E-1   3.113196492195129E-1   4.175502061843872E-1   3.106797933578491E-1  -5.007712841033936E-1   6.712133288383484E-1  
 1.774000000000000E7    -5.000342726707459E-1   6.761581301689148E-1   4.183581173419952E-1   3.110820353031158E-1   4.191825687885284E-1   3.104695677757263E-1  -4.996220767498016E-1   6.715353131294251E-1  
 1.776000000000000E7    -4.989710748195648E-1   6.760943531990051E-1   4.194570779800415E-1   3.111120164394379E-1   4.195840954780579E-1   3.103576302528381E-1  -4.985782504081726E-1   6.721532940864563E-1  
 1.778000000000000E7    -4.979203641414642E-1   6.766124963760376E-1   4.205324649810791E-1   3.106801807880402E-1   4.207098484039307E-1   3.102280497550964E-1  -4.971595704555512E-1   6.722999215126038E-1  
 1.780000000000000E7    -4.964897632598877E-1   6.769163608551025E-1   4.215243458747864E-1   3.107573390007019E-1   4.222382903099060E-1   3.103369772434235E-1  -4.959613382816315E-1   6.727806329727173E-1  
 1.782000000000000E7    -4.952922761440277E-1   6.772207617759705E-1   4.228433966636658E-1   3.106625676155090E-1   4.228836596012116E-1   3.103345632553101E-1  -4.943934977054596E-1   6.727721691131592E-1  
 1.784000000000000E7    -4.939793348312378E-1   6.771076321601868E-1   4.243801832199097E-1   3.103634417057037E-1   4.243723154067993E-1   3.102173209190369E-1  -4.931896328926086E-1   6.736408472061157E-1  
 1.786000000000000E7    -4.923824369907379E-1   6.779251098632813E-1   4.253466129302979E-1   3.106665313243866E-1   4.252526760101318E-1   3.098163902759552E-1  -4.921565353870392E-1   6.732282042503357E-1  
 1.788000000000000E7    -4.914419353008270E-1   6.776299476623535E-1   4.265367388725281E-1   3.098667263984680E-1   4.264574944972992E-1   3.102242648601532E-1  -4.908856153488159E-1   6.744114756584168E-1  
 1.790000000000000E7    -4.903249442577362E-1   6.782585978507996E-1   4.273687303066254E-1   3.097921609878540E-1   4.279810190200806E-1   3.100017905235291E-1  -4.890930056571960E-1   6.744733452796936E-1  
 1.792000000000000E7    -4.888128936290741E-1   6.785894632339478E-1   4.287336468696594E-1   3.101076781749725E-1   4.289104640483856E-1   3.095413446426392E-1  -4.882977604866028E-1   6.742340922355652E-1  
 1.794000000000000E7    -4.875626266002655E-1   6.789210438728333E-1   4.297417402267456E-1   3.098934888839722E-1   4.302858710289002E-1   3.092823028564453E-1  -4.870722293853760E-1   6.746813654899597E-1  
 1.796000000000000E7    -4.859587848186493E-1   6.792752742767334E-1   4.310069978237152E-1   3.101486265659332E-1   4.314697980880737E-1   3.091676533222199E-1  -4.855781197547913E-1   6.752331852912903E-1  
 1.798000000000000E7    -4.852143228054047E-1   6.797051429748535E-1   4.323511421680450E-1   3.097532987594605E-1   4.327198863029480E-1   3.099660277366638E-1  -4.840602874755859E-1   6.751955747604370E-1  
 1.800000000000000E7    -4.834768772125244E-1   6.794753670692444E-1   4.337564706802368E-1   3.096498847007752E-1   4.337581396102905E-1   3.094992041587830E-1  -4.831142127513886E-1   6.758735179901123E-1  
 1.802000000000000E7    -4.826758801937103E-1   6.797019839286804E-1   4.343329966068268E-1   3.096131086349487E-1   4.350799322128296E-1   3.092195689678192E-1  -4.812006354331970E-1   6.757020354270935E-1  
 1.804000000000000E7    -4.803133308887482E-1   6.797377467155457E-1   4.357037544250488E-1   3.089443743228912E-1   4.359369277954102E-1   3.085489869117737E-1  -4.801614284515381E-1   6.757967472076416E-1  
 1.806000000000000E7    -4.797236919403076E-1   6.804914474487305E-1   4.365961551666260E-1   3.090239167213440E-1   4.370041787624359E-1   3.091662526130676E-1  -4.784893691539764E-1   6.760263442993164E-1  
 1.808000000000000E7    -4.785867035388947E-1   6.807866692543030E-1   4.380910098552704E-1   3.092953264713287E-1   4.381155967712402E-1   3.089042901992798E-1  -4.776629507541657E-1   6.765770316123962E-1  
 1.810000000000000E7    -4.770074486732483E-1   6.811218857765198E-1   4.395900964736939E-1   3.092626333236694E-1   4.392580687999725E-1   3.086940944194794E-1  -4.768010973930359E-1   6.765830516815186E-1  
 1.812000000000000E7    -4.759284555912018E-1   6.812654733657837E-1   4.402729272842407E-1   3.090018630027771E-1   4.408031404018402E-1   3.086229264736176E-1  -4.752377569675446E-1   6.775435209274292E-1  
 1.814000000000000E7    -4.743169844150543E-1   6.816860437393189E-1   4.419749379158020E-1   3.082027733325958E-1   4.419223368167877E-1   3.085412979125977E-1  -4.734850227832794E-1   6.776159405708313E-1  
 1.816000000000000E7    -4.729293882846832E-1   6.818760037422180E-1   4.429889321327210E-1   3.086151480674744E-1   4.429966211318970E-1   3.082270920276642E-1  -4.718357920646668E-1   6.778536438941956E-1  
 1.818000000000000E7    -4.713848829269409E-1   6.821005940437317E-1   4.438129961490631E-1   3.079668283462524E-1   4.441673159599304E-1   3.076889514923096E-1  -4.708229005336762E-1   6.777981519699097E-1  
 1.820000000000000E7    -4.699248075485230E-1   6.820072531700134E-1   4.449263811111450E-1   3.082007765769959E-1   4.455839395523071E-1   3.076474070549011E-1  -4.695740640163422E-1   6.778743863105774E-1  
 1.822000000000000E7    -4.691644608974457E-1   6.823195219039917E-1   4.464570879936218E-1   3.082300722599030E-1   4.465128183364868E-1   3.079436421394348E-1  -4.682314097881317E-1   6.780464649200440E-1  
 1.824000000000000E7    -4.668823182582855E-1   6.824486255645752E-1   4.474582076072693E-1   3.080227077007294E-1   4.479258358478546E-1   3.071009516716003E-1  -4.666630625724793E-1   6.784601211547852E-1  
 1.826000000000000E7    -4.663822650909424E-1   6.832823753356934E-1   4.489616155624390E-1   3.079666197299957E-1   4.489680826663971E-1   3.071863651275635E-1  -4.655291438102722E-1   6.787180304527283E-1  
 1.828000000000000E7    -4.650932550430298E-1   6.833804845809937E-1   4.498981535434723E-1   3.076149523258209E-1   4.506067335605621E-1   3.072477877140045E-1  -4.642723500728607E-1   6.791397929191589E-1  
 1.830000000000000E7    -4.631087779998779E-1   6.833813190460205E-1   4.514294564723969E-1   3.077324032783508E-1   4.513152241706848E-1   3.071749210357666E-1  -4.629808068275452E-1   6.794264912605286E-1  
 1.832000000000000E7    -4.619872868061066E-1   6.836682558059692E-1   4.525758326053619E-1   3.069987893104553E-1   4.524144828319550E-1   3.068345189094544E-1  -4.615628421306610E-1   6.796910166740418E-1  
 1.834000000000000E7    -4.604429900646210E-1   6.838732361793518E-1   4.537265598773956E-1   3.073782324790955E-1   4.536229074001312E-1   3.064064681529999E-1  -4.602029919624329E-1   6.798471212387085E-1  
 1.836000000000000E7    -4.593723416328430E-1   6.844279766082764E-1   4.548723399639130E-1   3.068538308143616E-1   4.552103877067566E-1   3.069524765014648E-1  -4.587219953536987E-1   6.798406243324280E-1  
 1.838000000000000E7    -4.581932127475739E-1   6.845504045486450E-1   4.565590023994446E-1   3.067040443420410E-1   4.561553001403809E-1   3.062125444412231E-1  -4.576952159404755E-1   6.802030801773071E-1  
 1.840000000000000E7    -4.563869833946228E-1   6.842081546783447E-1   4.571828246116638E-1   3.067490756511688E-1   4.570391774177551E-1   3.057970106601715E-1  -4.562231898307800E-1   6.801987886428833E-1  
 1.842000000000000E7    -4.550067782402039E-1   6.844986677169800E-1   4.589936733245850E-1   3.061808943748474E-1   4.587173461914063E-1   3.058393597602844E-1  -4.548770487308502E-1   6.804653406143189E-1  
 1.844000000000000E7    -4.539472460746765E-1   6.848279833793640E-1   4.595422744750977E-1   3.061878383159638E-1   4.593946635723114E-1   3.056231141090393E-1  -4.534323215484619E-1   6.806678175926209E-1  
 1.846000000000000E7    -4.523489773273468E-1   6.852279305458069E-1   4.605107307434082E-1   3.060501217842102E-1   4.608657956123352E-1   3.055100440979004E-1  -4.515712261199951E-1   6.805863976478577E-1  
 1.848000000000000E7    -4.509427249431610E-1   6.850453615188599E-1   4.618435204029083E-1   3.057545423507690E-1   4.622209966182709E-1   3.050536215305328E-1  -4.510411918163300E-1   6.808310151100159E-1  
 1.850000000000000E7    -4.500990211963654E-1   6.857201457023621E-1   4.633309245109558E-1   3.055390417575836E-1   4.635580480098724E-1   3.053163290023804E-1  -4.491674602031708E-1   6.808887720108032E-1  
 1.852000000000000E7    -4.482903182506561E-1   6.854422092437744E-1   4.644958972930908E-1   3.060650229454041E-1   4.647897779941559E-1   3.049177527427673E-1  -4.482396841049194E-1   6.817862987518311E-1  
 1.854000000000000E7    -4.471765160560608E-1   6.857683062553406E-1   4.661156535148621E-1   3.048901855945587E-1   4.663213789463043E-1   3.049896955490112E-1  -4.466349780559540E-1   6.820440292358398E-1  
 1.856000000000000E7    -4.455498158931732E-1   6.859285235404968E-1   4.673192203044891E-1   3.043581843376160E-1   4.672720432281494E-1   3.041873276233673E-1  -4.454286992549896E-1   6.823247671127319E-1  
 1.858000000000000E7    -4.446940124034882E-1   6.864737868309021E-1   4.685326218605042E-1   3.043681979179382E-1   4.687820672988892E-1   3.041987121105194E-1  -4.438442289829254E-1   6.818533539772034E-1  
 1.860000000000000E7    -4.431038796901703E-1   6.862590909004211E-1   4.696350395679474E-1   3.044615983963013E-1   4.697406888008118E-1   3.041919767856598E-1  -4.427210688591003E-1   6.824822425842285E-1  
 1.862000000000000E7    -4.414081573486328E-1   6.868388056755066E-1   4.712048768997192E-1   3.047685325145721E-1   4.711965322494507E-1   3.039937615394592E-1  -4.416652917861939E-1   6.825948357582092E-1  
 1.864000000000000E7    -4.397591352462769E-1   6.866458058357239E-1   4.723519086837769E-1   3.037531673908234E-1   4.721290171146393E-1   3.037173151969910E-1  -4.396491646766663E-1   6.830621361732483E-1  
 1.866000000000000E7    -4.386848211288452E-1   6.872531771659851E-1   4.733127951622009E-1   3.038149476051331E-1   4.738020598888397E-1   3.033353090286255E-1  -4.383600354194641E-1   6.828530430793762E-1  
 1.868000000000000E7    -4.374963641166687E-1   6.870820522308350E-1   4.744090735912323E-1   3.030687570571899E-1   4.745173454284668E-1   3.030917942523956E-1  -4.365673959255219E-1   6.825183033943176E-1  
 1.870000000000000E7    -4.358377754688263E-1   6.871379017829895E-1   4.755856096744537E-1   3.031318783760071E-1   4.762541651725769E-1   3.029995560646057E-1  -4.351548552513123E-1   6.830364465713501E-1  
 1.872000000000000E7    -4.341176450252533E-1   6.876034736633301E-1   4.768853187561035E-1   3.030755817890167E-1   4.771677255630493E-1   3.028455972671509E-1  -4.340320825576782E-1   6.834630966186523E-1  
 1.874000000000000E7    -4.328729510307312E-1   6.875174045562744E-1   4.783118069171906E-1   3.027812838554382E-1   4.782381057739258E-1   3.022040128707886E-1  -4.327886700630188E-1   6.835013031959534E-1  
 1.876000000000000E7    -4.315030872821808E-1   6.874083280563355E-1   4.795821011066437E-1   3.023931980133057E-1   4.793045222759247E-1   3.017634749412537E-1  -4.310716390609741E-1   6.837702989578247E-1  
 1.878000000000000E7    -4.302936196327210E-1   6.876776218414307E-1   4.809601008892059E-1   3.025639653205872E-1   4.807660579681397E-1   3.021349310874939E-1  -4.292933940887451E-1   6.843166351318359E-1  
 1.880000000000000E7    -4.287213981151581E-1   6.880354285240173E-1   4.821141660213471E-1   3.015913367271423E-1   4.821338057518005E-1   3.014585375785828E-1  -4.286506175994873E-1   6.838400363922119E-1  
 1.882000000000000E7    -4.269337058067322E-1   6.883016824722290E-1   4.839004874229431E-1   3.019655644893646E-1   4.834161400794983E-1   3.016198873519898E-1  -4.266225099563599E-1   6.843025684356690E-1  
 1.884000000000000E7    -4.259656965732575E-1   6.881149411201477E-1   4.846097826957703E-1   3.016989529132843E-1   4.846735000610352E-1   3.010931611061096E-1  -4.253115653991699E-1   6.846132874488831E-1  
 1.886000000000000E7    -4.245711266994476E-1   6.890301704406738E-1   4.860301315784454E-1   3.012752234935761E-1   4.859428405761719E-1   3.009908199310303E-1  -4.244921505451202E-1   6.844033002853394E-1  
 1.888000000000000E7    -4.230309426784515E-1   6.890840530395508E-1   4.870398640632629E-1   3.011739253997803E-1   4.874807000160217E-1   3.006778359413147E-1  -4.228935837745667E-1   6.843498945236206E-1  
 1.890000000000000E7    -4.216887354850769E-1   6.886007189750671E-1   4.881820976734161E-1   3.008167743682861E-1   4.884968996047974E-1   3.002877831459045E-1  -4.212732315063477E-1   6.850422024726868E-1  
 1.892000000000000E7    -4.204313158988953E-1   6.889031529426575E-1   4.895472526550293E-1   3.002547323703766E-1   4.892819523811340E-1   3.001086413860321E-1  -4.194616675376892E-1   6.851064562797546E-1  
 1.894000000000000E7    -4.187386333942413E-1   6.888681650161743E-1   4.911888837814331E-1   3.001770973205566E-1   4.907999336719513E-1   2.998094558715820E-1  -4.183768332004547E-1   6.848366260528565E-1  
 1.896000000000000E7    -4.176530838012695E-1   6.893226504325867E-1   4.921183884143829E-1   2.995924353599548E-1   4.919092953205109E-1   2.995015382766724E-1  -4.168515503406525E-1   6.849403381347656E-1  
 1.898000000000000E7    -4.162464141845703E-1   6.890810728073120E-1   4.931531548500061E-1   2.996097207069397E-1   4.936703145503998E-1   2.994029819965363E-1  -4.152763783931732E-1   6.852580308914185E-1  
 1.900000000000000E7    -4.150125086307526E-1   6.891604065895081E-1   4.948050379753113E-1   2.993122935295105E-1   4.946783185005188E-1   2.994544208049774E-1  -4.142038226127625E-1   6.849133372306824E-1  
 1.902000000000000E7    -4.132566452026367E-1   6.892718672752380E-1   4.960652887821198E-1   2.985151410102844E-1   4.962186217308044E-1   2.987165451049805E-1  -4.128051996231079E-1   6.852658987045288E-1  
 1.904000000000000E7    -4.118434786796570E-1   6.893552541732788E-1   4.977763891220093E-1   2.984563708305359E-1   4.973855614662170E-1   2.981892526149750E-1  -4.108018279075623E-1   6.849259734153748E-1  
 1.906000000000000E7    -4.102551043033600E-1   6.895945668220520E-1   4.989655315876007E-1   2.982636988162994E-1   4.986859560012817E-1   2.983184158802033E-1  -4.096441566944122E-1   6.857484579086304E-1  
 1.908000000000000E7    -4.089464247226715E-1   6.901853084564209E-1   4.995896220207214E-1   2.982344329357147E-1   5.004821419715881E-1   2.980639040470123E-1  -4.086505472660065E-1   6.854140162467957E-1  
 1.910000000000000E7    -4.075003564357758E-1   6.898611783981323E-1   5.012009739875794E-1   2.975557148456574E-1   5.011979341506958E-1   2.974038422107697E-1  -4.070660769939423E-1   6.859281063079834E-1  
 1.912000000000000E7    -4.054532051086426E-1   6.899082064628601E-1   5.026683807373047E-1   2.976666390895844E-1   5.029136538505554E-1   2.969108819961548E-1  -4.059065580368042E-1   6.854167580604553E-1  
 1.914000000000000E7    -4.044276773929596E-1   6.899980902671814E-1   5.032823681831360E-1   2.967009246349335E-1   5.038012266159058E-1   2.965296804904938E-1  -4.040049314498901E-1   6.862285733222961E-1  
 1.916000000000000E7    -4.028952717781067E-1   6.899800300598145E-1   5.052843689918518E-1   2.973495423793793E-1   5.054826140403748E-1   2.965150475502014E-1  -4.026208817958832E-1   6.860015988349915E-1  
 1.918000000000000E7    -4.012889862060547E-1   6.902675628662109E-1   5.062425732612610E-1   2.964996993541718E-1   5.065582990646362E-1   2.961140573024750E-1  -4.010447859764099E-1   6.860303282737732E-1  
 1.920000000000000E7    -4.000396132469177E-1   6.899304986000061E-1   5.080440044403076E-1   2.957471311092377E-1   5.080601572990418E-1   2.958219945430756E-1  -3.997315168380737E-1   6.857829093933106E-1  
 1.922000000000000E7    -3.980823159217835E-1   6.901518702507019E-1   5.090461373329163E-1   2.958052158355713E-1   5.089159607887268E-1   2.948379516601563E-1  -3.980794548988342E-1   6.862820386886597E-1  
 1.924000000000000E7    -3.970766961574554E-1   6.904968619346619E-1   5.102323889732361E-1   2.953891754150391E-1   5.104342699050903E-1   2.948755621910095E-1  -3.969936370849609E-1   6.858716607093811E-1  
 1.926000000000000E7    -3.955950438976288E-1   6.905567646026611E-1   5.116395950317383E-1   2.948773503303528E-1   5.113736391067505E-1   2.946134805679321E-1  -3.955827653408051E-1   6.860082149505615E-1  
 1.928000000000000E7    -3.941397964954376E-1   6.904249191284180E-1   5.128408670425415E-1   2.948504090309143E-1   5.125410556793213E-1   2.945338189601898E-1  -3.942984044551849E-1   6.860737800598145E-1  
 1.930000000000000E7    -3.930211663246155E-1   6.903500556945801E-1   5.144129991531372E-1   2.945120632648468E-1   5.139848589897156E-1   2.942831516265869E-1  -3.925909698009491E-1   6.864002943038940E-1  
 1.932000000000000E7    -3.916511237621307E-1   6.899803876876831E-1   5.157699584960938E-1   2.936916947364807E-1   5.154806375503540E-1   2.934797108173370E-1  -3.906763792037964E-1   6.863821744918823E-1  
 1.934000000000000E7    -3.898101747035980E-1   6.906208992004395E-1   5.170974135398865E-1   2.936639785766602E-1   5.168337225914002E-1   2.931700646877289E-1  -3.898626565933228E-1   6.861459612846375E-1  
 1.936000000000000E7    -3.884600996971130E-1   6.904881000518799E-1   5.180956125259399E-1   2.931302189826965E-1   5.181550979614258E-1   2.932609915733337E-1  -3.877211511135101E-1   6.863896846771240E-1  
 1.938000000000000E7    -3.869954943656921E-1   6.906374692916870E-1   5.197033286094666E-1   2.925680875778198E-1   5.192189216613770E-1   2.924604117870331E-1  -3.866216838359833E-1   6.863712668418884E-1  
 1.940000000000000E7    -3.856604397296906E-1   6.907978057861328E-1   5.204982757568359E-1   2.927273511886597E-1   5.209054946899414E-1   2.923153638839722E-1  -3.848414421081543E-1   6.866326332092285E-1  
 1.942000000000000E7    -3.838754594326019E-1   6.905622482299805E-1   5.219060778617859E-1   2.923059165477753E-1   5.220314264297485E-1   2.917262613773346E-1  -3.840206861495972E-1   6.863883137702942E-1  
 1.944000000000000E7    -3.822672665119171E-1   6.909031271934509E-1   5.234146714210510E-1   2.914550602436066E-1   5.235983729362488E-1   2.910945415496826E-1  -3.822697401046753E-1   6.863384842872620E-1  
 1.946000000000000E7    -3.809680342674255E-1   6.903043985366821E-1   5.246276259422302E-1   2.911251485347748E-1   5.244543552398682E-1   2.907193601131439E-1  -3.805113434791565E-1   6.867236495018005E-1  
 1.948000000000000E7    -3.792886435985565E-1   6.905269026756287E-1   5.265777111053467E-1   2.906649410724640E-1   5.262249112129211E-1   2.902539670467377E-1  -3.793817460536957E-1   6.864577531814575E-1  
 1.950000000000000E7    -3.780750632286072E-1   6.909488439559937E-1   5.270223617553711E-1   2.904075980186462E-1   5.271575450897217E-1   2.898266315460205E-1  -3.776459693908691E-1   6.860166192054749E-1  
 1.952000000000000E7    -3.764108419418335E-1   6.910120844841003E-1   5.288940072059631E-1   2.904233634471893E-1   5.285858511924744E-1   2.897394001483917E-1  -3.764031827449799E-1   6.864686012268066E-1  
 1.954000000000000E7    -3.746682405471802E-1   6.907502412796021E-1   5.296633839607239E-1   2.902379035949707E-1   5.301106572151184E-1   2.890834212303162E-1  -3.753428161144257E-1   6.865350008010864E-1  
 1.956000000000000E7    -3.735864758491516E-1   6.908179521560669E-1   5.313839912414551E-1   2.895285785198212E-1   5.318990349769592E-1   2.887803018093109E-1  -3.731362521648407E-1   6.861824989318848E-1  
 1.958000000000000E7    -3.719534873962402E-1   6.906791329383850E-1   5.328684449195862E-1   2.893034815788269E-1   5.330159068107605E-1   2.884681224822998E-1  -3.717001080513001E-1   6.864514350891113E-1  
 1.960000000000000E7    -3.700564503669739E-1   6.906530261039734E-1   5.341964960098267E-1   2.885446250438690E-1   5.346717834472656E-1   2.877675890922546E-1  -3.705148398876190E-1   6.866458058357239E-1  
 1.962000000000000E7    -3.687686920166016E-1   6.906265616416931E-1   5.354535579681397E-1   2.882505655288696E-1   5.353007316589356E-1   2.880920767784119E-1  -3.686719238758087E-1   6.866130828857422E-1  
 1.964000000000000E7    -3.676256835460663E-1   6.907248497009277E-1   5.363788604736328E-1   2.873578667640686E-1   5.369608402252197E-1   2.872474491596222E-1  -3.670826256275177E-1   6.865125894546509E-1  
 1.966000000000000E7    -3.657335638999939E-1   6.905559897422791E-1   5.385422706604004E-1   2.874156534671783E-1   5.383650064468384E-1   2.865217626094818E-1  -3.655028939247131E-1   6.860464811325073E-1  
 1.968000000000000E7    -3.641884326934815E-1   6.902679800987244E-1   5.395116806030273E-1   2.873194217681885E-1   5.395858287811279E-1   2.871850728988648E-1  -3.639394938945770E-1   6.864804029464722E-1  
 1.970000000000000E7    -3.627627193927765E-1   6.898738741874695E-1   5.411299467086792E-1   2.863559424877167E-1   5.405808687210083E-1   2.860785126686096E-1  -3.624448776245117E-1   6.863190531730652E-1  
 1.972000000000000E7    -3.615558743476868E-1   6.905713677406311E-1   5.423345565795898E-1   2.860756218433380E-1   5.425654649734497E-1   2.857640981674194E-1  -3.613190650939941E-1   6.858790516853333E-1  
 1.974000000000000E7    -3.596112430095673E-1   6.899856925010681E-1   5.433608293533325E-1   2.851367890834808E-1   5.434647798538208E-1   2.848946452140808E-1  -3.594138026237488E-1   6.863112449645996E-1  
 1.976000000000000E7    -3.581342101097107E-1   6.900855898857117E-1   5.445235371589661E-1   2.847422063350678E-1   5.451253056526184E-1   2.845907211303711E-1  -3.580225408077240E-1   6.857749223709106E-1  
 1.978000000000000E7    -3.566901087760925E-1   6.901501417160034E-1   5.465881824493408E-1   2.848001420497894E-1   5.462861061096191E-1   2.841323018074036E-1  -3.566711246967316E-1   6.855354309082031E-1  
 1.980000000000000E7    -3.552416563034058E-1   6.895659565925598E-1   5.478689074516296E-1   2.842203378677368E-1   5.474172234535217E-1   2.836845517158508E-1  -3.548481464385986E-1   6.861534118652344E-1  
 1.982000000000000E7    -3.541397750377655E-1   6.896608471870422E-1   5.491977930068970E-1   2.835433185100555E-1   5.488579869270325E-1   2.832022905349731E-1  -3.536643981933594E-1   6.860858798027039E-1  
 1.984000000000000E7    -3.520569801330566E-1   6.898071765899658E-1   5.498006343841553E-1   2.835669219493866E-1   5.503842234611511E-1   2.827648520469666E-1  -3.521415889263153E-1   6.853706240653992E-1  
 1.986000000000000E7    -3.504656851291657E-1   6.896795630455017E-1   5.512010455131531E-1   2.829592227935791E-1   5.518252849578857E-1   2.823520004749298E-1  -3.507788479328156E-1   6.852231025695801E-1  
 1.988000000000000E7    -3.488633334636688E-1   6.895135045051575E-1   5.536713004112244E-1   2.819520235061646E-1   5.528400540351868E-1   2.813034057617188E-1  -3.495033085346222E-1   6.858239173889160E-1  
 1.990000000000000E7    -3.474768996238709E-1   6.901162862777710E-1   5.540186166763306E-1   2.814807891845703E-1   5.542873740196228E-1   2.811097204685211E-1  -3.478030562400818E-1   6.855586767196655E-1  
 1.992000000000000E7    -3.458478152751923E-1   6.897569298744202E-1   5.556852221488953E-1   2.810133695602417E-1   5.560374259948731E-1   2.804696261882782E-1  -3.456909954547882E-1   6.858326196670532E-1  
 1.994000000000000E7    -3.442693352699280E-1   6.893295049667358E-1   5.574541091918945E-1   2.808222472667694E-1   5.569477677345276E-1   2.798798382282257E-1  -3.448510169982910E-1   6.856217980384827E-1  
 1.996000000000000E7    -3.431942462921143E-1   6.890605688095093E-1   5.582467317581177E-1   2.798405289649963E-1   5.583804845809937E-1   2.796217799186707E-1  -3.426242470741272E-1   6.854442954063416E-1  
 1.998000000000000E7    -3.414947390556335E-1   6.890754699707031E-1   5.597401857376099E-1   2.798329293727875E-1   5.596556663513184E-1   2.793580889701843E-1  -3.415029644966126E-1   6.854405999183655E-1  
 2.000000000000000E7    -3.397886157035828E-1   6.887450814247131E-1   5.612900853157044E-1   2.790503501892090E-1   5.606799125671387E-1   2.784702479839325E-1  -3.395622968673706E-1   6.854535937309265E-1  
 2.002000000000000E7    -3.395918905735016E-1   6.874552965164185E-1   5.618413090705872E-1   2.795516252517700E-1   5.614804625511169E-1   2.794392108917236E-1  -3.399369716644287E-1   6.834076642990112E-1  
 2.004000000000000E7    -3.379667103290558E-1   6.879218220710754E-1   5.630313754081726E-1   2.791462242603302E-1   5.624914169311523E-1   2.789566516876221E-1  -3.380518257617950E-1   6.833110451698303E-1  
 2.006000000000000E7    -3.358208239078522E-1   6.873222589492798E-1   5.643247365951538E-1   2.787910699844360E-1   5.642498135566711E-1   2.784453928470612E-1  -3.368171155452728E-1   6.827489137649536E-1  
 2.008000000000000E7    -3.346767723560333E-1   6.872118115425110E-1   5.658255219459534E-1   2.781564593315125E-1   5.652084946632385E-1   2.778440415859222E-1  -3.347007930278778E-1   6.831865310668945E-1  
 2.010000000000000E7    -3.333233892917633E-1   6.871252059936523E-1   5.668588280677795E-1   2.772791087627411E-1   5.667669177055359E-1   2.776843309402466E-1  -3.332110345363617E-1   6.829946041107178E-1  
 2.012000000000000E7    -3.315242528915405E-1   6.869687438011169E-1   5.682853460311890E-1   2.770943343639374E-1   5.680742263793945E-1   2.768918573856354E-1  -3.316542506217957E-1   6.829248666763306E-1  
 2.014000000000000E7    -3.295459747314453E-1   6.865909695625305E-1   5.699728727340698E-1   2.768611609935761E-1   5.695149302482605E-1   2.763605117797852E-1  -3.304085731506348E-1   6.828542351722717E-1  
 2.016000000000000E7    -3.281843364238739E-1   6.863920092582703E-1   5.715279579162598E-1   2.762199640274048E-1   5.710651278495789E-1   2.757244110107422E-1  -3.288435339927673E-1   6.827428936958313E-1  
 2.018000000000000E7    -3.271287381649017E-1   6.862916946411133E-1   5.728999376296997E-1   2.747925221920013E-1   5.723698139190674E-1   2.750521004199982E-1  -3.273501098155975E-1   6.825820207595825E-1  
 2.020000000000000E7    -3.252443969249725E-1   6.859556436538696E-1   5.744288563728333E-1   2.750886976718903E-1   5.736370682716370E-1   2.745016813278198E-1  -3.253547251224518E-1   6.817985177040100E-1  
 2.022000000000000E7    -3.237637877464294E-1   6.860595941543579E-1   5.762063264846802E-1   2.742014825344086E-1   5.747619867324829E-1   2.739308476448059E-1  -3.240597844123840E-1   6.823990941047669E-1  
 2.024000000000000E7    -3.224509954452515E-1   6.861330270767212E-1   5.766710042953491E-1   2.737713158130646E-1   5.768550038337708E-1   2.736346721649170E-1  -3.221771419048309E-1   6.822376847267151E-1  
 2.026000000000000E7    -3.205004036426544E-1   6.863213181495667E-1   5.780758261680603E-1   2.730061709880829E-1   5.785283446311951E-1   2.732667326927185E-1  -3.207533359527588E-1   6.818867325782776E-1  
 2.028000000000000E7    -3.194392919540405E-1   6.860544681549072E-1   5.797595977783203E-1   2.725150287151337E-1   5.795043706893921E-1   2.722592055797577E-1  -3.190475702285767E-1   6.816604137420654E-1  
 2.030000000000000E7    -3.176693618297577E-1   6.859536767005920E-1   5.805774331092835E-1   2.721160948276520E-1   5.810927748680115E-1   2.717293202877045E-1  -3.181802034378052E-1   6.809810400009155E-1  
 2.032000000000000E7    -3.159845471382141E-1   6.851221919059753E-1   5.827268958091736E-1   2.718319892883301E-1   5.825932025909424E-1   2.710513174533844E-1  -3.159531056880951E-1   6.812520027160645E-1  
 2.034000000000000E7    -3.139983713626862E-1   6.848151683807373E-1   5.845366716384888E-1   2.711163163185120E-1   5.839041471481323E-1   2.707508504390717E-1  -3.146729171276093E-1   6.812560558319092E-1  
 2.036000000000000E7    -3.126702010631561E-1   6.851454973220825E-1   5.852130055427551E-1   2.705458104610443E-1   5.849377512931824E-1   2.699236869812012E-1  -3.133073151111603E-1   6.809989213943481E-1  
 2.038000000000000E7    -3.110473155975342E-1   6.844335198402405E-1   5.868413448333740E-1   2.696431279182434E-1   5.868727564811707E-1   2.692769169807434E-1  -3.113756179809570E-1   6.805205345153809E-1  
 2.040000000000000E7    -3.092010319232941E-1   6.850535869598389E-1   5.878711938858032E-1   2.686423361301422E-1   5.877400040626526E-1   2.686824798583984E-1  -3.102471530437470E-1   6.800980567932129E-1  
 2.042000000000000E7    -3.069406449794769E-1   6.844775080680847E-1   5.898134112358093E-1   2.685692310333252E-1   5.886484980583191E-1   2.677939534187317E-1  -3.091821670532227E-1   6.805107593536377E-1  
 2.044000000000000E7    -3.059682250022888E-1   6.839985847473145E-1   5.910764932632446E-1   2.679986655712128E-1   5.905714035034180E-1   2.676731348037720E-1  -3.066914677619934E-1   6.799439787864685E-1  
 2.046000000000000E7    -3.044071197509766E-1   6.840357780456543E-1   5.925065875053406E-1   2.671082019805908E-1   5.922275185585022E-1   2.664691209793091E-1  -3.056150376796722E-1   6.792635321617127E-1  
 2.048000000000000E7    -3.032803535461426E-1   6.840413808822632E-1   5.938569307327271E-1   2.662185430526733E-1   5.939871072769165E-1   2.661856710910797E-1  -3.038294911384583E-1   6.790751218795776E-1  
 2.050000000000000E7    -3.016220629215241E-1   6.834189295768738E-1   5.955266356468201E-1   2.658724486827850E-1   5.954096913337708E-1   2.655754089355469E-1  -3.022065758705139E-1   6.789339184761047E-1  
 2.052000000000000E7    -2.998378574848175E-1   6.828628182411194E-1   5.967127680778503E-1   2.648550570011139E-1   5.960999131202698E-1   2.646546363830566E-1  -3.006274998188019E-1   6.787786483764648E-1  
 2.054000000000000E7    -2.981950044631958E-1   6.829158067703247E-1   5.979500412940979E-1   2.644391953945160E-1   5.975419878959656E-1   2.643809020519257E-1  -2.990006804466248E-1   6.785530447959900E-1  
 2.056000000000000E7    -2.966314256191254E-1   6.825544834136963E-1   5.993438959121704E-1   2.639410793781281E-1   5.990427136421204E-1   2.636119127273560E-1  -2.975077629089356E-1   6.787485480308533E-1  
 2.058000000000000E7    -2.946801483631134E-1   6.829404234886169E-1   6.005464792251587E-1   2.634902000427246E-1   6.002568006515503E-1   2.629209160804749E-1  -2.960148453712463E-1   6.781058907508850E-1  
 2.060000000000000E7    -2.936224043369293E-1   6.823949217796326E-1   6.019152402877808E-1   2.624064683914185E-1   6.020342111587524E-1   2.620148062705994E-1  -2.942714393138886E-1   6.778351068496704E-1  
 2.062000000000000E7    -2.920641005039215E-1   6.814607977867127E-1   6.037678122520447E-1   2.618176043033600E-1   6.033619642257690E-1   2.614704668521881E-1  -2.925452291965485E-1   6.778115630149841E-1  
 2.064000000000000E7    -2.902776002883911E-1   6.814432144165039E-1   6.050858497619629E-1   2.609388828277588E-1   6.049131751060486E-1   2.604355812072754E-1  -2.909801602363586E-1   6.773079633712769E-1  
 2.066000000000000E7    -2.884687483310700E-1   6.813244223594666E-1   6.065295338630676E-1   2.606426775455475E-1   6.061913967132568E-1   2.603639364242554E-1  -2.889493107795715E-1   6.768857240676880E-1  
 2.068000000000000E7    -2.869663536548615E-1   6.809450387954712E-1   6.081515550613403E-1   2.598058283329010E-1   6.076208353042603E-1   2.593380808830261E-1  -2.877494394779205E-1   6.774228811264038E-1  
 2.070000000000000E7    -2.852930426597595E-1   6.809191703796387E-1   6.090639233589172E-1   2.588177025318146E-1   6.093214750289917E-1   2.586086392402649E-1  -2.860990166664124E-1   6.764479279518127E-1  
 2.072000000000000E7    -2.836770117282867E-1   6.797273159027100E-1   6.112467050552368E-1   2.585183978080750E-1   6.104752421379089E-1   2.583714723587036E-1  -2.845718860626221E-1   6.767572760581970E-1  
 2.074000000000000E7    -2.823487818241119E-1   6.794082522392273E-1   6.127447485923767E-1   2.576557397842407E-1   6.121180057525635E-1   2.571936249732971E-1  -2.824849486351013E-1   6.760468482971191E-1  
 2.076000000000000E7    -2.804662585258484E-1   6.794307231903076E-1   6.136632561683655E-1   2.570741176605225E-1   6.136003136634827E-1   2.564051747322083E-1  -2.818648815155029E-1   6.755195856094360E-1  
 2.078000000000000E7    -2.786161303520203E-1   6.794560551643372E-1   6.151455044746399E-1   2.559820711612701E-1   6.153446435928345E-1   2.557233870029450E-1  -2.796313464641571E-1   6.751058101654053E-1  
 2.080000000000000E7    -2.778351604938507E-1   6.789123415946960E-1   6.168600916862488E-1   2.551771104335785E-1   6.165572404861450E-1   2.550037503242493E-1  -2.781327366828919E-1   6.750138998031616E-1  
 2.082000000000000E7    -2.754530608654022E-1   6.781715750694275E-1   6.184541583061218E-1   2.546315193176270E-1   6.178047657012940E-1   2.545228302478790E-1  -2.766752839088440E-1   6.749420166015625E-1  
 2.084000000000000E7    -2.740732431411743E-1   6.779281497001648E-1   6.196312904357910E-1   2.538966834545136E-1   6.189837455749512E-1   2.536908090114594E-1  -2.747953236103058E-1   6.742243766784668E-1  
 2.086000000000000E7    -2.722736001014710E-1   6.777803897857666E-1   6.210172176361084E-1   2.528353035449982E-1   6.210011243820190E-1   2.529030740261078E-1  -2.729354500770569E-1   6.738023757934570E-1  
 2.088000000000000E7    -2.708315253257752E-1   6.779431700706482E-1   6.219349503517151E-1   2.525771558284760E-1   6.221901178359985E-1   2.520958185195923E-1  -2.717077136039734E-1   6.735427379608154E-1  
 2.090000000000000E7    -2.690782248973846E-1   6.772276163101196E-1   6.240636706352234E-1   2.518451213836670E-1   6.233446002006531E-1   2.511218190193176E-1  -2.704497873783112E-1   6.734501123428345E-1  
 2.092000000000000E7    -2.676417529582977E-1   6.768550276756287E-1   6.254181265830994E-1   2.502349615097046E-1   6.252904534339905E-1   2.505672276020050E-1  -2.685008347034454E-1   6.725903153419495E-1  
 2.094000000000000E7    -2.654665708541870E-1   6.764135360717773E-1   6.270353794097900E-1   2.498300075531006E-1   6.264768242835999E-1   2.496253550052643E-1  -2.671408057212830E-1   6.727196574211121E-1  
 2.096000000000000E7    -2.640428245067596E-1   6.756764054298401E-1   6.281488537788391E-1   2.491527795791626E-1   6.277663111686707E-1   2.490209937095642E-1  -2.649174332618713E-1   6.720196604728699E-1  
 2.098000000000000E7    -2.628035545349121E-1   6.753746867179871E-1   6.296234726905823E-1   2.480928450822830E-1   6.293207406997681E-1   2.478793263435364E-1  -2.633132040500641E-1   6.720508933067322E-1  
 2.100000000000000E7    -2.609878778457642E-1   6.753279566764832E-1   6.307128667831421E-1   2.475025355815888E-1   6.308178901672363E-1   2.472210228443146E-1  -2.618698477745056E-1   6.714622974395752E-1  
 2.102000000000000E7    -2.592565417289734E-1   6.752774119377136E-1   6.326125860214233E-1   2.465992420911789E-1   6.324482560157776E-1   2.466062456369400E-1  -2.598221600055695E-1   6.708870530128479E-1  
 2.104000000000000E7    -2.573673725128174E-1   6.744746565818787E-1   6.338804364204407E-1   2.464251816272736E-1   6.337875723838806E-1   2.458198368549347E-1  -2.579919695854187E-1   6.709504127502441E-1  
 2.106000000000000E7    -2.562775611877441E-1   6.738739013671875E-1   6.357430815696716E-1   2.451320588588715E-1   6.356199979782105E-1   2.449187487363815E-1  -2.568881511688232E-1   6.696795225143433E-1  
 2.108000000000000E7    -2.547538578510284E-1   6.730265021324158E-1   6.373496055603027E-1   2.441139519214630E-1   6.370331645011902E-1   2.439308762550354E-1  -2.550288438796997E-1   6.695293784141541E-1  
 2.110000000000000E7    -2.525476217269898E-1   6.736362576484680E-1   6.381903886795044E-1   2.440126389265060E-1   6.381970643997192E-1   2.433305680751801E-1  -2.536185085773468E-1   6.693105697631836E-1  
 2.112000000000000E7    -2.514378726482391E-1   6.727184057235718E-1   6.400455236434937E-1   2.427726984024048E-1   6.396839618682861E-1   2.425727248191834E-1  -2.519124448299408E-1   6.689099073410034E-1  
 2.114000000000000E7    -2.499575763940811E-1   6.722970008850098E-1   6.411921381950378E-1   2.415611892938614E-1   6.411051154136658E-1   2.416340410709381E-1  -2.498988062143326E-1   6.684377193450928E-1  
 2.116000000000000E7    -2.482806146144867E-1   6.714955568313599E-1   6.428478360176086E-1   2.409146428108215E-1   6.426124572753906E-1   2.405929118394852E-1  -2.488587498664856E-1   6.678941249847412E-1  
 2.118000000000000E7    -2.462592124938965E-1   6.713640093803406E-1   6.441493034362793E-1   2.405595928430557E-1   6.436817646026611E-1   2.396146506071091E-1  -2.476617395877838E-1   6.677094101905823E-1  
 2.120000000000000E7    -2.446147799491882E-1   6.707207560539246E-1   6.459767818450928E-1   2.390724420547485E-1   6.453932523727417E-1   2.391529381275177E-1  -2.453308701515198E-1   6.674157381057739E-1  
 2.122000000000000E7    -2.430664002895355E-1   6.703205108642578E-1   6.470877528190613E-1   2.386533617973328E-1   6.468199491500855E-1   2.384013235569000E-1  -2.434270679950714E-1   6.664656400680542E-1  
 2.124000000000000E7    -2.411370873451233E-1   6.702374219894409E-1   6.487535834312439E-1   2.377321422100067E-1   6.484417915344238E-1   2.374555915594101E-1  -2.423241883516312E-1   6.662619113922119E-1  
 2.126000000000000E7    -2.397776842117310E-1   6.693828701972961E-1   6.501468420028687E-1   2.362300902605057E-1   6.498897671699524E-1   2.360641658306122E-1  -2.408819645643234E-1   6.655119657516480E-1  
 2.128000000000000E7    -2.379803955554962E-1   6.692068576812744E-1   6.516357064247131E-1   2.359615564346314E-1   6.508448123931885E-1   2.352127432823181E-1  -2.390423417091370E-1   6.654118299484253E-1  
 2.130000000000000E7    -2.361477315425873E-1   6.686064600944519E-1   6.530352234840393E-1   2.348881661891937E-1   6.529239416122437E-1   2.343798279762268E-1  -2.373330742120743E-1   6.643478274345398E-1  
 2.132000000000000E7    -2.345285713672638E-1   6.676504611968994E-1   6.547725200653076E-1   2.341402918100357E-1   6.542540192604065E-1   2.338503748178482E-1  -2.358151227235794E-1   6.639972925186157E-1  
 2.134000000000000E7    -2.333155572414398E-1   6.673794388771057E-1   6.559042334556580E-1   2.325084209442139E-1   6.555625200271606E-1   2.326223999261856E-1  -2.334370613098145E-1   6.637579202651978E-1  
 2.136000000000000E7    -2.314786911010742E-1   6.666542887687683E-1   6.575837731361389E-1   2.321901917457581E-1   6.567617654800415E-1   2.317852377891541E-1  -2.321966588497162E-1   6.631115078926086E-1  
 2.138000000000000E7    -2.295254617929459E-1   6.666977405548096E-1   6.583986282348633E-1   2.313073426485062E-1   6.583288908004761E-1   2.310242056846619E-1  -2.306021749973297E-1   6.623547077178955E-1  
 2.140000000000000E7    -2.283463478088379E-1   6.656137704849243E-1   6.606195569038391E-1   2.298668473958969E-1   6.597380042076111E-1   2.297892719507217E-1  -2.289988994598389E-1   6.616524457931519E-1  
 2.142000000000000E7    -2.266849577426910E-1   6.653699874877930E-1   6.616163253784180E-1   2.290358841419220E-1   6.614712476730347E-1   2.288007885217667E-1  -2.271522879600525E-1   6.609976291656494E-1  
 2.144000000000000E7    -2.246394753456116E-1   6.643271446228027E-1   6.635963320732117E-1   2.283155322074890E-1   6.630117893218994E-1   2.279894948005676E-1  -2.257991731166840E-1   6.613851189613342E-1  
 2.146000000000000E7    -2.230199575424194E-1   6.638638973236084E-1   6.648976802825928E-1   2.270784676074982E-1   6.641609668731690E-1   2.268375754356384E-1  -2.241226434707642E-1   6.604640483856201E-1  
 2.148000000000000E7    -2.216043025255203E-1   6.636543869972229E-1   6.657633185386658E-1   2.265349924564362E-1   6.660993099212647E-1   2.261321544647217E-1  -2.227082252502441E-1   6.596214175224304E-1  
 2.150000000000000E7    -2.197576314210892E-1   6.628613471984863E-1   6.681471467018127E-1   2.253725230693817E-1   6.670268177986145E-1   2.252556830644608E-1  -2.205768227577210E-1   6.595805883407593E-1  
 2.152000000000000E7    -2.181034237146378E-1   6.625951528549194E-1   6.690049767494202E-1   2.245421856641769E-1   6.687530875205994E-1   2.236617356538773E-1  -2.196082472801209E-1   6.581803560256958E-1  
 2.154000000000000E7    -2.169023454189301E-1   6.620877981185913E-1   6.707087755203247E-1   2.232054173946381E-1   6.703870892524719E-1   2.232167124748230E-1  -2.173314094543457E-1   6.578825712203980E-1  
 2.156000000000000E7    -2.143667936325073E-1   6.613847613334656E-1   6.714754700660706E-1   2.230456918478012E-1   6.719132065773010E-1   2.223346233367920E-1  -2.156668901443481E-1   6.572642326354981E-1  
 2.158000000000000E7    -2.133198231458664E-1   6.609195470809937E-1   6.735979318618774E-1   2.214349508285523E-1   6.733055114746094E-1   2.212523967027664E-1  -2.140596657991409E-1   6.569081544876099E-1  
 2.160000000000000E7    -2.114822119474411E-1   6.600614190101624E-1   6.749739646911621E-1   2.203779965639114E-1   6.743547320365906E-1   2.200932502746582E-1  -2.124350219964981E-1   6.563554406166077E-1  
 2.162000000000000E7    -2.096432298421860E-1   6.599863767623901E-1   6.762934327125549E-1   2.193476557731628E-1   6.756126880645752E-1   2.188315838575363E-1  -2.112224400043488E-1   6.558529734611511E-1  
 2.164000000000000E7    -2.081679999828339E-1   6.588731408119202E-1   6.779893040657044E-1   2.186351865530014E-1   6.775080561637878E-1   2.177424877882004E-1  -2.090342193841934E-1   6.552601456642151E-1  
 2.166000000000000E7    -2.064890563488007E-1   6.581168174743652E-1   6.794169545173645E-1   2.171090841293335E-1   6.794545650482178E-1   2.170209586620331E-1  -2.072574049234390E-1   6.542711853981018E-1  
 2.168000000000000E7    -2.048885822296143E-1   6.579778194427490E-1   6.804531216621399E-1   2.160497009754181E-1   6.804960966110230E-1   2.157325446605682E-1  -2.059404551982880E-1   6.539937257766724E-1  
 2.170000000000000E7    -2.032143026590347E-1   6.564271450042725E-1   6.828361749649048E-1   2.154231667518616E-1   6.819872260093689E-1   2.151867151260376E-1  -2.040043026208878E-1   6.539235711097717E-1  
 2.172000000000000E7    -2.014229446649551E-1   6.559809446334839E-1   6.837138533592224E-1   2.143126577138901E-1   6.837592720985413E-1   2.143397033214569E-1  -2.022006213665009E-1   6.526212096214294E-1  
 2.174000000000000E7    -1.997779607772827E-1   6.554567217826843E-1   6.850787401199341E-1   2.130910456180573E-1   6.847883462905884E-1   2.129557728767395E-1  -2.009366154670715E-1   6.518790721893311E-1  
 2.176000000000000E7    -1.985237449407578E-1   6.545470356941223E-1   6.871080994606018E-1   2.117735445499420E-1   6.866191029548645E-1   2.119616270065308E-1  -1.989510506391525E-1   6.511539816856384E-1  
 2.178000000000000E7    -1.962865293025971E-1   6.540494561195374E-1   6.884749531745911E-1   2.112097144126892E-1   6.877448558807373E-1   2.103151232004166E-1  -1.974360346794128E-1   6.508567929267883E-1  
 2.180000000000000E7    -1.949766278266907E-1   6.531580686569214E-1   6.895211338996887E-1   2.095855474472046E-1   6.891023516654968E-1   2.097460329532623E-1  -1.956732273101807E-1   6.501175165176392E-1  
 2.182000000000000E7    -1.931962072849274E-1   6.526532173156738E-1   6.913937330245972E-1   2.089125812053680E-1   6.904301643371582E-1   2.084092199802399E-1  -1.938012540340424E-1   6.489961743354797E-1  
 2.184000000000000E7    -1.914236396551132E-1   6.520479917526245E-1   6.930480003356934E-1   2.080441713333130E-1   6.920064091682434E-1   2.076477706432343E-1  -1.931633502244949E-1   6.485006809234619E-1  
 2.186000000000000E7    -1.895890831947327E-1   6.517184972763062E-1   6.939420700073242E-1   2.067974805831909E-1   6.935226917266846E-1   2.069777101278305E-1  -1.906222552061081E-1   6.476184725761414E-1  
 2.188000000000000E7    -1.881153583526611E-1   6.504809856414795E-1   6.955811977386475E-1   2.056225240230560E-1   6.945927143096924E-1   2.056600749492645E-1  -1.888387948274612E-1   6.473638415336609E-1  
 2.190000000000000E7    -1.863111406564713E-1   6.498057842254639E-1   6.970331072807312E-1   2.044525742530823E-1   6.966894268989563E-1   2.040944844484329E-1  -1.872370094060898E-1   6.462553739547730E-1  
 2.192000000000000E7    -1.848866343498230E-1   6.495125293731690E-1   6.986952424049377E-1   2.031465619802475E-1   6.983275413513184E-1   2.028867304325104E-1  -1.858537793159485E-1   6.453692317008972E-1  
 2.194000000000000E7    -1.828063726425171E-1   6.487594246864319E-1   7.000851035118103E-1   2.022161334753037E-1   6.996234655380249E-1   2.017823755741119E-1  -1.842861473560333E-1   6.444075107574463E-1  
 2.196000000000000E7    -1.810730993747711E-1   6.475228071212769E-1   7.012985348701477E-1   2.010658681392670E-1   7.011297941207886E-1   2.006286680698395E-1  -1.820889115333557E-1   6.442331075668335E-1  
 2.198000000000000E7    -1.795729696750641E-1   6.469383239746094E-1   7.030575275421143E-1   2.000262886285782E-1   7.022415399551392E-1   1.999323964118958E-1  -1.808523386716843E-1   6.432165503501892E-1  
 2.200000000000000E7    -1.784004271030426E-1   6.458863615989685E-1   7.049304842948914E-1   1.989081501960754E-1   7.046164870262146E-1   1.985867470502853E-1  -1.791348159313202E-1   6.422528624534607E-1  
 2.202000000000000E7    -1.763552874326706E-1   6.458115577697754E-1   7.058594226837158E-1   1.975299417972565E-1   7.055240869522095E-1   1.971198320388794E-1  -1.776511669158936E-1   6.416397690773010E-1  
 2.204000000000000E7    -1.747616231441498E-1   6.447297930717468E-1   7.074159979820252E-1   1.966452300548554E-1   7.069084644317627E-1   1.963169127702713E-1  -1.757024526596069E-1   6.409791111946106E-1  
 2.206000000000000E7    -1.731884181499481E-1   6.439023017883301E-1   7.086670398712158E-1   1.950578391551971E-1   7.082527279853821E-1   1.950375884771347E-1  -1.737041771411896E-1   6.406574249267578E-1  
 2.208000000000000E7    -1.709838956594467E-1   6.430767774581909E-1   7.102596759796143E-1   1.939812898635864E-1   7.096753716468811E-1   1.936235427856445E-1  -1.726427972316742E-1   6.394633650779724E-1  
 2.210000000000000E7    -1.700820475816727E-1   6.423030495643616E-1   7.117654681205750E-1   1.929255872964859E-1   7.110832333564758E-1   1.921579092741013E-1  -1.708562374114990E-1   6.385961771011353E-1  
 2.212000000000000E7    -1.678890734910965E-1   6.416852474212647E-1   7.126880884170532E-1   1.917759180068970E-1   7.126134634017944E-1   1.913946270942688E-1  -1.689919531345367E-1   6.377940773963928E-1  
 2.214000000000000E7    -1.660011112689972E-1   6.400438547134399E-1   7.150577306747437E-1   1.904489696025848E-1   7.145882248878479E-1   1.898437589406967E-1  -1.675811707973480E-1   6.370489597320557E-1  
 2.216000000000000E7    -1.645302772521973E-1   6.393735408782959E-1   7.163485884666443E-1   1.891419589519501E-1   7.150038480758667E-1   1.888543814420700E-1  -1.659113466739655E-1   6.365178823471069E-1  
 2.218000000000000E7    -1.625075936317444E-1   6.382934451103210E-1   7.177919745445252E-1   1.880248188972473E-1   7.171523571014404E-1   1.874253451824188E-1  -1.641479879617691E-1   6.352853178977966E-1  
 2.220000000000000E7    -1.612365692853928E-1   6.376909613609314E-1   7.190130352973938E-1   1.864591538906097E-1   7.189305424690247E-1   1.861590594053268E-1  -1.627181321382523E-1   6.347463726997376E-1  
 2.222000000000000E7    -1.596227139234543E-1   6.372532248497009E-1   7.203412652015686E-1   1.853308081626892E-1   7.199179530143738E-1   1.847606003284454E-1  -1.607947498559952E-1   6.335369944572449E-1  
 2.224000000000000E7    -1.582911312580109E-1   6.358962059020996E-1   7.218588590621948E-1   1.840953975915909E-1   7.213978171348572E-1   1.836805641651154E-1  -1.592960059642792E-1   6.326109766960144E-1  
 2.226000000000000E7    -1.561240553855896E-1   6.351811885833740E-1   7.232572436332703E-1   1.828951388597488E-1   7.227499485015869E-1   1.827770620584488E-1  -1.573003530502319E-1   6.318855881690979E-1  
 2.228000000000000E7    -1.540865302085877E-1   6.343227624893189E-1   7.247824668884277E-1   1.817892044782639E-1   7.241230010986328E-1   1.812713146209717E-1  -1.563728749752045E-1   6.308200359344482E-1  
 2.230000000000000E7    -1.526101678609848E-1   6.337046027183533E-1   7.264035344123840E-1   1.804907172918320E-1   7.255588173866272E-1   1.801697462797165E-1  -1.545137912034988E-1   6.301178932189941E-1  
 2.232000000000000E7    -1.513229310512543E-1   6.328836083412170E-1   7.278298735618591E-1   1.789356768131256E-1   7.273637652397156E-1   1.792515218257904E-1  -1.523039340972900E-1   6.292354464530945E-1  
 2.234000000000000E7    -1.500605642795563E-1   6.322054862976074E-1   7.290828824043274E-1   1.772732138633728E-1   7.286425828933716E-1   1.771844774484634E-1  -1.508191525936127E-1   6.280335783958435E-1  
 2.236000000000000E7    -1.482662409543991E-1   6.313831806182861E-1   7.304497957229614E-1   1.762116700410843E-1   7.302037477493286E-1   1.760496348142624E-1  -1.490446776151657E-1   6.271756291389465E-1  
 2.238000000000000E7    -1.462426781654358E-1   6.302749514579773E-1   7.319201827049255E-1   1.757059395313263E-1   7.316129803657532E-1   1.745245158672333E-1  -1.477800607681274E-1   6.261532902717590E-1  
 2.240000000000000E7    -1.446579396724701E-1   6.290152072906494E-1   7.335178256034851E-1   1.740103662014008E-1   7.327471971511841E-1   1.735695153474808E-1  -1.459899097681046E-1   6.253970861434937E-1  
 2.242000000000000E7    -1.430788636207581E-1   6.281967759132385E-1   7.347712516784668E-1   1.720902621746063E-1   7.347344160079956E-1   1.725268065929413E-1  -1.445288956165314E-1   6.242761611938477E-1  
 2.244000000000000E7    -1.412928104400635E-1   6.274904608726502E-1   7.360383272171021E-1   1.709314286708832E-1   7.360570430755615E-1   1.712727695703507E-1  -1.420564353466034E-1   6.230363845825195E-1  
 2.246000000000000E7    -1.398585140705109E-1   6.264611482620239E-1   7.376249432563782E-1   1.700732856988907E-1   7.374392151832581E-1   1.693974137306213E-1  -1.406148523092270E-1   6.224796772003174E-1  
 2.248000000000000E7    -1.379966884851456E-1   6.258156299591065E-1   7.391760945320129E-1   1.684563010931015E-1   7.386476397514343E-1   1.683806926012039E-1  -1.393048316240311E-1   6.217374801635742E-1  
 2.250000000000000E7    -1.362645775079727E-1   6.240395903587341E-1   7.411237359046936E-1   1.669919490814209E-1   7.401682734489441E-1   1.671543270349503E-1  -1.377170532941818E-1   6.212019920349121E-1  
 2.252000000000000E7    -1.348735988140106E-1   6.238883733749390E-1   7.416156530380249E-1   1.659707874059677E-1   7.416866421699524E-1   1.656190305948257E-1  -1.353166401386261E-1   6.198024153709412E-1  
 2.254000000000000E7    -1.331102848052979E-1   6.223811507225037E-1   7.436141371726990E-1   1.643615663051605E-1   7.431790232658386E-1   1.641267240047455E-1  -1.344405561685562E-1   6.187058687210083E-1  
 2.256000000000000E7    -1.310214102268219E-1   6.211500167846680E-1   7.449200153350830E-1   1.632396578788757E-1   7.446334958076477E-1   1.626897454261780E-1  -1.329389810562134E-1   6.175833344459534E-1  
 2.258000000000000E7    -1.298286020755768E-1   6.201917529106140E-1   7.467724084854126E-1   1.617829501628876E-1   7.459528446197510E-1   1.615279465913773E-1  -1.313201338052750E-1   6.166184544563294E-1  
 2.260000000000000E7    -1.282001137733460E-1   6.189792752265930E-1   7.478582262992859E-1   1.601842790842056E-1   7.474002838134766E-1   1.598615944385529E-1  -1.295631229877472E-1   6.156625151634216E-1  
 2.262000000000000E7    -1.261952519416809E-1   6.182283759117127E-1   7.492713332176209E-1   1.589286029338837E-1   7.495133876800537E-1   1.591877937316895E-1  -1.275330781936646E-1   6.144144535064697E-1  
 2.264000000000000E7    -1.248270794749260E-1   6.167950630187988E-1   7.509770989418030E-1   1.576453745365143E-1   7.505496740341187E-1   1.572484672069550E-1  -1.259817481040955E-1   6.134095191955566E-1  
 2.266000000000000E7    -1.230340078473091E-1   6.153303980827332E-1   7.524253129959106E-1   1.559298038482666E-1   7.518494129180908E-1   1.556396335363388E-1  -1.248920336365700E-1   6.126433610916138E-1  
 2.268000000000000E7    -1.213423609733582E-1   6.146961450576782E-1   7.539894580841065E-1   1.546451300382614E-1   7.534603476524353E-1   1.543324887752533E-1  -1.226183772087097E-1   6.114007234573364E-1  
 2.270000000000000E7    -1.197633892297745E-1   6.139482855796814E-1   7.550172805786133E-1   1.532835960388184E-1   7.544201612472534E-1   1.528254598379135E-1  -1.210966259241104E-1   6.105259060859680E-1  
 2.272000000000000E7    -1.185661852359772E-1   6.127477884292603E-1   7.563389539718628E-1   1.513123810291290E-1   7.558929920196533E-1   1.514920890331268E-1  -1.198491230607033E-1   6.092156171798706E-1  
 2.274000000000000E7    -1.163633093237877E-1   6.113960742950440E-1   7.579138278961182E-1   1.506860256195068E-1   7.572721838951111E-1   1.500403434038162E-1  -1.179342716932297E-1   6.082012057304382E-1  
 2.276000000000000E7    -1.147581189870834E-1   6.106302142143250E-1   7.587327361106873E-1   1.485298573970795E-1   7.590290307998657E-1   1.485104560852051E-1  -1.165135204792023E-1   6.071096062660217E-1  
 2.278000000000000E7    -1.128276288509369E-1   6.091458797454834E-1   7.609745264053345E-1   1.472283899784088E-1   7.598872780799866E-1   1.466422677040100E-1  -1.152248680591583E-1   6.063613891601563E-1  
 2.280000000000000E7    -1.119958162307739E-1   6.082175970077515E-1   7.622308731079102E-1   1.457770019769669E-1   7.611654400825501E-1   1.457314342260361E-1  -1.130211055278778E-1   6.054430007934570E-1  
 2.282000000000000E7    -1.101290956139565E-1   6.074159741401672E-1   7.635126113891602E-1   1.448520720005035E-1   7.630785107612610E-1   1.441575437784195E-1  -1.111042797565460E-1   6.035485267639160E-1  
 2.284000000000000E7    -1.085420995950699E-1   6.059246659278870E-1   7.650098204612732E-1   1.427566558122635E-1   7.646217942237854E-1   1.425427049398422E-1  -1.098692193627358E-1   6.027479171752930E-1  
 2.286000000000000E7    -1.065054833889008E-1   6.046873927116394E-1   7.666460871696472E-1   1.414339989423752E-1   7.658432126045227E-1   1.412403732538223E-1  -1.082015335559845E-1   6.016696691513062E-1  
 2.288000000000000E7    -1.052033454179764E-1   6.034442782402039E-1   7.680245041847229E-1   1.399511247873306E-1   7.671991586685181E-1   1.397028565406799E-1  -1.063548624515533E-1   6.004096865653992E-1  
 2.290000000000000E7    -1.039216667413712E-1   6.026350259780884E-1   7.695202231407166E-1   1.381717324256897E-1   7.687467336654663E-1   1.381108462810516E-1  -1.047308892011643E-1   6.000011563301086E-1  
 2.292000000000000E7    -1.018014103174210E-1   6.013441681861877E-1   7.705950140953064E-1   1.363765448331833E-1   7.697967290878296E-1   1.366110891103745E-1  -1.035704463720322E-1   5.987322330474854E-1  
 2.294000000000000E7    -1.004312485456467E-1   5.999140739440918E-1   7.722314000129700E-1   1.349852532148361E-1   7.711992263793945E-1   1.348389536142349E-1  -1.024457663297653E-1   5.976208448410034E-1  
 2.296000000000000E7    -9.910319745540619E-2   5.989804267883301E-1   7.735301852226257E-1   1.335619986057282E-1   7.733462452888489E-1   1.335675269365311E-1  -9.962064027786255E-2   5.956440567970276E-1  
 2.298000000000000E7    -9.724314510822296E-2   5.979136824607849E-1   7.750775218009949E-1   1.322290301322937E-1   7.743320465087891E-1   1.319325864315033E-1  -9.877350926399231E-2   5.947866439819336E-1  
 2.300000000000000E7    -9.581504762172699E-2   5.966241359710693E-1   7.762650251388550E-1   1.307896971702576E-1   7.755991220474243E-1   1.297312229871750E-1  -9.734901785850525E-2   5.938776135444641E-1  
 2.302000000000000E7    -9.422360360622406E-2   5.954138636589050E-1   7.778353095054627E-1   1.288312077522278E-1   7.772599458694458E-1   1.288346946239471E-1  -9.474177658557892E-2   5.924549698829651E-1  
 2.304000000000000E7    -9.250357747077942E-2   5.943031907081604E-1   7.791525721549988E-1   1.270207613706589E-1   7.781913280487061E-1   1.271441280841827E-1  -9.348548948764801E-2   5.911793708801270E-1  
 2.306000000000000E7    -9.104226529598236E-2   5.926409959793091E-1   7.800611257553101E-1   1.254108846187592E-1   7.798256874084473E-1   1.252589672803879E-1  -9.198208153247833E-2   5.902791619300842E-1  
 2.308000000000000E7    -8.880548924207687E-2   5.918450951576233E-1   7.817581892013550E-1   1.241799816489220E-1   7.813851237297058E-1   1.242159903049469E-1  -9.021294116973877E-2   5.886224508285523E-1  
 2.310000000000000E7    -8.763428032398224E-2   5.907994508743286E-1   7.826071977615356E-1   1.222447901964188E-1   7.827068567276001E-1   1.224716082215309E-1  -8.874787390232086E-2   5.871830582618713E-1  
 2.312000000000000E7    -8.618004620075226E-2   5.893616080284119E-1   7.841877341270447E-1   1.211426854133606E-1   7.839033007621765E-1   1.201627552509308E-1  -8.728913217782974E-2   5.857459902763367E-1  
 2.314000000000000E7    -8.462607860565186E-2   5.876612663269043E-1   7.856478691101074E-1   1.188421100378037E-1   7.854278683662415E-1   1.188036650419235E-1  -8.595761656761169E-2   5.849076509475708E-1  
 2.316000000000000E7    -8.276028931140900E-2   5.868891477584839E-1   7.873911261558533E-1   1.175602301955223E-1   7.872607707977295E-1   1.169049590826035E-1  -8.410343527793884E-2   5.831044912338257E-1  
 2.318000000000000E7    -8.087161928415299E-2   5.851054191589356E-1   7.889983654022217E-1   1.158261299133301E-1   7.882460355758667E-1   1.155480593442917E-1  -8.294860273599625E-2   5.825282335281372E-1  
 2.320000000000000E7    -7.956311851739883E-2   5.837683081626892E-1   7.901775836944580E-1   1.140143126249313E-1   7.897996306419373E-1   1.136320978403091E-1  -8.117068558931351E-2   5.807055830955505E-1  
 2.322000000000000E7    -7.865631580352783E-2   5.827711224555969E-1   7.910254001617432E-1   1.120773106813431E-1   7.908747196197510E-1   1.122350171208382E-1  -7.957051694393158E-2   5.797454118728638E-1  
 2.324000000000000E7    -7.640472799539566E-2   5.812338590621948E-1   7.929782867431641E-1   1.105089038610458E-1   7.917134165763855E-1   1.103941947221756E-1  -7.815892994403839E-2   5.787146091461182E-1  
 2.326000000000000E7    -7.470273226499558E-2   5.799079537391663E-1   7.937958240509033E-1   1.091255918145180E-1   7.933950424194336E-1   1.090241968631744E-1  -7.648747414350510E-2   5.775852203369141E-1  
 2.328000000000000E7    -7.234627008438110E-2   5.784531235694885E-1   7.955668568611145E-1   1.079839318990707E-1   7.949219346046448E-1   1.072491183876991E-1  -7.503946870565414E-2   5.758054852485657E-1  
 2.330000000000000E7    -7.142677158117294E-2   5.775806903839111E-1   7.966731786727905E-1   1.059370487928391E-1   7.959195375442505E-1   1.051863133907318E-1  -7.351930439472199E-2   5.743327736854553E-1  
 2.332000000000000E7    -6.960009038448334E-2   5.757212042808533E-1   7.984047532081604E-1   1.048132032155991E-1   7.976537346839905E-1   1.036081537604332E-1  -7.148145884275436E-2   5.726282000541687E-1  
 2.334000000000000E7    -6.820641458034515E-2   5.743419528007507E-1   7.998341321945190E-1   1.025150790810585E-1   7.985325455665588E-1   1.020604148507118E-1  -7.055857777595520E-2   5.717909336090088E-1  
 2.336000000000000E7    -6.683754920959473E-2   5.727871656417847E-1   8.010084033012390E-1   1.009812727570534E-1   8.001077771186829E-1   1.007211506366730E-1  -6.827250123023987E-2   5.705668926239014E-1  
 2.338000000000000E7    -6.509994715452194E-2   5.717313289642334E-1   8.023375868797302E-1   9.909059107303619E-2   8.013712763786316E-1   9.845620393753052E-2  -6.741127371788025E-2   5.688086748123169E-1  
 2.340000000000000E7    -6.370194256305695E-2   5.709909200668335E-1   8.033305406570435E-1   9.709052741527557E-2   8.028302788734436E-1   9.687590599060059E-2  -6.568899750709534E-2   5.673243999481201E-1  
 2.342000000000000E7    -6.307989358901978E-2   5.687685012817383E-1   8.048439621925354E-1   9.490242600440979E-2   8.038743138313294E-1   9.488744288682938E-2  -6.415028870105743E-2   5.662412047386169E-1  
 2.344000000000000E7    -6.107633933424950E-2   5.670028328895569E-1   8.063771724700928E-1   9.324075281620026E-2   8.055864572525024E-1   9.268572926521301E-2  -6.271037459373474E-2   5.647922158241272E-1  
 2.346000000000000E7    -5.940285697579384E-2   5.657399892807007E-1   8.077533841133118E-1   9.169203042984009E-2   8.065156936645508E-1   9.181128442287445E-2  -6.050954014062882E-2   5.636624693870544E-1  
 2.348000000000000E7    -5.804327875375748E-2   5.643750429153442E-1   8.084230422973633E-1   9.001429378986359E-2   8.079031705856323E-1   8.948083966970444E-2  -5.906637758016586E-2   5.620756149291992E-1  
 2.350000000000000E7    -5.696341395378113E-2   5.624955296516419E-1   8.100421428680420E-1   8.781833201646805E-2   8.091908097267151E-1   8.800233900547028E-2  -5.742844939231873E-2   5.606830120086670E-1  
 2.352000000000000E7    -5.459870025515556E-2   5.617289543151856E-1   8.112360835075378E-1   8.621450513601303E-2   8.106695413589478E-1   8.640134334564209E-2  -5.567165464162827E-2   5.587720274925232E-1  
 2.354000000000000E7    -5.309822037816048E-2   5.598969459533691E-1   8.128104805946350E-1   8.417001366615295E-2   8.120536208152771E-1   8.462389558553696E-2  -5.461312830448151E-2   5.581198334693909E-1  
 2.356000000000000E7    -5.157623440027237E-2   5.587536096572876E-1   8.138995170593262E-1   8.253479003906250E-2   8.133083581924439E-1   8.224135637283325E-2  -5.335059762001038E-2   5.561431050300598E-1  
 2.358000000000000E7    -5.041889473795891E-2   5.571048259735107E-1   8.150860667228699E-1   8.075815439224243E-2   8.147627115249634E-1   8.067057281732559E-2  -5.117283761501312E-2   5.545700788497925E-1  
 2.360000000000000E7    -4.895002022385597E-2   5.560420751571655E-1   8.164997100830078E-1   7.851684838533402E-2   8.161135911941528E-1   7.862405478954315E-2  -5.030267685651779E-2   5.530148744583130E-1  
 2.362000000000000E7    -4.752337560057640E-2   5.544218420982361E-1   8.178386688232422E-1   7.685107737779617E-2   8.177601099014282E-1   7.649403810501099E-2  -4.935670644044876E-2   5.513267517089844E-1  
 2.364000000000000E7    -4.568170011043549E-2   5.526393651962280E-1   8.190492391586304E-1   7.508376240730286E-2   8.182368278503418E-1   7.514360547065735E-2  -4.699774086475372E-2   5.501113533973694E-1  
 2.366000000000000E7    -4.388334602117539E-2   5.518981814384460E-1   8.200527429580689E-1   7.359170913696289E-2   8.197486400604248E-1   7.292616367340088E-2  -4.575187340378761E-2   5.482758283615112E-1  
 2.368000000000000E7    -4.294808954000473E-2   5.496796965599060E-1   8.218048810958862E-1   7.117332518100739E-2   8.212641477584839E-1   7.112625986337662E-2  -4.416829720139504E-2   5.465824007987976E-1  
 2.370000000000000E7    -4.119593277573586E-2   5.483701229095459E-1   8.229907155036926E-1   6.939324736595154E-2   8.225312232971191E-1   6.937988102436066E-2  -4.261958599090576E-2   5.454092621803284E-1  
 2.372000000000000E7    -3.963161632418633E-2   5.463869571685791E-1   8.243444561958313E-1   6.731750071048737E-2   8.235574364662170E-1   6.757530570030212E-2  -4.149144142866135E-2   5.439777374267578E-1  
 2.374000000000000E7    -3.775380551815033E-2   5.447048544883728E-1   8.256503939628601E-1   6.573921442031860E-2   8.249246478080750E-1   6.520085036754608E-2  -4.044760763645172E-2   5.422193408012390E-1  
 2.376000000000000E7    -3.698135912418366E-2   5.432736873626709E-1   8.268756866455078E-1   6.377158313989639E-2   8.261141180992127E-1   6.363227963447571E-2  -3.832122683525085E-2   5.406383872032166E-1  
 2.378000000000000E7    -3.491354733705521E-2   5.415888428688049E-1   8.282641768455505E-1   6.189960986375809E-2   8.270925283432007E-1   6.133602559566498E-2  -3.747833147644997E-2   5.392646789550781E-1  
 2.380000000000000E7    -3.415050357580185E-2   5.402907133102417E-1   8.294569253921509E-1   5.960849300026894E-2   8.287413716316223E-1   5.969887599349022E-2  -3.566384315490723E-2   5.379204154014587E-1  
 2.382000000000000E7    -3.256514668464661E-2   5.383799672126770E-1   8.309032917022705E-1   5.804034322500229E-2   8.303196430206299E-1   5.752090737223625E-2  -3.417460620403290E-2   5.355952978134155E-1  
 2.384000000000000E7    -3.065699338912964E-2   5.369677543640137E-1   8.316988945007324E-1   5.606862157583237E-2   8.308898210525513E-1   5.549559742212296E-2  -3.285364806652069E-2   5.347607731819153E-1  
 2.386000000000000E7    -3.003514558076859E-2   5.348725914955139E-1   8.334425687789917E-1   5.339829996228218E-2   8.324554562568665E-1   5.321565270423889E-2  -3.172986954450607E-2   5.327869653701782E-1  
 2.388000000000000E7    -2.805668488144875E-2   5.330311655998230E-1   8.341493606567383E-1   5.196008831262589E-2   8.340073823928833E-1   5.180124938488007E-2  -3.001487255096436E-2   5.309571623802185E-1  
 2.390000000000000E7    -2.700342610478401E-2   5.315300226211548E-1   8.355053663253784E-1   4.950915649533272E-2   8.348506689071655E-1   4.925253987312317E-2  -2.880265563726425E-2   5.291053056716919E-1  
 2.392000000000000E7    -2.534899860620499E-2   5.300832986831665E-1   8.369158506393433E-1   4.779338836669922E-2   8.361685872077942E-1   4.753225296735764E-2  -2.719622477889061E-2   5.276925563812256E-1  
 2.394000000000000E7    -2.404126152396202E-2   5.290392637252808E-1   8.375257253646851E-1   4.580633714795113E-2   8.373519778251648E-1   4.576240479946137E-2  -2.525655552744865E-2   5.255262255668640E-1  
 2.396000000000000E7    -2.225302159786224E-2   5.267876982688904E-1   8.393573164939880E-1   4.397859796881676E-2   8.385923504829407E-1   4.362251982092857E-2  -2.426809817552567E-2   5.242521166801453E-1  
 2.398000000000000E7    -2.130164206027985E-2   5.251380801200867E-1   8.398948907852173E-1   4.136120900511742E-2   8.395249843597412E-1   4.115825146436691E-2  -2.263022959232330E-2   5.231387019157410E-1  
 2.400000000000000E7    -1.974545419216156E-2   5.232707262039185E-1   8.413962721824646E-1   3.957493603229523E-2   8.408736586570740E-1   3.972066938877106E-2  -2.108141779899597E-2   5.211936235427856E-1  
 2.402000000000000E7    -1.859494298696518E-2   5.216520428657532E-1   8.428792357444763E-1   3.722257167100906E-2   8.422222733497620E-1   3.760246932506561E-2  -1.977887749671936E-2   5.193967223167419E-1  
 2.404000000000000E7    -1.702315732836723E-2   5.195946693420410E-1   8.440519571304321E-1   3.559403121471405E-2   8.436989784240723E-1   3.559858351945877E-2  -1.819592714309692E-2   5.172432661056519E-1  
 2.406000000000000E7    -1.524150371551514E-2   5.181563496589661E-1   8.450219035148621E-1   3.335056826472282E-2   8.446364402770996E-1   3.339099884033203E-2  -1.725914329290390E-2   5.158381462097168E-1  
 2.408000000000000E7    -1.319384574890137E-2   5.165032148361206E-1   8.462448120117188E-1   3.143948689103127E-2   8.452578783035278E-1   3.153103217482567E-2  -1.548129320144653E-2   5.140531063079834E-1  
 2.410000000000000E7    -1.235193014144898E-2   5.152269601821899E-1   8.472509980201721E-1   2.933769673109055E-2   8.468757867813110E-1   2.865626662969589E-2  -1.499354094266892E-2   5.120769739151001E-1  
 2.412000000000000E7    -1.101954281330109E-2   5.125746726989746E-1   8.487074971199036E-1   2.703759446740151E-2   8.474702239036560E-1   2.680723369121552E-2  -1.334364339709282E-2   5.109709501266480E-1  
 2.414000000000000E7    -9.921818971633911E-3   5.108113288879395E-1   8.498235940933228E-1   2.493044361472130E-2   8.488947153091431E-1   2.407184801995754E-2  -1.207218319177628E-2   5.094477534294128E-1  
 2.416000000000000E7    -8.842617273330689E-3   5.094919204711914E-1   8.512433171272278E-1   2.250426262617111E-2   8.505733609199524E-1   2.270294167101383E-2  -1.055923849344254E-2   5.074666142463684E-1  
 2.418000000000000E7    -7.269315421581268E-3   5.080798864364624E-1   8.520278334617615E-1   2.052657678723335E-2   8.516945242881775E-1   2.066187933087349E-2  -8.946053683757782E-3   5.050943493843079E-1  
 2.420000000000000E7    -6.082139909267426E-3   5.057071447372437E-1   8.532266020774841E-1   1.828464493155479E-2   8.523805141448975E-1   1.822031103074551E-2  -7.810115814208984E-3   5.044782161712647E-1  
 2.422000000000000E7    -4.830442368984222E-3   5.036623477935791E-1   8.542634248733521E-1   1.629957370460033E-2   8.535143733024597E-1   1.577279530465603E-2  -7.009282708168030E-3   5.020276904106140E-1  
 2.424000000000000E7    -3.194130957126617E-3   5.020226836204529E-1   8.556630611419678E-1   1.429292187094688E-2   8.547411561012268E-1   1.376205496490002E-2  -5.292393267154694E-3   4.999185502529144E-1  
 2.426000000000000E7    -2.065971493721008E-3   5.003188848495483E-1   8.564710617065430E-1   1.212505251169205E-2   8.552886247634888E-1   1.205217279493809E-2  -3.925353288650513E-3   4.984219372272492E-1  
 2.428000000000000E7    -1.019492745399475E-3   4.984640777111054E-1   8.573018312454224E-1   9.892689064145088E-3   8.567519783973694E-1   9.233057498931885E-3  -2.973861992359161E-3   4.965322613716126E-1  
 2.430000000000000E7     7.788091897964478E-4   4.969514012336731E-1   8.587282299995422E-1   7.807180285453796E-3   8.574302792549133E-1   7.293820381164551E-3  -1.071773469448090E-3   4.944795668125153E-1  
 2.432000000000000E7     1.619599759578705E-3   4.949856996536255E-1   8.597568273544312E-1   5.543559789657593E-3   8.589484095573425E-1   5.263952538371086E-3  -1.861155033111572E-4   4.925957918167114E-1  
 2.434000000000000E7     3.288529813289642E-3   4.924809336662293E-1   8.611853122711182E-1   3.488559275865555E-3   8.597568869590759E-1   3.678752109408379E-3   1.530259847640991E-3   4.907329082489014E-1  
 2.436000000000000E7     3.919661045074463E-3   4.913290739059448E-1   8.617728948593140E-1   7.438771426677704E-4   8.612223863601685E-1   3.695972263813019E-4   2.385109663009644E-3   4.888508915901184E-1  
 2.438000000000000E7     5.805730819702148E-3   4.890930056571960E-1   8.632268309593201E-1  -1.193318516016007E-3   8.621654510498047E-1  -1.219483092427254E-3   4.207037389278412E-3   4.873116314411163E-1  
 2.440000000000000E7     6.801225244998932E-3   4.875884652137756E-1   8.640305995941162E-1  -3.859259188175201E-3   8.633558154106140E-1  -3.833206370472908E-3   5.143672227859497E-3   4.846239089965820E-1  
 2.442000000000000E7     8.127547800540924E-3   4.857314229011536E-1   8.652362227439880E-1  -5.471177399158478E-3   8.643630146980286E-1  -5.956668406724930E-3   7.045313715934753E-3   4.833135306835175E-1  
 2.444000000000000E7     9.703285992145538E-3   4.839331507682800E-1   8.660295605659485E-1  -8.161209523677826E-3   8.658846020698547E-1  -8.425336331129074E-3   7.480002939701080E-3   4.807702600955963E-1  
 2.446000000000000E7     1.027601957321167E-2   4.817261397838593E-1   8.671109676361084E-1  -1.089247316122055E-2   8.662912845611572E-1  -1.120147481560707E-2   8.333690464496613E-3   4.795603454113007E-1  
 2.448000000000000E7     1.213636994361877E-2   4.795478880405426E-1   8.686159253120422E-1  -1.286494359374046E-2   8.674519658088684E-1  -1.330736465752125E-2   9.781688451766968E-3   4.775085151195526E-1  
 2.450000000000000E7     1.375769823789597E-2   4.780212342739105E-1   8.693056702613831E-1  -1.500198617577553E-2   8.686689138412476E-1  -1.505470462143421E-2   1.139385253190994E-2   4.757094979286194E-1  
 2.452000000000000E7     1.544919610023499E-2   4.758492112159729E-1   8.705354928970337E-1  -1.707784831523895E-2   8.696581721305847E-1  -1.791042461991310E-2   1.215493679046631E-2   4.734340906143189E-1  
 2.454000000000000E7     1.507811248302460E-2   4.732615351676941E-1   8.714876174926758E-1  -2.053914219141007E-2   8.708372116088867E-1  -1.986125484108925E-2   1.388613134622574E-2   4.713827669620514E-1  
 2.456000000000000E7     1.669373363256455E-2   4.719494879245758E-1   8.725296854972839E-1  -2.217461168766022E-2   8.714039921760559E-1  -2.202614396810532E-2   1.507835090160370E-2   4.694970846176148E-1  
 2.458000000000000E7     1.765469461679459E-2   4.692856073379517E-1   8.733411431312561E-1  -2.485977858304977E-2   8.726755380630493E-1  -2.442708611488342E-2   1.621676236391068E-2   4.674716293811798E-1  
 2.460000000000000E7     1.887384802103043E-2   4.679518938064575E-1   8.743506669998169E-1  -2.699758484959602E-2   8.733251094818115E-1  -2.715057693421841E-2   1.719835400581360E-2   4.649648070335388E-1  
 2.462000000000000E7     2.087767422199249E-2   4.659301340579987E-1   8.747372627258301E-1  -2.906342409551144E-2   8.737643957138062E-1  -2.920430153608322E-2   1.826909184455872E-2   4.640865027904511E-1  
 2.464000000000000E7     2.144627273082733E-2   4.640555977821350E-1   8.758921623229981E-1  -3.152074664831162E-2   8.758081197738648E-1  -3.137194365262985E-2   2.021163702011108E-2   4.613728523254395E-1  
 2.466000000000000E7     2.289314568042755E-2   4.611738920211792E-1   8.773509263992310E-1  -3.381382673978806E-2   8.763541579246521E-1  -3.377484902739525E-2   2.102975547313690E-2   4.590710401535034E-1  
 2.468000000000000E7     2.401138097047806E-2   4.598473012447357E-1   8.780192136764526E-1  -3.636244684457779E-2   8.773570656776428E-1  -3.617211431264877E-2   2.208980545401573E-2   4.576887488365173E-1  
 2.470000000000000E7     2.490987256169319E-2   4.578313529491425E-1   8.788805603981018E-1  -3.892677277326584E-2   8.781031370162964E-1  -3.841582685709000E-2   2.351021766662598E-2   4.555567502975464E-1  
 2.472000000000000E7     2.593127638101578E-2   4.556992650032044E-1   8.797076344490051E-1  -4.134190827608109E-2   8.794656395912170E-1  -4.165495187044144E-2   2.408398687839508E-2   4.529519081115723E-1  
 2.474000000000000E7     2.747059240937233E-2   4.534705877304077E-1   8.808094859123230E-1  -4.337760806083679E-2   8.799625039100647E-1  -4.330929368734360E-2   2.526138350367546E-2   4.512904584407806E-1  
 2.476000000000000E7     2.873442694544792E-2   4.510922729969025E-1   8.816452026367188E-1  -4.623141884803772E-2   8.809524178504944E-1  -4.589996114373207E-2   2.644252032041550E-2   4.489851593971252E-1  
 2.478000000000000E7     2.942136302590370E-2   4.493374228477478E-1   8.827337622642517E-1  -4.851483181118965E-2   8.816219568252564E-1  -4.872211441397667E-2   2.764107659459114E-2   4.469586610794067E-1  
 2.480000000000000E7     2.967983484268189E-2   4.473817646503449E-1   8.835845589637756E-1  -5.104938521981239E-2   8.829966783523560E-1  -5.069618672132492E-2   2.889474853873253E-2   4.455655217170715E-1  
 2.482000000000000E7     3.187473863363266E-2   4.455694556236267E-1   8.841533064842224E-1  -5.302454903721809E-2   8.833963274955750E-1  -5.350346863269806E-2   2.940313145518303E-2   4.432248473167419E-1  
 2.484000000000000E7     3.249945119023323E-2   4.424308538436890E-1   8.854235410690308E-1  -5.570228397846222E-2   8.845652341842651E-1  -5.566562712192535E-2   3.127584606409073E-2   4.414123594760895E-1  
 2.486000000000000E7     3.332598134875298E-2   4.413029551506043E-1   8.859385848045349E-1  -5.832128971815109E-2   8.855366706848145E-1  -5.826125293970108E-2   3.208321332931519E-2   4.382535517215729E-1  
 2.488000000000000E7     3.498513624072075E-2   4.385304450988770E-1   8.871041536331177E-1  -6.071846187114716E-2   8.865831494331360E-1  -6.080941110849381E-2   3.292483836412430E-2   4.366530179977417E-1  
 2.490000000000000E7     3.642612695693970E-2   4.366783201694489E-1   8.877823352813721E-1  -6.323598325252533E-2   8.869215250015259E-1  -6.329343467950821E-2   3.388445451855660E-2   4.348152279853821E-1  
 2.492000000000000E7     3.698690235614777E-2   4.344513118267059E-1   8.888179659843445E-1  -6.581195443868637E-2   8.885329961776733E-1  -6.590101122856140E-2   3.503001108765602E-2   4.320027828216553E-1  
 2.494000000000000E7     3.801858425140381E-2   4.320089221000671E-1   8.899326324462891E-1  -6.862828135490418E-2   8.889154791831970E-1  -6.856477260589600E-2   3.585349768400192E-2   4.302578568458557E-1  
 2.496000000000000E7     3.890426084399223E-2   4.294415712356567E-1   8.904362320899963E-1  -7.102449238300324E-2   8.895939588546753E-1  -7.073104381561279E-2   3.703818470239639E-2   4.283421039581299E-1  
 2.498000000000000E7     4.032972827553749E-2   4.278007149696350E-1   8.907662630081177E-1  -7.302493602037430E-2   8.904731869697571E-1  -7.311168313026428E-2   3.853137046098709E-2   4.258860349655151E-1  
 2.500000000000000E7     4.120963811874390E-2   4.258152842521668E-1   8.917881250381470E-1  -7.586953043937683E-2   8.911225795745850E-1  -7.554348558187485E-2   3.900373354554176E-2   4.236776232719421E-1  
 2.502000000000000E7     4.166829213500023E-2   4.230834841728210E-1   8.931716680526733E-1  -7.879420369863510E-2   8.919262886047363E-1  -7.852037996053696E-2   4.012451320886612E-2   4.213373661041260E-1  
 2.504000000000000E7     4.325152933597565E-2   4.208040833473206E-1   8.934315443038940E-1  -8.073365688323975E-2   8.926590085029602E-1  -8.072773367166519E-2   4.092915728688240E-2   4.191282987594605E-1  
 2.506000000000000E7     4.348065331578255E-2   4.188829064369202E-1   8.945049047470093E-1  -8.381614834070206E-2   8.929930329322815E-1  -8.361776173114777E-2   4.239890351891518E-2   4.176029860973358E-1  
 2.508000000000000E7     4.478813335299492E-2   4.167291820049286E-1   8.949884772300720E-1  -8.662489056587219E-2   8.941826820373535E-1  -8.622495830059052E-2   4.281796887516975E-2   4.148310422897339E-1  
 2.510000000000000E7     4.561178386211395E-2   4.140950739383698E-1   8.958260416984558E-1  -8.919011801481247E-2   8.949365615844727E-1  -8.893443644046783E-2   4.321093857288361E-2   4.128187298774719E-1  
 2.512000000000000E7     4.674670472741127E-2   4.118390381336212E-1   8.967629075050354E-1  -9.123118221759796E-2   8.955563306808472E-1  -9.166791290044785E-2   4.489189386367798E-2   4.105446040630341E-1  
 2.514000000000000E7     4.739864170551300E-2   4.095432758331299E-1   8.974733352661133E-1  -9.380751848220825E-2   8.965849280357361E-1  -9.409453719854355E-2   4.561634734272957E-2   4.079940617084503E-1  
 2.516000000000000E7     4.812926426529884E-2   4.074390530586243E-1   8.980382084846497E-1  -9.674220532178879E-2   8.975032567977905E-1  -9.670402854681015E-2   4.648107662796974E-2   4.056206643581390E-1  
 2.518000000000000E7     4.955453425645828E-2   4.054873287677765E-1   8.983630537986755E-1  -9.961920976638794E-2   8.973302841186523E-1  -9.914135932922363E-2   4.732659086585045E-2   4.039158225059509E-1  
 2.520000000000000E7     5.060474947094917E-2   4.034753441810608E-1   8.991621136665344E-1  -1.018877029418945E-1   8.983002901077271E-1  -1.019958704710007E-1   4.841696098446846E-2   4.014517962932587E-1  
 2.522000000000000E7     5.121060833334923E-2   4.015659391880035E-1   8.992976546287537E-1  -1.043287217617035E-1   8.988957405090332E-1  -1.048696786165237E-1   4.940254986286163E-2   3.991556465625763E-1  
 2.524000000000000E7     5.195328593254089E-2   3.983829021453857E-1   9.006426930427551E-1  -1.072192788124085E-1   8.996201753616333E-1  -1.073014140129089E-1   5.011523887515068E-2   3.972265124320984E-1  
 2.526000000000000E7     5.271795764565468E-2   3.956139385700226E-1   9.011879563331604E-1  -1.098675578832626E-1   9.003796577453613E-1  -1.098872050642967E-1   5.144379660487175E-2   3.944933116436005E-1  
 2.528000000000000E7     5.282230675220490E-2   3.939063549041748E-1   9.016016125679016E-1  -1.128973960876465E-1   9.010241627693176E-1  -1.126435175538063E-1   5.213185399770737E-2   3.922717571258545E-1  
 2.530000000000000E7     5.462180823087692E-2   3.917989730834961E-1   9.023432731628418E-1  -1.154830753803253E-1   9.014863371849060E-1  -1.152915656566620E-1   5.227539688348770E-2   3.899963498115540E-1  
 2.532000000000000E7     5.542165786027908E-2   3.889372348785400E-1   9.030120372772217E-1  -1.180069074034691E-1   9.022592306137085E-1  -1.179911419749260E-1   5.346120148897171E-2   3.876921534538269E-1  
 2.534000000000000E7     5.636752396821976E-2   3.864130377769470E-1   9.035944342613220E-1  -1.205354481935501E-1   9.030428528785706E-1  -1.205803602933884E-1   5.444828420877457E-2   3.853685855865479E-1  
 2.536000000000000E7     5.654972046613693E-2   3.840230107307434E-1   9.041168689727783E-1  -1.233980804681778E-1   9.033436775207520E-1  -1.233192458748817E-1   5.515022575855255E-2   3.829939365386963E-1  
 2.538000000000000E7     5.760198086500168E-2   3.823046982288361E-1   9.049444794654846E-1  -1.263943910598755E-1   9.037220478057861E-1  -1.260272562503815E-1   5.589181557297707E-2   3.807290196418762E-1  
 2.540000000000000E7     5.829009786248207E-2   3.799071311950684E-1   9.056184887886047E-1  -1.288737952709198E-1   9.045074582099915E-1  -1.284054070711136E-1   5.697977542877197E-2   3.780887424945831E-1  
 2.542000000000000E7     5.897463113069534E-2   3.769418299198151E-1   9.058796167373657E-1  -1.316894143819809E-1   9.053313136100769E-1  -1.313654780387878E-1   5.746743083000183E-2   3.760036230087280E-1  
 2.544000000000000E7     5.967868864536285E-2   3.747020661830902E-1   9.062312841415405E-1  -1.345035880804062E-1   9.055904746055603E-1  -1.342656612396240E-1   5.819186195731163E-2   3.735271394252777E-1  
 2.546000000000000E7     6.052764132618904E-2   3.726317882537842E-1   9.068474769592285E-1  -1.372654139995575E-1   9.061170816421509E-1  -1.371265351772308E-1   5.854045599699020E-2   3.715472221374512E-1  
 2.548000000000000E7     6.158675625920296E-2   3.702293932437897E-1   9.075135588645935E-1  -1.398624330759049E-1   9.066235423088074E-1  -1.394385695457459E-1   6.024539470672607E-2   3.691127300262451E-1  
 2.550000000000000E7     6.165926903486252E-2   3.672458529472351E-1   9.083456993103027E-1  -1.428932100534439E-1   9.069806337356567E-1  -1.426869928836823E-1   6.031847745180130E-2   3.661450445652008E-1  
 2.552000000000000E7     6.261734664440155E-2   3.652914464473724E-1   9.084621667861939E-1  -1.455668509006500E-1   9.075357317924500E-1  -1.454159170389175E-1   6.106239184737206E-2   3.640560805797577E-1  
 2.554000000000000E7     6.389500200748444E-2   3.623927235603333E-1   9.091751575469971E-1  -1.479197293519974E-1   9.081373810768127E-1  -1.479403227567673E-1   6.172557547688484E-2   3.615632653236389E-1  
 2.556000000000000E7     6.426197290420532E-2   3.606411218643189E-1   9.096081852912903E-1  -1.508609801530838E-1   9.087336659431458E-1  -1.510007232427597E-1   6.220461055636406E-2   3.587692081928253E-1  
 2.558000000000000E7     6.515944004058838E-2   3.580736815929413E-1   9.096240401268005E-1  -1.536796987056732E-1   9.090518355369568E-1  -1.533451974391937E-1   6.324119865894318E-2   3.564016222953796E-1  
 2.560000000000000E7     6.518889963626862E-2   3.550609946250916E-1   9.105131030082703E-1  -1.567149907350540E-1   9.094209671020508E-1  -1.562921106815338E-1   6.386073678731918E-2   3.543398380279541E-1  
 2.562000000000000E7     6.610503047704697E-2   3.532505929470062E-1   9.108742475509644E-1  -1.594666838645935E-1   9.096916317939758E-1  -1.592376977205277E-1   6.397442519664764E-2   3.515662848949432E-1  
 2.564000000000000E7     6.612861156463623E-2   3.504217267036438E-1   9.108871817588806E-1  -1.624979227781296E-1   9.107789397239685E-1  -1.620246022939682E-1   6.534019112586975E-2   3.491262495517731E-1  
 2.566000000000000E7     6.741466373205185E-2   3.476624488830566E-1   9.118263125419617E-1  -1.651974618434906E-1   9.108681082725525E-1  -1.652418524026871E-1   6.503561139106751E-2   3.471016585826874E-1  
 2.568000000000000E7     6.847044080495834E-2   3.455246388912201E-1   9.116669893264771E-1  -1.676835417747498E-1   9.112739562988281E-1  -1.681262403726578E-1   6.540245562791824E-2   3.444860279560089E-1  
 2.570000000000000E7     6.871453672647476E-2   3.432312011718750E-1   9.119876027107239E-1  -1.706377416849136E-1   9.110268354415894E-1  -1.703522354364395E-1   6.634732335805893E-2   3.430336713790894E-1  
 2.572000000000000E7     6.854555010795593E-2   3.408933579921722E-1   9.125009179115295E-1  -1.737227737903595E-1   9.119417071342468E-1  -1.735259741544724E-1   6.750354915857315E-2   3.395430743694305E-1  
 2.574000000000000E7     6.979639828205109E-2   3.379822671413422E-1   9.130558967590332E-1  -1.766734868288040E-1   9.120546579360962E-1  -1.761775761842728E-1   6.756725162267685E-2   3.370509147644043E-1  
 2.576000000000000E7     6.974403560161591E-2   3.356191813945770E-1   9.133764505386353E-1  -1.794256865978241E-1   9.125198721885681E-1  -1.793692260980606E-1   6.803409010171890E-2   3.346024751663208E-1  
 2.578000000000000E7     7.069359719753265E-2   3.331224322319031E-1   9.132937788963318E-1  -1.823507547378540E-1   9.128164649009705E-1  -1.819949597120285E-1   6.909517198801041E-2   3.321535289287567E-1  
 2.580000000000000E7     7.106529176235199E-2   3.300777673721314E-1   9.142555594444275E-1  -1.846590787172318E-1   9.127779603004456E-1  -1.848030984401703E-1   6.939933449029923E-2   3.295026421546936E-1  
 2.582000000000000E7     7.165507972240448E-2   3.279982209205627E-1   9.142912030220032E-1  -1.879252344369888E-1   9.133093357086182E-1  -1.882820278406143E-1   6.946611404418945E-2   3.266628980636597E-1  
 2.584000000000000E7     7.136168330907822E-2   3.247923254966736E-1   9.147356152534485E-1  -1.912477612495422E-1   9.138993620872498E-1  -1.905329376459122E-1   7.031882554292679E-2   3.245069384574890E-1  
 2.586000000000000E7     7.195475697517395E-2   3.225431442260742E-1   9.149084091186523E-1  -1.942488849163055E-1   9.140377640724182E-1  -1.940170675516129E-1   7.022868841886520E-2   3.220264017581940E-1  
 2.588000000000000E7     7.304039597511292E-2   3.209625184535980E-1   9.148536324501038E-1  -1.966976672410965E-1   9.142889380455017E-1  -1.964801847934723E-1   7.091301679611206E-2   3.193638324737549E-1  
 2.590000000000000E7     7.337158918380737E-2   3.171889185905457E-1   9.155174493789673E-1  -1.998343765735626E-1   9.145626425743103E-1  -1.996469199657440E-1   7.081884145736694E-2   3.168271183967590E-1  
 2.592000000000000E7     7.360050827264786E-2   3.153001368045807E-1   9.154381752014160E-1  -2.027649283409119E-1   9.146706461906433E-1  -2.026180624961853E-1   7.179660350084305E-2   3.143013119697571E-1  
 2.594000000000000E7     7.388629019260407E-2   3.130238652229309E-1   9.155382513999939E-1  -2.052708119153976E-1   9.146277904510498E-1  -2.057826817035675E-1   7.253335416316986E-2   3.117085695266724E-1  
 2.596000000000000E7     7.469834387302399E-2   3.100281953811646E-1   9.161725640296936E-1  -2.083742320537567E-1   9.148750305175781E-1  -2.081196904182434E-1   7.278731465339661E-2   3.091750144958496E-1  
 2.598000000000000E7     7.450021058320999E-2   3.072091937065125E-1   9.160410761833191E-1  -2.116033434867859E-1   9.154230952262878E-1  -2.113881111145020E-1   7.281041145324707E-2   3.066175580024719E-1  
 2.600000000000000E7     7.460460811853409E-2   3.048611283302307E-1   9.159332513809204E-1  -2.145573049783707E-1   9.154841303825378E-1  -2.144673764705658E-1   7.312487065792084E-2   3.044204711914063E-1  
 2.602000000000000E7     7.552386820316315E-2   3.021304011344910E-1   9.163936972618103E-1  -2.174298763275147E-1   9.155762791633606E-1  -2.174822837114334E-1   7.376534491777420E-2   3.015236556529999E-1  
 2.604000000000000E7     7.620182633399963E-2   2.999380230903626E-1   9.165949225425720E-1  -2.200852185487747E-1   9.157838821411133E-1  -2.204469442367554E-1   7.446744292974472E-2   2.986458539962769E-1  
 2.606000000000000E7     7.607194036245346E-2   2.970023751258850E-1   9.167474508285523E-1  -2.231815904378891E-1   9.157263636589050E-1  -2.235372066497803E-1   7.394565641880035E-2   2.962675094604492E-1  
 2.608000000000000E7     7.582158595323563E-2   2.943031489849091E-1   9.164267182350159E-1  -2.266782969236374E-1   9.158763289451599E-1  -2.260188907384872E-1   7.421164959669113E-2   2.935765981674194E-1  
 2.610000000000000E7     7.695847749710083E-2   2.919256389141083E-1   9.169915914535523E-1  -2.292588055133820E-1   9.154091477394104E-1  -2.292086333036423E-1   7.466244697570801E-2   2.911347150802612E-1  
 2.612000000000000E7     7.671406865119934E-2   2.884971499443054E-1   9.168083667755127E-1  -2.326174229383469E-1   9.157864451408386E-1  -2.320128381252289E-1   7.527935504913330E-2   2.888084053993225E-1  
 2.614000000000000E7     7.716622203588486E-2   2.863905429840088E-1   9.165945649147034E-1  -2.352079898118973E-1   9.161564111709595E-1  -2.353784143924713E-1   7.487466186285019E-2   2.858092188835144E-1  
 2.616000000000000E7     7.782664149999619E-2   2.835418879985809E-1   9.169316291809082E-1  -2.383391261100769E-1   9.158329367637634E-1  -2.383564412593842E-1   7.469478249549866E-2   2.831616103649139E-1  
 2.618000000000000E7     7.729020714759827E-2   2.809639573097229E-1   9.168838262557983E-1  -2.413858175277710E-1   9.158549904823303E-1  -2.414481192827225E-1   7.602824270725250E-2   2.809003591537476E-1  
 2.620000000000000E7     7.797846943140030E-2   2.789259552955627E-1   9.167579412460327E-1  -2.442807108163834E-1   9.159205555915833E-1  -2.439685910940170E-1   7.626755535602570E-2   2.776077985763550E-1  
 2.622000000000000E7     7.768251001834869E-2   2.764219045639038E-1   9.165508747100830E-1  -2.471586912870407E-1   9.160732626914978E-1  -2.470920532941818E-1   7.659171521663666E-2   2.753713726997376E-1  
 2.624000000000000E7     7.809100300073624E-2   2.730146348476410E-1   9.166705608367920E-1  -2.505048811435700E-1   9.161007404327393E-1  -2.501371800899506E-1   7.585293799638748E-2   2.729517221450806E-1  
 2.626000000000000E7     7.808092236518860E-2   2.708482146263123E-1   9.168530702590942E-1  -2.537644803524017E-1   9.157828688621521E-1  -2.531659007072449E-1   7.618151605129242E-2   2.698438763618469E-1  
 2.628000000000000E7     7.743122428655624E-2   2.681252956390381E-1   9.163966178894043E-1  -2.566495537757874E-1   9.158025979995728E-1  -2.562813460826874E-1   7.707959413528442E-2   2.677219510078430E-1  
 2.630000000000000E7     7.848347723484039E-2   2.656752467155457E-1   9.164575338363648E-1  -2.594884335994721E-1   9.158449172973633E-1  -2.590976655483246E-1   7.673654705286026E-2   2.641199827194214E-1  
 2.632000000000000E7     7.869383692741394E-2   2.614040672779083E-1   9.165245890617371E-1  -2.625926136970520E-1   9.156138896942139E-1  -2.623096108436585E-1   7.654596865177155E-2   2.625832557678223E-1  
 2.634000000000000E7     7.866765558719635E-2   2.597731947898865E-1   9.162718653678894E-1  -2.656305730342865E-1   9.158400297164917E-1  -2.652853429317474E-1   7.713466882705689E-2   2.594941258430481E-1  
 2.636000000000000E7     7.891499996185303E-2   2.566764950752258E-1   9.165131449699402E-1  -2.689770758152008E-1   9.154734015464783E-1  -2.680719196796417E-1   7.681700587272644E-2   2.570047974586487E-1  
 2.638000000000000E7     7.879035174846649E-2   2.547059059143066E-1   9.158782362937927E-1  -2.718059122562408E-1   9.152085185050964E-1  -2.713285982608795E-1   7.698138058185577E-2   2.536838650703430E-1  
 2.640000000000000E7     7.893071323633194E-2   2.510472536087036E-1   9.158119559288025E-1  -2.748117148876190E-1   9.150316715240479E-1  -2.745029628276825E-1   7.720645517110825E-2   2.517316937446594E-1  
 2.642000000000000E7     7.919036597013474E-2   2.490948736667633E-1   9.156702160835266E-1  -2.776083648204804E-1   9.148942232131958E-1  -2.776926457881928E-1   7.729496061801910E-2   2.485245466232300E-1  
 2.644000000000000E7     7.921230792999268E-2   2.463213950395584E-1   9.153895974159241E-1  -2.807983756065369E-1   9.148893356323242E-1  -2.802613973617554E-1   7.708215713500977E-2   2.458588182926178E-1  
 2.646000000000000E7     7.897670567035675E-2   2.431034445762634E-1   9.156104922294617E-1  -2.842109203338623E-1   9.147099852561951E-1  -2.833812534809113E-1   7.699681073427200E-2   2.433684766292572E-1  
 2.648000000000000E7     7.884337007999420E-2   2.407488524913788E-1   9.149806499481201E-1  -2.872143089771271E-1   9.139169454574585E-1  -2.867178022861481E-1   7.654280960559845E-2   2.410822808742523E-1  
 2.650000000000000E7     7.877245545387268E-2   2.378148287534714E-1   9.147619009017944E-1  -2.901661396026611E-1   9.136628508567810E-1  -2.894589006900787E-1   7.687495648860931E-2   2.387885451316834E-1  
 2.652000000000000E7     7.955110073089600E-2   2.351830005645752E-1   9.146850705146790E-1  -2.928177416324616E-1   9.135864377021790E-1  -2.927922308444977E-1   7.664465159177780E-2   2.355729043483734E-1  
 2.654000000000000E7     7.794477045536041E-2   2.330467104911804E-1   9.141750931739807E-1  -2.962593734264374E-1   9.136275053024292E-1  -2.958058118820190E-1   7.721401751041412E-2   2.326848804950714E-1  
 2.656000000000000E7     7.923398911952972E-2   2.297513782978058E-1   9.139243364334106E-1  -2.991934120655060E-1   9.131967425346375E-1  -2.987096607685089E-1   7.664008438587189E-2   2.300573587417603E-1  
 2.658000000000000E7     7.785887271165848E-2   2.270200997591019E-1   9.133492112159729E-1  -3.023283779621124E-1   9.130150675773621E-1  -3.022306263446808E-1   7.719913125038147E-2   2.274911254644394E-1  
 2.660000000000000E7     7.771047949790955E-2   2.241971194744110E-1   9.133543968200684E-1  -3.051010072231293E-1   9.126148819923401E-1  -3.052231073379517E-1   7.687148451805115E-2   2.244991362094879E-1  
 2.662000000000000E7     7.787130773067474E-2   2.219110429286957E-1   9.125677347183228E-1  -3.087050020694733E-1   9.119702577590942E-1  -3.082805275917053E-1   7.658578455448151E-2   2.221005856990814E-1  
 2.664000000000000E7     7.759547978639603E-2   2.188375294208527E-1   9.122630953788757E-1  -3.119009137153626E-1   9.119966030120850E-1  -3.116135597229004E-1   7.558554410934448E-2   2.189648002386093E-1  
 2.666000000000000E7     7.799090445041657E-2   2.163681685924530E-1   9.118812680244446E-1  -3.148899674415588E-1   9.113824367523193E-1  -3.142755925655365E-1   7.632806152105331E-2   2.164900898933411E-1  
 2.668000000000000E7     7.786133140325546E-2   2.132968604564667E-1   9.115115404129028E-1  -3.177924752235413E-1   9.107676148414612E-1  -3.174096345901489E-1   7.658921182155609E-2   2.136484384536743E-1  
 2.670000000000000E7     7.741771638393402E-2   2.104963660240173E-1   9.111245870590210E-1  -3.214434087276459E-1   9.102867841720581E-1  -3.203876018524170E-1   7.503226399421692E-2   2.111131101846695E-1  
 2.672000000000000E7     7.700347900390625E-2   2.074473202228546E-1   9.105997681617737E-1  -3.243012726306915E-1   9.101126790046692E-1  -3.238006234169006E-1   7.480410486459732E-2   2.085827738046646E-1  
 2.674000000000000E7     7.647071778774262E-2   2.050032317638397E-1   9.106699824333191E-1  -3.274720311164856E-1   9.096339344978333E-1  -3.268228471279144E-1   7.537004351615906E-2   2.046903669834137E-1  
 2.676000000000000E7     7.636365294456482E-2   2.023563981056213E-1   9.095832109451294E-1  -3.302876055240631E-1   9.093998074531555E-1  -3.297397792339325E-1   7.508997619152069E-2   2.026682496070862E-1  
 2.678000000000000E7     7.588162273168564E-2   2.004666924476624E-1   9.093610644340515E-1  -3.336826860904694E-1   9.084504842758179E-1  -3.331456184387207E-1   7.462500035762787E-2   1.994938701391220E-1  
 2.680000000000000E7     7.599803805351257E-2   1.975859403610230E-1   9.086592793464661E-1  -3.367449939250946E-1   9.079713821411133E-1  -3.361268043518066E-1   7.452760636806488E-2   1.971127390861511E-1  
 2.682000000000000E7     7.566144317388535E-2   1.941406726837158E-1   9.083813428878784E-1  -3.398016095161438E-1   9.071423411369324E-1  -3.391474485397339E-1   7.330882549285889E-2   1.952843666076660E-1  
 2.684000000000000E7     7.532013952732086E-2   1.913563907146454E-1   9.079388976097107E-1  -3.432356417179108E-1   9.068212509155273E-1  -3.420614898204804E-1   7.334337383508682E-2   1.922023892402649E-1  
 2.686000000000000E7     7.494504004716873E-2   1.883870959281921E-1   9.073396325111389E-1  -3.458825945854187E-1   9.064403176307678E-1  -3.454279005527496E-1   7.384415715932846E-2   1.886703670024872E-1  
 2.688000000000000E7     7.502356171607971E-2   1.858703643083572E-1   9.065983891487122E-1  -3.490390479564667E-1   9.059454202651978E-1  -3.485619127750397E-1   7.230908423662186E-2   1.864220798015595E-1  
 2.690000000000000E7     7.429115474224091E-2   1.832388341426849E-1   9.057456254959106E-1  -3.520759642124176E-1   9.050981402397156E-1  -3.518333435058594E-1   7.244259119033814E-2   1.841330528259277E-1  
 2.692000000000000E7     7.331304252147675E-2   1.805814802646637E-1   9.051294326782227E-1  -3.554773330688477E-1   9.047130942344666E-1  -3.550154864788055E-1   7.219193130731583E-2   1.800484955310822E-1  
 2.694000000000000E7     7.300297915935516E-2   1.775743663311005E-1   9.047313928604126E-1  -3.585839569568634E-1   9.037617444992065E-1  -3.579879403114319E-1   7.173368334770203E-2   1.782220900058746E-1  
 2.696000000000000E7     7.262703031301498E-2   1.751515567302704E-1   9.037518501281738E-1  -3.616370856761932E-1   9.033084511756897E-1  -3.613386452198029E-1   7.089227437973023E-2   1.756077110767365E-1  
 2.698000000000000E7     7.188535481691361E-2   1.718956530094147E-1   9.032042026519775E-1  -3.646929860115051E-1   9.025457501411438E-1  -3.641226291656494E-1   7.118184864521027E-2   1.731941401958466E-1  
 2.700000000000000E7     7.252296060323715E-2   1.704164743423462E-1   9.022492766380310E-1  -3.676543235778809E-1   9.016484618186951E-1  -3.672800064086914E-1   7.037732005119324E-2   1.703235507011414E-1  
 2.702000000000000E7     7.189568877220154E-2   1.668400466442108E-1   9.017596840858460E-1  -3.708140254020691E-1   9.011546373367310E-1  -3.706477284431458E-1   6.889459490776062E-2   1.669919192790985E-1  
 2.704000000000000E7     7.055958360433579E-2   1.643538177013397E-1   9.013386964797974E-1  -3.741664886474609E-1   9.002661108970642E-1  -3.736410439014435E-1   6.889080256223679E-2   1.644303500652313E-1  
 2.706000000000000E7     6.990538537502289E-2   1.615546345710754E-1   9.005747437477112E-1  -3.775001764297485E-1   8.999026417732239E-1  -3.768904805183411E-1   6.864108890295029E-2   1.608983874320984E-1  
 2.708000000000000E7     6.905006617307663E-2   1.589284986257553E-1   8.993537425994873E-1  -3.804508149623871E-1   8.989920616149902E-1  -3.802324831485748E-1   6.796746701002121E-2   1.587359160184860E-1  
 2.710000000000000E7     6.846634298563004E-2   1.558413207530975E-1   8.986949920654297E-1  -3.835045993328095E-1   8.979948759078980E-1  -3.829524815082550E-1   6.755141913890839E-2   1.563711315393448E-1  
 2.712000000000000E7     6.807282567024231E-2   1.527759730815888E-1   8.983461856842041E-1  -3.867685496807098E-1   8.973771333694458E-1  -3.863113224506378E-1   6.639505922794342E-2   1.535081267356873E-1  
 2.714000000000000E7     6.881223618984222E-2   1.502816379070282E-1   8.973013758659363E-1  -3.894502818584442E-1   8.964383602142334E-1  -3.891052305698395E-1   6.625479459762573E-2   1.507912725210190E-1  
 2.716000000000000E7     6.715249270200729E-2   1.477642655372620E-1   8.964307904243469E-1  -3.926892578601837E-1   8.955855369567871E-1  -3.921290934085846E-1   6.526552140712738E-2   1.476851105690002E-1  
 2.718000000000000E7     6.653979420661926E-2   1.442513465881348E-1   8.953576087951660E-1  -3.956240117549896E-1   8.948234319686890E-1  -3.957741856575012E-1   6.481751054525375E-2   1.449298262596130E-1  
 2.720000000000000E7     6.561763584613800E-2   1.417821943759918E-1   8.943950533866882E-1  -3.990926444530487E-1   8.939923644065857E-1  -3.984849154949188E-1   6.423786282539368E-2   1.425803303718567E-1  
 2.722000000000000E7     6.543299555778503E-2   1.393956840038300E-1   8.936050534248352E-1  -4.020915329456329E-1   8.931808471679688E-1  -4.014443159103394E-1   6.402882933616638E-2   1.388216912746429E-1  
 2.724000000000000E7     6.434251368045807E-2   1.358755230903626E-1   8.925469517707825E-1  -4.051910936832428E-1   8.922089934349060E-1  -4.048724472522736E-1   6.241965293884277E-2   1.371493488550186E-1  
 2.726000000000000E7     6.321277469396591E-2   1.336529999971390E-1   8.918680548667908E-1  -4.087870419025421E-1   8.907937407493591E-1  -4.074027538299561E-1   6.182408332824707E-2   1.344774365425110E-1  
 2.728000000000000E7     6.237982958555222E-2   1.311753839254379E-1   8.906335234642029E-1  -4.115583002567291E-1   8.901607394218445E-1  -4.110496342182159E-1   6.147729605436325E-2   1.313516944646835E-1  
 2.730000000000000E7     6.245352327823639E-2   1.280531287193298E-1   8.898668885231018E-1  -4.147052466869354E-1   8.891840577125549E-1  -4.141111671924591E-1   6.044745072722435E-2   1.283622533082962E-1  
 2.732000000000000E7     6.177034601569176E-2   1.258964240550995E-1   8.884456157684326E-1  -4.178744852542877E-1   8.881912827491760E-1  -4.172959327697754E-1   5.866811424493790E-2   1.263348311185837E-1  
 2.734000000000000E7     6.093065440654755E-2   1.235280781984329E-1   8.879912495613098E-1  -4.208042621612549E-1   8.867298364639282E-1  -4.200502932071686E-1   5.897488445043564E-2   1.233662590384483E-1  
 2.736000000000000E7     5.999832600355148E-2   1.200216189026833E-1   8.863068222999573E-1  -4.239177405834198E-1   8.858859539031982E-1  -4.235234558582306E-1   5.869333446025848E-2   1.213153898715973E-1  
 2.738000000000000E7     5.842712894082069E-2   1.170923039317131E-1   8.853904604911804E-1  -4.269249737262726E-1   8.848891258239746E-1  -4.267345368862152E-1   5.731276422739029E-2   1.181561425328255E-1  
 2.740000000000000E7     5.772826820611954E-2   1.137041896581650E-1   8.846028447151184E-1  -4.302811622619629E-1   8.838965296745300E-1  -4.296330511569977E-1   5.632049217820168E-2   1.151609048247337E-1  
 2.742000000000000E7     5.747677385807037E-2   1.121117174625397E-1   8.832685351371765E-1  -4.330837428569794E-1   8.825505375862122E-1  -4.328841865062714E-1   5.505292117595673E-2   1.130824387073517E-1  
 2.744000000000000E7     5.588568001985550E-2   1.088364720344544E-1   8.824782371520996E-1  -4.365237951278687E-1   8.814716935157776E-1  -4.358533620834351E-1   5.471977591514587E-2   1.102135851979256E-1  
 2.746000000000000E7     5.488693714141846E-2   1.066401153802872E-1   8.808820247650147E-1  -4.392666816711426E-1   8.804638385772705E-1  -4.388594627380371E-1   5.401554703712463E-2   1.077937632799149E-1  
 2.748000000000000E7     5.367201194167137E-2   1.040012538433075E-1   8.798018097877502E-1  -4.426629841327667E-1   8.791133761405945E-1  -4.419945776462555E-1   5.203387886285782E-2   1.043632924556732E-1  
 2.750000000000000E7     5.263400077819824E-2   1.011369377374649E-1   8.787977695465088E-1  -4.458286464214325E-1   8.779452443122864E-1  -4.454098343849182E-1   5.104286968708038E-2   1.020718440413475E-1  
 2.752000000000000E7     5.246312171220779E-2   9.791458398103714E-2   8.775371909141541E-1  -4.486312568187714E-1   8.768328428268433E-1  -4.484895765781403E-1   4.994726926088333E-2   9.878843277692795E-2  
 2.754000000000000E7     5.141415446996689E-2   9.561617672443390E-2   8.759329915046692E-1  -4.517486393451691E-1   8.756121397018433E-1  -4.513137340545654E-1   4.977660253643990E-2   9.664531052112579E-2  
 2.756000000000000E7     5.058443546295166E-2   9.318760037422180E-2   8.748552799224854E-1  -4.549023211002350E-1   8.745183348655701E-1  -4.543378353118897E-1   4.883619397878647E-2   9.374921768903732E-2  
 2.758000000000000E7     4.941293969750404E-2   9.030123054981232E-2   8.736503720283508E-1  -4.581434428691864E-1   8.732396364212036E-1  -4.573847949504852E-1   4.733626544475555E-2   9.259655326604843E-2  
 2.760000000000000E7     4.792599752545357E-2   8.782161027193070E-2   8.727134466171265E-1  -4.612428545951843E-1   8.715755939483643E-1  -4.602458775043488E-1   4.668286442756653E-2   8.867260813713074E-2  
 2.762000000000000E7     4.739696905016899E-2   8.497966825962067E-2   8.712545633316040E-1  -4.637165367603302E-1   8.704563379287720E-1  -4.636095762252808E-1   4.667566716670990E-2   8.609295636415482E-2  
 2.764000000000000E7     4.573073983192444E-2   8.234941959381104E-2   8.699973225593567E-1  -4.671078622341156E-1   8.693515062332153E-1  -4.665838479995728E-1   4.453755915164948E-2   8.322521299123764E-2  
 2.766000000000000E7     4.484518989920616E-2   7.921881228685379E-2   8.683332800865173E-1  -4.702448546886444E-1   8.681862354278565E-1  -4.694814085960388E-1   4.327234998345375E-2   8.091507852077484E-2  
 2.768000000000000E7     4.358356446027756E-2   7.784925401210785E-2   8.669493794441223E-1  -4.730131626129150E-1   8.667631745338440E-1  -4.726501405239105E-1   4.193392768502235E-2   7.760207355022430E-2  
 2.770000000000000E7     4.243469983339310E-2   7.392634451389313E-2   8.658295273780823E-1  -4.758239090442658E-1   8.651804924011231E-1  -4.758579432964325E-1   4.164062067866325E-2   7.590182870626450E-2  
 2.772000000000000E7     4.131088033318520E-2   7.172684371471405E-2   8.642225861549377E-1  -4.788713455200195E-1   8.638795614242554E-1  -4.788056612014771E-1   4.027167707681656E-2   7.267303764820099E-2  
 2.774000000000000E7     4.048828408122063E-2   6.960816681385040E-2   8.631830811500549E-1  -4.822173416614533E-1   8.621093630790710E-1  -4.814317524433136E-1   3.833908215165138E-2   6.929022073745728E-2  
 2.776000000000000E7     3.912333026528359E-2   6.589881330728531E-2   8.615108132362366E-1  -4.852086901664734E-1   8.608140945434570E-1  -4.844608604907990E-1   3.689976409077644E-2   6.716462969779968E-2  
 2.778000000000000E7     3.777373954653740E-2   6.344882398843765E-2   8.601411581039429E-1  -4.882481396198273E-1   8.595732450485230E-1  -4.876541793346405E-1   3.598804771900177E-2   6.394341588020325E-2  
 2.780000000000000E7     3.564528748393059E-2   6.101285666227341E-2   8.588159680366516E-1  -4.912976026535034E-1   8.578507900238037E-1  -4.908313155174255E-1   3.497169911861420E-2   6.234722957015038E-2  
 2.782000000000000E7     3.558003902435303E-2   5.803839489817619E-2   8.572574853897095E-1  -4.942246079444885E-1   8.563745617866516E-1  -4.936537146568298E-1   3.428113460540772E-2   5.919045954942703E-2  
 2.784000000000000E7     3.335820883512497E-2   5.570096522569656E-2   8.559852838516235E-1  -4.972178339958191E-1   8.548938632011414E-1  -4.966509640216827E-1   3.308932110667229E-2   5.620678514242172E-2  
 2.786000000000000E7     3.214351832866669E-2   5.246064439415932E-2   8.542320132255554E-1  -5.001916289329529E-1   8.530997037887573E-1  -4.998447299003601E-1   3.122201561927795E-2   5.458981543779373E-2  
 2.788000000000000E7     3.124345839023590E-2   5.011833086609840E-2   8.526433706283569E-1  -5.032087564468384E-1   8.521447777748108E-1  -5.027840733528137E-1   3.022886067628861E-2   5.185391008853912E-2  
 2.790000000000000E7     2.947688102722168E-2   4.775357618927956E-2   8.510934710502625E-1  -5.061517357826233E-1   8.505061864852905E-1  -5.054286122322083E-1   2.904470264911652E-2   4.836932569742203E-2  
 2.792000000000000E7     2.796398848295212E-2   4.483552649617195E-2   8.493166565895081E-1  -5.091928839683533E-1   8.491467833518982E-1  -5.088577866554260E-1   2.701932936906815E-2   4.619104787707329E-2  
 2.794000000000000E7     2.651816606521606E-2   4.287440329790115E-2   8.476678133010864E-1  -5.122472047805786E-1   8.473432660102844E-1  -5.114029049873352E-1   2.602969110012054E-2   4.427847266197205E-2  
 2.796000000000000E7     2.627421170473099E-2   3.990194201469421E-2   8.465145826339722E-1  -5.154255032539368E-1   8.453466892242432E-1  -5.142989158630371E-1   2.403225749731064E-2   4.143974184989929E-2  
 2.798000000000000E7     2.451722323894501E-2   3.747558593750000E-2   8.445628285408020E-1  -5.182242393493652E-1   8.441896438598633E-1  -5.173065662384033E-1   2.253416925668716E-2   3.844302892684937E-2  
 2.800000000000000E7     2.254284918308258E-2   3.472606092691422E-2   8.428267836570740E-1  -5.209878087043762E-1   8.423043489456177E-1  -5.202656388282776E-1   2.200064808130264E-2   3.725748881697655E-2  
 2.802000000000000E7     2.123680710792542E-2   3.204415366053581E-2   8.410239219665527E-1  -5.236836671829224E-1   8.405944108963013E-1  -5.229826569557190E-1   1.994983851909638E-2   3.319615125656128E-2  
 2.804000000000000E7     2.003254741430283E-2   2.957726269960403E-2   8.395669460296631E-1  -5.267775654792786E-1   8.390836715698242E-1  -5.262657999992371E-1   1.872267574071884E-2   3.153441101312637E-2  
 2.806000000000000E7     1.909453421831131E-2   2.778672799468041E-2   8.378910422325134E-1  -5.296224355697632E-1   8.369808197021484E-1  -5.292319059371948E-1   1.701956987380981E-2   2.885158360004425E-2  
 2.808000000000000E7     1.705685257911682E-2   2.549785375595093E-2   8.360112309455872E-1  -5.326153039932251E-1   8.353812694549561E-1  -5.319268703460693E-1   1.559516787528992E-2   2.691509202122688E-2  
 2.810000000000000E7     1.538261026144028E-2   2.208110317587853E-2   8.345077037811279E-1  -5.354794859886169E-1   8.337117433547974E-1  -5.349802374839783E-1   1.405867189168930E-2   2.347066625952721E-2  
 2.812000000000000E7     1.441057026386261E-2   1.934762671589851E-2   8.322579860687256E-1  -5.382044315338135E-1   8.325543403625488E-1  -5.378754734992981E-1   1.296199113130570E-2   2.130640670657158E-2  
 2.814000000000000E7     1.236857473850250E-2   1.709259673953056E-2   8.308106064796448E-1  -5.410572290420532E-1   8.303582668304443E-1  -5.403857231140137E-1   1.078964769840241E-2   1.856295764446259E-2  
 2.816000000000000E7     1.121380925178528E-2   1.487521454691887E-2   8.289903402328491E-1  -5.440832972526550E-1   8.284207582473755E-1  -5.433443188667297E-1   1.006871461868286E-2   1.595224812626839E-2  
 2.818000000000000E7     8.523233234882355E-3   1.182135194540024E-2   8.269928097724915E-1  -5.469289422035217E-1   8.267699480056763E-1  -5.462905764579773E-1   8.644618093967438E-3   1.365661621093750E-2  
 2.820000000000000E7     7.573746144771576E-3   8.956875652074814E-3   8.253988623619080E-1  -5.501230955123901E-1   8.245785832405090E-1  -5.488750934600830E-1   5.898036062717438E-3   1.192435622215271E-2  
 2.822000000000000E7     5.810543894767761E-3   6.984643638134003E-3   8.235129117965698E-1  -5.527192354202271E-1   8.225482702255249E-1  -5.521977543830872E-1   4.430912435054779E-3   9.272083640098572E-3  
 2.824000000000000E7     4.381984472274780E-3   4.435826092958450E-3   8.211745023727417E-1  -5.553909540176392E-1   8.212463855743408E-1  -5.549021363258362E-1   3.588162362575531E-3   7.163144648075104E-3  
 2.826000000000000E7     2.610355615615845E-3   2.573657780885696E-3   8.197134137153626E-1  -5.578755736351013E-1   8.188166022300720E-1  -5.575674772262573E-1   1.576498150825501E-3   4.769042134284973E-3  
 2.828000000000000E7     2.370402216911316E-4  -5.593448877334595E-4   8.175592422485352E-1  -5.609421133995056E-1   8.172490596771240E-1  -5.606650710105896E-1  -3.384873270988464E-4   1.382652670145035E-3  
 2.830000000000000E7    -6.519630551338196E-4  -2.421189099550247E-3   8.156140446662903E-1  -5.637490153312683E-1   8.152143955230713E-1  -5.633375644683838E-1  -1.748241484165192E-3  -8.090138435363770E-4  
 2.832000000000000E7    -2.193227410316467E-3  -5.307275801897049E-3   8.136935830116272E-1  -5.664432048797607E-1   8.135586977005005E-1  -5.660715103149414E-1  -3.595866262912750E-3  -3.662701696157455E-3  
 2.834000000000000E7    -4.508189857006073E-3  -7.625631988048554E-3   8.115677833557129E-1  -5.694048404693604E-1   8.117451667785645E-1  -5.689710974693298E-1  -5.573123693466187E-3  -5.261406302452087E-3  
 2.836000000000000E7    -5.430631339550018E-3  -8.777793496847153E-3   8.097343444824219E-1  -5.721481442451477E-1   8.095609545707703E-1  -5.716870427131653E-1  -7.648229598999023E-3  -8.929014205932617E-3  
 2.838000000000000E7    -8.241400122642517E-3  -1.235187426209450E-2   8.076272010803223E-1  -5.748543739318848E-1   8.072010874748230E-1  -5.743327736854553E-1  -9.600974619388580E-3  -1.023003086447716E-2  
 2.840000000000000E7    -9.543128311634064E-3  -1.471681892871857E-2   8.055873513221741E-1  -5.777387619018555E-1   8.055689930915833E-1  -5.771065950393677E-1  -1.092311739921570E-2  -1.252085343003273E-2  
 2.842000000000000E7    -1.200640201568604E-2  -1.622546836733818E-2   8.038685321807861E-1  -5.801540017127991E-1   8.031123876571655E-1  -5.798526406288147E-1  -1.294626295566559E-2  -1.548931747674942E-2  
 2.844000000000000E7    -1.375268399715424E-2  -1.927842199802399E-2   8.017973303794861E-1  -5.829009413719177E-1   8.011180758476257E-1  -5.825045704841614E-1  -1.355043053627014E-2  -1.693290844559670E-2  
 2.846000000000000E7    -1.501611620187759E-2  -2.122244983911514E-2   7.999200820922852E-1  -5.858708620071411E-1   7.989978194236755E-1  -5.853679180145264E-1  -1.596423983573914E-2  -2.018588781356812E-2  
 2.848000000000000E7    -1.771458983421326E-2  -2.394638955593109E-2   7.977106571197510E-1  -5.886359214782715E-1   7.968543767929077E-1  -5.881257653236389E-1  -1.799169182777405E-2  -2.232938259840012E-2  
 2.850000000000000E7    -1.928365975618362E-2  -2.697863429784775E-2   7.953841686248779E-1  -5.914257168769836E-1   7.949328422546387E-1  -5.905839800834656E-1  -2.012544870376587E-2  -2.415091171860695E-2  
 2.852000000000000E7    -2.114178240299225E-2  -2.815693244338036E-2   7.935011982917786E-1  -5.937736034393311E-1   7.928290367126465E-1  -5.934984683990479E-1  -2.155080437660217E-2  -2.707740291953087E-2  
 2.854000000000000E7    -2.265522629022598E-2  -3.063419461250305E-2   7.911694049835205E-1  -5.964249968528748E-1   7.906894683837891E-1  -5.957970023155212E-1  -2.371980249881744E-2  -2.893144637346268E-2  
 2.856000000000000E7    -2.467799186706543E-2  -3.272845223546028E-2   7.889621257781982E-1  -5.989580750465393E-1   7.887538671493530E-1  -5.988731384277344E-1  -2.549020946025848E-2  -3.065757825970650E-2  
 2.858000000000000E7    -2.691841125488281E-2  -3.598941862583160E-2   7.870091199874878E-1  -6.015866994857788E-1   7.863720655441284E-1  -6.014481782913208E-1  -2.674439549446106E-2  -3.351538255810738E-2  
 2.860000000000000E7    -2.927055954933167E-2  -3.749195858836174E-2   7.846310138702393E-1  -6.042539477348328E-1   7.842351198196411E-1  -6.042072772979736E-1  -2.889719605445862E-2  -3.558434918522835E-2  
 2.862000000000000E7    -3.042692691087723E-2  -3.956122696399689E-2   7.826856374740601E-1  -6.069424748420715E-1   7.817174792289734E-1  -6.065281629562378E-1  -3.103345632553101E-2  -3.858321160078049E-2  
 2.864000000000000E7    -3.276607394218445E-2  -4.263011738657951E-2   7.801872491836548E-1  -6.098580956459045E-1   7.799592614173889E-1  -6.090513467788696E-1  -3.304049372673035E-2  -4.058371111750603E-2  
 2.866000000000000E7    -3.515684604644775E-2  -4.390670359134674E-2   7.778010368347168E-1  -6.120080947875977E-1   7.775617241859436E-1  -6.118042469024658E-1  -3.479003906250000E-2  -4.153935238718987E-2  
 2.868000000000000E7    -3.643703460693359E-2  -4.688995704054833E-2   7.757151126861572E-1  -6.148333549499512E-1   7.755023837089539E-1  -6.141788959503174E-1  -3.736725449562073E-2  -4.442292451858521E-2  
 2.870000000000000E7    -3.842603415250778E-2  -4.853172227740288E-2   7.732576131820679E-1  -6.173291802406311E-1   7.733000516891480E-1  -6.167724132537842E-1  -3.958737850189209E-2  -4.635187983512878E-2  
 2.872000000000000E7    -4.031209647655487E-2  -5.070256441831589E-2   7.712527513504028E-1  -6.200320720672607E-1   7.708856463432312E-1  -6.193288564682007E-1  -4.183883965015411E-2  -4.877888783812523E-2  
 2.874000000000000E7    -4.311360418796539E-2  -5.270771682262421E-2   7.689006328582764E-1  -6.225011348724365E-1   7.682901024818420E-1  -6.218894720077515E-1  -4.309488832950592E-2  -5.096623674035072E-2  
 2.876000000000000E7    -4.469677805900574E-2  -5.545567721128464E-2   7.664326429367065E-1  -6.248975396156311E-1   7.661235332489014E-1  -6.247460842132568E-1  -4.522269219160080E-2  -5.319463461637497E-2  
 2.878000000000000E7    -4.711760580539703E-2  -5.685230717062950E-2   7.642961144447327E-1  -6.276267170906067E-1   7.635642886161804E-1  -6.268615126609802E-1  -4.853488504886627E-2  -5.549921467900276E-2  
 2.880000000000000E7    -4.890600591897965E-2  -5.949226021766663E-2   7.616429924964905E-1  -6.297368407249451E-1   7.612106204032898E-1  -6.295459270477295E-1  -4.972217977046967E-2  -5.741390585899353E-2  
 2.882000000000000E7    -5.111748725175858E-2  -6.208431720733643E-2   7.591308951377869E-1  -6.322544813156128E-1   7.590973377227783E-1  -6.317588686943054E-1  -5.205403268337250E-2  -5.921202525496483E-2  
 2.884000000000000E7    -5.378487706184387E-2  -6.427901983261108E-2   7.569414973258972E-1  -6.349865794181824E-1   7.568088769912720E-1  -6.343404054641724E-1  -5.409522354602814E-2  -6.167516857385635E-2  
 2.886000000000000E7    -5.540925264358521E-2  -6.553146988153458E-2   7.546843886375427E-1  -6.373670101165772E-1   7.544511556625366E-1  -6.366990208625794E-1  -5.593261122703552E-2  -6.372553110122681E-2  
 2.888000000000000E7    -5.769267678260803E-2  -6.823281198740006E-2   7.524319291114807E-1  -6.399196982383728E-1   7.517814636230469E-1  -6.391330957412720E-1  -5.784146487712860E-2  -6.583449244499207E-2  
 2.890000000000000E7    -6.051161140203476E-2  -6.974031776189804E-2   7.495194077491760E-1  -6.418144702911377E-1   7.494890093803406E-1  -6.415721774101257E-1  -6.030048429965973E-2  -6.788453459739685E-2  
 2.892000000000000E7    -6.263705343008041E-2  -7.165575027465820E-2   7.476098537445068E-1  -6.442933678627014E-1   7.467988133430481E-1  -6.439827084541321E-1  -6.311454623937607E-2  -6.969236582517624E-2  
 2.894000000000000E7    -6.474255025386810E-2  -7.428479194641113E-2   7.448320984840393E-1  -6.472996473312378E-1   7.444138526916504E-1  -6.461375355720520E-1  -6.485910713672638E-2  -7.160718739032745E-2  
 2.896000000000000E7    -6.683111190795898E-2  -7.598502188920975E-2   7.424609661102295E-1  -6.494116783142090E-1   7.421785593032837E-1  -6.487500071525574E-1  -6.713189184665680E-2  -7.330710440874100E-2  
 2.898000000000000E7    -6.859260797500610E-2  -7.809850573539734E-2   7.397348284721375E-1  -6.519145965576172E-1   7.397119402885437E-1  -6.512457728385925E-1  -6.964841485023499E-2  -7.556132227182388E-2  
 2.900000000000000E7    -7.083301246166229E-2  -8.024522662162781E-2   7.374408245086670E-1  -6.537411212921143E-1   7.372049093246460E-1  -6.535286903381348E-1  -7.142958790063858E-2  -7.764605432748795E-2  
 2.902000000000000E7    -7.322730123996735E-2  -8.230371773242950E-2   7.349665164947510E-1  -6.566416025161743E-1   7.344053983688355E-1  -6.557018756866455E-1  -7.411264628171921E-2  -7.958874851465225E-2  
 2.904000000000000E7    -7.525436580181122E-2  -8.289697766304016E-2   7.325413823127747E-1  -6.585608720779419E-1   7.319342494010925E-1  -6.582171320915222E-1  -7.652040570974350E-2  -8.214852213859558E-2  
 2.906000000000000E7    -7.791429758071899E-2  -8.637791872024536E-2   7.300723791122437E-1  -6.608386635780335E-1   7.293868660926819E-1  -6.603394150733948E-1  -7.905784249305725E-2  -8.353747427463532E-2  
 2.908000000000000E7    -8.049798011779785E-2  -8.767770975828171E-2   7.275067567825317E-1  -6.633760333061218E-1   7.268184423446655E-1  -6.624799370765686E-1  -8.091389387845993E-2  -8.529476821422577E-2  
 2.910000000000000E7    -8.290727436542511E-2  -8.949353545904160E-2   7.248821854591370E-1  -6.655438542366028E-1   7.242691516876221E-1  -6.648427844047546E-1  -8.253836631774902E-2  -8.689995855093002E-2  
 2.912000000000000E7    -8.545184135437012E-2  -9.145823121070862E-2   7.223801612854004E-1  -6.676263809204102E-1   7.215676307678223E-1  -6.674614548683167E-1  -8.520575612783432E-2  -8.887810260057449E-2  
 2.914000000000000E7    -8.702684938907623E-2  -9.293618798255920E-2   7.197620272636414E-1  -6.699134111404419E-1   7.191526889801025E-1  -6.694313883781433E-1  -8.828663825988770E-2  -9.095919132232666E-2  
 2.916000000000000E7    -8.965592086315155E-2  -9.530847519636154E-2   7.168911099433899E-1  -6.722567677497864E-1   7.165552973747253E-1  -6.712649464607239E-1  -9.102827310562134E-2  -9.210042655467987E-2  
 2.918000000000000E7    -9.142369031906128E-2  -9.632250666618347E-2   7.142017483711243E-1  -6.743477582931519E-1   7.141512036323547E-1  -6.738578081130981E-1  -9.294271469116211E-2  -9.456812590360642E-2  
 2.920000000000000E7    -9.430094063282013E-2  -9.961634129285812E-2   7.118724584579468E-1  -6.767474412918091E-1   7.113718986511231E-1  -6.760399937629700E-1  -9.481188654899597E-2  -9.634776413440704E-2  
 2.922000000000000E7    -9.737107157707214E-2  -1.009165570139885E-1   7.090858221054077E-1  -6.784987449645996E-1   7.088705897331238E-1  -6.784235239028931E-1  -9.776730835437775E-2  -9.842379391193390E-2  
 2.924000000000000E7    -9.942349791526794E-2  -1.025227010250092E-1   7.063783407211304E-1  -6.807380318641663E-1   7.061192989349365E-1  -6.803982853889465E-1  -9.974531084299088E-2  -1.005707383155823E-1  
 2.926000000000000E7    -1.025782153010368E-1  -1.037254780530930E-1   7.038993239402771E-1  -6.829999089241028E-1   7.033202648162842E-1  -6.822599172592163E-1  -1.019763052463532E-1  -1.014551520347595E-1  
 2.928000000000000E7    -1.046534776687622E-1  -1.058067381381989E-1   7.011349797248840E-1  -6.850469112396240E-1   7.006395459175110E-1  -6.843394041061401E-1  -1.047884151339531E-1  -1.034845560789108E-1  
 2.930000000000000E7    -1.064581125974655E-1  -1.077125743031502E-1   6.982758641242981E-1  -6.875430941581726E-1   6.982402801513672E-1  -6.865141391754150E-1  -1.064613312482834E-1  -1.047455966472626E-1  
 2.932000000000000E7    -1.089475452899933E-1  -1.087734252214432E-1   6.958222389221191E-1  -6.893701553344727E-1   6.952993273735046E-1  -6.887210607528687E-1  -1.094885021448135E-1  -1.069992184638977E-1  
 2.934000000000000E7    -1.117490977048874E-1  -1.111793071031570E-1   6.930465102195740E-1  -6.911678910255432E-1   6.926686763763428E-1  -6.908146739006043E-1  -1.111620962619782E-1  -1.085767596960068E-1  
 2.936000000000000E7    -1.152181029319763E-1  -1.136458069086075E-1   6.900020837783814E-1  -6.934338808059692E-1   6.899253129959106E-1  -6.927763819694519E-1  -1.145267188549042E-1  -1.104389205574989E-1  
 2.938000000000000E7    -1.163406074047089E-1  -1.144870072603226E-1   6.875829696655273E-1  -6.954668164253235E-1   6.871298551559448E-1  -6.948197484016419E-1  -1.176117956638336E-1  -1.118971705436707E-1  
 2.940000000000000E7    -1.196049153804779E-1  -1.159811913967133E-1   6.848549246788025E-1  -6.975284814834595E-1   6.843687295913696E-1  -6.965075731277466E-1  -1.193916052579880E-1  -1.129150465130806E-1  
 2.942000000000000E7    -1.216985136270523E-1  -1.179597750306130E-1   6.819724440574646E-1  -6.993407607078552E-1   6.817908883094788E-1  -6.991775631904602E-1  -1.222175136208534E-1  -1.153536215424538E-1  
 2.944000000000000E7    -1.248128339648247E-1  -1.197302863001823E-1   6.794247627258301E-1  -7.012621760368347E-1   6.790603399276733E-1  -7.009668946266174E-1  -1.241373866796494E-1  -1.165849640965462E-1  
 2.946000000000000E7    -1.271919906139374E-1  -1.221434921026230E-1   6.762794256210327E-1  -7.033017873764038E-1   6.763941645622253E-1  -7.027090191841126E-1  -1.266346871852875E-1  -1.181410849094391E-1  
 2.948000000000000E7    -1.289416551589966E-1  -1.226011514663696E-1   6.737207770347595E-1  -7.052267193794251E-1   6.733252406120300E-1  -7.046257257461548E-1  -1.293224543333054E-1  -1.198615580797195E-1  
 2.950000000000000E7    -1.319903582334518E-1  -1.244228556752205E-1   6.708506345748901E-1  -7.070906162261963E-1   6.705036163330078E-1  -7.066935896873474E-1  -1.324210613965988E-1  -1.214531958103180E-1  
 2.952000000000000E7    -1.343768835067749E-1  -1.259576976299286E-1   6.678159236907959E-1  -7.091179490089417E-1   6.677600145339966E-1  -7.087502479553223E-1  -1.347735971212387E-1  -1.229852214455605E-1  
 2.954000000000000E7    -1.371278911828995E-1  -1.273529231548309E-1   6.650360226631165E-1  -7.108873128890991E-1   6.649249196052551E-1  -7.106086611747742E-1  -1.377364993095398E-1  -1.243914365768433E-1  
 2.956000000000000E7    -1.398772299289703E-1  -1.290495693683624E-1   6.623927354812622E-1  -7.130671143531799E-1   6.620312929153442E-1  -7.123950123786926E-1  -1.398220062255859E-1  -1.264525949954987E-1  
 2.958000000000000E7    -1.420567631721497E-1  -1.302802413702011E-1   6.600298881530762E-1  -7.147102355957031E-1   6.589689254760742E-1  -7.145080566406250E-1  -1.416251659393311E-1  -1.272424608469009E-1  
 2.960000000000000E7    -1.454465240240097E-1  -1.316094547510147E-1   6.568234562873840E-1  -7.164720296859741E-1   6.563869118690491E-1  -7.159861326217651E-1  -1.444439589977264E-1  -1.281309723854065E-1  
 2.962000000000000E7    -1.474764347076416E-1  -1.335464417934418E-1   6.535867452621460E-1  -7.183048129081726E-1   6.535871624946594E-1  -7.177852392196655E-1  -1.476531177759171E-1  -1.304790377616882E-1  
 2.964000000000000E7    -1.506270766258240E-1  -1.342272013425827E-1   6.508094072341919E-1  -7.201028466224670E-1   6.506984233856201E-1  -7.196383476257324E-1  -1.496877074241638E-1  -1.318334043025971E-1  
 2.966000000000000E7    -1.524792462587357E-1  -1.354466825723648E-1   6.480304598808289E-1  -7.217670679092407E-1   6.473991870880127E-1  -7.214773893356323E-1  -1.526472121477127E-1  -1.339163184165955E-1  
 2.968000000000000E7    -1.559916883707047E-1  -1.373442709445953E-1   6.451874971389771E-1  -7.238079905509949E-1   6.446301937103272E-1  -7.231132388114929E-1  -1.556399017572403E-1  -1.351741701364517E-1  
 2.970000000000000E7    -1.580798625946045E-1  -1.384957432746887E-1   6.422753930091858E-1  -7.254551649093628E-1   6.418020725250244E-1  -7.254455685615540E-1  -1.573352664709091E-1  -1.358594000339508E-1  
 2.972000000000000E7    -1.606841385364533E-1  -1.402271240949631E-1   6.387456655502319E-1  -7.272467613220215E-1   6.395022869110107E-1  -7.266211509704590E-1  -1.606662124395371E-1  -1.370000392198563E-1  
 2.974000000000000E7    -1.640091538429260E-1  -1.417452692985535E-1   6.363739967346191E-1  -7.286366820335388E-1   6.358770728111267E-1  -7.279644012451172E-1  -1.637054085731506E-1  -1.383104324340820E-1  
 2.976000000000000E7    -1.660846173763275E-1  -1.425237804651260E-1   6.333270668983460E-1  -7.305552363395691E-1   6.331643462181091E-1  -7.299982309341431E-1  -1.665158122777939E-1  -1.398333162069321E-1  
 2.978000000000000E7    -1.688815802335739E-1  -1.447110027074814E-1   6.304359436035156E-1  -7.322252988815308E-1   6.303807497024536E-1  -7.315555214881897E-1  -1.689156293869019E-1  -1.409407258033752E-1  
 2.980000000000000E7    -1.718751937150955E-1  -1.454817801713944E-1   6.276268959045410E-1  -7.335329055786133E-1   6.270413398742676E-1  -7.334104776382446E-1  -1.707697063684464E-1  -1.423516720533371E-1  
 2.982000000000000E7    -1.747580468654633E-1  -1.468808650970459E-1   6.244267225265503E-1  -7.355212569236755E-1   6.242589950561523E-1  -7.349092960357666E-1  -1.744089424610138E-1  -1.434570997953415E-1  
 2.984000000000000E7    -1.772509515285492E-1  -1.480605006217957E-1   6.216620802879334E-1  -7.370935082435608E-1   6.211721897125244E-1  -7.366068363189697E-1  -1.765655130147934E-1  -1.450118720531464E-1  
 2.986000000000000E7    -1.793890446424484E-1  -1.489687412977219E-1   6.188217401504517E-1  -7.384127974510193E-1   6.184037923812866E-1  -7.382956147193909E-1  -1.798300147056580E-1  -1.461998522281647E-1  
 2.988000000000000E7    -1.823015958070755E-1  -1.504601538181305E-1   6.158298850059509E-1  -7.402577996253967E-1   6.151229143142700E-1  -7.396793365478516E-1  -1.825509220361710E-1  -1.476227045059204E-1  
 2.990000000000000E7    -1.859037280082703E-1  -1.518831104040146E-1   6.125755310058594E-1  -7.419433593750000E-1   6.127052307128906E-1  -7.412980198860169E-1  -1.842489093542099E-1  -1.479718387126923E-1  
 2.992000000000000E7    -1.883021742105484E-1  -1.527412831783295E-1   6.099096536636353E-1  -7.432819008827210E-1   6.092312932014465E-1  -7.427508234977722E-1  -1.880589425563812E-1  -1.496492028236389E-1  
 2.994000000000000E7    -1.904023289680481E-1  -1.542684584856033E-1   6.063727736473084E-1  -7.451415657997131E-1   6.063534021377564E-1  -7.442159056663513E-1  -1.905631721019745E-1  -1.507722437381744E-1  
 2.996000000000000E7    -1.940660178661346E-1  -1.548654586076737E-1   6.038035750389099E-1  -7.459854483604431E-1   6.033786535263062E-1  -7.457394003868103E-1  -1.929867863655090E-1  -1.523419022560120E-1  
 2.998000000000000E7    -1.962386071681976E-1  -1.558425426483154E-1   6.007100939750671E-1  -7.480123639106751E-1   6.003941893577576E-1  -7.469867467880249E-1  -1.959290206432343E-1  -1.533373296260834E-1  
 3.000000000000000E7    -1.991604268550873E-1  -1.577171534299851E-1   5.973272323608398E-1  -7.490709424018860E-1   5.978214740753174E-1  -7.491147518157959E-1  -1.985748410224915E-1  -1.537104696035385E-1  
 3.002000000000000E7    -2.018622457981110E-1  -1.584919095039368E-1   5.946384072303772E-1  -7.509629130363464E-1   5.944365859031677E-1  -7.501481175422669E-1  -2.015196084976196E-1  -1.548499464988709E-1  
 3.004000000000000E7    -2.044057995080948E-1  -1.596856415271759E-1   5.914306640625000E-1  -7.522053122520447E-1   5.914433598518372E-1  -7.515300512313843E-1  -2.039305567741394E-1  -1.563969254493713E-1  
 3.006000000000000E7    -2.083431780338287E-1  -1.610584408044815E-1   5.883607268333435E-1  -7.531279921531677E-1   5.881701111793518E-1  -7.531796693801880E-1  -2.063749581575394E-1  -1.574087142944336E-1  
 3.008000000000000E7    -2.102027833461762E-1  -1.615972220897675E-1   5.855559706687927E-1  -7.551006674766541E-1   5.852503180503845E-1  -7.546400427818298E-1  -2.091733217239380E-1  -1.592124998569489E-1  
 3.010000000000000E7    -2.135802507400513E-1  -1.620188802480698E-1   5.827189683914185E-1  -7.563777565956116E-1   5.820003151893616E-1  -7.559303641319275E-1  -2.119289785623550E-1  -1.603826731443405E-1  
 3.012000000000000E7    -2.157469689846039E-1  -1.630432009696960E-1   5.794100761413574E-1  -7.575645446777344E-1   5.791792869567871E-1  -7.570277452468872E-1  -2.153635025024414E-1  -1.607201099395752E-1  
 3.014000000000000E7    -2.187964767217636E-1  -1.647227108478546E-1   5.765573382377625E-1  -7.589554786682129E-1   5.757232308387756E-1  -7.585127949714661E-1  -2.185156047344208E-1  -1.619995534420013E-1  
 3.016000000000000E7    -2.209525257349014E-1  -1.658750921487808E-1   5.731305480003357E-1  -7.604531049728394E-1   5.731538534164429E-1  -7.594406604766846E-1  -2.213420271873474E-1  -1.619475781917572E-1  
 3.018000000000000E7    -2.243183255195618E-1  -1.663075536489487E-1   5.702417492866516E-1  -7.616708278656006E-1   5.701986551284790E-1  -7.608827948570252E-1  -2.240870594978333E-1  -1.627435386180878E-1  
 3.020000000000000E7    -2.270559370517731E-1  -1.675556004047394E-1   5.670512914657593E-1  -7.628225684165955E-1   5.667045712471008E-1  -7.622986435890198E-1  -2.267139256000519E-1  -1.644733250141144E-1  
 3.022000000000000E7    -2.299050986766815E-1  -1.682466268539429E-1   5.641342401504517E-1  -7.640227675437927E-1   5.638169050216675E-1  -7.635181546211243E-1  -2.289220690727234E-1  -1.652339696884155E-1  
 3.024000000000000E7    -2.329729646444321E-1  -1.685202121734619E-1   5.609821677207947E-1  -7.653666138648987E-1   5.604727864265442E-1  -7.647086381912231E-1  -2.318129688501358E-1  -1.661033630371094E-1  
 3.026000000000000E7    -2.357117533683777E-1  -1.701909154653549E-1   5.577933788299561E-1  -7.664200067520142E-1   5.574969053268433E-1  -7.658810615539551E-1  -2.353596389293671E-1  -1.669277101755142E-1  
 3.028000000000000E7    -2.381677776575089E-1  -1.707504540681839E-1   5.549164414405823E-1  -7.677027583122253E-1   5.545636415481567E-1  -7.673481702804565E-1  -2.376836240291596E-1  -1.671277284622192E-1  
 3.030000000000000E7    -2.418374866247177E-1  -1.714638471603394E-1   5.517007708549500E-1  -7.685475945472717E-1   5.514618158340454E-1  -7.681366801261902E-1  -2.409941554069519E-1  -1.682819128036499E-1  
 3.032000000000000E7    -2.448212653398514E-1  -1.728576421737671E-1   5.481228828430176E-1  -7.698023915290833E-1   5.485295653343201E-1  -7.693588137626648E-1  -2.438749969005585E-1  -1.686723232269287E-1  
 3.034000000000000E7    -2.467866092920303E-1  -1.736892014741898E-1   5.451983809471130E-1  -7.713700532913208E-1   5.453587770462036E-1  -7.706100940704346E-1  -2.462328076362610E-1  -1.701127886772156E-1  
 3.036000000000000E7    -2.502810955047607E-1  -1.738905608654022E-1   5.425420403480530E-1  -7.718009352684021E-1   5.418500900268555E-1  -7.715801596641541E-1  -2.492893785238266E-1  -1.709542274475098E-1  
 3.038000000000000E7    -2.529726624488831E-1  -1.743802726268768E-1   5.389806628227234E-1  -7.733699083328247E-1   5.390367507934570E-1  -7.726477384567261E-1  -2.524766325950623E-1  -1.710578054189682E-1  
 3.040000000000000E7    -2.562694251537323E-1  -1.761363297700882E-1   5.359602570533752E-1  -7.741860151290894E-1   5.359508395195007E-1  -7.738352417945862E-1  -2.548701763153076E-1  -1.714702248573303E-1  
 3.042000000000000E7    -2.593361735343933E-1  -1.756254732608795E-1   5.330346822738648E-1  -7.749920487403870E-1   5.326538085937500E-1  -7.747529745101929E-1  -2.578687965869904E-1  -1.726459264755249E-1  
 3.044000000000000E7    -2.619606852531433E-1  -1.756635606288910E-1   5.302215218544006E-1  -7.763566374778748E-1   5.296324491500855E-1  -7.757862210273743E-1  -2.600835561752319E-1  -1.736420392990112E-1  
 3.046000000000000E7    -2.645627558231354E-1  -1.768829524517059E-1   5.265313982963562E-1  -7.773582339286804E-1   5.265921950340271E-1  -7.770544290542603E-1  -2.637602984905243E-1  -1.739663779735565E-1  
 3.048000000000000E7    -2.671084403991699E-1  -1.781225204467773E-1   5.234856009483337E-1  -7.788226008415222E-1   5.234888792037964E-1  -7.778199315071106E-1  -2.661600708961487E-1  -1.751342713832855E-1  
 3.050000000000000E7    -2.701926827430725E-1  -1.781122982501984E-1   5.206878185272217E-1  -7.797200083732605E-1   5.200528502464294E-1  -7.787078619003296E-1  -2.689519524574280E-1  -1.757562458515167E-1  
 3.052000000000000E7    -2.733086049556732E-1  -1.788969486951828E-1   5.173762440681458E-1  -7.803859710693359E-1   5.169768929481506E-1  -7.798791527748108E-1  -2.719090580940247E-1  -1.756422221660614E-1  
 3.054000000000000E7    -2.769042849540710E-1  -1.797164380550385E-1   5.142701864242554E-1  -7.808070182800293E-1   5.138652324676514E-1  -7.806727290153503E-1  -2.746982574462891E-1  -1.765193939208984E-1  
 3.056000000000000E7    -2.788930237293243E-1  -1.800268441438675E-1   5.112856030464172E-1  -7.821453809738159E-1   5.107700228691101E-1  -7.813565135002136E-1  -2.779337465763092E-1  -1.770193874835968E-1  
 3.058000000000000E7    -2.818967998027802E-1  -1.804881393909454E-1   5.081566572189331E-1  -7.829196453094482E-1   5.078619122505188E-1  -7.832153439521790E-1  -2.794780731201172E-1  -1.777040660381317E-1  
 3.060000000000000E7    -2.846316397190094E-1  -1.812233328819275E-1   5.049155950546265E-1  -7.839949131011963E-1   5.047830939292908E-1  -7.833119630813599E-1  -2.833850383758545E-1  -1.777029931545258E-1  
 3.062000000000000E7    -2.878258824348450E-1  -1.813382208347321E-1   5.018410682678223E-1  -7.846992015838623E-1   5.013168454170227E-1  -7.842635512351990E-1  -2.866556048393250E-1  -1.792919188737869E-1  
 3.064000000000000E7    -2.909004390239716E-1  -1.816956400871277E-1   4.985339939594269E-1  -7.852103114128113E-1   4.984317421913147E-1  -7.847275733947754E-1  -2.896677851676941E-1  -1.783724874258041E-1  
 3.066000000000000E7    -2.935222983360291E-1  -1.827896833419800E-1   4.956167936325073E-1  -7.864390015602112E-1   4.949584603309631E-1  -7.857090234756470E-1  -2.923013269901276E-1  -1.792737990617752E-1  
 3.068000000000000E7    -2.961959540843964E-1  -1.828926205635071E-1   4.924026727676392E-1  -7.874056696891785E-1   4.921177029609680E-1  -7.866442799568176E-1  -2.949971556663513E-1  -1.800154149532318E-1  
 3.070000000000000E7    -2.987980842590332E-1  -1.834391355514526E-1   4.891895055770874E-1  -7.879050970077515E-1   4.888180494308472E-1  -7.878028154373169E-1  -2.979284822940826E-1  -1.804936230182648E-1  
 3.072000000000000E7    -3.018350601196289E-1  -1.842965781688690E-1   4.860152602195740E-1  -7.888031601905823E-1   4.857848882675171E-1  -7.886714339256287E-1  -3.002951443195343E-1  -1.808123588562012E-1  
 3.074000000000000E7    -3.051289916038513E-1  -1.839391887187958E-1   4.828652143478394E-1  -7.894773483276367E-1   4.823818206787109E-1  -7.892129421234131E-1  -3.036715388298035E-1  -1.813905835151672E-1  
 3.076000000000000E7    -3.076359629631043E-1  -1.846029311418533E-1   4.795791506767273E-1  -7.901188731193543E-1   4.799963831901550E-1  -7.896339893341065E-1  -3.067489564418793E-1  -1.810013502836227E-1  
 3.078000000000000E7    -3.103922307491303E-1  -1.849070340394974E-1   4.764373302459717E-1  -7.913085818290710E-1   4.766210317611694E-1  -7.903910875320435E-1  -3.091202676296234E-1  -1.815045475959778E-1  
 3.080000000000000E7    -3.135791122913361E-1  -1.851840466260910E-1   4.733150005340576E-1  -7.914276719093323E-1   4.731414020061493E-1  -7.909185886383057E-1  -3.129492402076721E-1  -1.822618544101715E-1  
 3.082000000000000E7    -3.165267705917358E-1  -1.861988604068756E-1   4.700642824172974E-1  -7.920348644256592E-1   4.704217314720154E-1  -7.914351224899292E-1  -3.154619932174683E-1  -1.817107945680618E-1  
 3.084000000000000E7    -3.189973235130310E-1  -1.862173974514008E-1   4.671210944652557E-1  -7.931489944458008E-1   4.666942358016968E-1  -7.921137809753418E-1  -3.183361887931824E-1  -1.828832626342773E-1  
 3.086000000000000E7    -3.223733901977539E-1  -1.859031915664673E-1   4.641014933586121E-1  -7.937924861907959E-1   4.638853073120117E-1  -7.931339740753174E-1  -3.203268945217133E-1  -1.826402842998505E-1  
 3.088000000000000E7    -3.247939944267273E-1  -1.863995194435120E-1   4.605955183506012E-1  -7.940143346786499E-1   4.609022438526154E-1  -7.931996583938599E-1  -3.240377604961395E-1  -1.828792393207550E-1  
 3.090000000000000E7    -3.275890350341797E-1  -1.860970258712769E-1   4.579711258411408E-1  -7.948391437530518E-1   4.574810564517975E-1  -7.939376831054688E-1  -3.269780874252319E-1  -1.834916472434998E-1  
 3.092000000000000E7    -3.316193222999573E-1  -1.866825073957443E-1   4.547354280948639E-1  -7.950158715248108E-1   4.541235268115997E-1  -7.947844862937927E-1  -3.291413784027100E-1  -1.835823357105255E-1  
 3.094000000000000E7    -3.334007561206818E-1  -1.866023540496826E-1   4.514428675174713E-1  -7.959597706794739E-1   4.511220753192902E-1  -7.951827645301819E-1  -3.325828015804291E-1  -1.837243735790253E-1  
 3.096000000000000E7    -3.367809355258942E-1  -1.872511506080627E-1   4.483410418033600E-1  -7.964722514152527E-1   4.477912485599518E-1  -7.959610223770142E-1  -3.346894383430481E-1  -1.838662326335907E-1  
 3.098000000000000E7    -3.393989503383637E-1  -1.875920295715332E-1   4.448812901973724E-1  -7.966187000274658E-1   4.449236989021301E-1  -7.964313626289368E-1  -3.381812274456024E-1  -1.843458712100983E-1  
 3.100000000000000E7    -3.426314890384674E-1  -1.875222921371460E-1   4.421840310096741E-1  -7.973495125770569E-1   4.419910013675690E-1  -7.968942523002625E-1  -3.406691551208496E-1  -1.839129328727722E-1  
 3.102000000000000E7    -3.463733196258545E-1  -1.879375576972961E-1   4.388535022735596E-1  -7.975441217422485E-1   4.384695589542389E-1  -7.971271276473999E-1  -3.437870740890503E-1  -1.843960136175156E-1  
 3.104000000000000E7    -3.485238850116730E-1  -1.865426301956177E-1   4.359730482101440E-1  -7.983316183090210E-1   4.352930784225464E-1  -7.974386215209961E-1  -3.471365869045258E-1  -1.849172711372376E-1  
 3.106000000000000E7    -3.517205715179443E-1  -1.883140206336975E-1   4.325663149356842E-1  -7.985284328460693E-1   4.322876036167145E-1  -7.981509566307068E-1  -3.495250940322876E-1  -1.847600042819977E-1  
 3.108000000000000E7    -3.543424308300018E-1  -1.876993179321289E-1   4.294528365135193E-1  -7.990391850471497E-1   4.293979406356812E-1  -7.986764907836914E-1  -3.524666726589203E-1  -1.849004924297333E-1  
 3.110000000000000E7    -3.567202985286713E-1  -1.877851486206055E-1   4.265248477458954E-1  -7.996439933776856E-1   4.263966083526611E-1  -7.991614937782288E-1  -3.552420735359192E-1  -1.845827400684357E-1  
 3.112000000000000E7    -3.594892621040344E-1  -1.877608895301819E-1   4.230585992336273E-1  -7.998372912406921E-1   4.232932925224304E-1  -7.994143962860107E-1  -3.582761883735657E-1  -1.846892982721329E-1  
 3.114000000000000E7    -3.626450598239899E-1  -1.880373954772949E-1   4.202476739883423E-1  -8.001885414123535E-1   4.198013246059418E-1  -7.996694445610046E-1  -3.610883653163910E-1  -1.845925152301788E-1  
 3.116000000000000E7    -3.651966750621796E-1  -1.879400759935379E-1   4.170779585838318E-1  -8.005223274230957E-1   4.169031679630280E-1  -8.000130653381348E-1  -3.640330433845520E-1  -1.847384870052338E-1  
 3.118000000000000E7    -3.685366809368134E-1  -1.877363026142120E-1   4.140384793281555E-1  -8.008724451065064E-1   4.136230349540710E-1  -8.005853295326233E-1  -3.663919568061829E-1  -1.844728738069534E-1  
 3.120000000000000E7    -3.717466294765472E-1  -1.879304349422455E-1   4.107182919979096E-1  -8.007227778434753E-1   4.102700352668762E-1  -8.004856705665588E-1  -3.696501255035400E-1  -1.847506761550903E-1  
 3.122000000000000E7    -3.737565279006958E-1  -1.875085532665253E-1   4.076181650161743E-1  -8.014284372329712E-1   4.074199795722961E-1  -8.011429905891419E-1  -3.719885051250458E-1  -1.842858791351318E-1  
 3.124000000000000E7    -3.770789206027985E-1  -1.878311634063721E-1   4.045192003250122E-1  -8.018306493759155E-1   4.039033353328705E-1  -8.010261058807373E-1  -3.750368654727936E-1  -1.845758259296417E-1  
 3.126000000000000E7    -3.794812560081482E-1  -1.875426173210144E-1   4.013952016830444E-1  -8.022257089614868E-1   4.012688100337982E-1  -8.015064597129822E-1  -3.782888352870941E-1  -1.843356937170029E-1  
 3.128000000000000E7    -3.828325569629669E-1  -1.872608810663223E-1   3.983133435249329E-1  -8.020930886268616E-1   3.977987170219421E-1  -8.015788793563843E-1  -3.810145258903503E-1  -1.849391311407089E-1  
 3.130000000000000E7    -3.856138586997986E-1  -1.873918175697327E-1   3.951795995235443E-1  -8.022627234458923E-1   3.949370980262756E-1  -8.016165494918823E-1  -3.838718831539154E-1  -1.843625605106354E-1  
 3.132000000000000E7    -3.886897265911102E-1  -1.867402791976929E-1   3.923110961914063E-1  -8.026984930038452E-1   3.919815123081207E-1  -8.018337488174439E-1  -3.863486051559448E-1  -1.839638352394104E-1  
 3.134000000000000E7    -3.906062245368958E-1  -1.871469318866730E-1   3.891782164573669E-1  -8.031417131423950E-1   3.887174129486084E-1  -8.024563789367676E-1  -3.891302645206451E-1  -1.839897930622101E-1  
 3.136000000000000E7    -3.940467834472656E-1  -1.868821680545807E-1   3.859784305095673E-1  -8.031919002532959E-1   3.854950666427612E-1  -8.018265366554260E-1  -3.925103545188904E-1  -1.838140636682510E-1  
 3.138000000000000E7    -3.974096775054932E-1  -1.869406253099442E-1   3.827950954437256E-1  -8.032339811325073E-1   3.822205066680908E-1  -8.029410839080811E-1  -3.942220807075501E-1  -1.836619675159454E-1  
 3.140000000000000E7    -3.995960056781769E-1  -1.859856545925140E-1   3.801542818546295E-1  -8.035422563552856E-1   3.793478608131409E-1  -8.025723695755005E-1  -3.975803256034851E-1  -1.837453544139862E-1  
 3.142000000000000E7    -4.025791287422180E-1  -1.855930238962174E-1   3.771350979804993E-1  -8.030625581741333E-1   3.766320049762726E-1  -8.030303120613098E-1  -4.001618921756744E-1  -1.829633116722107E-1  
 3.144000000000000E7    -4.051107466220856E-1  -1.857768595218658E-1   3.736141920089722E-1  -8.035370111465454E-1   3.736277520656586E-1  -8.030557632446289E-1  -4.033336639404297E-1  -1.821877658367157E-1  
 3.146000000000000E7    -4.081777632236481E-1  -1.861604750156403E-1   3.703680634498596E-1  -8.034835457801819E-1   3.706378638744354E-1  -8.033398389816284E-1  -4.055356383323669E-1  -1.820980012416840E-1  
 3.148000000000000E7    -4.116087257862091E-1  -1.849522590637207E-1   3.676927089691162E-1  -8.032816648483276E-1   3.672911822795868E-1  -8.031570315361023E-1  -4.086449742317200E-1  -1.821472346782684E-1  
 3.150000000000000E7    -4.139631390571594E-1  -1.848089993000031E-1   3.642222285270691E-1  -8.035429120063782E-1   3.642801344394684E-1  -8.031911849975586E-1  -4.117342829704285E-1  -1.815012395381928E-1  
 3.152000000000000E7    -4.163317382335663E-1  -1.840974539518356E-1   3.617681264877319E-1  -8.033741116523743E-1   3.614114522933960E-1  -8.032984137535095E-1  -4.146820306777954E-1  -1.814059466123581E-1  
 3.154000000000000E7    -4.189437329769135E-1  -1.848313510417938E-1   3.582752645015717E-1  -8.034650683403015E-1   3.585230112075806E-1  -8.031405210494995E-1  -4.173680543899536E-1  -1.806143820285797E-1  
 3.156000000000000E7    -4.220102727413178E-1  -1.833879649639130E-1   3.555014431476593E-1  -8.036503791809082E-1   3.552939593791962E-1  -8.033402562141419E-1  -4.198290407657623E-1  -1.804562211036682E-1  
 3.158000000000000E7    -4.251893460750580E-1  -1.834979951381683E-1   3.522541522979736E-1  -8.034707903862000E-1   3.518611192703247E-1  -8.029608130455017E-1  -4.227516353130341E-1  -1.806686669588089E-1  
 3.160000000000000E7    -4.273227453231812E-1  -1.836195290088654E-1   3.491790592670441E-1  -8.036435842514038E-1   3.493855595588684E-1  -8.032907247543335E-1  -4.254030883312225E-1  -1.798142194747925E-1  
 3.162000000000000E7    -4.308529496192932E-1  -1.828370392322540E-1   3.463432788848877E-1  -8.032333254814148E-1   3.457137942314148E-1  -8.031884431838989E-1  -4.284039139747620E-1  -1.797968745231628E-1  
 3.164000000000000E7    -4.336302578449249E-1  -1.820196956396103E-1   3.432047665119171E-1  -8.028477430343628E-1   3.430497348308563E-1  -8.034274578094482E-1  -4.299258887767792E-1  -1.791735589504242E-1  
 3.166000000000000E7    -4.362343847751617E-1  -1.817467808723450E-1   3.399284780025482E-1  -8.032783269882202E-1   3.400078415870667E-1  -8.027180433273315E-1  -4.336871802806854E-1  -1.788642108440399E-1  
 3.168000000000000E7    -4.385459721088409E-1  -1.817474365234375E-1   3.372060060501099E-1  -8.032122850418091E-1   3.369589447975159E-1  -8.030545115470886E-1  -4.362618029117584E-1  -1.778650581836700E-1  
 3.170000000000000E7    -4.416614174842835E-1  -1.807886958122253E-1   3.342840969562531E-1  -8.028968572616577E-1   3.338733613491058E-1  -8.027040362358093E-1  -4.384850859642029E-1  -1.778812706470490E-1  
 3.172000000000000E7    -4.440785944461823E-1  -1.802482903003693E-1   3.308608531951904E-1  -8.030875921249390E-1   3.308862149715424E-1  -8.026796579360962E-1  -4.415014684200287E-1  -1.774477064609528E-1  
 3.174000000000000E7    -4.467000961303711E-1  -1.798180639743805E-1   3.283942937850952E-1  -8.030711412429810E-1   3.282056748867035E-1  -8.020151853561401E-1  -4.449250400066376E-1  -1.766395568847656E-1  
 3.176000000000000E7    -4.494057893753052E-1  -1.797163486480713E-1   3.250829875469208E-1  -8.026319742202759E-1   3.249538540840149E-1  -8.020280599594116E-1  -4.475533962249756E-1  -1.766246557235718E-1  
 3.178000000000000E7    -4.522646367549896E-1  -1.787914335727692E-1   3.222494721412659E-1  -8.024128675460815E-1   3.222107589244843E-1  -8.019699454307556E-1  -4.497650265693665E-1  -1.756387352943420E-1  
 3.180000000000000E7    -4.546116888523102E-1  -1.781787872314453E-1   3.192317485809326E-1  -8.024528026580811E-1   3.193157911300659E-1  -8.017673492431641E-1  -4.526694715023041E-1  -1.746619939804077E-1  
 3.182000000000000E7    -4.578882157802582E-1  -1.780022531747818E-1   3.160454034805298E-1  -8.019132614135742E-1   3.159384429454804E-1  -8.018382787704468E-1  -4.548778533935547E-1  -1.743663251399994E-1  
 3.184000000000000E7    -4.606148600578308E-1  -1.766652017831802E-1   3.136447668075562E-1  -8.014138936996460E-1   3.132641613483429E-1  -8.017737865447998E-1  -4.575609266757965E-1  -1.738770008087158E-1  
 3.186000000000000E7    -4.629118144512177E-1  -1.771004050970078E-1   3.103854656219482E-1  -8.014630675315857E-1   3.105248808860779E-1  -8.012546896934509E-1  -4.608666002750397E-1  -1.729850769042969E-1  
 3.188000000000000E7    -4.661514163017273E-1  -1.754238456487656E-1   3.078322112560272E-1  -8.008368611335754E-1   3.072041869163513E-1  -8.007884025573731E-1  -4.632215797901154E-1  -1.726802289485931E-1  
 3.190000000000000E7    -4.682658910751343E-1  -1.755214333534241E-1   3.045600652694702E-1  -8.010783791542053E-1   3.045670390129089E-1  -8.004536628723145E-1  -4.654047787189484E-1  -1.718013137578964E-1  
 3.192000000000000E7    -4.713301062583923E-1  -1.747314333915710E-1   3.015667796134949E-1  -8.004960417747498E-1   3.014712929725647E-1  -7.999051809310913E-1  -4.687555432319641E-1  -1.717591881752014E-1  
 3.194000000000000E7    -4.739907383918762E-1  -1.744250357151032E-1   2.986135482788086E-1  -8.002318739891052E-1   2.979914247989655E-1  -8.002439737319946E-1  -4.707377254962921E-1  -1.711043864488602E-1  
 3.196000000000000E7    -4.762195050716400E-1  -1.736196428537369E-1   2.955847084522247E-1  -8.001227974891663E-1   2.960303127765656E-1  -7.997034788131714E-1  -4.737539589405060E-1  -1.695960164070129E-1  
 3.198000000000000E7    -4.791437089443207E-1  -1.724571585655212E-1   2.929486632347107E-1  -7.995623350143433E-1   2.930581569671631E-1  -7.994148731231690E-1  -4.762158989906311E-1  -1.686372458934784E-1  
 3.200000000000000E7    -4.817084968090057E-1  -1.719827055931091E-1   2.899979948997498E-1  -7.990995049476624E-1   2.896797657012940E-1  -7.985634803771973E-1  -4.790616035461426E-1  -1.684348732233048E-1  
 3.202000000000000E7    -4.840375185012817E-1  -1.710057854652405E-1   2.869842946529388E-1  -7.992395162582398E-1   2.872279584407806E-1  -7.984651923179627E-1  -4.814374446868897E-1  -1.674237251281738E-1  
 3.204000000000000E7    -4.872015714645386E-1  -1.701819598674774E-1   2.845093905925751E-1  -7.982330918312073E-1   2.844265699386597E-1  -7.981928586959839E-1  -4.839779734611511E-1  -1.669489741325378E-1  
 3.206000000000000E7    -4.897749423980713E-1  -1.696919500827789E-1   2.814920842647553E-1  -7.979120016098023E-1   2.814894020557404E-1  -7.979283928871155E-1  -4.864747524261475E-1  -1.660494953393936E-1  
 3.208000000000000E7    -4.922958016395569E-1  -1.688805669546127E-1   2.786493897438049E-1  -7.975499033927918E-1   2.789975404739380E-1  -7.975542545318604E-1  -4.887593388557434E-1  -1.653578281402588E-1  
 3.210000000000000E7    -4.947981834411621E-1  -1.683033108711243E-1   2.756456136703491E-1  -7.969759702682495E-1   2.755534648895264E-1  -7.969129681587219E-1  -4.918293952941895E-1  -1.647851467132568E-1  
 3.212000000000000E7    -4.970687329769135E-1  -1.671977937221527E-1   2.726408243179321E-1  -7.965800166130066E-1   2.726244628429413E-1  -7.965133190155029E-1  -4.944819509983063E-1  -1.644438654184341E-1  
 3.214000000000000E7    -4.994348287582398E-1  -1.670551300048828E-1   2.696705758571625E-1  -7.965889573097229E-1   2.695432603359222E-1  -7.957372665405273E-1  -4.976313114166260E-1  -1.641252487897873E-1  
 3.216000000000000E7    -5.025418400764465E-1  -1.658523827791214E-1   2.668788135051727E-1  -7.956159114837647E-1   2.672267854213715E-1  -7.956330180168152E-1  -4.993136227130890E-1  -1.624515652656555E-1  
 3.218000000000000E7    -5.045056343078613E-1  -1.646811068058014E-1   2.642745375633240E-1  -7.955959439277649E-1   2.644002437591553E-1  -7.954720258712769E-1  -5.015751719474793E-1  -1.619309186935425E-1  
 3.220000000000000E7    -5.066372156143189E-1  -1.639419496059418E-1   2.614006400108337E-1  -7.951631546020508E-1   2.614217102527618E-1  -7.945359945297241E-1  -5.049182772636414E-1  -1.610188931226730E-1  
 3.222000000000000E7    -5.098176002502441E-1  -1.633986830711365E-1   2.583865821361542E-1  -7.944526672363281E-1   2.582647502422333E-1  -7.943878173828125E-1  -5.068886876106262E-1  -1.604353040456772E-1  
 3.224000000000000E7    -5.125153660774231E-1  -1.620533466339111E-1   2.559336125850678E-1  -7.939565181732178E-1   2.559009194374085E-1  -7.937318086624146E-1  -5.096229910850525E-1  -1.589381694793701E-1  
 3.226000000000000E7    -5.156453847885132E-1  -1.612439751625061E-1   2.534845173358917E-1  -7.928455471992493E-1   2.525062561035156E-1  -7.929140329360962E-1  -5.122856497764587E-1  -1.581345498561859E-1  
 3.228000000000000E7    -5.178146362304688E-1  -1.602835357189179E-1   2.503659427165985E-1  -7.925021052360535E-1   2.504102587699890E-1  -7.925695776939392E-1  -5.145418643951416E-1  -1.572391688823700E-1  
 3.230000000000000E7    -5.199542641639710E-1  -1.589128226041794E-1   2.480052858591080E-1  -7.920289039611816E-1   2.477084398269653E-1  -7.916389107704163E-1  -5.174213647842407E-1  -1.562477052211762E-1  
 3.232000000000000E7    -5.227133035659790E-1  -1.583867669105530E-1   2.451414912939072E-1  -7.913698554039002E-1   2.451218515634537E-1  -7.916251420974731E-1  -5.192245841026306E-1  -1.548745632171631E-1  
 3.234000000000000E7    -5.253968834877014E-1  -1.579245328903198E-1   2.417364716529846E-1  -7.909069657325745E-1   2.415466904640198E-1  -7.904424071311951E-1  -5.224924683570862E-1  -1.552299708127976E-1  
 3.236000000000000E7    -5.279272198677063E-1  -1.568048745393753E-1   2.392872422933579E-1  -7.901453375816345E-1   2.392544746398926E-1  -7.898353338241577E-1  -5.247240066528320E-1  -1.533676385879517E-1  
 3.238000000000000E7    -5.301188826560974E-1  -1.556258201599121E-1   2.365644127130508E-1  -7.895964980125427E-1   2.361088693141937E-1  -7.891256213188171E-1  -5.272573232650757E-1  -1.529658734798431E-1  
 3.240000000000000E7    -5.325251817703247E-1  -1.547981798648834E-1   2.339873909950256E-1  -7.892581820487976E-1   2.340216338634491E-1  -7.887333631515503E-1  -5.294785499572754E-1  -1.518836915493012E-1  
 3.242000000000000E7    -5.352448821067810E-1  -1.539791822433472E-1   2.312678396701813E-1  -7.882508039474487E-1   2.308285981416702E-1  -7.882436513900757E-1  -5.319938659667969E-1  -1.505505740642548E-1  
 3.244000000000000E7    -5.375045537948608E-1  -1.526675224304199E-1   2.285705804824829E-1  -7.875298261642456E-1   2.283645421266556E-1  -7.874227166175842E-1  -5.347937941551209E-1  -1.493043899536133E-1  
 3.246000000000000E7    -5.404646396636963E-1  -1.522072255611420E-1   2.254934608936310E-1  -7.868094444274902E-1   2.257883995771408E-1  -7.864985466003418E-1  -5.372011661529541E-1  -1.482370793819428E-1  
 3.248000000000000E7    -5.422258377075195E-1  -1.503803133964539E-1   2.228030115365982E-1  -7.864204645156860E-1   2.230473458766937E-1  -7.861533164978027E-1  -5.394617915153503E-1  -1.476466357707977E-1  
 3.250000000000000E7    -5.451029539108276E-1  -1.498013734817505E-1   2.199865728616715E-1  -7.852546572685242E-1   2.199250757694244E-1  -7.853769063949585E-1  -5.419672727584839E-1  -1.467673778533936E-1  
 3.252000000000000E7    -5.470653772354126E-1  -1.489913463592529E-1   2.176388502120972E-1  -7.850715517997742E-1   2.176113724708557E-1  -7.845957875251770E-1  -5.438092947006226E-1  -1.454359889030457E-1  
 3.254000000000000E7    -5.495898127555847E-1  -1.473560631275177E-1   2.149685174226761E-1  -7.844347357749939E-1   2.147002518177033E-1  -7.842987775802612E-1  -5.462921857833862E-1  -1.446816623210907E-1  
 3.256000000000000E7    -5.521621108055115E-1  -1.463738977909088E-1   2.124504745006561E-1  -7.835061550140381E-1   2.121549546718597E-1  -7.833607196807861E-1  -5.487707257270813E-1  -1.434526145458221E-1  
 3.258000000000000E7    -5.542992353439331E-1  -1.452275812625885E-1   2.095483839511871E-1  -7.826561927795410E-1   2.096959352493286E-1  -7.820657491683960E-1  -5.512304902076721E-1  -1.420946419239044E-1  
 3.260000000000000E7    -5.566642880439758E-1  -1.445896774530411E-1   2.069847434759140E-1  -7.817513346672058E-1   2.072986811399460E-1  -7.818167209625244E-1  -5.539162158966065E-1  -1.408819556236267E-1  
 3.262000000000000E7    -5.587266683578491E-1  -1.436342597007752E-1   2.042562812566757E-1  -7.811377048492432E-1   2.045213431119919E-1  -7.812106013298035E-1  -5.561816096305847E-1  -1.398828029632568E-1  
 3.264000000000000E7    -5.611506104469299E-1  -1.418169438838959E-1   2.020630538463593E-1  -7.807571887969971E-1   2.019301056861877E-1  -7.801254987716675E-1  -5.582768917083740E-1  -1.389078944921494E-1  
 3.266000000000000E7    -5.636090636253357E-1  -1.412773579359055E-1   1.988443434238434E-1  -7.798293232917786E-1   1.988356858491898E-1  -7.792407870292664E-1  -5.610101222991943E-1  -1.382116824388504E-1  
 3.268000000000000E7    -5.662879347801209E-1  -1.397873610258102E-1   1.964397877454758E-1  -7.785240411758423E-1   1.963660717010498E-1  -7.786669731140137E-1  -5.629115104675293E-1  -1.368401646614075E-1  
 3.270000000000000E7    -5.686631798744202E-1  -1.387427151203156E-1   1.941010355949402E-1  -7.778196334838867E-1   1.935847252607346E-1  -7.780487537384033E-1  -5.650539994239807E-1  -1.357996165752411E-1  
 3.272000000000000E7    -5.706035494804382E-1  -1.374737173318863E-1   1.914922446012497E-1  -7.775915861129761E-1   1.909171342849731E-1  -7.771337032318115E-1  -5.674844980239868E-1  -1.349419951438904E-1  
 3.274000000000000E7    -5.730028152465820E-1  -1.361949145793915E-1   1.889708042144775E-1  -7.765446901321411E-1   1.886362284421921E-1  -7.759398818016052E-1  -5.697361826896668E-1  -1.333665549755096E-1  
 3.276000000000000E7    -5.750516653060913E-1  -1.352120935916901E-1   1.865584701299667E-1  -7.756003737449646E-1   1.865917593240738E-1  -7.755143642425537E-1  -5.718863010406494E-1  -1.314637064933777E-1  
 3.278000000000000E7    -5.777821540832520E-1  -1.337490081787109E-1   1.838270425796509E-1  -7.748289108276367E-1   1.837024986743927E-1  -7.740755677223206E-1  -5.741581916809082E-1  -1.308190375566483E-1  
 3.280000000000000E7    -5.795112848281860E-1  -1.328305304050446E-1   1.810532212257385E-1  -7.737129926681519E-1   1.810907721519470E-1  -7.734767794609070E-1  -5.764253735542297E-1  -1.294327676296234E-1  
 3.282000000000000E7    -5.824116468429565E-1  -1.313756704330444E-1   1.787582933902741E-1  -7.724455595016480E-1   1.784156560897827E-1  -7.724445462226868E-1  -5.788964033126831E-1  -1.284478008747101E-1  
 3.284000000000000E7    -5.836431980133057E-1  -1.297688633203507E-1   1.764855831861496E-1  -7.723880410194397E-1   1.763802766799927E-1  -7.719388604164124E-1  -5.810520052909851E-1  -1.269930303096771E-1  
 3.286000000000000E7    -5.863461494445801E-1  -1.288558542728424E-1   1.735231429338455E-1  -7.714829444885254E-1   1.736935526132584E-1  -7.709133028984070E-1  -5.827953219413757E-1  -1.255003064870834E-1  
 3.288000000000000E7    -5.885608792304993E-1  -1.276268810033798E-1   1.712563335895538E-1  -7.699448466300964E-1   1.710231602191925E-1  -7.698869705200195E-1  -5.851957798004150E-1  -1.249529868364334E-1  
 3.290000000000000E7    -5.907967686653137E-1  -1.268752068281174E-1   1.682554185390472E-1  -7.693988680839539E-1   1.682701557874680E-1  -7.690241932868958E-1  -5.879093408584595E-1  -1.234435066580772E-1  
 3.292000000000000E7    -5.935741662979126E-1  -1.251610666513443E-1   1.658216863870621E-1  -7.681361436843872E-1   1.661736071109772E-1  -7.680925130844116E-1  -5.900146961212158E-1  -1.217690706253052E-1  
 3.294000000000000E7    -5.961878299713135E-1  -1.239569187164307E-1   1.635147035121918E-1  -7.669007778167725E-1   1.633928865194321E-1  -7.670882940292358E-1  -5.916824340820313E-1  -1.206026077270508E-1  
 3.296000000000000E7    -5.973281860351563E-1  -1.227508634328842E-1   1.610660254955292E-1  -7.669392824172974E-1   1.610323786735535E-1  -7.662547826766968E-1  -5.944456458091736E-1  -1.193019002676010E-1  
 3.298000000000000E7    -5.998244285583496E-1  -1.208547875285149E-1   1.590146720409393E-1  -7.655000090599060E-1   1.588239073753357E-1  -7.652856707572937E-1  -5.964976549148560E-1  -1.180889904499054E-1  
 3.300000000000000E7    -6.019427180290222E-1  -1.195999532938004E-1   1.565574407577515E-1  -7.644039392471314E-1   1.564426720142365E-1  -7.639707326889038E-1  -5.989886522293091E-1  -1.170646101236343E-1  
 3.302000000000000E7    -6.042169332504273E-1  -1.189003363251686E-1   1.537720412015915E-1  -7.633904814720154E-1   1.541895270347595E-1  -7.628194689750671E-1  -6.011021137237549E-1  -1.151004508137703E-1  
 3.304000000000000E7    -6.059414148330689E-1  -1.174892187118530E-1   1.517121344804764E-1  -7.626568675041199E-1   1.512779295444489E-1  -7.625007629394531E-1  -6.025202274322510E-1  -1.143514513969421E-1  
 3.306000000000000E7    -6.083673834800720E-1  -1.159697473049164E-1   1.491189450025559E-1  -7.615053653717041E-1   1.489543765783310E-1  -7.609226703643799E-1  -6.049090027809143E-1  -1.126215383410454E-1  
 3.308000000000000E7    -6.109411716461182E-1  -1.144095435738564E-1   1.463522613048554E-1  -7.602406740188599E-1   1.464901268482208E-1  -7.599229812622070E-1  -6.073325872421265E-1  -1.117544323205948E-1  
 3.310000000000000E7    -6.130347251892090E-1  -1.130580008029938E-1   1.442385166883469E-1  -7.594082355499268E-1   1.440010666847229E-1  -7.591918110847473E-1  -6.089519858360291E-1  -1.103437393903732E-1  
 3.312000000000000E7    -6.147568821907044E-1  -1.120680719614029E-1   1.416408568620682E-1  -7.586964368820190E-1   1.416939795017242E-1  -7.580640912055969E-1  -6.111367940902710E-1  -1.089454889297485E-1  
 3.314000000000000E7    -6.169680356979370E-1  -1.104539260268211E-1   1.392704099416733E-1  -7.576239705085754E-1   1.395704299211502E-1  -7.577797174453735E-1  -6.128591299057007E-1  -1.075244247913361E-1  
 3.316000000000000E7    -6.192044019699097E-1  -1.089561730623245E-1   1.367231458425522E-1  -7.561151385307312E-1   1.368039697408676E-1  -7.560292482376099E-1  -6.155832409858704E-1  -1.060747802257538E-1  
 3.318000000000000E7    -6.213764548301697E-1  -1.079446971416473E-1   1.345888972282410E-1  -7.551600933074951E-1   1.342996656894684E-1  -7.548725605010986E-1  -6.173907518386841E-1  -1.044768020510674E-1  
 3.320000000000000E7    -6.232889890670776E-1  -1.059451475739479E-1   1.324367523193359E-1  -7.540104985237122E-1   1.323221474885941E-1  -7.538728117942810E-1  -6.193091273307800E-1  -1.033207625150681E-1  
 3.322000000000000E7    -6.254011988639832E-1  -1.047641634941101E-1   1.302450150251389E-1  -7.529577016830444E-1   1.299058049917221E-1  -7.529019117355347E-1  -6.216048002243042E-1  -1.018957793712616E-1  
 3.324000000000000E7    -6.268145442008972E-1  -1.032390668988228E-1   1.277270615100861E-1  -7.522850036621094E-1   1.275366395711899E-1  -7.519679069519043E-1  -6.233026385307312E-1  -1.006814390420914E-1  
 3.326000000000000E7    -6.296586394309998E-1  -1.021522432565689E-1   1.255594491958618E-1  -7.505826950073242E-1   1.253580152988434E-1  -7.510485053062439E-1  -6.251876950263977E-1  -9.890075027942658E-2  
 3.328000000000000E7    -6.309766173362732E-1  -1.004951596260071E-1   1.233364045619965E-1  -7.498512268066406E-1   1.230601295828819E-1  -7.499397397041321E-1  -6.275324821472168E-1  -9.773920476436615E-2  
 3.330000000000000E7    -6.331099271774292E-1  -9.908583760261536E-2   1.210570931434631E-1  -7.488471865653992E-1   1.210633814334869E-1  -7.487996220588684E-1  -6.293990015983582E-1  -9.625919908285141E-2  
 3.332000000000000E7    -6.353562474250794E-1  -9.735453128814697E-2   1.189201399683952E-1  -7.476350665092468E-1   1.180866584181786E-1  -7.474616169929504E-1  -6.315284967422485E-1  -9.483188390731812E-2  
 3.334000000000000E7    -6.374809741973877E-1  -9.650486707687378E-2   1.164257302880287E-1  -7.463339567184448E-1   1.166916862130165E-1  -7.462134957313538E-1  -6.334807872772217E-1  -9.280011057853699E-2  
 3.336000000000000E7    -6.390033960342407E-1  -9.443801641464233E-2   1.144704222679138E-1  -7.457887530326843E-1   1.141503155231476E-1  -7.452560067176819E-1  -6.352273821830750E-1  -9.164655208587647E-2  
 3.338000000000000E7    -6.417486667633057E-1  -9.303210675716400E-2   1.119352430105209E-1  -7.440885305404663E-1   1.118820384144783E-1  -7.441827058792114E-1  -6.369767189025879E-1  -9.033345431089401E-2  
 3.340000000000000E7    -6.431970000267029E-1  -9.183098375797272E-2   1.096010655164719E-1  -7.429374456405640E-1   1.097115427255631E-1  -7.427302002906799E-1  -6.394994854927063E-1  -8.876203000545502E-2  
 3.342000000000000E7    -6.448536515235901E-1  -9.013982117176056E-2   1.073189973831177E-1  -7.421812415122986E-1   1.070294082164764E-1  -7.422251701354981E-1  -6.407748460769653E-1  -8.726108819246292E-2  
 3.344000000000000E7    -6.473039388656616E-1  -8.858814835548401E-2   1.052630990743637E-1  -7.407276630401611E-1   1.050323247909546E-1  -7.407290935516357E-1  -6.431134939193726E-1  -8.575421571731567E-2  
 3.346000000000000E7    -6.492183208465576E-1  -8.762034773826599E-2   1.028640419244766E-1  -7.394336462020874E-1   1.032369583845139E-1  -7.397569417953491E-1  -6.447914838790894E-1  -8.379575610160828E-2  
 3.348000000000000E7    -6.507198810577393E-1  -8.580911159515381E-2   1.009641662240028E-1  -7.383227348327637E-1   1.006829887628555E-1  -7.382791638374329E-1  -6.467471122741699E-1  -8.295968174934387E-2  
 3.350000000000000E7    -6.526209712028503E-1  -8.431391417980194E-2   9.805933386087418E-2  -7.371841073036194E-1   9.859469532966614E-2  -7.374455332756043E-1  -6.485409140586853E-1  -8.118232339620590E-2  
 3.352000000000000E7    -6.541896462440491E-1  -8.268135040998459E-2   9.622149169445038E-2  -7.361676096916199E-1   9.615850448608398E-2  -7.355172634124756E-1  -6.510086655616760E-1  -7.996947318315506E-2  
 3.354000000000000E7    -6.572595238685608E-1  -8.121608197689056E-2   9.451356530189514E-2  -7.343011498451233E-1   9.419491887092590E-2  -7.345863580703735E-1  -6.523410677909851E-1  -7.802600413560867E-2  
 3.356000000000000E7    -6.579302549362183E-1  -7.926993072032929E-2   9.225208312273026E-2  -7.336307764053345E-1   9.220345318317413E-2  -7.331669330596924E-1  -6.547608971595764E-1  -7.651516050100327E-2  
 3.358000000000000E7    -6.601095795631409E-1  -7.792073488235474E-2   8.987531065940857E-2  -7.326340079307556E-1   9.012422710657120E-2  -7.321326732635498E-1  -6.564239263534546E-1  -7.522940635681152E-2  
 3.360000000000000E7    -6.619055271148682E-1  -7.621482014656067E-2   8.806335926055908E-2  -7.314224243164063E-1   8.775335550308228E-2  -7.312638759613037E-1  -6.576978564262390E-1  -7.351315766572952E-2  
 3.362000000000000E7    -6.635886430740356E-1  -7.482387125492096E-2   8.563598990440369E-2  -7.299894690513611E-1   8.574822545051575E-2  -7.298578023910523E-1  -6.595671772956848E-1  -7.240011543035507E-2  
 3.364000000000000E7    -6.653351783752441E-1  -7.322532683610916E-2   8.360420912504196E-2  -7.289003729820252E-1   8.345301449298859E-2  -7.287788987159729E-1  -6.616178154945374E-1  -7.093699276447296E-2  
 3.366000000000000E7    -6.674234867095947E-1  -7.173393666744232E-2   8.097998797893524E-2  -7.276893258094788E-1   8.145725727081299E-2  -7.272298336029053E-1  -6.634446978569031E-1  -6.888763606548309E-2  
 3.368000000000000E7    -6.687261462211609E-1  -6.980055570602417E-2   7.986481487751007E-2  -7.266882061958313E-1   7.975989580154419E-2  -7.258400321006775E-1  -6.655064225196838E-1  -6.736344844102860E-2  
 3.370000000000000E7    -6.711083054542542E-1  -6.847306340932846E-2   7.708328962326050E-2  -7.253151535987854E-1   7.731872797012329E-2  -7.250394821166992E-1  -6.667726635932922E-1  -6.593136489391327E-2  
 3.372000000000000E7    -6.732991933822632E-1  -6.687867641448975E-2   7.540675997734070E-2  -7.234929800033569E-1   7.551664113998413E-2  -7.229280471801758E-1  -6.693274378776550E-1  -6.405282020568848E-2  
 3.374000000000000E7    -6.746678352355957E-1  -6.545709073543549E-2   7.321970164775848E-2  -7.224176526069641E-1   7.276996970176697E-2  -7.219243049621582E-1  -6.705002188682556E-1  -6.295101344585419E-2  
 3.376000000000000E7    -6.760141253471375E-1  -6.348955631256104E-2   7.163268327713013E-2  -7.212532758712769E-1   7.137675583362579E-2  -7.214601039886475E-1  -6.721273660659790E-1  -6.093787029385567E-2  
 3.378000000000000E7    -6.780869364738464E-1  -6.266115605831146E-2   6.910964846611023E-2  -7.200676202774048E-1   6.876295059919357E-2  -7.196145653724670E-1  -6.742159724235535E-1  -5.944586917757988E-2  
 3.380000000000000E7    -6.800854802131653E-1  -6.035764142870903E-2   6.756003201007843E-2  -7.189133167266846E-1   6.712338328361511E-2  -7.183893322944641E-1  -6.754109859466553E-1  -5.789729580283165E-2  
 3.382000000000000E7    -6.816659569740295E-1  -5.874861404299736E-2   6.511180102825165E-2  -7.170739173889160E-1   6.492209434509277E-2  -7.169263362884522E-1  -6.773836016654968E-1  -5.620887875556946E-2  
 3.384000000000000E7    -6.833294630050659E-1  -5.712221562862396E-2   6.361837685108185E-2  -7.160848379135132E-1   6.277169287204742E-2  -7.156267762184143E-1  -6.793857216835022E-1  -5.464968457818031E-2  
 3.386000000000000E7    -6.846373677253723E-1  -5.565884709358215E-2   6.106636673212051E-2  -7.146950364112854E-1   6.144415214657784E-2  -7.142151594161987E-1  -6.808708906173706E-1  -5.252929404377937E-2  
 3.388000000000000E7    -6.863438487052918E-1  -5.397692695260048E-2   5.922143533825874E-2  -7.136094570159912E-1   5.932286754250526E-2  -7.134670019149780E-1  -6.820430755615234E-1  -5.096788704395294E-2  
 3.390000000000000E7    -6.883392930030823E-1  -5.198054760694504E-2   5.772234499454498E-2  -7.118092179298401E-1   5.758115276694298E-2  -7.119040489196777E-1  -6.842489242553711E-1  -4.914058372378349E-2  
 3.392000000000000E7    -6.897293925285339E-1  -5.075951665639877E-2   5.526264011859894E-2  -7.109624743461609E-1   5.539295449852943E-2  -7.104958891868591E-1  -6.857597827911377E-1  -4.779533669352531E-2  
 3.394000000000000E7    -6.917293667793274E-1  -4.890306666493416E-2   5.336321890354157E-2  -7.093874216079712E-1   5.319259315729141E-2  -7.092933654785156E-1  -6.872872710227966E-1  -4.644372686743736E-2  
 3.396000000000000E7    -6.931345462799072E-1  -4.690708965063095E-2   5.154672637581825E-2  -7.078419923782349E-1   5.133831873536110E-2  -7.076784372329712E-1  -6.891635656356812E-1  -4.458502680063248E-2  
 3.398000000000000E7    -6.948767304420471E-1  -4.569189622998238E-2   4.951026290655136E-2  -7.067987918853760E-1   4.904311895370483E-2  -7.064943313598633E-1  -6.909450888633728E-1  -4.287233576178551E-2  
 3.400000000000000E7    -6.965065002441406E-1  -4.400708153843880E-2   4.767966642975807E-2  -7.053160071372986E-1   4.782200604677200E-2  -7.053659558296204E-1  -6.919425129890442E-1  -4.113063961267471E-2  
 3.402000000000000E7    -6.984491348266602E-1  -4.241879284381867E-2   4.552051052451134E-2  -7.035630941390991E-1   4.562986269593239E-2  -7.035821080207825E-1  -6.937890648841858E-1  -3.930212929844856E-2  
 3.404000000000000E7    -6.996525526046753E-1  -4.071029648184776E-2   4.367849603295326E-2  -7.024064064025879E-1   4.355646297335625E-2  -7.024067640304565E-1  -6.949825882911682E-1  -3.783075883984566E-2  
 3.406000000000000E7    -7.011525034904480E-1  -3.912473097443581E-2   4.165097698569298E-2  -7.011833786964417E-1   4.163674265146256E-2  -7.012896537780762E-1  -6.967771649360657E-1  -3.634467348456383E-2  
 3.408000000000000E7    -7.026764750480652E-1  -3.659652918577194E-2   4.053477197885513E-2  -7.000170946121216E-1   3.971806541085243E-2  -6.995955109596252E-1  -6.988833546638489E-1  -3.478365018963814E-2  
 3.410000000000000E7    -7.041994929313660E-1  -3.499637916684151E-2   3.814418241381645E-2  -6.985108256340027E-1   3.794775530695915E-2  -6.981151103973389E-1  -7.000463604927063E-1  -3.296631202101708E-2  
 3.412000000000000E7    -7.061546444892883E-1  -3.380315378308296E-2   3.641586005687714E-2  -6.969282627105713E-1   3.618191182613373E-2  -6.972346901893616E-1  -7.011458873748779E-1  -3.092957288026810E-2  
 3.414000000000000E7    -7.075119018554688E-1  -3.171559423208237E-2   3.470452129840851E-2  -6.957195401191711E-1   3.419448435306549E-2  -6.953493356704712E-1  -7.028955221176148E-1  -2.937582135200501E-2  
 3.416000000000000E7    -7.085577249526978E-1  -3.025809302926064E-2   3.257992863655090E-2  -6.943729519844055E-1   3.169730678200722E-2  -6.940381526947022E-1  -7.049161195755005E-1  -2.780547738075256E-2  
 3.418000000000000E7    -7.106758356094360E-1  -2.876458689570427E-2   3.062120638787746E-2  -6.927768588066101E-1   3.068269789218903E-2  -6.929644942283630E-1  -7.057669758796692E-1  -2.582871168851852E-2  
 3.420000000000000E7    -7.116125226020813E-1  -2.675922587513924E-2   2.921892702579498E-2  -6.917089819908142E-1   2.876557409763336E-2  -6.915482878684998E-1  -7.078356146812439E-1  -2.449922263622284E-2  
 3.422000000000000E7    -7.133597135543823E-1  -2.499484270811081E-2   2.750686928629875E-2  -6.903170943260193E-1   2.689205296337605E-2  -6.903179883956909E-1  -7.088514566421509E-1  -2.262033149600029E-2  
 3.424000000000000E7    -7.149519920349121E-1  -2.343116328120232E-2   2.553966641426086E-2  -6.886514425277710E-1   2.534016594290733E-2  -6.888520121574402E-1  -7.103422284126282E-1  -2.067799866199493E-2  
 3.426000000000000E7    -7.164023518562317E-1  -2.202384918928146E-2   2.362054213881493E-2  -6.876420378684998E-1   2.352263592183590E-2  -6.875130534172058E-1  -7.119595408439636E-1  -1.863623410463333E-2  
 3.428000000000000E7    -7.179875969886780E-1  -1.968822628259659E-2   2.240340970456600E-2  -6.861574649810791E-1   2.173078060150147E-2  -6.862967014312744E-1  -7.129456996917725E-1  -1.748089492321014E-2  
 3.430000000000000E7    -7.199607491493225E-1  -1.805121824145317E-2   2.035555802285671E-2  -6.840899586677551E-1   2.039902098476887E-2  -6.841804385185242E-1  -7.147182226181030E-1  -1.521556451916695E-2  
 3.432000000000000E7    -7.209346890449524E-1  -1.648144796490669E-2   1.852194964885712E-2  -6.831066608428955E-1   1.877972669899464E-2  -6.829847097396851E-1  -7.163392901420593E-1  -1.371303200721741E-2  
 3.434000000000000E7    -7.221794724464417E-1  -1.483866199851036E-2   1.647272892296314E-2  -6.816006898880005E-1   1.653279922902584E-2  -6.818869709968567E-1  -7.178487181663513E-1  -1.193373091518879E-2  
 3.436000000000000E7    -7.234123945236206E-1  -1.305533573031426E-2   1.493825204670429E-2  -6.799090504646301E-1   1.451143249869347E-2  -6.801004409790039E-1  -7.193988561630249E-1  -1.073582656681538E-2  
 3.438000000000000E7    -7.250613570213318E-1  -1.102553121745586E-2   1.353984139859676E-2  -6.792560815811157E-1   1.313581503927708E-2  -6.791319847106934E-1  -7.204079627990723E-1  -8.515421301126480E-3  
 3.440000000000000E7    -7.261155843734741E-1  -9.802132844924927E-3   1.121506094932556E-2  -6.773346662521362E-1   1.169659011065960E-2  -6.767826080322266E-1  -7.223412394523621E-1  -6.566641852259636E-3  
 3.442000000000000E7    -7.278904318809509E-1  -7.560336962342262E-3   9.617682546377182E-3  -6.760593652725220E-1   9.387759491801262E-3  -6.758562326431274E-1  -7.233292460441589E-1  -5.151282995939255E-3  
 3.444000000000000E7    -7.291435599327087E-1  -5.422146990895271E-3   8.266814053058624E-3  -6.747053265571594E-1   7.962534204125404E-3  -6.742843985557556E-1  -7.246069312095642E-1  -3.536488860845566E-3  
 3.446000000000000E7    -7.305101752281189E-1  -4.151057451963425E-3   6.852075457572937E-3  -6.728416681289673E-1   6.763655692338944E-3  -6.726238727569580E-1  -7.263813614845276E-1  -1.278197392821312E-3  
 3.448000000000000E7    -7.322337627410889E-1  -2.111712470650673E-3   4.712624475359917E-3  -6.717217564582825E-1   4.742901772260666E-3  -6.714028716087341E-1  -7.274488210678101E-1   6.474742258433253E-5  
 3.450000000000000E7    -7.337312102317810E-1  -8.963383734226227E-4   2.634204924106598E-3  -6.702162027359009E-1   2.790031954646111E-3  -6.703373789787293E-1  -7.285156846046448E-1   1.745261251926422E-3  
 3.452000000000000E7    -7.349079847335815E-1   1.256892457604408E-3   1.808803528547287E-3  -6.686600446701050E-1   1.456215977668762E-3  -6.690095067024231E-1  -7.296256422996521E-1   3.776198253035545E-3  
 3.454000000000000E7    -7.362813949584961E-1   2.751342952251434E-3   2.473034328431822E-5  -6.674327850341797E-1   2.291984856128693E-4  -6.674271225929260E-1  -7.312953472137451E-1   5.695933476090431E-3  
 3.456000000000000E7    -7.374935150146484E-1   5.016865208745003E-3  -1.479588449001312E-3  -6.657416820526123E-1  -1.944858580827713E-3  -6.655265688896179E-1  -7.324842810630798E-1   7.083235308527947E-3  
 3.458000000000000E7    -7.383550405502319E-1   6.621954962611198E-3  -3.205034881830216E-3  -6.642137765884399E-1  -3.613330423831940E-3  -6.640973687171936E-1  -7.341380119323731E-1   8.916001766920090E-3  
 3.460000000000000E7    -7.400946617126465E-1   8.762214332818985E-3  -5.065958946943283E-3  -6.629368662834168E-1  -5.339967086911202E-3  -6.628884077072144E-1  -7.351298332214356E-1   1.050002500414848E-2  
 3.462000000000000E7    -7.415608763694763E-1   1.046245172619820E-2  -6.599504500627518E-3  -6.612421274185181E-1  -6.714990362524986E-3  -6.612057089805603E-1  -7.369003891944885E-1   1.233021542429924E-2  
 3.464000000000000E7    -7.427476644515991E-1   1.181776821613312E-2  -8.079523220658302E-3  -6.596871614456177E-1  -8.352007716894150E-3  -6.594375371932983E-1  -7.379474043846130E-1   1.449790410697460E-2  
 3.466000000000000E7    -7.439554929733276E-1   1.398696564137936E-2  -9.809851646423340E-3  -6.585520505905151E-1  -1.004606857895851E-2  -6.582247614860535E-1  -7.389980554580689E-1   1.582779549062252E-2  
 3.468000000000000E7    -7.448393702507019E-1   1.574350893497467E-2  -1.094734854996204E-2  -6.572251915931702E-1  -1.065772771835327E-2  -6.572606563568115E-1  -7.401979565620422E-1   1.801352761685848E-2  
 3.470000000000000E7    -7.461600303649902E-1   1.714721880853176E-2  -1.249112375080586E-2  -6.556836962699890E-1  -1.231289841234684E-2  -6.554407477378845E-1  -7.417411208152771E-1   1.987422630190849E-2  
 3.472000000000000E7    -7.477445602416992E-1   1.925647817552090E-2  -1.397435739636421E-2  -6.539289951324463E-1  -1.450494304299355E-2  -6.541256904602051E-1  -7.427905797958374E-1   2.142406068742275E-2  
 3.474000000000000E7    -7.491983771324158E-1   2.088091894984245E-2  -1.565482467412949E-2  -6.521751880645752E-1  -1.559558138251305E-2  -6.524198651313782E-1  -7.437601685523987E-1   2.367564663290978E-2  
 3.476000000000000E7    -7.497522830963135E-1   2.289295755326748E-2  -1.707073487341404E-2  -6.512539982795715E-1  -1.722751185297966E-2  -6.511977910995483E-1  -7.452049255371094E-1   2.480887807905674E-2  
 3.478000000000000E7    -7.509918808937073E-1   2.422950230538845E-2  -1.873623393476009E-2  -6.502913832664490E-1  -1.893946714699268E-2  -6.496013402938843E-1  -7.462875843048096E-1   2.692112885415554E-2  
 3.480000000000000E7    -7.522885799407959E-1   2.654188312590122E-2  -1.988807134330273E-2  -6.481516361236572E-1  -2.037203498184681E-2  -6.480589509010315E-1  -7.473718523979187E-1   2.854822762310505E-2  
 3.482000000000000E7    -7.533494234085083E-1   2.820528298616409E-2  -2.167336829006672E-2  -6.464986801147461E-1  -2.154608629643917E-2  -6.462665796279907E-1  -7.487951517105103E-1   3.065148182213306E-2  
 3.484000000000000E7    -7.546179294586182E-1   2.999076992273331E-2  -2.300906367599964E-2  -6.451323628425598E-1  -2.285500243306160E-2  -6.448365449905396E-1  -7.499248981475830E-1   3.275786712765694E-2  
 3.486000000000000E7    -7.565348148345947E-1   3.237709030508995E-2  -2.429926209151745E-2  -6.434399485588074E-1  -2.472903393208981E-2  -6.435260772705078E-1  -7.508961558341980E-1   3.426350653171539E-2  
 3.488000000000000E7    -7.569661140441895E-1   3.392855823040009E-2  -2.611429989337921E-2  -6.424599885940552E-1  -2.607502415776253E-2  -6.421511173248291E-1  -7.518456578254700E-1   3.603705018758774E-2  
 3.490000000000000E7    -7.589221000671387E-1   3.544075042009354E-2  -2.770528197288513E-2  -6.399602890014648E-1  -2.821111492812634E-2  -6.404421925544739E-1  -7.530542016029358E-1   3.757216408848763E-2  
 3.492000000000000E7    -7.595512866973877E-1   3.750279545783997E-2  -2.885566651821137E-2  -6.391955018043518E-1  -2.854533679783344E-2  -6.390569210052490E-1  -7.543474435806274E-1   3.987678140401840E-2  
 3.494000000000000E7    -7.603294849395752E-1   3.897424787282944E-2  -3.089225105941296E-2  -6.378577351570129E-1  -3.022953122854233E-2  -6.374029517173767E-1  -7.559858560562134E-1   4.155500233173370E-2  
 3.496000000000000E7    -7.614791393280029E-1   4.101893305778503E-2  -3.175538405776024E-2  -6.361738443374634E-1  -3.150150924921036E-2  -6.363496780395508E-1  -7.565110325813294E-1   4.356571286916733E-2  
 3.498000000000000E7    -7.629049420356751E-1   4.285079240798950E-2  -3.310690075159073E-2  -6.347081065177918E-1  -3.338489308953285E-2  -6.344259381294251E-1  -7.579899430274963E-1   4.498357325792313E-2  
 3.500000000000000E7    -7.638283967971802E-1   4.436296969652176E-2  -3.452762961387634E-2  -6.332259774208069E-1  -3.472926467657089E-2  -6.333571076393127E-1  -7.586809992790222E-1   4.705394431948662E-2  
 3.502000000000000E7    -7.648081183433533E-1   4.614533483982086E-2  -3.581756353378296E-2  -6.320711374282837E-1  -3.612183034420013E-2  -6.317155957221985E-1  -7.600810527801514E-1   4.884778708219528E-2  
 3.504000000000000E7    -7.658581137657166E-1   4.834699630737305E-2  -3.740449249744415E-2  -6.300680637359619E-1  -3.736533597111702E-2  -6.298323273658752E-1  -7.609596252441406E-1   5.063546448945999E-2  
 3.506000000000000E7    -7.670506238937378E-1   5.016338452696800E-2  -3.894267603754997E-2  -6.286733150482178E-1  -3.897414728999138E-2  -6.289695501327515E-1  -7.618241310119629E-1   5.214816331863403E-2  
 3.508000000000000E7    -7.687301635742188E-1   5.210870876908302E-2  -4.032290354371071E-2  -6.264640688896179E-1  -4.056026414036751E-2  -6.268322467803955E-1  -7.632782459259033E-1   5.428462848067284E-2  
 3.510000000000000E7    -7.694573998451233E-1   5.400816723704338E-2  -4.124489799141884E-2  -6.252667903900147E-1  -4.178227111697197E-2  -6.252256631851196E-1  -7.641124129295349E-1   5.624449998140335E-2  
 3.512000000000000E7    -7.700495719909668E-1   5.582726374268532E-2  -4.291612282395363E-2  -6.238660216331482E-1  -4.305763915181160E-2  -6.240541338920593E-1  -7.653133273124695E-1   5.802947655320168E-2  
 3.514000000000000E7    -7.712948322296143E-1   5.795056000351906E-2  -4.373783618211746E-2  -6.223205327987671E-1  -4.409193992614746E-2  -6.223700046539307E-1  -7.663162946701050E-1   5.966467410326004E-2  
 3.516000000000000E7    -7.725883126258850E-1   5.919883027672768E-2  -4.542706161737442E-2  -6.209656000137329E-1  -4.554537311196327E-2  -6.207241415977478E-1  -7.673265933990479E-1   6.162205338478088E-2  
 3.518000000000000E7    -7.730900645256043E-1   6.125728040933609E-2  -4.609568417072296E-2  -6.198094487190247E-1  -4.655828326940537E-2  -6.192356944084168E-1  -7.682635188102722E-1   6.358586251735687E-2  
 3.520000000000000E7    -7.744946479797363E-1   6.270244717597961E-2  -4.829828068614006E-2  -6.177407503128052E-1  -4.811071604490280E-2  -6.173218488693237E-1  -7.692251801490784E-1   6.527850031852722E-2  
 3.522000000000000E7    -7.750534415245056E-1   6.503904610872269E-2  -4.896761104464531E-2  -6.165096163749695E-1  -4.960014671087265E-2  -6.165427565574646E-1  -7.702677249908447E-1   6.721164286136627E-2  
 3.524000000000000E7    -7.762855887413025E-1   6.668620556592941E-2  -5.043695122003555E-2  -6.147582530975342E-1  -5.093039572238922E-2  -6.146185994148254E-1  -7.710534334182739E-1   6.890290975570679E-2  
 3.526000000000000E7    -7.773290276527405E-1   6.870248168706894E-2  -5.187050253152847E-2  -6.128634214401245E-1  -5.189634114503861E-2  -6.133173704147339E-1  -7.720038890838623E-1   7.068296521902084E-2  
 3.528000000000000E7    -7.780668735504150E-1   7.035254687070847E-2  -5.288572609424591E-2  -6.120805144309998E-1  -5.345609784126282E-2  -6.114669442176819E-1  -7.730036377906799E-1   7.242182642221451E-2  
 3.530000000000000E7    -7.793908715248108E-1   7.224372029304504E-2  -5.422959849238396E-2  -6.098150610923767E-1  -5.421180278062820E-2  -6.096807122230530E-1  -7.738792300224304E-1   7.475455850362778E-2  
 3.532000000000000E7    -7.800931334495544E-1   7.412129640579224E-2  -5.605943500995636E-2  -6.088825464248657E-1  -5.558322370052338E-2  -6.087720990180969E-1  -7.746329903602600E-1   7.609964907169342E-2  
 3.534000000000000E7    -7.813968658447266E-1   7.599852234125137E-2  -5.706217885017395E-2  -6.068575382232666E-1  -5.684261769056320E-2  -6.068719625473023E-1  -7.757931947708130E-1   7.844633609056473E-2  
 3.536000000000000E7    -7.817641496658325E-1   7.781095802783966E-2  -5.854220688343048E-2  -6.061965227127075E-1  -5.827581509947777E-2  -6.055222749710083E-1  -7.770587205886841E-1   7.993255555629730E-2  
 3.538000000000000E7    -7.831657528877258E-1   7.974089682102203E-2  -5.927462503314018E-2  -6.038327217102051E-1  -5.949474871158600E-2  -6.038430333137512E-1  -7.778342962265015E-1   8.181636035442352E-2  
 3.540000000000000E7    -7.836245894432068E-1   8.152472227811813E-2  -6.059144437313080E-2  -6.026422381401062E-1  -6.089437007904053E-2  -6.028968095779419E-1  -7.785309553146362E-1   8.337837457656860E-2  
 3.542000000000000E7    -7.843536138534546E-1   8.359403908252716E-2  -6.197399646043778E-2  -6.013530492782593E-1  -6.192679330706596E-2  -6.008740663528442E-1  -7.796453237533569E-1   8.558253943920136E-2  
 3.544000000000000E7    -7.853709459304810E-1   8.524291217327118E-2  -6.314903497695923E-2  -5.994535684585571E-1  -6.335919350385666E-2  -5.993853211402893E-1  -7.806611657142639E-1   8.726989477872849E-2  
 3.546000000000000E7    -7.865214943885803E-1   8.731640875339508E-2  -6.397788226604462E-2  -5.977001190185547E-1  -6.433413177728653E-2  -5.979009270668030E-1  -7.814744710922241E-1   8.910745382308960E-2  
 3.548000000000000E7    -7.875360846519470E-1   8.930612355470657E-2  -6.534320861101151E-2  -5.962523221969605E-1  -6.541278213262558E-2  -5.964888334274292E-1  -7.821176052093506E-1   9.081189334392548E-2  
 3.550000000000000E7    -7.881028056144714E-1   9.109914302825928E-2  -6.617736071348190E-2  -5.950031280517578E-1  -6.654356420040131E-2  -5.948387384414673E-1  -7.827958464622498E-1   9.259840846061707E-2  
 3.552000000000000E7    -7.892859578132629E-1   9.251285344362259E-2  -6.796327233314514E-2  -5.929950475692749E-1  -6.789419054985046E-2  -5.933808684349060E-1  -7.838522791862488E-1   9.459901601076126E-2  
 3.554000000000000E7    -7.898744940757752E-1   9.503585100173950E-2  -6.863375753164291E-2  -5.917707681655884E-1  -6.880386173725128E-2  -5.915848612785339E-1  -7.846621870994568E-1   9.645973891019821E-2  
 3.556000000000000E7    -7.904876470565796E-1   9.661329537630081E-2  -7.001753151416779E-2  -5.906290411949158E-1  -6.989800184965134E-2  -5.902534723281860E-1  -7.854744791984558E-1   9.822527319192886E-2  
 3.558000000000000E7    -7.914520502090454E-1   9.836729615926743E-2  -7.103663682937622E-2  -5.887833833694458E-1  -7.108040153980255E-2  -5.889637470245361E-1  -7.863472700119019E-1   1.000704616308212E-1  
 3.560000000000000E7    -7.925493717193604E-1   9.995236992835999E-2  -7.214090228080750E-2  -5.868473052978516E-1  -7.251649349927902E-2  -5.869771838188171E-1  -7.867841720581055E-1   1.018295288085938E-1  
 3.562000000000000E7    -7.931962013244629E-1   1.018974035978317E-1  -7.375773042440414E-2  -5.856801867485046E-1  -7.353051006793976E-2  -5.858104228973389E-1  -7.878705859184265E-1   1.038888543844223E-1  
 3.564000000000000E7    -7.938603162765503E-1   1.038272529840469E-1  -7.417267560958862E-2  -5.844450592994690E-1  -7.450792193412781E-2  -5.839535593986511E-1  -7.885715365409851E-1   1.059109941124916E-1  
 3.566000000000000E7    -7.949995398521423E-1   1.059168800711632E-1  -7.555243372917175E-2  -5.825550556182861E-1  -7.556091248989105E-2  -5.824186205863953E-1  -7.893067002296448E-1   1.078767627477646E-1  
 3.568000000000000E7    -7.953845858573914E-1   1.071681305766106E-1  -7.701563090085983E-2  -5.808661580085754E-1  -7.672403752803803E-2  -5.807629823684692E-1  -7.907597422599793E-1   1.097295507788658E-1  
 3.570000000000000E7    -7.963054180145264E-1   1.093008369207382E-1  -7.825298607349396E-2  -5.791985988616943E-1  -7.775162905454636E-2  -5.792481303215027E-1  -7.910416126251221E-1   1.111815571784973E-1  
 3.572000000000000E7    -7.970095872879028E-1   1.111981123685837E-1  -7.892146706581116E-2  -5.778059363365173E-1  -7.878793776035309E-2  -5.778496861457825E-1  -7.918919920921326E-1   1.132788807153702E-1  
 3.574000000000000E7    -7.975731492042542E-1   1.135293915867806E-1  -7.909990847110748E-2  -5.765533447265625E-1  -7.919800281524658E-2  -5.762150287628174E-1  -7.926047444343567E-1   1.149126365780830E-1  
 3.576000000000000E7    -7.984241247177124E-1   1.148112267255783E-1  -8.088292926549912E-2  -5.746938586235046E-1  -8.073227852582932E-2  -5.745171308517456E-1  -7.936773896217346E-1   1.170440018177033E-1  
 3.578000000000000E7    -7.990590333938599E-1   1.171556413173676E-1  -8.162488043308258E-2  -5.735124349594116E-1  -8.207464218139648E-2  -5.729708075523377E-1  -7.940507531166077E-1   1.185190454125404E-1  
 3.580000000000000E7    -8.002405166625977E-1   1.187360286712647E-1  -8.299725502729416E-2  -5.715092420578003E-1  -8.276647329330444E-2  -5.715447664260864E-1  -7.948126792907715E-1   1.206849068403244E-1  
 3.582000000000000E7    -8.008103966712952E-1   1.205716505646706E-1  -8.415160328149796E-2  -5.702573657035828E-1  -8.424801379442215E-2  -5.699313879013062E-1  -7.952205538749695E-1   1.222261935472488E-1  
 3.584000000000000E7    -8.015342354774475E-1   1.224108934402466E-1  -8.528544008731842E-2  -5.686900019645691E-1  -8.528363704681397E-2  -5.689840316772461E-1  -7.959415912628174E-1   1.239805296063423E-1  
 3.586000000000000E7    -8.022872805595398E-1   1.242073997855187E-1  -8.592755347490311E-2  -5.671840906143189E-1  -8.611074835062027E-2  -5.670501589775085E-1  -7.967483401298523E-1   1.258925795555115E-1  
 3.588000000000000E7    -8.031344413757324E-1   1.262354105710983E-1  -8.676808327436447E-2  -5.650992393493652E-1  -8.719333261251450E-2  -5.656950473785400E-1  -7.973378896713257E-1   1.276406049728394E-1  
 3.590000000000000E7    -8.034867644309998E-1   1.280393004417419E-1  -8.788476139307022E-2  -5.638085007667542E-1  -8.758386224508286E-2  -5.637233853340149E-1  -7.984644770622253E-1   1.300176382064819E-1  
 3.592000000000000E7    -8.040947318077087E-1   1.299767196178436E-1  -8.893236517906189E-2  -5.625604987144470E-1  -8.952342718839645E-2  -5.622278451919556E-1  -7.987737655639648E-1   1.316635161638260E-1  
 3.594000000000000E7    -8.049783706665039E-1   1.318232864141464E-1  -8.953979611396790E-2  -5.613242387771606E-1  -8.956118673086166E-2  -5.608326792716980E-1  -7.993578910827637E-1   1.334757953882217E-1  
 3.596000000000000E7    -8.058379888534546E-1   1.334497034549713E-1  -9.064058214426041E-2  -5.591563582420349E-1  -9.057535976171494E-2  -5.597168207168579E-1  -8.002570271492004E-1   1.353610157966614E-1  
 3.598000000000000E7    -8.062351942062378E-1   1.352716982364655E-1  -9.172677993774414E-2  -5.575534701347351E-1  -9.184959530830383E-2  -5.579290390014648E-1  -8.009295463562012E-1   1.373924016952515E-1  
 3.600000000000000E7    -8.070204257965088E-1   1.374574303627014E-1  -9.280065447092056E-2  -5.561187863349915E-1  -9.269597381353378E-2  -5.566202998161316E-1  -8.014895915985107E-1   1.392561495304108E-1  
 3.602000000000000E7    -8.077037334442139E-1   1.391662657260895E-1  -9.328598529100418E-2  -5.551175475120544E-1  -9.344417601823807E-2  -5.552254319190979E-1  -8.022812604904175E-1   1.408057659864426E-1  
 3.604000000000000E7    -8.084796667098999E-1   1.408018469810486E-1  -9.469828754663467E-2  -5.535123348236084E-1  -9.471599757671356E-2  -5.534844994544983E-1  -8.030719757080078E-1   1.425670087337494E-1  
 3.606000000000000E7    -8.091307878494263E-1   1.430640816688538E-1  -9.543220698833466E-2  -5.519250035285950E-1  -9.577310085296631E-2  -5.518866181373596E-1  -8.034037947654724E-1   1.439412832260132E-1  
 3.608000000000000E7    -8.097903132438660E-1   1.447353512048721E-1  -9.639262408018112E-2  -5.502715110778809E-1  -9.624765813350678E-2  -5.504725575447083E-1  -8.041967153549194E-1   1.459457129240036E-1  
 3.610000000000000E7    -8.105162382125855E-1   1.461312323808670E-1  -9.730566293001175E-2  -5.485112667083740E-1  -9.736304730176926E-2  -5.489174723625183E-1  -8.044177293777466E-1   1.478137820959091E-1  
 3.612000000000000E7    -8.110831975936890E-1   1.481289714574814E-1  -9.846842288970947E-2  -5.470844507217407E-1  -9.848439693450928E-2  -5.470291376113892E-1  -8.055412769317627E-1   1.498111188411713E-1  
 3.614000000000000E7    -8.117694258689880E-1   1.503075957298279E-1  -9.904059767723084E-2  -5.457542538642883E-1  -9.912812709808350E-2  -5.459052920341492E-1  -8.056991696357727E-1   1.515880078077316E-1  
 3.616000000000000E7    -8.121559023857117E-1   1.522575020790100E-1  -1.001008376479149E-1  -5.442132949829102E-1  -1.005618795752525E-1  -5.445509552955627E-1  -8.064585328102112E-1   1.533330082893372E-1  
 3.618000000000000E7    -8.126437067985535E-1   1.537021845579147E-1  -1.007034480571747E-1  -5.429163575172424E-1  -1.005482077598572E-1  -5.426635742187500E-1  -8.072630763053894E-1   1.556221842765808E-1  
 3.620000000000000E7    -8.132258057594299E-1   1.559682339429855E-1  -1.017530411481857E-1  -5.413258075714111E-1  -1.018445119261742E-1  -5.415876507759094E-1  -8.075302839279175E-1   1.571029126644135E-1  
 3.622000000000000E7    -8.135003447532654E-1   1.574388593435288E-1  -1.025461107492447E-1  -5.398414731025696E-1  -1.028885170817375E-1  -5.397312641143799E-1  -8.083063960075378E-1   1.589049249887466E-1  
 3.624000000000000E7    -8.141323924064636E-1   1.593628376722336E-1  -1.033382564783096E-1  -5.385288000106812E-1  -1.034585013985634E-1  -5.384001731872559E-1  -8.087988495826721E-1   1.606894880533218E-1  
 3.626000000000000E7    -8.150079846382141E-1   1.611362099647522E-1  -1.042857393622398E-1  -5.366845726966858E-1  -1.044840365648270E-1  -5.367498397827148E-1  -8.093370795249939E-1   1.624366343021393E-1  
 3.628000000000000E7    -8.153389096260071E-1   1.632131636142731E-1  -1.053050756454468E-1  -5.349311828613281E-1  -1.051579415798187E-1  -5.349729061126709E-1  -8.100095987319946E-1   1.643690615892410E-1  
 3.630000000000000E7    -8.160952925682068E-1   1.648925989866257E-1  -1.059442013502121E-1  -5.336838960647583E-1  -1.062570884823799E-1  -5.333203673362732E-1  -8.105337619781494E-1   1.658822447061539E-1  
 3.632000000000000E7    -8.162841200828552E-1   1.667962074279785E-1  -1.065560802817345E-1  -5.320640206336975E-1  -1.067333966493607E-1  -5.318072438240051E-1  -8.109480142593384E-1   1.679261773824692E-1  
 3.634000000000000E7    -8.169859051704407E-1   1.685638725757599E-1  -1.076181530952454E-1  -5.305936932563782E-1  -1.079702377319336E-1  -5.304318070411682E-1  -8.113173246383667E-1   1.694160252809525E-1  
 3.636000000000000E7    -8.173006772994995E-1   1.703085899353027E-1  -1.083808615803719E-1  -5.291751027107239E-1  -1.086565777659416E-1  -5.288629531860352E-1  -8.120321631431580E-1   1.716078519821167E-1  
 3.638000000000000E7    -8.182820081710815E-1   1.720705330371857E-1  -1.093989163637161E-1  -5.271543264389038E-1  -1.092333719134331E-1  -5.277317762374878E-1  -8.122051954269409E-1   1.733938008546829E-1  
 3.640000000000000E7    -8.183503746986389E-1   1.740164309740067E-1  -1.098647341132164E-1  -5.261346101760864E-1  -1.101797968149185E-1  -5.257356166839600E-1  -8.131575584411621E-1   1.750423312187195E-1  
 3.642000000000000E7    -8.191023468971252E-1   1.753153949975967E-1  -1.109590157866478E-1  -5.244255661964417E-1  -1.107481494545937E-1  -5.242933034896851E-1  -8.134260177612305E-1   1.773007214069367E-1  
 3.644000000000000E7    -8.196853399276733E-1   1.776151806116104E-1  -1.115235537290573E-1  -5.230754613876343E-1  -1.115180701017380E-1  -5.225461721420288E-1  -8.140383958816528E-1   1.788806617259979E-1  
 3.646000000000000E7    -8.200969696044922E-1   1.790804266929627E-1  -1.124526709318161E-1  -5.214534997940064E-1  -1.127163916826248E-1  -5.212482810020447E-1  -8.142091035842896E-1   1.806710213422775E-1  
 3.648000000000000E7    -8.202589154243469E-1   1.812373846769333E-1  -1.129464730620384E-1  -5.202177166938782E-1  -1.133889108896256E-1  -5.197906494140625E-1  -8.148090243339539E-1   1.826358437538147E-1  
 3.650000000000000E7    -8.204249739646912E-1   1.828880459070206E-1  -1.138382852077484E-1  -5.185753107070923E-1  -1.140946075320244E-1  -5.180194973945618E-1  -8.155274391174316E-1   1.843734979629517E-1  
 3.652000000000000E7    -8.211756944656372E-1   1.848316937685013E-1  -1.148459017276764E-1  -5.166732668876648E-1  -1.147736385464668E-1  -5.164358615875244E-1  -8.160151839256287E-1   1.860484778881073E-1  
 3.654000000000000E7    -8.217066526412964E-1   1.868706643581390E-1  -1.156245172023773E-1  -5.152683258056641E-1  -1.160292550921440E-1  -5.150476098060608E-1  -8.164367675781250E-1   1.878965646028519E-1  
 3.656000000000000E7    -8.220626711845398E-1   1.882627904415131E-1  -1.161415055394173E-1  -5.137070417404175E-1  -1.158138513565064E-1  -5.136417150497437E-1  -8.165147900581360E-1   1.900616586208344E-1  
 3.658000000000000E7    -8.224593400955200E-1   1.901062130928040E-1  -1.169462949037552E-1  -5.124040246009827E-1  -1.169669553637505E-1  -5.122056007385254E-1  -8.168488144874573E-1   1.916332244873047E-1  
 3.660000000000000E7    -8.233093619346619E-1   1.922182291746140E-1  -1.174207627773285E-1  -5.104885101318359E-1  -1.177865415811539E-1  -5.108615159988403E-1  -8.170502781867981E-1   1.934684664011002E-1  
 3.662000000000000E7    -8.231707811355591E-1   1.941124349832535E-1  -1.181104630231857E-1  -5.092338919639587E-1  -1.186083704233170E-1  -5.089931488037109E-1  -8.177918195724487E-1   1.951286941766739E-1  
 3.664000000000000E7    -8.238593935966492E-1   1.957960575819016E-1  -1.188907995820046E-1  -5.079647302627564E-1  -1.192532256245613E-1  -5.078479647636414E-1  -8.180255293846130E-1   1.968432515859604E-1  
 3.666000000000000E7    -8.240455985069275E-1   1.976398527622223E-1  -1.195519492030144E-1  -5.065388083457947E-1  -1.196114644408226E-1  -5.058835744857788E-1  -8.187767863273621E-1   1.985450237989426E-1  
 3.668000000000000E7    -8.243656158447266E-1   1.992858797311783E-1  -1.205223351716995E-1  -5.051217079162598E-1  -1.204362958669663E-1  -5.045608878135681E-1  -8.189800977706909E-1   2.004522979259491E-1  
 3.670000000000000E7    -8.251062631607056E-1   2.010216563940048E-1  -1.213398724794388E-1  -5.029543042182922E-1  -1.207527667284012E-1  -5.034751296043396E-1  -8.192449212074280E-1   2.027002871036530E-1  
 3.672000000000000E7    -8.257414698600769E-1   2.029706090688705E-1  -1.218156442046166E-1  -5.018111467361450E-1  -1.217565089464188E-1  -5.017335414886475E-1  -8.197110295295715E-1   2.041173875331879E-1  
 3.674000000000000E7    -8.260388970375061E-1   2.049778997898102E-1  -1.227173954248428E-1  -5.002016425132752E-1  -1.226068437099457E-1  -5.003060698509216E-1  -8.197550177574158E-1   2.058693319559097E-1  
 3.676000000000000E7    -8.257886767387390E-1   2.064286768436432E-1  -1.232782304286957E-1  -4.986626207828522E-1  -1.234103292226791E-1  -4.989863932132721E-1  -8.202114105224609E-1   2.078786492347717E-1  
 3.678000000000000E7    -8.263651728630066E-1   2.086135596036911E-1  -1.238563805818558E-1  -4.974616467952728E-1  -1.237841770052910E-1  -4.975483715534210E-1  -8.206288814544678E-1   2.094993144273758E-1  
 3.680000000000000E7    -8.268669843673706E-1   2.103458940982819E-1  -1.243677213788033E-1  -4.955564737319946E-1  -1.248821765184403E-1  -4.957502782344818E-1  -8.210584521293640E-1   2.108643203973770E-1  
 3.682000000000000E7    -8.273081779479981E-1   2.116391509771347E-1  -1.251302212476730E-1  -4.944351315498352E-1  -1.247904524207115E-1  -4.946213960647583E-1  -8.209953904151917E-1   2.132137268781662E-1  
 3.684000000000000E7    -8.272578716278076E-1   2.137266546487808E-1  -1.258579790592194E-1  -4.927982687950134E-1  -1.256746053695679E-1  -4.927382469177246E-1  -8.215741515159607E-1   2.148582041263580E-1  
 3.686000000000000E7    -8.279138207435608E-1   2.156487256288528E-1  -1.267139017581940E-1  -4.912114441394806E-1  -1.269835382699966E-1  -4.912851154804230E-1  -8.218808770179749E-1   2.164928019046783E-1  
 3.688000000000000E7    -8.283143639564514E-1   2.172403335571289E-1  -1.271892189979553E-1  -4.900360405445099E-1  -1.274066865444183E-1  -4.897887110710144E-1  -8.224605321884155E-1   2.185024917125702E-1  
 3.690000000000000E7    -8.284920454025269E-1   2.192946374416351E-1  -1.278129070997238E-1  -4.880414009094238E-1  -1.279181391000748E-1  -4.882915019989014E-1  -8.227232694625855E-1   2.200350463390350E-1  
 3.692000000000000E7    -8.286280632019043E-1   2.208820581436157E-1  -1.282023489475250E-1  -4.871307909488678E-1  -1.287856996059418E-1  -4.868139028549194E-1  -8.231339454650879E-1   2.219226211309433E-1  
 3.694000000000000E7    -8.289020657539368E-1   2.226077020168304E-1  -1.288904249668121E-1  -4.853684306144714E-1  -1.289394199848175E-1  -4.852222502231598E-1  -8.234060406684876E-1   2.234984487295151E-1  
 3.696000000000000E7    -8.293242454528809E-1   2.245632261037827E-1  -1.296597719192505E-1  -4.838158190250397E-1  -1.296413093805313E-1  -4.839410483837128E-1  -8.237913846969605E-1   2.255367338657379E-1  
 3.698000000000000E7    -8.299444317817688E-1   2.264368683099747E-1  -1.301416903734207E-1  -4.822393059730530E-1  -1.303340941667557E-1  -4.825457334518433E-1  -8.237743377685547E-1   2.271125018596649E-1  
 3.700000000000000E7    -8.298613429069519E-1   2.279821634292603E-1  -1.308198869228363E-1  -4.807776808738709E-1  -1.309167444705963E-1  -4.812208116054535E-1  -8.237946629524231E-1   2.289395779371262E-1  
 3.702000000000000E7    -8.302040696144104E-1   2.298773527145386E-1  -1.313596069812775E-1  -4.794808328151703E-1  -1.313593983650208E-1  -4.794348776340485E-1  -8.244456052780151E-1   2.305728942155838E-1  
 3.704000000000000E7    -8.302881121635437E-1   2.317639887332916E-1  -1.318790316581726E-1  -4.783906340599060E-1  -1.322933733463287E-1  -4.780530035495758E-1  -8.248441815376282E-1   2.322901785373688E-1  
 3.706000000000000E7    -8.310858011245728E-1   2.329824417829514E-1  -1.323390752077103E-1  -4.767079651355743E-1  -1.326846182346344E-1  -4.767201840877533E-1  -8.249303698539734E-1   2.342569828033447E-1  
 3.708000000000000E7    -8.312090039253235E-1   2.350302040576935E-1  -1.331777721643448E-1  -4.750768244266510E-1  -1.333387643098831E-1  -4.750278592109680E-1  -8.252382278442383E-1   2.362846434116364E-1  
 3.710000000000000E7    -8.315152525901794E-1   2.371884733438492E-1  -1.334253251552582E-1  -4.739071130752564E-1  -1.335693448781967E-1  -4.736558198928833E-1  -8.253942131996155E-1   2.375895231962204E-1  
 3.712000000000000E7    -8.312850594520569E-1   2.387723326683044E-1  -1.343795210123062E-1  -4.724860787391663E-1  -1.343861073255539E-1  -4.722931981086731E-1  -8.256961703300476E-1   2.399168312549591E-1  
 3.714000000000000E7    -8.317528367042542E-1   2.406331300735474E-1  -1.345544457435608E-1  -4.709407687187195E-1  -1.349535584449768E-1  -4.705965816974640E-1  -8.258914351463318E-1   2.410550415515900E-1  
 3.716000000000000E7    -8.322204351425171E-1   2.424741387367249E-1  -1.352611929178238E-1  -4.693263471126556E-1  -1.353145539760590E-1  -4.693747460842133E-1  -8.260841369628906E-1   2.429759800434113E-1  
 3.718000000000000E7    -8.318926095962524E-1   2.436875849962235E-1  -1.360953748226166E-1  -4.679879546165466E-1  -1.360668540000916E-1  -4.676347672939301E-1  -8.265888094902039E-1   2.449742555618286E-1  
 3.720000000000000E7    -8.323798179626465E-1   2.456954121589661E-1  -1.361958086490631E-1  -4.664371609687805E-1  -1.366551369428635E-1  -4.662184119224548E-1  -8.266386985778809E-1   2.468311935663223E-1  
 3.722000000000000E7    -8.329526185989380E-1   2.472834289073944E-1  -1.368841230869293E-1  -4.648011922836304E-1  -1.368279159069061E-1  -4.647231698036194E-1  -8.263522386550903E-1   2.484904527664185E-1  
 3.724000000000000E7    -8.327361345291138E-1   2.494740039110184E-1  -1.371866762638092E-1  -4.633071720600128E-1  -1.375212371349335E-1  -4.633705019950867E-1  -8.269734978675842E-1   2.502142488956451E-1  
 3.726000000000000E7    -8.331903219223023E-1   2.510368525981903E-1  -1.380443125963211E-1  -4.618592262268066E-1  -1.381261795759201E-1  -4.620545506477356E-1  -8.268675804138184E-1   2.517808973789215E-1  
 3.728000000000000E7    -8.329578042030335E-1   2.524112164974213E-1  -1.386946141719818E-1  -4.606031775474548E-1  -1.388004273176193E-1  -4.606509804725647E-1  -8.275685310363770E-1   2.536803781986237E-1  
 3.730000000000000E7    -8.330401778221130E-1   2.543338835239410E-1  -1.390706151723862E-1  -4.594163000583649E-1  -1.389497667551041E-1  -4.591794908046722E-1  -8.277761340141296E-1   2.550661265850067E-1  
 3.732000000000000E7    -8.335131406784058E-1   2.561840713024139E-1  -1.395478993654251E-1  -4.577646255493164E-1  -1.395577639341354E-1  -4.578063189983368E-1  -8.277848362922669E-1   2.571338713169098E-1  
 3.734000000000000E7    -8.338220119476318E-1   2.577894330024719E-1  -1.399029940366745E-1  -4.564944207668304E-1  -1.396399587392807E-1  -4.565494954586029E-1  -8.277056813240051E-1   2.591251134872437E-1  
 3.736000000000000E7    -8.339711427688599E-1   2.598522007465363E-1  -1.406646370887756E-1  -4.552462697029114E-1  -1.410482972860336E-1  -4.549172520637512E-1  -8.279947042465210E-1   2.602910101413727E-1  
 3.738000000000000E7    -8.342117071151733E-1   2.613023221492767E-1  -1.406257450580597E-1  -4.533832967281342E-1  -1.407510936260223E-1  -4.534442424774170E-1  -8.282540440559387E-1   2.619389891624451E-1  
 3.740000000000000E7    -8.342992663383484E-1   2.634863555431366E-1  -1.411559879779816E-1  -4.519422054290772E-1  -1.419040858745575E-1  -4.518433213233948E-1  -8.281503319740295E-1   2.637406587600708E-1  
 3.742000000000000E7    -8.346284627914429E-1   2.647499442100525E-1  -1.419389545917511E-1  -4.504349827766419E-1  -1.422350108623505E-1  -4.503938555717468E-1  -8.283599019050598E-1   2.655550539493561E-1  
 3.744000000000000E7    -8.344760537147522E-1   2.669656276702881E-1  -1.422610580921173E-1  -4.492082595825195E-1  -1.426849067211151E-1  -4.491255879402161E-1  -8.285337686538696E-1   2.671397328376770E-1  
 3.746000000000000E7    -8.349798917770386E-1   2.682711780071259E-1  -1.426879465579987E-1  -4.479812383651733E-1  -1.429061889648438E-1  -4.479363262653351E-1  -8.286002874374390E-1   2.693322896957398E-1  
 3.748000000000000E7    -8.347681164741516E-1   2.701879739761353E-1  -1.431836634874344E-1  -4.462425410747528E-1  -1.433511227369309E-1  -4.461823701858521E-1  -8.289393186569214E-1   2.705811560153961E-1  
 3.750000000000000E7    -8.350061178207398E-1   2.719437181949616E-1  -1.434846967458725E-1  -4.446623325347900E-1  -1.441275030374527E-1  -4.447404742240906E-1  -8.291323184967041E-1   2.724374532699585E-1  
 3.752000000000000E7    -8.352828621864319E-1   2.734830975532532E-1  -1.440811604261398E-1  -4.433680176734924E-1  -1.442551761865616E-1  -4.432861208915710E-1  -8.291766643524170E-1   2.741750180721283E-1  
 3.754000000000000E7    -8.350843191146851E-1   2.748844027519226E-1  -1.443607509136200E-1  -4.418474435806274E-1  -1.444843858480454E-1  -4.417479336261749E-1  -8.292903304100037E-1   2.761992514133453E-1  
 3.756000000000000E7    -8.351235985755920E-1   2.768154442310333E-1  -1.449705660343170E-1  -4.403322339057922E-1  -1.450316160917282E-1  -4.400503933429718E-1  -8.292850255966187E-1   2.776254415512085E-1  
 3.758000000000000E7    -8.356315493583679E-1   2.787439227104187E-1  -1.451451033353806E-1  -4.389133453369141E-1  -1.455990672111511E-1  -4.392278194427490E-1  -8.294127583503723E-1   2.792268693447113E-1  
 3.760000000000000E7    -8.355845808982849E-1   2.802081108093262E-1  -1.458540558815002E-1  -4.376282095909119E-1  -1.457834839820862E-1  -4.377361536026001E-1  -8.296681046485901E-1   2.810889482498169E-1  
 3.762000000000000E7    -8.354794383049011E-1   2.822144031524658E-1  -1.462136507034302E-1  -4.360642433166504E-1  -1.465224176645279E-1  -4.361856877803803E-1  -8.293014168739319E-1   2.827802300453186E-1  
 3.764000000000000E7    -8.357096314430237E-1   2.837216556072235E-1  -1.465918272733688E-1  -4.347692728042603E-1  -1.466924548149109E-1  -4.349861145019531E-1  -8.294631242752075E-1   2.843487262725830E-1  
 3.766000000000000E7    -8.359434008598328E-1   2.855463027954102E-1  -1.465982198715210E-1  -4.333683848381043E-1  -1.472037136554718E-1  -4.335320591926575E-1  -8.298228383064270E-1   2.859691977500916E-1  
 3.768000000000000E7    -8.358947634696960E-1   2.874547541141510E-1  -1.473139673471451E-1  -4.319432079792023E-1  -1.474943459033966E-1  -4.316335916519165E-1  -8.300151228904724E-1   2.876464426517487E-1  
 3.770000000000000E7    -8.359292149543762E-1   2.889961302280426E-1  -1.475172936916351E-1  -4.306854903697968E-1  -1.474107652902603E-1  -4.305640459060669E-1  -8.298987746238709E-1   2.895272672176361E-1  
 3.772000000000000E7    -8.363047242164612E-1   2.907651662826538E-1  -1.480907052755356E-1  -4.291715919971466E-1  -1.481155753135681E-1  -4.294373989105225E-1  -8.300716280937195E-1   2.908510267734528E-1  
 3.774000000000000E7    -8.360680341720581E-1   2.921342253684998E-1  -1.482956409454346E-1  -4.279181063175201E-1  -1.482729017734528E-1  -4.278264045715332E-1  -8.303325772285461E-1   2.928499579429627E-1  
 3.776000000000000E7    -8.364689946174622E-1   2.938644587993622E-1  -1.490601897239685E-1  -4.263864457607269E-1  -1.492162644863129E-1  -4.263936281204224E-1  -8.301687836647034E-1   2.943485379219055E-1  
 3.778000000000000E7    -8.362405896186829E-1   2.957378029823303E-1  -1.491717547178268E-1  -4.251470267772675E-1  -1.492585688829422E-1  -4.252594411373138E-1  -8.300849199295044E-1   2.962389588356018E-1  
 3.780000000000000E7    -8.363914489746094E-1   2.973852455615997E-1  -1.494474709033966E-1  -4.236135184764862E-1  -1.495881527662277E-1  -4.231815338134766E-1  -8.303536176681519E-1   2.978162765502930E-1  
 3.782000000000000E7    -8.364713788032532E-1   2.988757491111755E-1  -1.496542692184448E-1  -4.222277402877808E-1  -1.498519480228424E-1  -4.223394989967346E-1  -8.302911520004273E-1   2.995783388614655E-1  
 3.784000000000000E7    -8.362727165222168E-1   3.009145259857178E-1  -1.498778015375137E-1  -4.207355082035065E-1  -1.502387225627899E-1  -4.205626845359802E-1  -8.301412463188171E-1   3.010986149311066E-1  
 3.786000000000000E7    -8.363474011421204E-1   3.025386333465576E-1  -1.507147848606110E-1  -4.194943606853485E-1  -1.508723944425583E-1  -4.193773269653320E-1  -8.303826451301575E-1   3.030248582363129E-1  
 3.788000000000000E7    -8.364514708518982E-1   3.042130172252655E-1  -1.505402028560638E-1  -4.180621206760407E-1  -1.510366797447205E-1  -4.179642498493195E-1  -8.303963541984558E-1   3.043406605720520E-1  
 3.790000000000000E7    -8.362789154052734E-1   3.058675229549408E-1  -1.512034088373184E-1  -4.164042174816132E-1  -1.512127816677094E-1  -4.164422154426575E-1  -8.302558660507202E-1   3.062683045864105E-1  
 3.792000000000000E7    -8.364418148994446E-1   3.070915043354034E-1  -1.516030430793762E-1  -4.151800274848938E-1  -1.515057682991028E-1  -4.154586791992188E-1  -8.302391767501831E-1   3.079955875873566E-1  
 3.794000000000000E7    -8.366073966026306E-1   3.091305792331696E-1  -1.517818123102188E-1  -4.137608706951141E-1  -1.518954485654831E-1  -4.140417575836182E-1  -8.302892446517944E-1   3.096749186515808E-1  
 3.796000000000000E7    -8.362938165664673E-1   3.107684850692749E-1  -1.522483676671982E-1  -4.128203094005585E-1  -1.524722874164581E-1  -4.130050837993622E-1  -8.301674723625183E-1   3.111280798912048E-1  
 3.798000000000000E7    -8.369008898735046E-1   3.127631545066834E-1  -1.524057835340500E-1  -4.114141166210175E-1  -1.528736054897308E-1  -4.116848409175873E-1  -8.302186131477356E-1   3.125805854797363E-1  
 3.800000000000000E7    -8.365046381950378E-1   3.141268193721771E-1  -1.524430066347122E-1  -4.097018539905548E-1  -1.532273441553116E-1  -4.100149571895599E-1  -8.302012681961060E-1   3.142700195312500E-1  
 3.802000000000000E7    -8.365938067436218E-1   3.158652186393738E-1  -1.532156765460968E-1  -4.089493453502655E-1  -1.532589793205261E-1  -4.087978601455689E-1  -8.303472995758057E-1   3.160448670387268E-1  
 3.804000000000000E7    -8.362130522727966E-1   3.174641132354736E-1  -1.536037027835846E-1  -4.069821238517761E-1  -1.540718376636505E-1  -4.070686101913452E-1  -8.303390145301819E-1   3.174348175525665E-1  
 3.806000000000000E7    -8.365083932876587E-1   3.190087676048279E-1  -1.535742282867432E-1  -4.057568013668060E-1  -1.539313197135925E-1  -4.058267474174500E-1  -8.302757740020752E-1   3.191155791282654E-1  
 3.808000000000000E7    -8.364435434341431E-1   3.204501569271088E-1  -1.539481729269028E-1  -4.045210182666779E-1  -1.539752483367920E-1  -4.045561552047730E-1  -8.302807211875916E-1   3.211189210414887E-1  
 3.810000000000000E7    -8.363844156265259E-1   3.222532868385315E-1  -1.540459543466568E-1  -4.034516513347626E-1  -1.540496647357941E-1  -4.031337499618530E-1  -8.302760124206543E-1   3.224294781684876E-1  
 3.812000000000000E7    -8.359543681144714E-1   3.239223659038544E-1  -1.543754488229752E-1  -4.019430279731751E-1  -1.543699502944946E-1  -4.018694758415222E-1  -8.303996324539185E-1   3.241234719753265E-1  
 3.814000000000000E7    -8.361865878105164E-1   3.260308504104614E-1  -1.549781858921051E-1  -4.005389511585236E-1  -1.551312804222107E-1  -4.005776047706604E-1  -8.300665020942688E-1   3.258099555969238E-1  
 3.816000000000000E7    -8.364526629447937E-1   3.273391127586365E-1  -1.549080908298492E-1  -3.991277217864990E-1  -1.552323251962662E-1  -3.991902172565460E-1  -8.298744559288025E-1   3.274771869182587E-1  
 3.818000000000000E7    -8.361735343933106E-1   3.289457559585571E-1  -1.552738547325134E-1  -3.978013396263123E-1  -1.552349627017975E-1  -3.976228833198547E-1  -8.298211693763733E-1   3.293040692806244E-1  
 3.820000000000000E7    -8.362699747085571E-1   3.305351734161377E-1  -1.553055346012116E-1  -3.964504599571228E-1  -1.552258133888245E-1  -3.964804708957672E-1  -8.300948143005371E-1   3.307217359542847E-1  
 3.822000000000000E7    -8.360602855682373E-1   3.321208655834198E-1  -1.560261547565460E-1  -3.951000869274139E-1  -1.561986953020096E-1  -3.948494493961334E-1  -8.300316333770752E-1   3.325623869895935E-1  
 3.824000000000000E7    -8.361423611640930E-1   3.339346349239349E-1  -1.559322625398636E-1  -3.936870992183685E-1  -1.563023477792740E-1  -3.936069011688232E-1  -8.301288485527039E-1   3.341456353664398E-1  
 3.826000000000000E7    -8.358308076858521E-1   3.356248438358307E-1  -1.565161049365997E-1  -3.923556506633759E-1  -1.566610038280487E-1  -3.923404812812805E-1  -8.300083875656128E-1   3.355945944786072E-1  
 3.828000000000000E7    -8.358706235885620E-1   3.370593786239624E-1  -1.564773917198181E-1  -3.912459015846252E-1  -1.570754498243332E-1  -3.912548720836639E-1  -8.298159837722778E-1   3.372496068477631E-1  
 3.830000000000000E7    -8.358632326126099E-1   3.388338387012482E-1  -1.566517800092697E-1  -3.893786966800690E-1  -1.567522138357163E-1  -3.897042870521545E-1  -8.295041918754578E-1   3.388833105564117E-1  
 3.832000000000000E7    -8.358712792396545E-1   3.405161798000336E-1  -1.572710573673248E-1  -3.885096311569214E-1  -1.572207808494568E-1  -3.882794976234436E-1  -8.293507099151611E-1   3.403691053390503E-1  
 3.834000000000000E7    -8.358379602432251E-1   3.423882424831390E-1  -1.569429039955139E-1  -3.873942196369171E-1  -1.572931557893753E-1  -3.874299228191376E-1  -8.299785256385803E-1   3.421028852462769E-1  
 3.836000000000000E7    -8.355978131294251E-1   3.435803651809692E-1  -1.576143205165863E-1  -3.857765793800354E-1  -1.578251421451569E-1  -3.856321275234222E-1  -8.296734094619751E-1   3.438042700290680E-1  
 3.838000000000000E7    -8.352463841438294E-1   3.450269699096680E-1  -1.577976047992706E-1  -3.845051527023315E-1  -1.581244170665741E-1  -3.844222724437714E-1  -8.292871713638306E-1   3.455212712287903E-1  
 3.840000000000000E7    -8.355621099472046E-1   3.469908833503723E-1  -1.577956378459930E-1  -3.832952082157135E-1  -1.582296341657639E-1  -3.832025229930878E-1  -8.292542695999146E-1   3.467392623424530E-1  
 3.842000000000000E7    -8.352679014205933E-1   3.485694229602814E-1  -1.578551679849625E-1  -3.817875385284424E-1  -1.583141535520554E-1  -3.818712830543518E-1  -8.291568756103516E-1   3.483882248401642E-1  
 3.844000000000000E7    -8.351598381996155E-1   3.499771058559418E-1  -1.585986316204071E-1  -3.807348906993866E-1  -1.583614349365234E-1  -3.807359933853149E-1  -8.289739489555359E-1   3.501585125923157E-1  
 3.846000000000000E7    -8.354498744010925E-1   3.516513109207153E-1  -1.585497558116913E-1  -3.790980577468872E-1  -1.590488702058792E-1  -3.791554868221283E-1  -8.289633393287659E-1   3.517026007175446E-1  
 3.848000000000000E7    -8.352896571159363E-1   3.530756831169128E-1  -1.584856510162354E-1  -3.781124949455261E-1  -1.588479280471802E-1  -3.781321644783020E-1  -8.288933634757996E-1   3.529510498046875E-1  
 3.850000000000000E7    -8.350064754486084E-1   3.549398779869080E-1  -1.588635295629501E-1  -3.766623437404633E-1  -1.595882028341293E-1  -3.766473829746246E-1  -8.285928964614868E-1   3.545311093330383E-1  
 3.852000000000000E7    -8.348578214645386E-1   3.561825752258301E-1  -1.591849327087402E-1  -3.752244412899017E-1  -1.591019928455353E-1  -3.755979239940643E-1  -8.284515142440796E-1   3.562736809253693E-1  
 3.854000000000000E7    -8.344780206680298E-1   3.581937849521637E-1  -1.591948419809341E-1  -3.740086555480957E-1  -1.596409380435944E-1  -3.739377856254578E-1  -8.284201622009277E-1   3.581555783748627E-1  
 3.856000000000000E7    -8.344076871871948E-1   3.597589135169983E-1  -1.593894213438034E-1  -3.725367188453674E-1  -1.598462611436844E-1  -3.727455735206604E-1  -8.281403779983521E-1   3.593917191028595E-1  
 3.858000000000000E7    -8.343887925148010E-1   3.610887825489044E-1  -1.596722751855850E-1  -3.712942004203796E-1  -1.596889644861221E-1  -3.714520037174225E-1  -8.283038139343262E-1   3.614027798175812E-1  
 3.860000000000000E7    -8.342996835708618E-1   3.630942404270172E-1  -1.600094884634018E-1  -3.699556589126587E-1  -1.603723913431168E-1  -3.703395724296570E-1  -8.279191851615906E-1   3.626887202262878E-1  
 3.862000000000000E7    -8.339372873306274E-1   3.642023205757141E-1  -1.598766446113586E-1  -3.684498369693756E-1  -1.604688167572022E-1  -3.686691820621491E-1  -8.274330496788025E-1   3.640923202037811E-1  
 3.864000000000000E7    -8.337631225585938E-1   3.656829893589020E-1  -1.600561439990997E-1  -3.673340976238251E-1  -1.605385541915894E-1  -3.674557209014893E-1  -8.276245594024658E-1   3.658871352672577E-1  
 3.866000000000000E7    -8.338503241539002E-1   3.674192428588867E-1  -1.605274379253388E-1  -3.664502501487732E-1  -1.605402976274490E-1  -3.662762343883514E-1  -8.274263739585877E-1   3.673688173294067E-1  
 3.868000000000000E7    -8.336834907531738E-1   3.688995838165283E-1  -1.604890525341034E-1  -3.648417294025421E-1  -1.606334745883942E-1  -3.649401664733887E-1  -8.270779252052307E-1   3.689545691013336E-1  
 3.870000000000000E7    -8.333457708358765E-1   3.707648515701294E-1  -1.608039438724518E-1  -3.636456727981567E-1  -1.611849218606949E-1  -3.636738061904907E-1  -8.271885514259338E-1   3.703714013099670E-1  
 3.872000000000000E7    -8.331379294395447E-1   3.723955452442169E-1  -1.609316617250443E-1  -3.624607920646668E-1  -1.610151827335358E-1  -3.624978959560394E-1  -8.270561695098877E-1   3.719152808189392E-1  
 3.874000000000000E7    -8.332045674324036E-1   3.736270666122437E-1  -1.608785688877106E-1  -3.610585927963257E-1  -1.610444933176041E-1  -3.613014817237854E-1  -8.266050219535828E-1   3.736959695816040E-1  
 3.876000000000000E7    -8.329542875289917E-1   3.753589093685150E-1  -1.611692905426025E-1  -3.599137365818024E-1  -1.613779664039612E-1  -3.597839176654816E-1  -8.265967369079590E-1   3.751344978809357E-1  
 3.878000000000000E7    -8.328103423118591E-1   3.768470585346222E-1  -1.613962948322296E-1  -3.584544658660889E-1  -1.618162840604782E-1  -3.584905564785004E-1  -8.264105916023254E-1   3.770541846752167E-1  
 3.880000000000000E7    -8.324434161186218E-1   3.783163130283356E-1  -1.615052521228790E-1  -3.573438823223114E-1  -1.618811786174774E-1  -3.574037551879883E-1  -8.261568546295166E-1   3.784486651420593E-1  
 3.882000000000000E7    -8.324644565582275E-1   3.802442252635956E-1  -1.613573729991913E-1  -3.563237488269806E-1  -1.618412733078003E-1  -3.561257421970367E-1  -8.262422680854797E-1   3.800843954086304E-1  
 3.884000000000000E7    -8.324205875396729E-1   3.815272450447083E-1  -1.615638434886932E-1  -3.548588752746582E-1  -1.617145091295242E-1  -3.548339605331421E-1  -8.257383704185486E-1   3.817472755908966E-1  
 3.886000000000000E7    -8.320007324218750E-1   3.830271065235138E-1  -1.616808325052261E-1  -3.537264168262482E-1  -1.620569527149200E-1  -3.537092506885529E-1  -8.256531357765198E-1   3.829218149185181E-1  
 3.888000000000000E7    -8.317990899085999E-1   3.845826089382172E-1  -1.618317216634750E-1  -3.524190783500671E-1  -1.621232926845551E-1  -3.524925708770752E-1  -8.255006670951843E-1   3.843641579151154E-1  
 3.890000000000000E7    -8.317103981971741E-1   3.863153755664825E-1  -1.618592888116837E-1  -3.507791161537170E-1  -1.621718108654022E-1  -3.509851992130280E-1  -8.251677155494690E-1   3.859489858150482E-1  
 3.892000000000000E7    -8.313573598861694E-1   3.878110051155090E-1  -1.619034260511398E-1  -3.497879505157471E-1  -1.624331772327423E-1  -3.498160541057587E-1  -8.250460624694824E-1   3.872848451137543E-1  
 3.894000000000000E7    -8.314752578735352E-1   3.890409171581268E-1  -1.621674001216888E-1  -3.488365411758423E-1  -1.624455153942108E-1  -3.486844003200531E-1  -8.247850537300110E-1   3.888997733592987E-1  
 3.896000000000000E7    -8.310790657997131E-1   3.910607397556305E-1  -1.621595323085785E-1  -3.473258018493652E-1  -1.625486165285111E-1  -3.474744260311127E-1  -8.246515989303589E-1   3.903882801532745E-1  
 3.898000000000000E7    -8.309902548789978E-1   3.924961686134338E-1  -1.625466346740723E-1  -3.460062146186829E-1  -1.627826392650604E-1  -3.463548421859741E-1  -8.244243264198303E-1   3.919542133808136E-1  
 3.900000000000000E7    -8.305907249450684E-1   3.940646648406982E-1  -1.623418629169464E-1  -3.452102541923523E-1  -1.627551019191742E-1  -3.451251089572907E-1  -8.243872523307800E-1   3.936626613140106E-1  
 3.902000000000000E7    -8.303139805793762E-1   3.952551484107971E-1  -1.623741686344147E-1  -3.437809944152832E-1  -1.628516316413879E-1  -3.436408042907715E-1  -8.240218758583069E-1   3.950667977333069E-1  
 3.904000000000000E7    -8.302506804466248E-1   3.971055150032044E-1  -1.624988168478012E-1  -3.421821296215057E-1  -1.626793444156647E-1  -3.426956534385681E-1  -8.236036300659180E-1   3.964528739452362E-1  
 3.906000000000000E7    -8.300713300704956E-1   3.983449637889862E-1  -1.626440733671188E-1  -3.415990471839905E-1  -1.631008088588715E-1  -3.415602147579193E-1  -8.233773112297058E-1   3.982415497303009E-1  
 3.908000000000000E7    -8.296207785606384E-1   3.997353911399841E-1  -1.628086864948273E-1  -3.400690853595734E-1  -1.630577445030212E-1  -3.398355841636658E-1  -8.231997489929199E-1   3.994135856628418E-1  
 3.910000000000000E7    -8.293693661689758E-1   4.012727439403534E-1  -1.631602942943573E-1  -3.386672437191010E-1  -1.632994413375855E-1  -3.389805257320404E-1  -8.229469060897827E-1   4.013260304927826E-1  
 3.912000000000000E7    -8.289635777473450E-1   4.027191400527954E-1  -1.629102826118469E-1  -3.376864790916443E-1  -1.630879044532776E-1  -3.375017642974854E-1  -8.232103586196899E-1   4.027543067932129E-1  
 3.914000000000000E7    -8.288884758949280E-1   4.046291708946228E-1  -1.630630344152451E-1  -3.360335528850555E-1  -1.632698029279709E-1  -3.363759219646454E-1  -8.227055072784424E-1   4.042642414569855E-1  
 3.916000000000000E7    -8.287168741226196E-1   4.061043262481690E-1  -1.629813164472580E-1  -3.348906934261322E-1  -1.633444726467133E-1  -3.352482914924622E-1  -8.222488164901733E-1   4.054350852966309E-1  
 3.918000000000000E7    -8.281807899475098E-1   4.076274335384369E-1  -1.631720960140228E-1  -3.341718912124634E-1  -1.633754372596741E-1  -3.338523805141449E-1  -8.219189047813416E-1   4.070618450641632E-1  
 3.920000000000000E7    -8.282612562179565E-1   4.089719355106354E-1  -1.636120378971100E-1  -3.325087726116180E-1  -1.636495739221573E-1  -3.326002061367035E-1  -8.218630552291870E-1   4.085244238376617E-1  
 3.922000000000000E7    -8.278031349182129E-1   4.105056822299957E-1  -1.633585840463638E-1  -3.316670060157776E-1  -1.634993702173233E-1  -3.314282000064850E-1  -8.212613463401794E-1   4.101256132125855E-1  
 3.924000000000000E7    -8.276674151420593E-1   4.120190143585205E-1  -1.634938418865204E-1  -3.307223021984100E-1  -1.637089997529984E-1  -3.305835127830505E-1  -8.211445808410645E-1   4.116931557655335E-1  
 3.926000000000000E7    -8.274286389350891E-1   4.132781922817230E-1  -1.631833910942078E-1  -3.290185928344727E-1  -1.635623276233673E-1  -3.289545476436615E-1  -8.207953572273254E-1   4.130831956863403E-1  
 3.928000000000000E7    -8.270698785781860E-1   4.149101972579956E-1  -1.634964048862457E-1  -3.278112113475800E-1  -1.638102233409882E-1  -3.279242813587189E-1  -8.204842209815979E-1   4.145936965942383E-1  
 3.930000000000000E7    -8.269264698028565E-1   4.160583913326263E-1  -1.632995307445526E-1  -3.266042768955231E-1  -1.636005342006683E-1  -3.267561793327332E-1  -8.200755715370178E-1   4.159916639328003E-1  
 3.932000000000000E7    -8.266626596450806E-1   4.177675247192383E-1  -1.637292653322220E-1  -3.254339098930359E-1  -1.639297902584076E-1  -3.255921602249146E-1  -8.198763728141785E-1   4.173555970191956E-1  
 3.934000000000000E7    -8.262671828269959E-1   4.193305969238281E-1  -1.632686406373978E-1  -3.240944445133209E-1  -1.639009118080139E-1  -3.242098391056061E-1  -8.199088573455811E-1   4.187065958976746E-1  
 3.936000000000000E7    -8.259361982345581E-1   4.207221567630768E-1  -1.637639403343201E-1  -3.233338594436646E-1  -1.640665233135223E-1  -3.232724070549011E-1  -8.195005655288696E-1   4.204687476158142E-1  
 3.938000000000000E7    -8.252348303794861E-1   4.223977029323578E-1  -1.634309291839600E-1  -3.220952153205872E-1  -1.638993918895721E-1  -3.216400444507599E-1  -8.194200396537781E-1   4.219132959842682E-1  
 3.940000000000000E7    -8.255332708358765E-1   4.237766563892365E-1  -1.637906134128571E-1  -3.208714127540588E-1  -1.641341000795364E-1  -3.206484317779541E-1  -8.190873265266419E-1   4.234443008899689E-1  
 3.942000000000000E7    -8.253645300865173E-1   4.252187013626099E-1  -1.638005226850510E-1  -3.196659088134766E-1  -1.640228629112244E-1  -3.197411000728607E-1  -8.191229701042175E-1   4.248301982879639E-1  
 3.944000000000000E7    -8.248090744018555E-1   4.266377389431000E-1  -1.637217700481415E-1  -3.186352849006653E-1  -1.640513986349106E-1  -3.184245824813843E-1  -8.187674880027771E-1   4.264203011989594E-1  
 3.946000000000000E7    -8.244321942329407E-1   4.279519021511078E-1  -1.637417674064636E-1  -3.172529041767120E-1  -1.639969199895859E-1  -3.170218467712402E-1  -8.179147839546204E-1   4.279059469699860E-1  
 3.948000000000000E7    -8.244320154190064E-1   4.296598136425018E-1  -1.638564914464951E-1  -3.162118792533875E-1  -1.641857624053955E-1  -3.164122998714447E-1  -8.179795742034912E-1   4.295616149902344E-1  
 3.950000000000000E7    -8.235003352165222E-1   4.311190247535706E-1  -1.638729572296143E-1  -3.148671686649323E-1  -1.641337573528290E-1  -3.149982392787933E-1  -8.174911141395569E-1   4.309387207031250E-1  
 3.952000000000000E7    -8.234973549842835E-1   4.325253367424011E-1  -1.640413105487824E-1  -3.138808906078339E-1  -1.640380322933197E-1  -3.139097094535828E-1  -8.172906041145325E-1   4.322889447212219E-1  
 3.954000000000000E7    -8.231440782546997E-1   4.339119195938110E-1  -1.638217568397522E-1  -3.126517236232758E-1  -1.640294492244721E-1  -3.128188550472260E-1  -8.166275620460510E-1   4.336372017860413E-1  
 3.956000000000000E7    -8.228082656860352E-1   4.354181587696075E-1  -1.638501584529877E-1  -3.112635314464569E-1  -1.639690399169922E-1  -3.112184405326843E-1  -8.166248798370361E-1   4.351342320442200E-1  
 3.958000000000000E7    -8.224623799324036E-1   4.370955824851990E-1  -1.636466681957245E-1  -3.104654848575592E-1  -1.640506386756897E-1  -3.102709650993347E-1  -8.165202736854553E-1   4.361413717269898E-1  
 3.960000000000000E7    -8.221585750579834E-1   4.384730458259583E-1  -1.638769805431366E-1  -3.092266619205475E-1  -1.638415008783341E-1  -3.091710805892944E-1  -8.158369064331055E-1   4.376809895038605E-1  
 3.962000000000000E7    -8.219544887542725E-1   4.400624036788940E-1  -1.635412871837616E-1  -3.081242442131043E-1  -1.640672534704208E-1  -3.080207407474518E-1  -8.156152963638306E-1   4.393334090709686E-1  
 3.964000000000000E7    -8.215764164924622E-1   4.411146342754364E-1  -1.637451499700546E-1  -3.067252635955811E-1  -1.640345454216003E-1  -3.067954182624817E-1  -8.149295449256897E-1   4.404268860816956E-1  
 3.966000000000000E7    -8.211439251899719E-1   4.427587389945984E-1  -1.639218032360077E-1  -3.054455816745758E-1  -1.642201989889145E-1  -3.057493269443512E-1  -8.145726323127747E-1   4.419528841972351E-1  
 3.968000000000000E7    -8.208820223808289E-1   4.438844025135040E-1  -1.635990440845490E-1  -3.044646084308624E-1  -1.637721955776215E-1  -3.043234944343567E-1  -8.146584033966065E-1   4.434883594512940E-1  
 3.970000000000000E7    -8.208267688751221E-1   4.453843235969544E-1  -1.637924611568451E-1  -3.034858107566834E-1  -1.640504896640778E-1  -3.034287989139557E-1  -8.141831755638123E-1   4.448562562465668E-1  
 3.972000000000000E7    -8.200649023056030E-1   4.469039440155029E-1  -1.636372357606888E-1  -3.021389544010162E-1  -1.637935191392899E-1  -3.022688329219818E-1  -8.135913610458374E-1   4.464873075485230E-1  
 3.974000000000000E7    -8.198162317276001E-1   4.481402635574341E-1  -1.635226905345917E-1  -3.009527325630188E-1  -1.638488769531250E-1  -3.009184896945953E-1  -8.134381771087647E-1   4.477977752685547E-1  
 3.976000000000000E7    -8.195672631263733E-1   4.497533142566681E-1  -1.636816859245300E-1  -3.000093102455139E-1  -1.640726625919342E-1  -2.998400628566742E-1  -8.131939172744751E-1   4.493524134159088E-1  
 3.978000000000000E7    -8.193042278289795E-1   4.512062370777130E-1  -1.635769009590149E-1  -2.987564504146576E-1  -1.638078689575195E-1  -2.988936603069305E-1  -8.125052452087402E-1   4.503021240234375E-1  
 3.980000000000000E7    -8.189018964767456E-1   4.528044164180756E-1  -1.635102033615112E-1  -2.978113591670990E-1  -1.636671721935272E-1  -2.978014349937439E-1  -8.125061392784119E-1   4.519357979297638E-1  
 3.982000000000000E7    -8.186199069023132E-1   4.541431963443756E-1  -1.634256690740585E-1  -2.966868579387665E-1  -1.637625694274902E-1  -2.967327535152435E-1  -8.120408654212952E-1   4.532611668109894E-1  
 3.984000000000000E7    -8.182110786437988E-1   4.555779993534088E-1  -1.636958569288254E-1  -2.955777347087860E-1  -1.637996435165405E-1  -2.951848804950714E-1  -8.116770386695862E-1   4.547869861125946E-1  
 3.986000000000000E7    -8.177019357681274E-1   4.569486975669861E-1  -1.636824607849121E-1  -2.942470312118530E-1  -1.639415174722672E-1  -2.942457795143127E-1  -8.110952377319336E-1   4.560052156448364E-1  
 3.988000000000000E7    -8.173279762268066E-1   4.579963684082031E-1  -1.632910072803497E-1  -2.932569086551666E-1  -1.637146323919296E-1  -2.932515442371368E-1  -8.106666803359985E-1   4.574475586414337E-1  
 3.990000000000000E7    -8.169437050819397E-1   4.600129425525665E-1  -1.634372770786285E-1  -2.920280098915100E-1  -1.638004779815674E-1  -2.919788658618927E-1  -8.107258677482605E-1   4.590744078159332E-1  
 3.992000000000000E7    -8.167211413383484E-1   4.609836637973785E-1  -1.633872091770172E-1  -2.909782826900482E-1  -1.636385917663574E-1  -2.908418178558350E-1  -8.100614547729492E-1   4.603448808193207E-1  
 3.994000000000000E7    -8.164850473403931E-1   4.624570012092590E-1  -1.632766872644424E-1  -2.898041605949402E-1  -1.636748015880585E-1  -2.895796298980713E-1  -8.098234534263611E-1   4.618393778800964E-1  
 3.996000000000000E7    -8.155934214591980E-1   4.638550281524658E-1  -1.629654467105866E-1  -2.887755632400513E-1  -1.634902507066727E-1  -2.888704240322113E-1  -8.094022870063782E-1   4.631892144680023E-1  
 3.998000000000000E7    -8.155834078788757E-1   4.650791287422180E-1  -1.631356775760651E-1  -2.874516844749451E-1  -1.634377241134644E-1  -2.874869704246521E-1  -8.089838027954102E-1   4.642353057861328E-1  
 4.000000000000000E7    -8.148999810218811E-1   4.670044183731079E-1  -1.631720513105393E-1  -2.865398526191711E-1  -1.635919213294983E-1  -2.863970100879669E-1  -8.087220191955566E-1   4.656846225261688E-1  
 4.002000000000000E7    -8.147810697555542E-1   4.680971801280975E-1  -1.629526615142822E-1  -2.854883372783661E-1  -1.632918715476990E-1  -2.853017449378967E-1  -8.084280490875244E-1   4.672960638999939E-1  
 4.004000000000000E7    -8.142890930175781E-1   4.697301685810089E-1  -1.630547940731049E-1  -2.842692732810974E-1  -1.633678227663040E-1  -2.842720150947571E-1  -8.077641129493713E-1   4.686264395713806E-1  
 4.006000000000000E7    -8.138754963874817E-1   4.708088636398315E-1  -1.629794389009476E-1  -2.834762334823608E-1  -1.632002741098404E-1  -2.831450998783112E-1  -8.075245022773743E-1   4.700939953327179E-1  
 4.008000000000000E7    -8.136650919914246E-1   4.722645580768585E-1  -1.631245762109757E-1  -2.824060022830963E-1  -1.630762368440628E-1  -2.822987437248230E-1  -8.070479035377502E-1   4.714142084121704E-1  
 4.010000000000000E7    -8.131502866744995E-1   4.733313620090485E-1  -1.627595573663712E-1  -2.811514437198639E-1  -1.630636602640152E-1  -2.809419631958008E-1  -8.063602447509766E-1   4.728158414363861E-1  
 4.012000000000000E7    -8.131345510482788E-1   4.748760759830475E-1  -1.625513136386871E-1  -2.799498736858368E-1  -1.630171835422516E-1  -2.798493504524231E-1  -8.061406612396240E-1   4.741593599319458E-1  
 4.014000000000000E7    -8.122183084487915E-1   4.761629402637482E-1  -1.624135076999664E-1  -2.787914872169495E-1  -1.629968285560608E-1  -2.786751687526703E-1  -8.055044412612915E-1   4.754553735256195E-1  
 4.016000000000000E7    -8.118655681610107E-1   4.777954220771790E-1  -1.624214649200440E-1  -2.777305543422699E-1  -1.629152297973633E-1  -2.775671482086182E-1  -8.052977919578552E-1   4.765437245368958E-1  
 4.018000000000000E7    -8.110649585723877E-1   4.790994226932526E-1  -1.623088568449020E-1  -2.767187952995300E-1  -1.628741919994354E-1  -2.764339447021484E-1  -8.048545122146606E-1   4.781417548656464E-1  
 4.020000000000000E7    -8.110499382019043E-1   4.806516468524933E-1  -1.623002886772156E-1  -2.758995890617371E-1  -1.626720726490021E-1  -2.758036255836487E-1  -8.047879934310913E-1   4.795700311660767E-1  
 4.022000000000000E7    -8.108645677566528E-1   4.816408157348633E-1  -1.621984243392944E-1  -2.745355069637299E-1  -1.624514758586884E-1  -2.748071551322937E-1  -8.041290044784546E-1   4.811281561851502E-1  
 4.024000000000000E7    -8.103216290473938E-1   4.831576943397522E-1  -1.621244251728058E-1  -2.735309600830078E-1  -1.624390482902527E-1  -2.732541263103485E-1  -8.037279844284058E-1   4.824062883853912E-1  
 4.026000000000000E7    -8.097463846206665E-1   4.844594299793243E-1  -1.622756421566010E-1  -2.722265422344208E-1  -1.624010205268860E-1  -2.723466157913208E-1  -8.031127452850342E-1   4.833469986915588E-1  
 4.028000000000000E7    -8.096295595169067E-1   4.859061539173126E-1  -1.618458181619644E-1  -2.715247571468353E-1  -1.622134596109390E-1  -2.713426351547241E-1  -8.030095696449280E-1   4.846205115318298E-1  
 4.030000000000000E7    -8.089471459388733E-1   4.873147606849670E-1  -1.615423113107681E-1  -2.703357040882111E-1  -1.620599776506424E-1  -2.702757120132446E-1  -8.024436831474304E-1   4.860648512840271E-1  
 4.032000000000000E7    -8.086175322532654E-1   4.883562624454498E-1  -1.618043482303619E-1  -2.693593502044678E-1  -1.617152690887451E-1  -2.692308425903320E-1  -8.019811511039734E-1   4.876012504100800E-1  
 4.034000000000000E7    -8.083676695823669E-1   4.898379445075989E-1  -1.613753288984299E-1  -2.681311964988709E-1  -1.618690341711044E-1  -2.681995928287506E-1  -8.014146685600281E-1   4.884275496006012E-1  
 4.036000000000000E7    -8.080700039863586E-1   4.913960099220276E-1  -1.617941558361054E-1  -2.671660184860230E-1  -1.617068350315094E-1  -2.671711742877960E-1  -8.008786439895630E-1   4.902734756469727E-1  
 4.038000000000000E7    -8.072221875190735E-1   4.925841987133026E-1  -1.613346487283707E-1  -2.660099565982819E-1  -1.616375744342804E-1  -2.659463286399841E-1  -8.005906939506531E-1   4.913988113403320E-1  
 4.040000000000000E7    -8.069624900817871E-1   4.938667416572571E-1  -1.613883227109909E-1  -2.651972770690918E-1  -1.616820544004440E-1  -2.648556232452393E-1  -8.002031445503235E-1   4.928055107593536E-1  
 4.042000000000000E7    -8.061925768852234E-1   4.953860342502594E-1  -1.612303256988525E-1  -2.641039490699768E-1  -1.613111346960068E-1  -2.638673484325409E-1  -7.999182939529419E-1   4.940423071384430E-1  
 4.044000000000000E7    -8.059529662132263E-1   4.968347847461700E-1  -1.609772890806198E-1  -2.628205716609955E-1  -1.614432930946350E-1  -2.629123330116272E-1  -7.991099953651428E-1   4.955763220787048E-1  
 4.046000000000000E7    -8.054633140563965E-1   4.979952573776245E-1  -1.608452498912811E-1  -2.618321180343628E-1  -1.609311848878861E-1  -2.618714869022369E-1  -7.991818189620972E-1   4.969198405742645E-1  
 4.048000000000000E7    -8.053669929504395E-1   4.991650283336639E-1  -1.608882099390030E-1  -2.608487904071808E-1  -1.610090434551239E-1  -2.609423995018005E-1  -7.981202006340027E-1   4.983645677566528E-1  
 4.050000000000000E7    -8.047478795051575E-1   5.004236102104187E-1  -1.607548296451569E-1  -2.597759366035461E-1  -1.608152836561203E-1  -2.595393359661102E-1  -7.977961301803589E-1   4.993279874324799E-1  
 4.052000000000000E7    -8.043510317802429E-1   5.020505189895630E-1  -1.606298387050629E-1  -2.591038644313812E-1  -1.609228551387787E-1  -2.587679922580719E-1  -7.976886034011841E-1   5.007199645042419E-1  
 4.054000000000000E7    -8.036558032035828E-1   5.031741857528687E-1  -1.604741960763931E-1  -2.578774690628052E-1  -1.606287062168121E-1  -2.577602863311768E-1  -7.968809008598328E-1   5.020892620086670E-1  
 4.056000000000000E7    -8.033204078674316E-1   5.045126676559448E-1  -1.599622070789337E-1  -2.567036747932434E-1  -1.605067998170853E-1  -2.565267384052277E-1  -7.965197563171387E-1   5.034447908401489E-1  
 4.058000000000000E7    -8.028811216354370E-1   5.057256817817688E-1  -1.600601077079773E-1  -2.557782530784607E-1  -1.602721065282822E-1  -2.555866837501526E-1  -7.962648272514343E-1   5.050304532051086E-1  
 4.060000000000000E7    -8.024727106094360E-1   5.074819326400757E-1  -1.599495112895966E-1  -2.546363472938538E-1  -1.602279245853424E-1  -2.545704841613770E-1  -7.955483794212341E-1   5.058677792549133E-1  
 4.062000000000000E7    -8.016852736473084E-1   5.083763003349304E-1  -1.598739922046661E-1  -2.536527216434479E-1  -1.601031422615051E-1  -2.534470856189728E-1  -7.952956557273865E-1   5.072121620178223E-1  
 4.064000000000000E7    -8.011738657951355E-1   5.099433660507202E-1  -1.596304178237915E-1  -2.524116635322571E-1  -1.598278880119324E-1  -2.527073919773102E-1  -7.947524785995483E-1   5.082982778549194E-1  
 4.066000000000000E7    -8.009157180786133E-1   5.111328363418579E-1  -1.593807935714722E-1  -2.516139149665833E-1  -1.597574204206467E-1  -2.515077292919159E-1  -7.942616939544678E-1   5.095387101173401E-1  
 4.068000000000000E7    -8.003795146942139E-1   5.123878121376038E-1  -1.593765318393707E-1  -2.505562603473663E-1  -1.597083657979965E-1  -2.503689527511597E-1  -7.938482165336609E-1   5.109351873397827E-1  
 4.070000000000000E7    -7.997933030128479E-1   5.136824846267700E-1  -1.590618491172791E-1  -2.497550845146179E-1  -1.593671292066574E-1  -2.496195286512375E-1  -7.933719754219055E-1   5.122799277305603E-1  
 4.072000000000000E7    -7.995944619178772E-1   5.147974491119385E-1  -1.588742583990097E-1  -2.487121373414993E-1  -1.593866646289825E-1  -2.484159171581268E-1  -7.927280664443970E-1   5.140608549118042E-1  
 4.074000000000000E7    -7.992184162139893E-1   5.161291360855103E-1  -1.588067263364792E-1  -2.476369440555573E-1  -1.590842753648758E-1  -2.476616650819778E-1  -7.923443913459778E-1   5.150335431098938E-1  
 4.076000000000000E7    -7.986124753952026E-1   5.177186727523804E-1  -1.586265861988068E-1  -2.466270923614502E-1  -1.590328812599182E-1  -2.464331388473511E-1  -7.915859222412109E-1   5.160174369812012E-1  
 4.078000000000000E7    -7.980107665061951E-1   5.189240574836731E-1  -1.588566452264786E-1  -2.457956820726395E-1  -1.589428931474686E-1  -2.454685270786285E-1  -7.911297082901001E-1   5.175316333770752E-1  
 4.080000000000000E7    -7.973452806472778E-1   5.200850963592529E-1  -1.585261672735214E-1  -2.445644140243530E-1  -1.586620956659317E-1  -2.443933486938477E-1  -7.911359667778015E-1   5.188077688217163E-1  
 4.082000000000000E7    -7.972257733345032E-1   5.212925672531128E-1  -1.581824272871018E-1  -2.437924891710281E-1  -1.583340317010880E-1  -2.435338944196701E-1  -7.904399633407593E-1   5.199611783027649E-1  
 4.084000000000000E7    -7.966502308845520E-1   5.227893590927124E-1  -1.581201702356339E-1  -2.424404770135880E-1  -1.584108471870422E-1  -2.426281720399857E-1  -7.901101112365723E-1   5.214905738830566E-1  
 4.086000000000000E7    -7.960116863250732E-1   5.239234566688538E-1  -1.579564213752747E-1  -2.414899617433548E-1  -1.583232134580612E-1  -2.415352165699005E-1  -7.891835570335388E-1   5.226230025291443E-1  
 4.088000000000000E7    -7.956504821777344E-1   5.251235961914063E-1  -1.578930020332336E-1  -2.407000511884689E-1  -1.579955816268921E-1  -2.403232902288437E-1  -7.886608242988586E-1   5.237126946449280E-1  
 4.090000000000000E7    -7.949580550193787E-1   5.261946320533752E-1  -1.575701832771301E-1  -2.396403253078461E-1  -1.577536910772324E-1  -2.394444942474365E-1  -7.881926894187927E-1   5.249294638633728E-1  
 4.092000000000000E7    -7.946037650108337E-1   5.276979207992554E-1  -1.575125902891159E-1  -2.386431694030762E-1  -1.579167693853378E-1  -2.384122461080551E-1  -7.878391146659851E-1   5.265336632728577E-1  
 4.094000000000000E7    -7.941005825996399E-1   5.290605425834656E-1  -1.574870944023132E-1  -2.377150505781174E-1  -1.576304733753204E-1  -2.375167459249497E-1  -7.873726487159729E-1   5.276408195495606E-1  
 4.096000000000000E7    -7.934904694557190E-1   5.303302407264710E-1  -1.570097804069519E-1  -2.367462962865830E-1  -1.574495732784271E-1  -2.363898456096649E-1  -7.869266867637634E-1   5.287994742393494E-1  
 4.098000000000000E7    -7.930064797401428E-1   5.316777229309082E-1  -1.570553928613663E-1  -2.356149107217789E-1  -1.572451293468475E-1  -2.356806546449661E-1  -7.863065600395203E-1   5.301702022552490E-1  
 4.100000000000000E7    -7.929129600524902E-1   5.328486561775208E-1  -1.567368805408478E-1  -2.348621636629105E-1  -1.570247113704681E-1  -2.345313131809235E-1  -7.856248021125794E-1   5.314260721206665E-1  
 4.102000000000000E7    -7.920030355453491E-1   5.341692566871643E-1  -1.567547768354416E-1  -2.337628155946732E-1  -1.571063548326492E-1  -2.336502522230148E-1  -7.850729227066040E-1   5.327486395835877E-1  
 4.104000000000000E7    -7.914434671401978E-1   5.355306863784790E-1  -1.564988195896149E-1  -2.327062934637070E-1  -1.565756499767304E-1  -2.326159626245499E-1  -7.848821878433228E-1   5.339301228523254E-1  
 4.106000000000000E7    -7.908049225807190E-1   5.363812446594238E-1  -1.563176214694977E-1  -2.318924516439438E-1  -1.565986871719360E-1  -2.316221147775650E-1  -7.843169569969177E-1   5.348963737487793E-1  
 4.108000000000000E7    -7.904213070869446E-1   5.378376841545105E-1  -1.558999717235565E-1  -2.308888882398605E-1  -1.562381535768509E-1  -2.306410521268845E-1  -7.835281491279602E-1   5.363225936889648E-1  
 4.110000000000000E7    -7.896268367767334E-1   5.391263365745544E-1  -1.560229212045670E-1  -2.299461364746094E-1  -1.561633795499802E-1  -2.296608984470367E-1  -7.831346988677979E-1   5.378913879394531E-1  
 4.112000000000000E7    -7.892915606498718E-1   5.405514240264893E-1  -1.560069322586060E-1  -2.289330810308456E-1  -1.558582782745361E-1  -2.288145869970322E-1  -7.828919887542725E-1   5.390047430992127E-1  
 4.114000000000000E7    -7.886145710945129E-1   5.414611101150513E-1  -1.555347442626953E-1  -2.277823835611343E-1  -1.556439995765686E-1  -2.276703119277954E-1  -7.823095321655273E-1   5.399683117866516E-1  
 4.116000000000000E7    -7.885725498199463E-1   5.427106618881226E-1  -1.554228067398071E-1  -2.271222025156021E-1  -1.554303765296936E-1  -2.268263250589371E-1  -7.816559672355652E-1   5.412324666976929E-1  
 4.118000000000000E7    -7.876766920089722E-1   5.441743731498718E-1  -1.552467197179794E-1  -2.261317223310471E-1  -1.554734557867050E-1  -2.258098274469376E-1  -7.811203002929688E-1   5.428510308265686E-1  
 4.120000000000000E7    -7.871432304382324E-1   5.452620983123779E-1  -1.548424959182739E-1  -2.250408977270126E-1  -1.549359709024429E-1  -2.248412668704987E-1  -7.804266214370728E-1   5.437017083168030E-1  
 4.122000000000000E7    -7.867616415023804E-1   5.465853214263916E-1  -1.547473073005676E-1  -2.242729216814041E-1  -1.547228097915649E-1  -2.241817414760590E-1  -7.801686525344849E-1   5.448876619338989E-1  
 4.124000000000000E7    -7.864095568656921E-1   5.481626987457275E-1  -1.544840931892395E-1  -2.233103513717651E-1  -1.547313183546066E-1  -2.231750786304474E-1  -7.794857621192932E-1   5.458316802978516E-1  
 4.126000000000000E7    -7.854191064834595E-1   5.486606955528259E-1  -1.541090905666351E-1  -2.223380357027054E-1  -1.542778462171555E-1  -2.221308499574661E-1  -7.791411876678467E-1   5.472632050514221E-1  
 4.128000000000000E7    -7.849808335304260E-1   5.502631664276123E-1  -1.541399061679840E-1  -2.214187830686569E-1  -1.544171571731567E-1  -2.210999876260757E-1  -7.786386609077454E-1   5.484715104103088E-1  
 4.130000000000000E7    -7.846072912216187E-1   5.512434840202332E-1  -1.539529412984848E-1  -2.202154844999313E-1  -1.541195362806320E-1  -2.201203852891922E-1  -7.777941823005676E-1   5.502046942710877E-1  
 4.132000000000000E7    -7.839615345001221E-1   5.525278449058533E-1  -1.536312997341156E-1  -2.194739133119583E-1  -1.540830433368683E-1  -2.191683202981949E-1  -7.772474288940430E-1   5.508432984352112E-1  
 4.134000000000000E7    -7.830663919448853E-1   5.539516806602478E-1  -1.534319519996643E-1  -2.185309827327728E-1  -1.537536680698395E-1  -2.183072715997696E-1  -7.768769860267639E-1   5.521919727325440E-1  
 4.136000000000000E7    -7.826965451240540E-1   5.551124811172485E-1  -1.531356424093247E-1  -2.175389528274536E-1  -1.535791903734207E-1  -2.174400538206101E-1  -7.761325240135193E-1   5.534040331840515E-1  
 4.138000000000000E7    -7.823229432106018E-1   5.563498735427856E-1  -1.531716883182526E-1  -2.165288925170898E-1  -1.533777564764023E-1  -2.166496515274048E-1  -7.754235267639160E-1   5.546441674232483E-1  
 4.140000000000000E7    -7.818780541419983E-1   5.574730634689331E-1  -1.527910679578781E-1  -2.158065885305405E-1  -1.529019623994827E-1  -2.155073583126068E-1  -7.749857902526856E-1   5.558607578277588E-1  
 4.142000000000000E7    -7.809679508209229E-1   5.587277412414551E-1  -1.526930481195450E-1  -2.146058380603790E-1  -1.529048234224320E-1  -2.146283090114594E-1  -7.742527723312378E-1   5.569556951522827E-1  
 4.144000000000000E7    -7.807227969169617E-1   5.599779486656189E-1  -1.525381803512573E-1  -2.136793136596680E-1  -1.525005549192429E-1  -2.136609256267548E-1  -7.738237977027893E-1   5.582157373428345E-1  
 4.146000000000000E7    -7.799855470657349E-1   5.610871911048889E-1  -1.521247774362564E-1  -2.129271924495697E-1  -1.524332910776138E-1  -2.127157002687454E-1  -7.734552621841431E-1   5.593571066856384E-1  
 4.148000000000000E7    -7.797912955284119E-1   5.621509552001953E-1  -1.518551856279373E-1  -2.122519761323929E-1  -1.522082984447479E-1  -2.118541300296783E-1  -7.729413509368897E-1   5.606071949005127E-1  
 4.150000000000000E7    -7.791621685028076E-1   5.631515383720398E-1  -1.517069339752197E-1  -2.113315910100937E-1  -1.517183333635330E-1  -2.111213207244873E-1  -7.724483609199524E-1   5.618135333061218E-1  
 4.152000000000000E7    -7.782627940177918E-1   5.643659830093384E-1  -1.515192389488220E-1  -2.101917266845703E-1  -1.516394168138504E-1  -2.100210338830948E-1  -7.718283534049988E-1   5.631204247474670E-1  
 4.154000000000000E7    -7.780441641807556E-1   5.658954977989197E-1  -1.512922197580338E-1  -2.094218581914902E-1  -1.515392810106278E-1  -2.091533094644547E-1  -7.711216807365418E-1   5.641368627548218E-1  
 4.156000000000000E7    -7.772960066795349E-1   5.670434832572937E-1  -1.509293317794800E-1  -2.083090543746948E-1  -1.513074785470963E-1  -2.083513885736466E-1  -7.705952525138855E-1   5.653665661811829E-1  
 4.158000000000000E7    -7.769241333007813E-1   5.679871439933777E-1  -1.507002264261246E-1  -2.076190859079361E-1  -1.510164439678192E-1  -2.073354870080948E-1  -7.698420286178589E-1   5.663185119628906E-1  
 4.160000000000000E7    -7.760471105575562E-1   5.693421363830566E-1  -1.505452692508698E-1  -2.066413015127182E-1  -1.506720185279846E-1  -2.065122276544571E-1  -7.693117856979370E-1   5.677008628845215E-1  
 4.162000000000000E7    -7.755509614944458E-1   5.705204010009766E-1  -1.502721309661865E-1  -2.057722210884094E-1  -1.505739390850067E-1  -2.053647190332413E-1  -7.687176465988159E-1   5.690709352493286E-1  
 4.164000000000000E7    -7.751306295394898E-1   5.715761184692383E-1  -1.499585360288620E-1  -2.051160335540772E-1  -1.502293646335602E-1  -2.045035362243652E-1  -7.685487866401672E-1   5.699426531791687E-1  
 4.166000000000000E7    -7.743580341339111E-1   5.726631283760071E-1  -1.500110328197479E-1  -2.037673890590668E-1  -1.500609368085861E-1  -2.036351263523102E-1  -7.676801681518555E-1   5.713006258010864E-1  
 4.168000000000000E7    -7.741145491600037E-1   5.741094946861267E-1  -1.496658176183701E-1  -2.030557245016098E-1  -1.498015075922012E-1  -2.029559910297394E-1  -7.673675417900085E-1   5.722657442092896E-1  
 4.170000000000000E7    -7.732018828392029E-1   5.755504369735718E-1  -1.494614034891129E-1  -2.021352499723434E-1  -1.495497226715088E-1  -2.021140158176422E-1  -7.668949961662293E-1   5.733387470245361E-1  
 4.172000000000000E7    -7.727456092834473E-1   5.766183733940125E-1  -1.492014676332474E-1  -2.011361569166184E-1  -1.493211537599564E-1  -2.010157108306885E-1  -7.661749720573425E-1   5.745222568511963E-1  
 4.174000000000000E7    -7.718669772148132E-1   5.773579478263855E-1  -1.487535834312439E-1  -2.002982795238495E-1  -1.487864106893539E-1  -2.001347690820694E-1  -7.654024958610535E-1   5.753729939460754E-1  
 4.176000000000000E7    -7.713549733161926E-1   5.787457227706909E-1  -1.486700475215912E-1  -1.994442939758301E-1  -1.488351225852966E-1  -1.993604302406311E-1  -7.648577690124512E-1   5.768572092056274E-1  
 4.178000000000000E7    -7.710647583007813E-1   5.797982215881348E-1  -1.481675952672958E-1  -1.984635293483734E-1  -1.486406922340393E-1  -1.984180510044098E-1  -7.639407515525818E-1   5.781915783882141E-1  
 4.180000000000000E7    -7.699843645095825E-1   5.810962319374085E-1  -1.479970514774323E-1  -1.975456923246384E-1  -1.481190621852875E-1  -1.974939703941345E-1  -7.639011144638062E-1   5.789948105812073E-1  
 4.182000000000000E7    -7.700033187866211E-1   5.821728110313416E-1  -1.479777395725250E-1  -1.969518959522247E-1  -1.480351984500885E-1  -1.965997070074081E-1  -7.632818818092346E-1   5.802754163742065E-1  
 4.184000000000000E7    -7.689110636711121E-1   5.833103656768799E-1  -1.475538760423660E-1  -1.959824115037918E-1  -1.478893458843231E-1  -1.955388486385346E-1  -7.628158926963806E-1   5.813648104667664E-1  
 4.186000000000000E7    -7.684799432754517E-1   5.842868089675903E-1  -1.474111378192902E-1  -1.950020939111710E-1  -1.476171463727951E-1  -1.948231905698776E-1  -7.617654204368591E-1   5.826267600059509E-1  
 4.188000000000000E7    -7.676712870597839E-1   5.853005647659302E-1  -1.469826549291611E-1  -1.941824704408646E-1  -1.471227258443832E-1  -1.939406991004944E-1  -7.614052295684815E-1   5.837092995643616E-1  
 4.190000000000000E7    -7.675361633300781E-1   5.870396494865418E-1  -1.468002200126648E-1  -1.933319121599197E-1  -1.470289826393127E-1  -1.933119744062424E-1  -7.606891989707947E-1   5.847463607788086E-1  
 4.192000000000000E7    -7.668299674987793E-1   5.881859064102173E-1  -1.465476602315903E-1  -1.924302577972412E-1  -1.468844115734100E-1  -1.922150403261185E-1  -7.603880167007446E-1   5.859019160270691E-1  
 4.194000000000000E7    -7.658382058143616E-1   5.890412926673889E-1  -1.463222950696945E-1  -1.916217803955078E-1  -1.464768797159195E-1  -1.913780272006989E-1  -7.595456242561340E-1   5.871183276176453E-1  
 4.196000000000000E7    -7.654125690460205E-1   5.899333953857422E-1  -1.460338234901428E-1  -1.907144784927368E-1  -1.461929380893707E-1  -1.906806081533432E-1  -7.591784596443176E-1   5.882587432861328E-1  
 4.198000000000000E7    -7.649730443954468E-1   5.911730527877808E-1  -1.456521749496460E-1  -1.901775598526001E-1  -1.458727866411209E-1  -1.897095739841461E-1  -7.583862543106079E-1   5.891655087471008E-1  
 4.200000000000000E7    -7.642419338226318E-1   5.924821496009827E-1  -1.455416381359100E-1  -1.891290396451950E-1  -1.457202136516571E-1  -1.888782978057861E-1  -7.576373219490051E-1   5.905355811119080E-1  
 4.202000000000000E7    -7.635779380798340E-1   5.935785174369812E-1  -1.453035771846771E-1  -1.882691681385040E-1  -1.455943286418915E-1  -1.882608681917191E-1  -7.572084665298462E-1   5.915838479995728E-1  
 4.204000000000000E7    -7.627733945846558E-1   5.944163799285889E-1  -1.448973417282105E-1  -1.874161660671234E-1  -1.451527476310730E-1  -1.871911436319351E-1  -7.565154433250427E-1   5.927227735519409E-1  
 4.206000000000000E7    -7.622482180595398E-1   5.957413911819458E-1  -1.447871178388596E-1  -1.863706707954407E-1  -1.447354704141617E-1  -1.861421018838882E-1  -7.556305527687073E-1   5.935912728309631E-1  
 4.208000000000000E7    -7.618513703346252E-1   5.968288779258728E-1  -1.442166864871979E-1  -1.854807287454605E-1  -1.445434987545013E-1  -1.854776442050934E-1  -7.552834153175354E-1   5.944760441780090E-1  
 4.210000000000000E7    -7.614559531211853E-1   5.980991125106812E-1  -1.442195028066635E-1  -1.848804801702499E-1  -1.442721337080002E-1  -1.846335977315903E-1  -7.547478675842285E-1   5.959643125534058E-1  
 4.212000000000000E7    -7.609124183654785E-1   5.990742444992065E-1  -1.437641680240631E-1  -1.839873194694519E-1  -1.440414488315582E-1  -1.839106529951096E-1  -7.539587020874023E-1   5.971106290817261E-1  
 4.214000000000000E7    -7.597400546073914E-1   6.002021431922913E-1  -1.437433809041977E-1  -1.830491721630096E-1  -1.438182443380356E-1  -1.828452199697495E-1  -7.533013224601746E-1   5.982949733734131E-1  
 4.216000000000000E7    -7.593654990196228E-1   6.012939810752869E-1  -1.432153433561325E-1  -1.824784576892853E-1  -1.435194313526154E-1  -1.819590926170349E-1  -7.529473900794983E-1   5.992770791053772E-1  
 4.218000000000000E7    -7.585118412971497E-1   6.025295257568359E-1  -1.431131958961487E-1  -1.813677400350571E-1  -1.432845741510391E-1  -1.811426430940628E-1  -7.521469593048096E-1   6.005589962005615E-1  
 4.220000000000000E7    -7.582489252090454E-1   6.036329269409180E-1  -1.427284032106400E-1  -1.806209236383438E-1  -1.429597735404968E-1  -1.802979707717896E-1  -7.513245940208435E-1   6.014560461044312E-1  
 4.222000000000000E7    -7.572906017303467E-1   6.049557924270630E-1  -1.426126956939697E-1  -1.796158552169800E-1  -1.428222060203552E-1  -1.794329136610031E-1  -7.505338788032532E-1   6.024743914604187E-1  
 4.224000000000000E7    -7.570784091949463E-1   6.057239174842835E-1  -1.422350108623505E-1  -1.789065599441528E-1  -1.423699259757996E-1  -1.787512153387070E-1  -7.500559687614441E-1   6.036541461944580E-1  
 4.226000000000000E7    -7.562577724456787E-1   6.071463823318481E-1  -1.419826596975327E-1  -1.781991869211197E-1  -1.419934779405594E-1  -1.778138875961304E-1  -7.494427561759949E-1   6.046277284622192E-1  
 4.228000000000000E7    -7.556553483009338E-1   6.080795526504517E-1  -1.415563970804215E-1  -1.773036867380142E-1  -1.417164951562882E-1  -1.771051734685898E-1  -7.489482760429382E-1   6.056836247444153E-1  
 4.230000000000000E7    -7.548964023590088E-1   6.092496514320374E-1  -1.414667516946793E-1  -1.765178442001343E-1  -1.416798382997513E-1  -1.764029860496521E-1  -7.484288215637207E-1   6.069687008857727E-1  
 4.232000000000000E7    -7.542214393615723E-1   6.102516055107117E-1  -1.410837471485138E-1  -1.756946146488190E-1  -1.411078274250031E-1  -1.753291338682175E-1  -7.473360896110535E-1   6.080144047737122E-1  
 4.234000000000000E7    -7.535558342933655E-1   6.113157868385315E-1  -1.407408118247986E-1  -1.749017536640167E-1  -1.409675925970078E-1  -1.745467633008957E-1  -7.471545934677124E-1   6.090521216392517E-1  
 4.236000000000000E7    -7.530958056449890E-1   6.127052307128906E-1  -1.405132263898850E-1  -1.740600615739822E-1  -1.406704038381577E-1  -1.737479269504547E-1  -7.465422153472900E-1   6.100779175758362E-1  
 4.238000000000000E7    -7.522615790367127E-1   6.132602691650391E-1  -1.402293443679810E-1  -1.732019037008286E-1  -1.403205990791321E-1  -1.730276048183441E-1  -7.457146644592285E-1   6.114595532417297E-1  
 4.240000000000000E7    -7.514794468879700E-1   6.146846413612366E-1  -1.399800926446915E-1  -1.726330220699310E-1  -1.399865448474884E-1  -1.721291095018387E-1  -7.451332807540894E-1   6.119441390037537E-1  
 4.242000000000000E7    -7.507498860359192E-1   6.154727339744568E-1  -1.396151781082153E-1  -1.716411113739014E-1  -1.396128237247467E-1  -1.713001430034638E-1  -7.446544170379639E-1   6.136127114295960E-1  
 4.244000000000000E7    -7.501550316810608E-1   6.166923046112061E-1  -1.391894966363907E-1  -1.708447933197022E-1  -1.393834054470062E-1  -1.706645488739014E-1  -7.440850138664246E-1   6.143140196800232E-1  
 4.246000000000000E7    -7.494870424270630E-1   6.181914210319519E-1  -1.390220820903778E-1  -1.699935048818588E-1  -1.393343508243561E-1  -1.697335690259934E-1  -7.432141900062561E-1   6.152514219284058E-1  
 4.248000000000000E7    -7.492768764495850E-1   6.188387274742127E-1  -1.386089324951172E-1  -1.692256927490234E-1  -1.387747079133987E-1  -1.688900142908096E-1  -7.426452636718750E-1   6.162132024765015E-1  
 4.250000000000000E7    -7.487689256668091E-1   6.199039816856384E-1  -1.384976506233215E-1  -1.683526635169983E-1  -1.385576874017716E-1  -1.682809144258499E-1  -7.417243719100952E-1   6.174221634864807E-1  
 4.252000000000000E7    -7.480433583259583E-1   6.214664578437805E-1  -1.382767707109451E-1  -1.676141619682312E-1  -1.383052021265030E-1  -1.675451695919037E-1  -7.415809631347656E-1   6.187449097633362E-1  
 4.254000000000000E7    -7.472702264785767E-1   6.221987605094910E-1  -1.378827989101410E-1  -1.665115505456924E-1  -1.380263268947601E-1  -1.665781587362289E-1  -7.404622435569763E-1   6.198064684867859E-1  
 4.256000000000000E7    -7.462007999420166E-1   6.230998635292053E-1  -1.374304890632629E-1  -1.658449023962021E-1  -1.376820802688599E-1  -1.657077521085739E-1  -7.401226758956909E-1   6.205464005470276E-1  
 4.258000000000000E7    -7.457941174507141E-1   6.240825653076172E-1  -1.371479630470276E-1  -1.650618016719818E-1  -1.371886581182480E-1  -1.648589521646500E-1  -7.392309904098511E-1   6.218066811561585E-1  
 4.260000000000000E7    -7.451688051223755E-1   6.252911686897278E-1  -1.369245797395706E-1  -1.643940806388855E-1  -1.369364857673645E-1  -1.641673743724823E-1  -7.386881113052368E-1   6.226878762245178E-1  
 4.262000000000000E7    -7.447500228881836E-1   6.264339685440064E-1  -1.366387605667114E-1  -1.636810600757599E-1  -1.366885155439377E-1  -1.634497046470642E-1  -7.382514476776123E-1   6.239119768142700E-1  
 4.264000000000000E7    -7.438881993293762E-1   6.275190711021423E-1  -1.362522095441818E-1  -1.628873944282532E-1  -1.363148689270020E-1  -1.625022888183594E-1  -7.374805808067322E-1   6.251125931739807E-1  
 4.266000000000000E7    -7.432294487953186E-1   6.285897493362427E-1  -1.360999792814255E-1  -1.620791107416153E-1  -1.362063288688660E-1  -1.620037257671356E-1  -7.368389368057251E-1   6.259943842887878E-1  
 4.268000000000000E7    -7.426013946533203E-1   6.293207406997681E-1  -1.356380730867386E-1  -1.613072156906128E-1  -1.356578469276428E-1  -1.609457135200501E-1  -7.362971305847168E-1   6.269886493682861E-1  
 4.270000000000000E7    -7.418882250785828E-1   6.301714181900024E-1  -1.353836357593536E-1  -1.604683697223663E-1  -1.352864503860474E-1  -1.601382046937943E-1  -7.352051734924316E-1   6.281070709228516E-1  
 4.272000000000000E7    -7.411298155784607E-1   6.316967606544495E-1  -1.350681334733963E-1  -1.598374098539352E-1  -1.351033896207809E-1  -1.593478173017502E-1  -7.349385619163513E-1   6.293061375617981E-1  
 4.274000000000000E7    -7.407803535461426E-1   6.329170465469360E-1  -1.348719149827957E-1  -1.589403003454208E-1  -1.348150521516800E-1  -1.587300449609757E-1  -7.338543534278870E-1   6.300779581069946E-1  
 4.276000000000000E7    -7.400507926940918E-1   6.335611343383789E-1  -1.344425380229950E-1  -1.582207530736923E-1  -1.345458477735519E-1  -1.577669531106949E-1  -7.335105538368225E-1   6.315459012985230E-1  
 4.278000000000000E7    -7.392718791961670E-1   6.349309086799622E-1  -1.341071128845215E-1  -1.573880612850189E-1  -1.344513446092606E-1  -1.571701914072037E-1  -7.328197360038757E-1   6.324111819267273E-1  
 4.280000000000000E7    -7.382571697235107E-1   6.357671022415161E-1  -1.338519603013992E-1  -1.565863639116287E-1  -1.338499188423157E-1  -1.563575863838196E-1  -7.321773767471314E-1   6.333448290824890E-1  
 4.282000000000000E7    -7.381225824356079E-1   6.367275714874268E-1  -1.334097385406494E-1  -1.558289825916290E-1  -1.335292607545853E-1  -1.555349528789520E-1  -7.311125993728638E-1   6.344225406646729E-1  
 4.284000000000000E7    -7.372810840606690E-1   6.379266381263733E-1  -1.331807374954224E-1  -1.552021503448486E-1  -1.331461220979691E-1  -1.548954844474793E-1  -7.308734059333801E-1   6.351529359817505E-1  
 4.286000000000000E7    -7.366749048233032E-1   6.387557387351990E-1  -1.327181309461594E-1  -1.544051766395569E-1  -1.329034566879273E-1  -1.541238427162170E-1  -7.301959991455078E-1   6.362994909286499E-1  
 4.288000000000000E7    -7.357693910598755E-1   6.398929357528687E-1  -1.324320733547211E-1  -1.536361724138260E-1  -1.325998157262802E-1  -1.534165591001511E-1  -7.293822169303894E-1   6.372590065002441E-1  
 4.290000000000000E7    -7.353445887565613E-1   6.410365700721741E-1  -1.322439759969711E-1  -1.527547538280487E-1  -1.324104964733124E-1  -1.526125371456146E-1  -7.287777066230774E-1   6.381671428680420E-1  
 4.292000000000000E7    -7.344426512718201E-1   6.421115398406982E-1  -1.318509727716446E-1  -1.518887579441071E-1  -1.320941001176834E-1  -1.518820226192474E-1  -7.281082272529602E-1   6.392982006072998E-1  
 4.294000000000000E7    -7.339192628860474E-1   6.430774331092835E-1  -1.314908862113953E-1  -1.514839380979538E-1  -1.315460950136185E-1  -1.511570364236832E-1  -7.276036143302918E-1   6.404569149017334E-1  
 4.296000000000000E7    -7.330321669578552E-1   6.437425613403320E-1  -1.311980783939362E-1  -1.505143493413925E-1  -1.312497854232788E-1  -1.502619981765747E-1  -7.270334959030151E-1   6.413906216621399E-1  
 4.298000000000000E7    -7.324261069297791E-1   6.448692083358765E-1  -1.307795196771622E-1  -1.497618108987808E-1  -1.308923512697220E-1  -1.496324390172958E-1  -7.262477278709412E-1   6.423554420471191E-1  
 4.300000000000000E7    -7.312818765640259E-1   6.456905007362366E-1  -1.305966377258301E-1  -1.490392237901688E-1  -1.305948495864868E-1  -1.487691253423691E-1  -7.253727912902832E-1   6.432027220726013E-1  
 4.302000000000000E7    -7.313396334648132E-1   6.471906304359436E-1  -1.303706616163254E-1  -1.481956839561462E-1  -1.301743388175964E-1  -1.482343971729279E-1  -7.247910499572754E-1   6.440633535385132E-1  
 4.304000000000000E7    -7.304392457008362E-1   6.479839682579041E-1  -1.298300176858902E-1  -1.475940793752670E-1  -1.298817992210388E-1  -1.473412960767746E-1  -7.238333225250244E-1   6.452640891075134E-1  
 4.306000000000000E7    -7.297745943069458E-1   6.491671204566956E-1  -1.294687688350678E-1  -1.467939019203186E-1  -1.296592503786087E-1  -1.464796066284180E-1  -7.235339879989624E-1   6.461339592933655E-1  
 4.308000000000000E7    -7.290815114974976E-1   6.501052379608154E-1  -1.292396038770676E-1  -1.460393816232681E-1  -1.293015778064728E-1  -1.458251774311066E-1  -7.227765917778015E-1   6.471569538116455E-1  
 4.310000000000000E7    -7.282592058181763E-1   6.513388752937317E-1  -1.289291977882385E-1  -1.453786641359329E-1  -1.291141808032990E-1  -1.450907289981842E-1  -7.221111655235291E-1   6.481866836547852E-1  
 4.312000000000000E7    -7.277445197105408E-1   6.520950794219971E-1  -1.285804659128189E-1  -1.444645673036575E-1  -1.286429166793823E-1  -1.442890167236328E-1  -7.210862636566162E-1   6.493261456489563E-1  
 4.314000000000000E7    -7.268632054328919E-1   6.529771089553833E-1  -1.281913965940476E-1  -1.439017951488495E-1  -1.281706541776657E-1  -1.436746716499329E-1  -7.208031415939331E-1   6.501726508140564E-1  
 4.316000000000000E7    -7.262701392173767E-1   6.539689302444458E-1  -1.277341842651367E-1  -1.430677324533463E-1  -1.278880834579468E-1  -1.427571326494217E-1  -7.198258042335510E-1   6.508899927139282E-1  
 4.318000000000000E7    -7.256211042404175E-1   6.550708413124085E-1  -1.276214718818665E-1  -1.423450559377670E-1  -1.275261789560318E-1  -1.422217190265656E-1  -7.191442251205444E-1   6.518948078155518E-1  
 4.320000000000000E7    -7.250413298606873E-1   6.562266349792481E-1  -1.272821277379990E-1  -1.417344659566879E-1  -1.272809356451035E-1  -1.415273249149323E-1  -7.185596227645874E-1   6.532251834869385E-1  
 4.322000000000000E7    -7.240133285522461E-1   6.572350859642029E-1  -1.267988085746765E-1  -1.408759504556656E-1  -1.268271803855896E-1  -1.407221704721451E-1  -7.179733514785767E-1   6.537605524063110E-1  
 4.324000000000000E7    -7.232496142387390E-1   6.581062674522400E-1  -1.266543120145798E-1  -1.402505189180374E-1  -1.265911608934403E-1  -1.400310993194580E-1  -7.174016237258911E-1   6.551617383956909E-1  
 4.326000000000000E7    -7.228227257728577E-1   6.589254140853882E-1  -1.261942982673645E-1  -1.394562721252441E-1  -1.262600123882294E-1  -1.392585635185242E-1  -7.163814306259155E-1   6.558613181114197E-1  
 4.328000000000000E7    -7.218865752220154E-1   6.597127914428711E-1  -1.258373707532883E-1  -1.386318206787109E-1  -1.258611232042313E-1  -1.384073942899704E-1  -7.154239416122437E-1   6.571353673934937E-1  
 4.330000000000000E7    -7.216846942901611E-1   6.608543992042542E-1  -1.254603117704392E-1  -1.381175816059113E-1  -1.254902631044388E-1  -1.378500610589981E-1  -7.149865627288818E-1   6.580306887626648E-1  
 4.332000000000000E7    -7.205847501754761E-1   6.618989706039429E-1  -1.251978129148483E-1  -1.374699622392654E-1  -1.251149326562882E-1  -1.372114270925522E-1  -7.145425081253052E-1   6.590120792388916E-1  
 4.334000000000000E7    -7.200285196304321E-1   6.626702547073364E-1  -1.248419061303139E-1  -1.366822868585587E-1  -1.246560439467430E-1  -1.364669799804688E-1  -7.136660218238831E-1   6.598160862922669E-1  
 4.336000000000000E7    -7.193298339843750E-1   6.637126207351685E-1  -1.244400143623352E-1  -1.357751041650772E-1  -1.244554966688156E-1  -1.356571018695831E-1  -7.125889062881470E-1   6.609859466552734E-1  
 4.338000000000000E7    -7.182895541191101E-1   6.647841334342957E-1  -1.241567954421043E-1  -1.352024376392365E-1  -1.242976710200310E-1  -1.349165886640549E-1  -7.119937539100647E-1   6.617363095283508E-1  
 4.340000000000000E7    -7.176210880279541E-1   6.657466292381287E-1  -1.237652972340584E-1  -1.345136165618897E-1  -1.238814592361450E-1  -1.342132240533829E-1  -7.116370797157288E-1   6.627535820007324E-1  
 4.342000000000000E7    -7.171376347541809E-1   6.666910648345947E-1  -1.234168410301209E-1  -1.337219923734665E-1  -1.233321949839592E-1  -1.336494088172913E-1  -7.107770442962647E-1   6.637731790542603E-1  
 4.344000000000000E7    -7.164229154586792E-1   6.678206324577332E-1  -1.231341287493706E-1  -1.331367492675781E-1  -1.231164932250977E-1  -1.329760700464249E-1  -7.102608680725098E-1   6.649356484413147E-1  
 4.346000000000000E7    -7.156178355216980E-1   6.686950325965881E-1  -1.227505281567574E-1  -1.324341595172882E-1  -1.226692497730255E-1  -1.321101784706116E-1  -7.094330191612244E-1   6.654686331748962E-1  
 4.348000000000000E7    -7.151610255241394E-1   6.697632074356079E-1  -1.222866028547287E-1  -1.316766440868378E-1  -1.223312392830849E-1  -1.314839124679565E-1  -7.089739441871643E-1   6.665114760398865E-1  
 4.350000000000000E7    -7.143409252166748E-1   6.706336736679077E-1  -1.219052076339722E-1  -1.309888362884522E-1  -1.218979731202126E-1  -1.308767050504684E-1  -7.082298398017883E-1   6.673650145530701E-1  
 4.352000000000000E7    -7.135122418403626E-1   6.718700528144836E-1  -1.217129379510880E-1  -1.303762942552567E-1  -1.216820999979973E-1  -1.301938593387604E-1  -7.075923085212708E-1   6.686789989471436E-1  
 4.354000000000000E7    -7.126125693321228E-1   6.721861958503723E-1  -1.213410571217537E-1  -1.295830160379410E-1  -1.212732642889023E-1  -1.294215470552445E-1  -7.064715027809143E-1   6.694132089614868E-1  
 4.356000000000000E7    -7.123553752899170E-1   6.736425161361694E-1  -1.209977865219116E-1  -1.289988756179810E-1  -1.210559904575348E-1  -1.287615299224854E-1  -7.060433626174927E-1   6.704152822494507E-1  
 4.358000000000000E7    -7.114304900169373E-1   6.741006970405579E-1  -1.205056682229042E-1  -1.283395886421204E-1  -1.204383075237274E-1  -1.281465291976929E-1  -7.054132223129273E-1   6.708502769470215E-1  
 4.360000000000000E7    -7.107185125350952E-1   6.753087043762207E-1  -1.200700029730797E-1  -1.275169849395752E-1  -1.201784163713455E-1  -1.273280382156372E-1  -7.041149735450745E-1   6.719826459884644E-1  
 4.362000000000000E7    -7.101357579231262E-1   6.764462590217590E-1  -1.198424249887466E-1  -1.269164383411408E-1  -1.198618933558464E-1  -1.265662461519241E-1  -7.035236954689026E-1   6.729769706726074E-1  
 4.364000000000000E7    -7.091419696807861E-1   6.769266724586487E-1  -1.194287389516830E-1  -1.261494010686874E-1  -1.194660142064095E-1  -1.260433793067932E-1  -7.031254768371582E-1   6.740698814392090E-1  
 4.366000000000000E7    -7.084831595420837E-1   6.777656674385071E-1  -1.191136240959168E-1  -1.256268322467804E-1  -1.190867796540260E-1  -1.253186762332916E-1  -7.023119926452637E-1   6.752641201019287E-1  
 4.368000000000000E7    -7.079488635063171E-1   6.789568066596985E-1  -1.186935007572174E-1  -1.247513890266419E-1  -1.186846271157265E-1  -1.246144026517868E-1  -7.014356851577759E-1   6.757547855377197E-1  
 4.370000000000000E7    -7.066777944564819E-1   6.794998645782471E-1  -1.183586269617081E-1  -1.240501478314400E-1  -1.183870956301689E-1  -1.238900721073151E-1  -7.006775140762329E-1   6.768169999122620E-1  
 4.372000000000000E7    -7.060743570327759E-1   6.809098720550537E-1  -1.179157644510269E-1  -1.234750971198082E-1  -1.178964376449585E-1  -1.231766939163208E-1  -7.003237009048462E-1   6.775009036064148E-1  
 4.374000000000000E7    -7.055092453956604E-1   6.817972064018250E-1  -1.177389696240425E-1  -1.228256896138191E-1  -1.176398023962975E-1  -1.226508393883705E-1  -6.995074152946472E-1   6.786360740661621E-1  
 4.376000000000000E7    -7.051759362220764E-1   6.828637123107910E-1  -1.173177510499954E-1  -1.222037002444267E-1  -1.173443496227264E-1  -1.219502389431000E-1  -6.990540027618408E-1   6.797617077827454E-1  
 4.378000000000000E7    -7.041803598403931E-1   6.837474703788757E-1  -1.168620064854622E-1  -1.214608401060104E-1  -1.169378086924553E-1  -1.212086603045464E-1  -6.979622840881348E-1   6.806061863899231E-1  
 4.380000000000000E7    -7.031667232513428E-1   6.847210526466370E-1  -1.165773272514343E-1  -1.208043098449707E-1  -1.165377497673035E-1  -1.205848157405853E-1  -6.973754167556763E-1   6.815519332885742E-1  
 4.382000000000000E7    -7.028675079345703E-1   6.852899789810181E-1  -1.161558330059052E-1  -1.203013658523560E-1  -1.161440014839172E-1  -1.199754327535629E-1  -6.966690421104431E-1   6.821576952934265E-1  
 4.384000000000000E7    -7.019064426422119E-1   6.862854957580566E-1  -1.158146932721138E-1  -1.195669993758202E-1  -1.157383918762207E-1  -1.192627027630806E-1  -6.960643529891968E-1   6.834209561347961E-1  
 4.386000000000000E7    -7.014322876930237E-1   6.870850920677185E-1  -1.153093948960304E-1  -1.188600510358810E-1  -1.153571531176567E-1  -1.185512617230415E-1  -6.950893998146057E-1   6.842095851898193E-1  
 4.388000000000000E7    -7.003997564315796E-1   6.878738999366760E-1  -1.150133907794952E-1  -1.182282716035843E-1  -1.150027364492416E-1  -1.178917065262795E-1  -6.944774389266968E-1   6.851416230201721E-1  
 4.390000000000000E7    -6.995887160301209E-1   6.891972422599793E-1  -1.147734522819519E-1  -1.174538731575012E-1  -1.147477701306343E-1  -1.172945275902748E-1  -6.938150525093079E-1   6.861926317214966E-1  
 4.392000000000000E7    -6.991396546363831E-1   6.901277899742127E-1  -1.142498329281807E-1  -1.168720722198486E-1  -1.142401322722435E-1  -1.166707277297974E-1  -6.927036643028259E-1   6.864948272705078E-1  
 4.394000000000000E7    -6.979812383651733E-1   6.909842491149902E-1  -1.140094101428986E-1  -1.161336228251457E-1  -1.139525398612022E-1  -1.160421818494797E-1  -6.922430992126465E-1   6.875002384185791E-1  
 4.396000000000000E7    -6.973247528076172E-1   6.919431090354919E-1  -1.134610548615456E-1  -1.154841035604477E-1  -1.136135086417198E-1  -1.152985841035843E-1  -6.913161277770996E-1   6.886603236198425E-1  
 4.398000000000000E7    -6.964491009712219E-1   6.927652359008789E-1  -1.131676137447357E-1  -1.147805303335190E-1  -1.132956817746162E-1  -1.147448346018791E-1  -6.909304857254028E-1   6.897774934768677E-1  
 4.400000000000000E7    -6.956830620765686E-1   6.938237547874451E-1  -1.128570660948753E-1  -1.141225993633270E-1  -1.128074079751968E-1  -1.140055283904076E-1  -6.901655793190002E-1   6.901266574859619E-1  
 4.402000000000000E7    -6.950377821922302E-1   6.945016980171204E-1  -1.124389246106148E-1  -1.135658472776413E-1  -1.125005260109901E-1  -1.134673655033112E-1  -6.893998384475708E-1   6.915351152420044E-1  
 4.404000000000000E7    -6.947306394577026E-1   6.957383155822754E-1  -1.121224611997604E-1  -1.129491403698921E-1  -1.121073216199875E-1  -1.128730624914169E-1  -6.886956095695496E-1   6.922486424446106E-1  
 4.406000000000000E7    -6.937206983566284E-1   6.963529586791992E-1  -1.115954816341400E-1  -1.124024391174316E-1  -1.116849854588509E-1  -1.120877042412758E-1  -6.880525350570679E-1   6.929825544357300E-1  
 4.408000000000000E7    -6.930910944938660E-1   6.973014473915100E-1  -1.113420203328133E-1  -1.116964146494865E-1  -1.113090366125107E-1  -1.115316748619080E-1  -6.870710849761963E-1   6.937397718429565E-1  
 4.410000000000000E7    -6.925718784332275E-1   6.984028816223145E-1  -1.109500229358673E-1  -1.110324263572693E-1  -1.108882427215576E-1  -1.109405606985092E-1  -6.866167187690735E-1   6.945617794990540E-1  
 4.412000000000000E7    -6.916483044624329E-1   6.991428732872009E-1  -1.106239184737206E-1  -1.104688048362732E-1  -1.105683147907257E-1  -1.103377491235733E-1  -6.859197616577148E-1   6.955502629280090E-1  
 4.414000000000000E7    -6.909016966819763E-1   6.998848915100098E-1  -1.101172640919685E-1  -1.096618473529816E-1  -1.101386472582817E-1  -1.095565408468247E-1  -6.846044659614563E-1   6.962452530860901E-1  
 4.416000000000000E7    -6.898146271705627E-1   7.004856467247009E-1  -1.097109168767929E-1  -1.090478599071503E-1  -1.096052378416061E-1  -1.087822914123535E-1  -6.840367913246155E-1   6.971850395202637E-1  
 4.418000000000000E7    -6.889526247978210E-1   7.014657258987427E-1  -1.093440055847168E-1  -1.084442287683487E-1  -1.093647629022598E-1  -1.083046942949295E-1  -6.835391521453857E-1   6.982709169387817E-1  
 4.420000000000000E7    -6.885657906532288E-1   7.024608254432678E-1  -1.090242415666580E-1  -1.077671200037003E-1  -1.088491454720497E-1  -1.076144501566887E-1  -6.825374364852905E-1   6.989919543266296E-1  
 4.422000000000000E7    -6.879786849021912E-1   7.033371925354004E-1  -1.086160764098167E-1  -1.072872802615166E-1  -1.086187884211540E-1  -1.071235686540604E-1  -6.820603013038635E-1   7.001546621322632E-1  
 4.424000000000000E7    -6.873661875724793E-1   7.044090628623962E-1  -1.082311496138573E-1  -1.066329479217529E-1  -1.081771552562714E-1  -1.065225526690483E-1  -6.813316941261292E-1   7.009817361831665E-1  
 4.426000000000000E7    -6.863518357276917E-1   7.048816680908203E-1  -1.078021973371506E-1  -1.059833019971848E-1  -1.077966317534447E-1  -1.057225540280342E-1  -6.804887652397156E-1   7.018715739250183E-1  
 4.428000000000000E7    -6.855081915855408E-1   7.059710025787354E-1  -1.074520498514175E-1  -1.053618341684341E-1  -1.074046641588211E-1  -1.051986515522003E-1  -6.797347068786621E-1   7.025965452194214E-1  
 4.430000000000000E7    -6.847391724586487E-1   7.067270874977112E-1  -1.068902015686035E-1  -1.048762947320938E-1  -1.070037037134171E-1  -1.045312881469727E-1  -6.791656613349915E-1   7.034865617752075E-1  
 4.432000000000000E7    -6.839888691902161E-1   7.078416347503662E-1  -1.067794039845467E-1  -1.040876209735870E-1  -1.067837104201317E-1  -1.038632243871689E-1  -6.782471537590027E-1   7.044326663017273E-1  
 4.434000000000000E7    -6.829754710197449E-1   7.086833715438843E-1  -1.063644587993622E-1  -1.035059541463852E-1  -1.062722206115723E-1  -1.034193187952042E-1  -6.776144504547119E-1   7.050931453704834E-1  
 4.436000000000000E7    -6.825693845748901E-1   7.096367478370667E-1  -1.059629097580910E-1  -1.028155088424683E-1  -1.059256643056870E-1  -1.027050167322159E-1  -6.767201423645020E-1   7.059721350669861E-1  
 4.438000000000000E7    -6.815105080604553E-1   7.104381918907166E-1  -1.055409535765648E-1  -1.022804826498032E-1  -1.054353192448616E-1  -1.021255105733872E-1  -6.760781407356262E-1   7.068787217140198E-1  
 4.440000000000000E7    -6.810732483863831E-1   7.110143303871155E-1  -1.050945743918419E-1  -1.017253696918488E-1  -1.050054207444191E-1  -1.014855876564980E-1  -6.751360297203064E-1   7.072994112968445E-1  
 4.442000000000000E7    -6.800328493118286E-1   7.121221423149109E-1  -1.048151180148125E-1  -1.010070741176605E-1  -1.047326847910881E-1  -1.007803380489349E-1  -6.744007468223572E-1   7.084543108940125E-1  
 4.444000000000000E7    -6.791575551033020E-1   7.130802273750305E-1  -1.043703854084015E-1  -1.004772856831551E-1  -1.042851209640503E-1  -1.003089547157288E-1  -6.737527251243591E-1   7.093058228492737E-1  
 4.446000000000000E7    -6.788160204887390E-1   7.138215899467468E-1  -1.038973331451416E-1  -9.978607296943665E-2  -1.039363071322441E-1  -9.970129281282425E-2  -6.731403470039368E-1   7.102755904197693E-1  
 4.448000000000000E7    -6.780652999877930E-1   7.147638201713562E-1  -1.036726310849190E-1  -9.928817301988602E-2  -1.035815626382828E-1  -9.902953356504440E-2  -6.722590327262878E-1   7.115441560745239E-1  
 4.450000000000000E7    -6.774516105651856E-1   7.154541015625000E-1  -1.031692251563072E-1  -9.870619326829910E-2  -1.032063737511635E-1  -9.857057034969330E-2  -6.717270612716675E-1   7.121956348419190E-1  
 4.452000000000000E7    -6.762040853500366E-1   7.163261771202087E-1  -1.028040423989296E-1  -9.798243641853333E-2  -1.027352139353752E-1  -9.789067506790161E-2  -6.708785295486450E-1   7.131373882293701E-1  
 4.454000000000000E7    -6.760554313659668E-1   7.171021699905396E-1  -1.024605929851532E-1  -9.754250943660736E-2  -1.023854836821556E-1  -9.735962748527527E-2  -6.701408624649048E-1   7.138893008232117E-1  
 4.456000000000000E7    -6.745596528053284E-1   7.180292010307312E-1  -1.020194515585899E-1  -9.671474993228912E-2  -1.019300296902657E-1  -9.664914011955261E-2  -6.690728664398193E-1   7.144762873649597E-1  
 4.458000000000000E7    -6.742292046546936E-1   7.189067006111145E-1  -1.015892326831818E-1  -9.623207151889801E-2  -1.016010195016861E-1  -9.613036364316940E-2  -6.686111092567444E-1   7.155358195304871E-1  
 4.460000000000000E7    -6.736811995506287E-1   7.198324203491211E-1  -1.012107133865356E-1  -9.575890749692917E-2  -1.011472269892693E-1  -9.567911922931671E-2  -6.676622629165649E-1   7.163084745407105E-1  
 4.462000000000000E7    -6.727255582809448E-1   7.208895683288574E-1  -1.008704230189323E-1  -9.506666660308838E-2  -1.008149534463882E-1  -9.497043490409851E-2  -6.672314405441284E-1   7.170307040214539E-1  
 4.464000000000000E7    -6.718888282775879E-1   7.217193841934204E-1  -1.004439294338226E-1  -9.448190033435822E-2  -1.003686338663101E-1  -9.432781487703323E-2  -6.659978032112122E-1   7.178888916969299E-1  
 4.466000000000000E7    -6.709602475166321E-1   7.220489978790283E-1  -9.985069930553436E-2  -9.389324486255646E-2  -9.999068826436997E-2  -9.374444931745529E-2  -6.655423045158386E-1   7.186591029167175E-1  
 4.468000000000000E7    -6.704390048980713E-1   7.232027053833008E-1  -9.970390051603317E-2  -9.335386008024216E-2  -9.961267560720444E-2  -9.310023486614227E-2  -6.646724939346314E-1   7.196935415267944E-1  
 4.470000000000000E7    -6.695303320884705E-1   7.237826585769653E-1  -9.918738901615143E-2  -9.274213016033173E-2  -9.910205006599426E-2  -9.258801490068436E-2  -6.638223528862000E-1   7.200818657875061E-1  
 4.472000000000000E7    -6.687380075454712E-1   7.248874902725220E-1  -9.880796819925308E-2  -9.214781224727631E-2  -9.884312003850937E-2  -9.200862795114517E-2  -6.633684635162354E-1   7.211638092994690E-1  
 4.474000000000000E7    -6.681929230690002E-1   7.253503799438477E-1  -9.844043105840683E-2  -9.157054126262665E-2  -9.834937006235123E-2  -9.147603064775467E-2  -6.626059412956238E-1   7.222455143928528E-1  
 4.476000000000000E7    -6.672627925872803E-1   7.261484265327454E-1  -9.793023765087128E-2  -9.103048592805862E-2  -9.794934839010239E-2  -9.077329188585281E-2  -6.617920398712158E-1   7.226725220680237E-1  
 4.478000000000000E7    -6.665865778923035E-1   7.272206544876099E-1  -9.752409160137177E-2  -9.034720808267593E-2  -9.762042015790939E-2  -9.025771170854569E-2  -6.611083745956421E-1   7.232292890548706E-1  
 4.480000000000000E7    -6.657267808914185E-1   7.279089689254761E-1  -9.721675515174866E-2  -8.991003781557083E-2  -9.720154106616974E-2  -8.968140184879303E-2  -6.603316068649292E-1   7.248686552047730E-1  
 4.482000000000000E7    -6.650611758232117E-1   7.287999391555786E-1  -9.679832309484482E-2  -8.925480395555496E-2  -9.680718183517456E-2  -8.918368816375732E-2  -6.594437956809998E-1   7.253648638725281E-1  
 4.484000000000000E7    -6.640325188636780E-1   7.299000024795532E-1  -9.650813788175583E-2  -8.868959546089172E-2  -9.635917097330093E-2  -8.855502307415009E-2  -6.589162945747376E-1   7.260019183158875E-1  
 4.486000000000000E7    -6.635837554931641E-1   7.305147051811218E-1  -9.607738256454468E-2  -8.811063319444656E-2  -9.595217555761337E-2  -8.806033432483673E-2  -6.580708622932434E-1   7.267693877220154E-1  
 4.488000000000000E7    -6.629205346107483E-1   7.311396002769470E-1  -9.556128829717636E-2  -8.764254301786423E-2  -9.551784396171570E-2  -8.736053854227066E-2  -6.573444008827210E-1   7.276510000228882E-1  
 4.490000000000000E7    -6.617547273635864E-1   7.321501970291138E-1  -9.520594775676727E-2  -8.703789114952087E-2  -9.511471539735794E-2  -8.689744025468826E-2  -6.565997600555420E-1   7.281742691993713E-1  
 4.492000000000000E7    -6.611535549163818E-1   7.327208518981934E-1  -9.465540945529938E-2  -8.639307320117950E-2  -9.477891772985458E-2  -8.629100024700165E-2  -6.555631756782532E-1   7.292196750640869E-1  
 4.494000000000000E7    -6.602508425712585E-1   7.337212562561035E-1  -9.438264369964600E-2  -8.590981364250183E-2  -9.437203407287598E-2  -8.578077703714371E-2  -6.548497080802918E-1   7.305281758308411E-1  
 4.496000000000000E7    -6.597905755043030E-1   7.341850399971008E-1  -9.386337548494339E-2  -8.530650287866592E-2  -9.393727779388428E-2  -8.518470078706741E-2  -6.539946198463440E-1   7.309408187866211E-1  
 4.498000000000000E7    -6.588451862335205E-1   7.351922392845154E-1  -9.351178258657455E-2  -8.483837544918060E-2  -9.339588880538940E-2  -8.465035259723663E-2  -6.530742049217224E-1   7.314370870590210E-1  
 4.500000000000000E7    -6.577091217041016E-1   7.359857559204102E-1  -9.314090758562088E-2  -8.413755893707275E-2  -9.316533803939819E-2  -8.404676616191864E-2  -6.525416970252991E-1   7.324036359786987E-1  
 4.502000000000000E7    -6.573382616043091E-1   7.369669079780579E-1  -9.276230633258820E-2  -8.367558568716049E-2  -9.274744987487793E-2  -8.349859714508057E-2  -6.516941785812378E-1   7.333742380142212E-1  
 4.504000000000000E7    -6.563653945922852E-1   7.375997900962830E-1  -9.234330058097839E-2  -8.312217146158218E-2  -9.217256307601929E-2  -8.289702236652374E-2  -6.511366367340088E-1   7.337115406990051E-1  
 4.506000000000000E7    -6.558766365051270E-1   7.385265827178955E-1  -9.198053926229477E-2  -8.259378373622894E-2  -9.188685566186905E-2  -8.238058537244797E-2  -6.502919197082520E-1   7.349278330802918E-1  
 4.508000000000000E7    -6.548780202865601E-1   7.391769886016846E-1  -9.151387959718704E-2  -8.191514760255814E-2  -9.142109751701355E-2  -8.189244568347931E-2  -6.495539546012878E-1   7.357750535011292E-1  
 4.510000000000000E7    -6.539222002029419E-1   7.398871183395386E-1  -9.111621975898743E-2  -8.147561550140381E-2  -9.099080413579941E-2  -8.124332129955292E-2  -6.490561366081238E-1   7.364223599433899E-1  
 4.512000000000000E7    -6.533718109130859E-1   7.405923008918762E-1  -9.069621562957764E-2  -8.092425763607025E-2  -9.063252061605454E-2  -8.080624043941498E-2  -6.481558084487915E-1   7.376151680946350E-1  
 4.514000000000000E7    -6.525995135307312E-1   7.418041229248047E-1  -9.028429538011551E-2  -8.038942515850067E-2  -9.028277546167374E-2  -8.030650019645691E-2  -6.472500562667847E-1   7.379449009895325E-1  
 4.516000000000000E7    -6.514242887496948E-1   7.428222894668579E-1  -8.993227779865265E-2  -7.976008951663971E-2  -8.984680473804474E-2  -7.960096001625061E-2  -6.462219953536987E-1   7.387986183166504E-1  
 4.518000000000000E7    -6.508848071098328E-1   7.433001399040222E-1  -8.958253264427185E-2  -7.925555855035782E-2  -8.940789848566055E-2  -7.910881191492081E-2  -6.457551717758179E-1   7.395323514938355E-1  
 4.520000000000000E7    -6.499975919723511E-1   7.439574003219605E-1  -8.902246505022049E-2  -7.867573946714401E-2  -8.896737545728684E-2  -7.864928990602493E-2  -6.449395418167114E-1   7.400374412536621E-1  
 4.522000000000000E7    -6.494648456573486E-1   7.449502944946289E-1  -8.860653638839722E-2  -7.812972366809845E-2  -8.861138671636581E-2  -7.814079523086548E-2  -6.441527009010315E-1   7.411245107650757E-1  
 4.524000000000000E7    -6.485604047775269E-1   7.454662919044495E-1  -8.818776160478592E-2  -7.770106196403503E-2  -8.820112049579620E-2  -7.757054269313812E-2  -6.436517238616943E-1   7.419602870941162E-1  
 4.526000000000000E7    -6.478163003921509E-1   7.466922402381897E-1  -8.778336644172669E-2  -7.716527581214905E-2  -8.780792355537415E-2  -7.704599946737289E-2  -6.426286697387695E-1   7.424730062484741E-1  
 4.528000000000000E7    -6.469331383705139E-1   7.473156452178955E-1  -8.741834759712219E-2  -7.656113803386688E-2  -8.727441728115082E-2  -7.644729316234589E-2  -6.418618559837341E-1   7.432106137275696E-1  
 4.530000000000000E7    -6.460493803024292E-1   7.482147812843323E-1  -8.697643131017685E-2  -7.613324373960495E-2  -8.696240186691284E-2  -7.594573497772217E-2  -6.413152813911438E-1   7.442291378974915E-1  
 4.532000000000000E7    -6.452285647392273E-1   7.489174008369446E-1  -8.658198267221451E-2  -7.553981989622116E-2  -8.662473410367966E-2  -7.543750852346420E-2  -6.403889060020447E-1   7.450091838836670E-1  
 4.534000000000000E7    -6.444588303565979E-1   7.495409846305847E-1  -8.612234145402908E-2  -7.492602616548538E-2  -8.613768965005875E-2  -7.489558309316635E-2  -6.394929885864258E-1   7.456707954406738E-1  
 4.536000000000000E7    -6.433933973312378E-1   7.502970695495606E-1  -8.570634573698044E-2  -7.441740483045578E-2  -8.566902577877045E-2  -7.430636137723923E-2  -6.388809680938721E-1   7.463510036468506E-1  
 4.538000000000000E7    -6.430196762084961E-1   7.508335113525391E-1  -8.528288453817368E-2  -7.391654700040817E-2  -8.517497032880783E-2  -7.383709400892258E-2  -6.378859281539917E-1   7.469341754913330E-1  
 4.540000000000000E7    -6.424124836921692E-1   7.515555024147034E-1  -8.488334715366364E-2  -7.343412190675736E-2  -8.484359085559845E-2  -7.334669679403305E-2  -6.370912194252014E-1   7.480715513229370E-1  
 4.542000000000000E7    -6.414412856101990E-1   7.520346045494080E-1  -8.442037552595139E-2  -7.295647263526917E-2  -8.431912958621979E-2  -7.280030846595764E-2  -6.364912986755371E-1   7.486486434936523E-1  
 4.544000000000000E7    -6.403913497924805E-1   7.529366016387940E-1  -8.402986824512482E-2  -7.231618463993073E-2  -8.396007120609283E-2  -7.225023210048676E-2  -6.355516910552979E-1   7.493628263473511E-1  
 4.546000000000000E7    -6.398351788520813E-1   7.541992664337158E-1  -8.366874605417252E-2  -7.186484336853027E-2  -8.361036330461502E-2  -7.175379991531372E-2  -6.349874138832092E-1   7.501831650733948E-1  
 4.548000000000000E7    -6.390268206596375E-1   7.547381520271301E-1  -8.321554958820343E-2  -7.138576358556747E-2  -8.313833177089691E-2  -7.129506766796112E-2  -6.341708898544312E-1   7.508676648139954E-1  
 4.550000000000000E7    -6.383709311485291E-1   7.554765939712524E-1  -8.274409919977188E-2  -7.080651819705963E-2  -8.277583867311478E-2  -7.075814902782440E-2  -6.331160664558411E-1   7.518144249916077E-1  
 4.552000000000000E7    -6.373637914657593E-1   7.560632228851318E-1  -8.238521963357925E-2  -7.036034762859345E-2  -8.232117444276810E-2  -7.025603950023651E-2  -6.324859261512756E-1   7.525505423545837E-1  
 4.554000000000000E7    -6.367887258529663E-1   7.567152976989746E-1  -8.193946629762650E-2  -6.981274485588074E-2  -8.187284320592880E-2  -6.966314464807510E-2  -6.314542293548584E-1   7.533120512962341E-1  
 4.556000000000000E7    -6.357674598693848E-1   7.575832009315491E-1  -8.152863383293152E-2  -6.930480897426605E-2  -8.143557608127594E-2  -6.917543709278107E-2  -6.308373808860779E-1   7.540611028671265E-1  
 4.558000000000000E7    -6.352388858795166E-1   7.582020163536072E-1  -8.110471814870834E-2  -6.878881901502609E-2  -8.099196851253510E-2  -6.873242557048798E-2  -6.301640868186951E-1   7.546774744987488E-1  
 4.560000000000000E7    -6.342681050300598E-1   7.590767741203308E-1  -8.068042248487473E-2  -6.832505762577057E-2  -8.057939261198044E-2  -6.816966831684113E-2  -6.293597817420960E-1   7.554185986518860E-1  
 4.562000000000000E7    -6.336826086044312E-1   7.600147724151611E-1  -8.023333549499512E-2  -6.779934465885162E-2  -8.018973469734192E-2  -6.776413321495056E-2  -6.288362145423889E-1   7.560225725173950E-1  
 4.564000000000000E7    -6.324383020401001E-1   7.607291936874390E-1  -7.983737438917160E-2  -6.724193692207336E-2  -7.972194254398346E-2  -6.714780628681183E-2  -6.276623606681824E-1   7.566861510276794E-1  
 4.566000000000000E7    -6.318644285202026E-1   7.614247798919678E-1  -7.937537878751755E-2  -6.673321127891541E-2  -7.926528155803680E-2  -6.669931113719940E-2  -6.268361806869507E-1   7.576128244400024E-1  
 4.568000000000000E7    -6.311371922492981E-1   7.624276280403137E-1  -7.900797575712204E-2  -6.625586748123169E-2  -7.897544652223587E-2  -6.612488627433777E-2  -6.261785626411438E-1   7.584231495857239E-1  
 4.570000000000000E7    -6.303130984306335E-1   7.631781697273254E-1  -7.850082963705063E-2  -6.581290811300278E-2  -7.851456105709076E-2  -6.567900627851486E-2  -6.255939602851868E-1   7.588975429534912E-1  
 4.572000000000000E7    -6.299343705177307E-1   7.635350823402405E-1  -7.809913158416748E-2  -6.530091911554337E-2  -7.807797193527222E-2  -6.520127505064011E-2  -6.245054006576538E-1   7.597416043281555E-1  
 4.574000000000000E7    -6.287950873374939E-1   7.641705274581909E-1  -7.758462429046631E-2  -6.477028131484985E-2  -7.762970030307770E-2  -6.462915241718292E-2  -6.236516833305359E-1   7.601886391639710E-1  
 4.576000000000000E7    -6.281629204750061E-1   7.654857039451599E-1  -7.728768885135651E-2  -6.434285640716553E-2  -7.730235159397125E-2  -6.417885422706604E-2  -6.229560971260071E-1   7.613950967788696E-1  
 4.578000000000000E7    -6.272256970405579E-1   7.654352188110352E-1  -7.677664607763290E-2  -6.376940011978149E-2  -7.672154158353806E-2  -6.375163048505783E-2  -6.223598718643189E-1   7.617089152336121E-1  
 4.580000000000000E7    -6.265098452568054E-1   7.662472128868103E-1  -7.642716169357300E-2  -6.327260285615921E-2  -7.628715038299561E-2  -6.323889642953873E-2  -6.211667060852051E-1   7.624238729476929E-1  
 4.582000000000000E7    -6.254864931106567E-1   7.669323086738586E-1  -7.593261450529099E-2  -6.273754686117172E-2  -7.597297430038452E-2  -6.272479891777039E-2  -6.205095052719116E-1   7.632912993431091E-1  
 4.584000000000000E7    -6.248564124107361E-1   7.675941586494446E-1  -7.546145468950272E-2  -6.234613433480263E-2  -7.550226151943207E-2  -6.222628429532051E-2  -6.199165582656860E-1   7.639860510826111E-1  
 4.586000000000000E7    -6.236104965209961E-1   7.686569690704346E-1  -7.513239234685898E-2  -6.179202720522881E-2  -7.503119856119156E-2  -6.174430251121521E-2  -6.190387010574341E-1   7.646099925041199E-1  
 4.588000000000000E7    -6.231493353843689E-1   7.693518996238709E-1  -7.469911873340607E-2  -6.134567782282829E-2  -7.458926737308502E-2  -6.131039559841156E-2  -6.183363795280457E-1   7.652298212051392E-1  
 4.590000000000000E7    -6.221827864646912E-1   7.700307965278626E-1  -7.426198571920395E-2  -6.087481230497360E-2  -7.420518249273300E-2  -6.079402565956116E-2  -6.175150275230408E-1   7.660414576530457E-1  
 4.592000000000000E7    -6.211327314376831E-1   7.706707715988159E-1  -7.380923628807068E-2  -6.037198007106781E-2  -7.380880415439606E-2  -6.035385653376579E-2  -6.169763803482056E-1   7.670109868049622E-1  
 4.594000000000000E7    -6.205825209617615E-1   7.715073227882385E-1  -7.344378530979157E-2  -5.998343974351883E-2  -7.335411012172699E-2  -5.986985936760902E-2  -6.163282394409180E-1   7.675778269767761E-1  
 4.596000000000000E7    -6.199694871902466E-1   7.722443938255310E-1  -7.302664220333099E-2  -5.942050740122795E-2  -7.288959622383118E-2  -5.934306979179382E-2  -6.148859262466431E-1   7.685130834579468E-1  
 4.598000000000000E7    -6.190518140792847E-1   7.728284001350403E-1  -7.249776273965836E-2  -5.893244594335556E-2  -7.250908762216568E-2  -5.887991935014725E-2  -6.140428185462952E-1   7.689194679260254E-1  
 4.600000000000000E7    -6.183984279632568E-1   7.731590867042542E-1  -7.208146899938583E-2  -5.852196365594864E-2  -7.202114909887314E-2  -5.846907198429108E-2  -6.136361956596375E-1   7.698013782501221E-1  
 4.602000000000000E7    -6.173789501190186E-1   7.740141749382019E-1  -7.165051251649857E-2  -5.801273137331009E-2  -7.158718258142471E-2  -5.797435343265533E-2  -6.129160523414612E-1   7.702783942222595E-1  
 4.604000000000000E7    -6.165649890899658E-1   7.747249007225037E-1  -7.119908183813095E-2  -5.755376815795898E-2  -7.116063684225082E-2  -5.747971683740616E-2  -6.122637391090393E-1   7.712228894233704E-1  
 4.606000000000000E7    -6.156235337257385E-1   7.755618095397949E-1  -7.076291739940643E-2  -5.704798549413681E-2  -7.073361426591873E-2  -5.699976161122322E-2  -6.109556555747986E-1   7.715827822685242E-1  
 4.608000000000000E7    -6.151118874549866E-1   7.762333750724793E-1  -7.039860635995865E-2  -5.661939084529877E-2  -7.035848498344421E-2  -5.654292926192284E-2  -6.104952096939087E-1   7.726573348045349E-1  
 4.610000000000000E7    -6.143604516983032E-1   7.771744132041931E-1  -6.994202733039856E-2  -5.614011734724045E-2  -6.984257698059082E-2  -5.607083439826965E-2  -6.097590923309326E-1   7.731620073318481E-1  
 4.612000000000000E7    -6.135231256484985E-1   7.777586579322815E-1  -6.953792273998261E-2  -5.568757653236389E-2  -6.945720314979553E-2  -5.562413856387138E-2  -6.088103055953980E-1   7.741903662681580E-1  
 4.614000000000000E7    -6.125948429107666E-1   7.785543203353882E-1  -6.906018406152725E-2  -5.522073060274124E-2  -6.910616904497147E-2  -5.511583015322685E-2  -6.079459786415100E-1   7.744629979133606E-1  
 4.616000000000000E7    -6.116345524787903E-1   7.791455388069153E-1  -6.864280253648758E-2  -5.472770705819130E-2  -6.856814771890640E-2  -5.467204749584198E-2  -6.070669293403626E-1   7.751357555389404E-1  
 4.618000000000000E7    -6.105181574821472E-1   7.795088887214661E-1  -6.823883950710297E-2  -5.421995371580124E-2  -6.808730214834213E-2  -5.418567359447479E-2  -6.064631342887878E-1   7.758274078369141E-1  
 4.620000000000000E7    -6.100654006004334E-1   7.808359265327454E-1  -6.781254708766937E-2  -5.382500588893890E-2  -6.775314360857010E-2  -5.374626815319061E-2  -6.054800152778626E-1   7.765540480613709E-1  
 4.622000000000000E7    -6.092255711555481E-1   7.813784480094910E-1  -6.735432893037796E-2  -5.342114344239235E-2  -6.732034683227539E-2  -5.330200865864754E-2  -6.051471233367920E-1   7.773500084877014E-1  
 4.624000000000000E7    -6.083684563636780E-1   7.816818952560425E-1  -6.690270453691483E-2  -5.282720550894737E-2  -6.682778894901276E-2  -5.286189541220665E-2  -6.039791703224182E-1   7.782068848609924E-1  
 4.626000000000000E7    -6.075307130813599E-1   7.827285528182983E-1  -6.643571704626083E-2  -5.251957103610039E-2  -6.643100082874298E-2  -5.244909226894379E-2  -6.034967899322510E-1   7.787966728210449E-1  
 4.628000000000000E7    -6.067869067192078E-1   7.831125855445862E-1  -6.599122285842896E-2  -5.202618241310120E-2  -6.598171591758728E-2  -5.195917189121246E-2  -6.025253534317017E-1   7.794673442840576E-1  
 4.630000000000000E7    -6.058883070945740E-1   7.838580012321472E-1  -6.559120118618012E-2  -5.150916054844856E-2  -6.555911153554916E-2  -5.144824087619782E-2  -6.015441417694092E-1   7.802643775939941E-1  
 4.632000000000000E7    -6.052769422531128E-1   7.846286892890930E-1  -6.513801962137222E-2  -5.110649764537811E-2  -6.513489037752152E-2  -5.102545768022537E-2  -6.008203029632568E-1   7.805966138839722E-1  
 4.634000000000000E7    -6.046636700630188E-1   7.851716876029968E-1  -6.469328701496124E-2  -5.069001019001007E-2  -6.466922163963318E-2  -5.060065537691116E-2  -5.999886393547058E-1   7.812911272048950E-1  
 4.636000000000000E7    -6.036062836647034E-1   7.858232259750366E-1  -6.426613777875900E-2  -5.026548355817795E-2  -6.426056474447250E-2  -5.014163255691528E-2  -5.993115901947022E-1   7.821375727653503E-1  
 4.638000000000000E7    -6.029254794120789E-1   7.865358591079712E-1  -6.385319679975510E-2  -4.973381385207176E-2  -6.374213099479675E-2  -4.969163239002228E-2  -5.985946655273438E-1   7.828318476676941E-1  
 4.640000000000000E7    -6.019365191459656E-1   7.871945500373840E-1  -6.340084224939346E-2  -4.927628487348557E-2  -6.332875788211823E-2  -4.923005774617195E-2  -5.974959731101990E-1   7.836745381355286E-1  
 4.642000000000000E7    -6.013512015342712E-1   7.879775762557983E-1  -6.300634145736694E-2  -4.887753725051880E-2  -6.294707208871841E-2  -4.884021729230881E-2  -5.965270996093750E-1   7.843245863914490E-1  
 4.644000000000000E7    -6.004546880722046E-1   7.886203527450562E-1  -6.249483302235603E-2  -4.844600707292557E-2  -6.251978874206543E-2  -4.845496267080307E-2  -5.959612727165222E-1   7.846750020980835E-1  
 4.646000000000000E7    -5.994717478752136E-1   7.891391515731812E-1  -6.209413334727287E-2  -4.799817502498627E-2  -6.202427670359612E-2  -4.793407768011093E-2  -5.952039361000061E-1   7.852300405502319E-1  
 4.648000000000000E7    -5.985302925109863E-1   7.901270389556885E-1  -6.166038289666176E-2  -4.757554456591606E-2  -6.161639094352722E-2  -4.748206213116646E-2  -5.944306254386902E-1   7.859504818916321E-1  
 4.650000000000000E7    -5.981086492538452E-1   7.908475399017334E-1  -6.124918162822723E-2  -4.713736474514008E-2  -6.120280921459198E-2  -4.706748574972153E-2  -5.935146212577820E-1   7.868220806121826E-1  
 4.652000000000000E7    -5.968452692031860E-1   7.913410663604736E-1  -6.079669296741486E-2  -4.668334499001503E-2  -6.074620783329010E-2  -4.660095274448395E-2  -5.928087234497070E-1   7.871606349945068E-1  
 4.654000000000000E7    -5.960283279418945E-1   7.921198606491089E-1  -6.036039441823959E-2  -4.622907936573029E-2  -6.032900139689446E-2  -4.614625126123428E-2  -5.918838977813721E-1   7.880581617355347E-1  
 4.656000000000000E7    -5.953834652900696E-1   7.926329970359802E-1  -5.989363789558411E-2  -4.579407349228859E-2  -5.984719470143318E-2  -4.582206532359123E-2  -5.912202596664429E-1   7.885084152221680E-1  
 4.658000000000000E7    -5.945935249328613E-1   7.930344939231873E-1  -5.947184935212135E-2  -4.539944231510162E-2  -5.942836403846741E-2  -4.534506425261498E-2  -5.904469490051270E-1   7.894778251647949E-1  
 4.660000000000000E7    -5.934606790542603E-1   7.939746975898743E-1  -5.906414240598679E-2  -4.490945115685463E-2  -5.901445820927620E-2  -4.483913257718086E-2  -5.890788435935974E-1   7.900592684745789E-1  
 4.662000000000000E7    -5.931094288825989E-1   7.945090532302856E-1  -5.858879908919334E-2  -4.457835480570793E-2  -5.853034183382988E-2  -4.448898136615753E-2  -5.889555811882019E-1   7.909817695617676E-1  
 4.664000000000000E7    -5.919901132583618E-1   7.951602935791016E-1  -5.814841762185097E-2  -4.406030476093292E-2  -5.811013281345367E-2  -4.403203353285790E-2  -5.880467295646668E-1   7.911601662635803E-1  
 4.666000000000000E7    -5.911774635314941E-1   7.954679131507874E-1  -5.766432732343674E-2  -4.362510889768601E-2  -5.766941234469414E-2  -4.359044134616852E-2  -5.870099663734436E-1   7.921115159988403E-1  
 4.668000000000000E7    -5.905967354774475E-1   7.966901063919067E-1  -5.727088823914528E-2  -4.328901320695877E-2  -5.721395835280418E-2  -4.326753318309784E-2  -5.864135026931763E-1   7.926385402679443E-1  
 4.670000000000000E7    -5.898196697235107E-1   7.971286177635193E-1  -5.687756463885307E-2  -4.279684647917748E-2  -5.675823614001274E-2  -4.280907660722733E-2  -5.852974057197571E-1   7.929608821868897E-1  
 4.672000000000000E7    -5.889461636543274E-1   7.974971532821655E-1  -5.634433403611183E-2  -4.244714602828026E-2  -5.630319565534592E-2  -4.237262159585953E-2  -5.847615003585815E-1   7.941566705703735E-1  
 4.674000000000000E7    -5.880110859870911E-1   7.980676889419556E-1  -5.594533681869507E-2  -4.203298687934876E-2  -5.588864907622337E-2  -4.195262119174004E-2  -5.839644670486450E-1   7.944806218147278E-1  
 4.676000000000000E7    -5.872578024864197E-1   7.988521456718445E-1  -5.548330396413803E-2  -4.159642383456230E-2  -5.546454712748528E-2  -4.153829440474510E-2  -5.832471847534180E-1   7.952376604080200E-1  
 4.678000000000000E7    -5.864868760108948E-1   7.998145222663879E-1  -5.507108941674233E-2  -4.118635505437851E-2  -5.500894039869309E-2  -4.114969819784164E-2  -5.822332501411438E-1   7.961165308952332E-1  
 4.680000000000000E7    -5.857259035110474E-1   8.001458048820496E-1  -5.463899672031403E-2  -4.076635837554932E-2  -5.455030128359795E-2  -4.070409387350082E-2  -5.815660953521729E-1   7.966970205307007E-1  
 4.682000000000000E7    -5.846841931343079E-1   8.009720444679260E-1  -5.417623743414879E-2  -4.031424596905708E-2  -5.416685342788696E-2  -4.027240350842476E-2  -5.804745554924011E-1   7.972962856292725E-1  
 4.684000000000000E7    -5.839242935180664E-1   8.017930388450623E-1  -5.374272912740707E-2  -3.994901478290558E-2  -5.366431549191475E-2  -3.987467288970947E-2  -5.797965526580811E-1   7.979375720024109E-1  
 4.686000000000000E7    -5.833855271339417E-1   8.024331927299500E-1  -5.333093553781509E-2  -3.957232832908630E-2  -5.323389545083046E-2  -3.945530951023102E-2  -5.791398286819458E-1   7.984632849693298E-1  
 4.688000000000000E7    -5.820751786231995E-1   8.027292490005493E-1  -5.277738720178604E-2  -3.910946100950241E-2  -5.273514240980148E-2  -3.906805068254471E-2  -5.785598754882813E-1   7.986657619476318E-1  
 4.690000000000000E7    -5.816910266876221E-1   8.033056855201721E-1  -5.233903229236603E-2  -3.866242989897728E-2  -5.233541503548622E-2  -3.867673128843308E-2  -5.771380662918091E-1   7.997053861618042E-1  
 4.692000000000000E7    -5.804755091667175E-1   8.041571378707886E-1  -5.193383619189262E-2  -3.833454102277756E-2  -5.185242742300034E-2  -3.823421150445938E-2  -5.763874650001526E-1   8.001539111137390E-1  
 4.694000000000000E7    -5.802240371704102E-1   8.048338294029236E-1  -5.150856077671051E-2  -3.796007484197617E-2  -5.147875845432282E-2  -3.786256164312363E-2  -5.760425329208374E-1   8.010703921318054E-1  
 4.696000000000000E7    -5.788272023200989E-1   8.054155707359314E-1  -5.105689167976379E-2  -3.750185668468475E-2  -5.099696666002274E-2  -3.748346120119095E-2  -5.750350952148438E-1   8.011189103126526E-1  
 4.698000000000000E7    -5.782442688941956E-1   8.057778477668762E-1  -5.057675763964653E-2  -3.710385784506798E-2  -5.051791295409203E-2  -3.704109415411949E-2  -5.737479925155640E-1   8.016448020935059E-1  
 4.700000000000000E7    -5.770801901817322E-1   8.066459298133850E-1  -5.015688017010689E-2  -3.666259348392487E-2  -5.010625720024109E-2  -3.664163127541542E-2  -5.732569098472595E-1   8.027573823928833E-1  
 4.702000000000000E7    -5.764065980911255E-1   8.068997263908386E-1  -4.971418529748917E-2  -3.626362234354019E-2  -4.962332919239998E-2  -3.626552969217300E-2  -5.724130272865295E-1   8.031929731369019E-1  
 4.704000000000000E7    -5.758945941925049E-1   8.079647421836853E-1  -4.926743358373642E-2  -3.593777120113373E-2  -4.919372126460075E-2  -3.590856492519379E-2  -5.717994570732117E-1   8.039073348045349E-1  
 4.706000000000000E7    -5.748069286346436E-1   8.083504438400269E-1  -4.879960045218468E-2  -3.551889210939407E-2  -4.875323176383972E-2  -3.548803552985191E-2  -5.711637735366821E-1   8.044294714927673E-1  
 4.708000000000000E7    -5.741584897041321E-1   8.090586066246033E-1  -4.836091399192810E-2  -3.514039888978005E-2  -4.833991825580597E-2  -3.504958003759384E-2  -5.700697898864746E-1   8.053824305534363E-1  
 4.710000000000000E7    -5.732401013374329E-1   8.098536133766174E-1  -4.792660474777222E-2  -3.470209985971451E-2  -4.789879173040390E-2  -3.469530493021011E-2  -5.693243145942688E-1   8.058992028236389E-1  
 4.712000000000000E7    -5.725164413452148E-1   8.103967905044556E-1  -4.748969525098801E-2  -3.430629521608353E-2  -4.741651564836502E-2  -3.428842499852181E-2  -5.686408877372742E-1   8.061186671257019E-1  
 4.714000000000000E7    -5.716025829315186E-1   8.107079267501831E-1  -4.703466966748238E-2  -3.392495214939117E-2  -4.698083549737930E-2  -3.390778973698616E-2  -5.676857829093933E-1   8.070181012153626E-1  
 4.716000000000000E7    -5.706485509872437E-1   8.115435838699341E-1  -4.656278342008591E-2  -3.358124941587448E-2  -4.649299755692482E-2  -3.353307396173477E-2  -5.669037103652954E-1   8.074285387992859E-1  
 4.718000000000000E7    -5.698541402816773E-1   8.121670484542847E-1  -4.612707346677780E-2  -3.315138816833496E-2  -4.605823382735252E-2  -3.310599923133850E-2  -5.660285949707031E-1   8.080223798751831E-1  
 4.720000000000000E7    -5.690906047821045E-1   8.125188946723938E-1  -4.569214954972267E-2  -3.275949135422707E-2  -4.558868333697319E-2  -3.275987133383751E-2  -5.656457543373108E-1   8.086897134780884E-1  
 4.722000000000000E7    -5.681545138359070E-1   8.130009174346924E-1  -4.519233852624893E-2  -3.240506350994110E-2  -4.518017917871475E-2  -3.234184533357620E-2  -5.644668936729431E-1   8.093108534812927E-1  
 4.724000000000000E7    -5.670920014381409E-1   8.138573169708252E-1  -4.479784518480301E-2  -3.200660645961762E-2  -4.471237212419510E-2  -3.196160122752190E-2  -5.638934373855591E-1   8.098107576370239E-1  
 4.726000000000000E7    -5.667019486427307E-1   8.146423697471619E-1  -4.430700093507767E-2  -3.162943571805954E-2  -4.429863393306732E-2  -3.157095611095429E-2  -5.627322793006897E-1   8.103764653205872E-1  
 4.728000000000000E7    -5.656566023826599E-1   8.148909807205200E-1  -4.388126730918884E-2  -3.125328943133354E-2  -4.381417855620384E-2  -3.121722489595413E-2  -5.620687007904053E-1   8.110098242759705E-1  
 4.730000000000000E7    -5.650354623794556E-1   8.155584335327148E-1  -4.344006255269051E-2  -3.087427653372288E-2  -4.338727146387100E-2  -3.084303624927998E-2  -5.610771179199219E-1   8.116506934165955E-1  
 4.732000000000000E7    -5.636572837829590E-1   8.159789443016052E-1  -4.293333366513252E-2  -3.045607544481754E-2  -4.289435967803001E-2  -3.043776191771030E-2  -5.604927539825440E-1   8.122414946556091E-1  
 4.734000000000000E7    -5.634599924087524E-1   8.163449764251709E-1  -4.254724830389023E-2  -3.010559268295765E-2  -4.249719902873039E-2  -3.009311296045780E-2  -5.597400665283203E-1   8.132017850875855E-1  
 4.736000000000000E7    -5.623633861541748E-1   8.173035383224487E-1  -4.209154844284058E-2  -2.972698584198952E-2  -4.202726483345032E-2  -2.972206473350525E-2  -5.587662458419800E-1   8.134230971336365E-1  
 4.738000000000000E7    -5.618399381637573E-1   8.178260922431946E-1  -4.164702072739601E-2  -2.938097715377808E-2  -4.159585013985634E-2  -2.932008169591427E-2  -5.581531524658203E-1   8.143972754478455E-1  
 4.740000000000000E7    -5.606657862663269E-1   8.189311027526856E-1  -4.122193157672882E-2  -2.902331948280335E-2  -4.119872674345970E-2  -2.895693853497505E-2  -5.570248961448669E-1   8.149054050445557E-1  
 4.742000000000000E7    -5.599237084388733E-1   8.191331624984741E-1  -4.072888940572739E-2  -2.860951237380505E-2  -4.070542007684708E-2  -2.858492918312550E-2  -5.561078190803528E-1   8.155218958854675E-1  
 4.744000000000000E7    -5.591106414794922E-1   8.199588656425476E-1  -4.030881077051163E-2  -2.825793996453285E-2  -4.025467112660408E-2  -2.823588810861111E-2  -5.555731654167175E-1   8.160575628280640E-1  
 4.746000000000000E7    -5.585643649101257E-1   8.204630017280579E-1  -3.983792290091515E-2  -2.789902500808239E-2  -3.975133597850800E-2  -2.787844091653824E-2  -5.547966361045837E-1   8.165911436080933E-1  
 4.748000000000000E7    -5.574034452438355E-1   8.208048939704895E-1  -3.939862549304962E-2  -2.751864120364189E-2  -3.932192549109459E-2  -2.748439460992813E-2  -5.538877248764038E-1   8.168976902961731E-1  
 4.750000000000000E7    -5.567954182624817E-1   8.215699791908264E-1  -3.896974772214890E-2  -2.715075202286243E-2  -3.892013430595398E-2  -2.712126448750496E-2  -5.527603626251221E-1   8.176292777061462E-1  
 4.752000000000000E7    -5.560247898101807E-1   8.219984173774719E-1  -3.850343078374863E-2  -2.678829431533814E-2  -3.844464570283890E-2  -2.677217125892639E-2  -5.520637631416321E-1   8.184459805488586E-1  
 4.754000000000000E7    -5.547375679016113E-1   8.228272795677185E-1  -3.805817663669586E-2  -2.641659416258335E-2  -3.799974545836449E-2  -2.638054080307484E-2  -5.512999892234802E-1   8.188934922218323E-1  
 4.756000000000000E7    -5.543474555015564E-1   8.235037326812744E-1  -3.754919394850731E-2  -2.605597674846649E-2  -3.755846992135048E-2  -2.605085074901581E-2  -5.505801439285278E-1   8.190736174583435E-1  
 4.758000000000000E7    -5.532979965209961E-1   8.235809206962585E-1  -3.713230788707733E-2  -2.570264041423798E-2  -3.709441050887108E-2  -2.568787522614002E-2  -5.495305657386780E-1   8.199903368949890E-1  
 4.760000000000000E7    -5.524147152900696E-1   8.244372010231018E-1  -3.670572862029076E-2  -2.536261081695557E-2  -3.663165122270584E-2  -2.531784214079380E-2  -5.489124059677124E-1   8.204476237297058E-1  
 4.762000000000000E7    -5.521050691604614E-1   8.250516057014465E-1  -3.622806817293167E-2  -2.501101046800613E-2  -3.621977940201759E-2  -2.495907247066498E-2  -5.481101870536804E-1   8.209286332130432E-1  
 4.764000000000000E7    -5.506962537765503E-1   8.254106044769287E-1  -3.576750308275223E-2  -2.460870333015919E-2  -3.575377166271210E-2  -2.461042068898678E-2  -5.471556186676025E-1   8.216530084609985E-1  
 4.766000000000000E7    -5.498511791229248E-1   8.262499570846558E-1  -3.538155555725098E-2  -2.427504770457745E-2  -3.531434014439583E-2  -2.425316348671913E-2  -5.464772582054138E-1   8.225045204162598E-1  
 4.768000000000000E7    -5.488497614860535E-1   8.266416788101196E-1  -3.489394485950470E-2  -2.391334623098373E-2  -3.483767062425613E-2  -2.390783466398716E-2  -5.457726716995239E-1   8.228718042373657E-1  
 4.770000000000000E7    -5.484841465950012E-1   8.273132443428040E-1  -3.443203121423721E-2  -2.356974594295025E-2  -3.437462076544762E-2  -2.354079298675060E-2  -5.450497865676880E-1   8.232292532920837E-1  
 4.772000000000000E7    -5.473278164863586E-1   8.274177312850952E-1  -3.394041582942009E-2  -2.320831082761288E-2  -3.393400833010674E-2  -2.319915592670441E-2  -5.438774824142456E-1   8.234211802482605E-1  
 4.774000000000000E7    -5.465439558029175E-1   8.283720016479492E-1  -3.354515880346298E-2  -2.287023887038231E-2  -3.348250687122345E-2  -2.285399846732616E-2  -5.433447957038879E-1   8.243169784545898E-1  
 4.776000000000000E7    -5.457388162612915E-1   8.290515542030335E-1  -3.306678310036659E-2  -2.252057567238808E-2  -3.301715105772018E-2  -2.249367162585259E-2  -5.421805977821350E-1   8.249135017395020E-1  
 4.778000000000000E7    -5.446789264678955E-1   8.295699954032898E-1  -3.261882811784744E-2  -2.219556085765362E-2  -3.258515894412994E-2  -2.214729785919190E-2  -5.413565635681152E-1   8.255610466003418E-1  
 4.780000000000000E7    -5.439054965972900E-1   8.301711678504944E-1  -3.217982128262520E-2  -2.184407785534859E-2  -3.212511539459229E-2  -2.180980145931244E-2  -5.409577488899231E-1   8.259825706481934E-1  
 4.782000000000000E7    -5.432378053665161E-1   8.303667306900024E-1  -3.173283487558365E-2  -2.149289846420288E-2  -3.162749484181404E-2  -2.145902812480927E-2  -5.401902794837952E-1   8.264980912208557E-1  
 4.784000000000000E7    -5.424798130989075E-1   8.310078382492065E-1  -3.127002343535423E-2  -2.115406095981598E-2  -3.123422712087631E-2  -2.112311124801636E-2  -5.390540957450867E-1   8.274140357971191E-1  
 4.786000000000000E7    -5.418223142623901E-1   8.318995237350464E-1  -3.081325441598892E-2  -2.079967036843300E-2  -3.075681626796722E-2  -2.078807726502419E-2  -5.383666157722473E-1   8.277648687362671E-1  
 4.788000000000000E7    -5.404042005538940E-1   8.322054743766785E-1  -3.035515360534191E-2  -2.046390622854233E-2  -3.032830357551575E-2  -2.044527791440487E-2  -5.372289419174194E-1   8.284670114517212E-1  
 4.790000000000000E7    -5.396714806556702E-1   8.329384326934815E-1  -2.991402335464954E-2  -2.012656070291996E-2  -2.986217662692070E-2  -2.008923143148422E-2  -5.362491011619568E-1   8.291603326797485E-1  
 4.792000000000000E7    -5.391367077827454E-1   8.335547447204590E-1  -2.944096550345421E-2  -1.979755796492100E-2  -2.941643819212914E-2  -1.981873251497746E-2  -5.362384915351868E-1   8.296972513198853E-1  
 4.794000000000000E7    -5.384777784347534E-1   8.340037465095520E-1  -2.901740744709969E-2  -1.945466920733452E-2  -2.899066917598248E-2  -1.942673698067665E-2  -5.347367525100708E-1   8.303881287574768E-1  
 4.796000000000000E7    -5.373892784118652E-1   8.344247937202454E-1  -2.854996919631958E-2  -1.911542564630508E-2  -2.850642614066601E-2  -1.910119876265526E-2  -5.342611670494080E-1   8.308064937591553E-1  
 4.798000000000000E7    -5.367338657379150E-1   8.352767825126648E-1  -2.809653244912624E-2  -1.879906281828880E-2  -2.803900092840195E-2  -1.873733103275299E-2  -5.333641171455383E-1   8.310659527778626E-1  
 4.800000000000000E7    -5.360258817672730E-1   8.353645205497742E-1  -2.762456983327866E-2  -1.846601627767086E-2  -2.762517891824246E-2  -1.845847629010677E-2  -5.325335860252380E-1   8.319567441940308E-1  
 4.802000000000000E7    -5.350097417831421E-1   8.361685872077942E-1  -2.717984654009342E-2  -1.815452799201012E-2  -2.716042287647724E-2  -1.810143701732159E-2  -5.317901372909546E-1   8.322894573211670E-1  
 4.804000000000000E7    -5.341027379035950E-1   8.363002538681030E-1  -2.675259858369827E-2  -1.780816726386547E-2  -2.671854197978973E-2  -1.777613162994385E-2  -5.309390425682068E-1   8.330114483833313E-1  
 4.806000000000000E7    -5.332797169685364E-1   8.374481201171875E-1  -2.625883929431438E-2  -1.746703684329987E-2  -2.625648118555546E-2  -1.746068149805069E-2  -5.299582481384277E-1   8.332352042198181E-1  
 4.808000000000000E7    -5.322967767715454E-1   8.375736474990845E-1  -2.582716010510922E-2  -1.713898032903671E-2  -2.579651586711407E-2  -1.711908355355263E-2  -5.291854739189148E-1   8.343128561973572E-1  
 4.810000000000000E7    -5.318005681037903E-1   8.379663825035095E-1  -2.536586485803127E-2  -1.682566106319428E-2  -2.534974738955498E-2  -1.678199321031570E-2  -5.280711054801941E-1   8.348135352134705E-1  
 4.812000000000000E7    -5.309013724327087E-1   8.389797806739807E-1  -2.492185309529305E-2  -1.648639515042305E-2  -2.488038688898087E-2  -1.648044958710671E-2  -5.274282097816467E-1   8.352276086807251E-1  
 4.814000000000000E7    -5.299898386001587E-1   8.394439816474915E-1  -2.444609254598618E-2  -1.616577059030533E-2  -2.445325441658497E-2  -1.614132523536682E-2  -5.266579389572144E-1   8.353198766708374E-1  
 4.816000000000000E7    -5.291522145271301E-1   8.397801518440247E-1  -2.399170026183128E-2  -1.583242043852806E-2  -2.401757054030895E-2  -1.584555767476559E-2  -5.259979367256165E-1   8.360081315040588E-1  
 4.818000000000000E7    -5.284881591796875E-1   8.404126167297363E-1  -2.351623028516769E-2  -1.555495895445347E-2  -2.353211678564549E-2  -1.550370920449495E-2  -5.252254009246826E-1   8.368043303489685E-1  
 4.820000000000000E7    -5.274978876113892E-1   8.406220078468323E-1  -2.307564765214920E-2  -1.519666984677315E-2  -2.305164001882076E-2  -1.520642079412937E-2  -5.241954326629639E-1   8.369358777999878E-1  
 4.822000000000000E7    -5.265311002731323E-1   8.415725827217102E-1  -2.263973280787468E-2  -1.489538513123989E-2  -2.260599844157696E-2  -1.486034598201513E-2  -5.235477685928345E-1   8.375418186187744E-1  
 4.824000000000000E7    -5.256663560867310E-1   8.417840600013733E-1  -2.218836732208729E-2  -1.458211150020361E-2  -2.212430164217949E-2  -1.454558596014977E-2  -5.226923227310181E-1   8.382570743560791E-1  
 4.826000000000000E7    -5.247707962989807E-1   8.420858979225159E-1  -2.168284542858601E-2  -1.423373445868492E-2  -2.166362665593624E-2  -1.421573106199503E-2  -5.214223861694336E-1   8.385534882545471E-1  
 4.828000000000000E7    -5.241960287094116E-1   8.428830504417419E-1  -2.125819027423859E-2  -1.391862798482180E-2  -2.124056965112686E-2  -1.393135357648134E-2  -5.207573771476746E-1   8.394305706024170E-1  
 4.830000000000000E7    -5.229387879371643E-1   8.435911536216736E-1  -2.082704752683640E-2  -1.359853986650705E-2  -2.080412395298481E-2  -1.359696593135595E-2  -5.197169184684753E-1   8.400997519493103E-1  
 4.832000000000000E7    -5.222914218902588E-1   8.436898589134216E-1  -2.033977210521698E-2  -1.330733671784401E-2  -2.032653242349625E-2  -1.329850405454636E-2  -5.192750692367554E-1   8.401686549186707E-1  
 4.834000000000000E7    -5.216100215911865E-1   8.445932865142822E-1  -1.988996006548405E-2  -1.301857829093933E-2  -1.986610703170300E-2  -1.300036814063788E-2  -5.183582901954651E-1   8.408830165863037E-1  
 4.836000000000000E7    -5.204871892929077E-1   8.453484773635864E-1  -1.944846101105213E-2  -1.268420275300741E-2  -1.942786760628223E-2  -1.267982274293900E-2  -5.175900459289551E-1   8.413218259811401E-1  
 4.838000000000000E7    -5.198171734809876E-1   8.454430103302002E-1  -1.900289952754974E-2  -1.238537300378084E-2  -1.896098628640175E-2  -1.238042023032904E-2  -5.171546339988709E-1   8.420285582542419E-1  
 4.840000000000000E7    -5.193837285041809E-1   8.458598256111145E-1  -1.853082142770290E-2  -1.206706091761589E-2  -1.849954575300217E-2  -1.206377241760492E-2  -5.158033370971680E-1   8.426055312156677E-1  
 4.842000000000000E7    -5.178959369659424E-1   8.466547131538391E-1  -1.808782294392586E-2  -1.176665630191565E-2  -1.805516518652439E-2  -1.173674874007702E-2  -5.148440599441528E-1   8.429570198059082E-1  
 4.844000000000000E7    -5.174559950828552E-1   8.468881845474243E-1  -1.761515438556671E-2  -1.146294362843037E-2  -1.759103499352932E-2  -1.144777517765760E-2  -5.139142274856567E-1   8.434367775917053E-1  
 4.846000000000000E7    -5.162764191627502E-1   8.471555709838867E-1  -1.716545782983303E-2  -1.115723978728056E-2  -1.714055985212326E-2  -1.114580128341913E-2  -5.135493874549866E-1   8.438946008682251E-1  
 4.848000000000000E7    -5.158941745758057E-1   8.479871749877930E-1  -1.670805923640728E-2  -1.083857659250498E-2  -1.667510345578194E-2  -1.085064280778170E-2  -5.124931931495667E-1   8.443698883056641E-1  
 4.850000000000000E7    -5.147138237953186E-1   8.487373590469360E-1  -1.625411771237850E-2  -1.058020163327456E-2  -1.624634303152561E-2  -1.052763964980841E-2  -5.118960142135620E-1   8.450076580047607E-1  
 4.852000000000000E7    -5.139763355255127E-1   8.492149710655212E-1  -1.578543707728386E-2  -1.026294752955437E-2  -1.576026342809200E-2  -1.023923605680466E-2  -5.108830332756043E-1   8.454008102416992E-1  
 4.854000000000000E7    -5.132325291633606E-1   8.499257564544678E-1  -1.534081343561411E-2  -9.956840425729752E-3  -1.530256215482950E-2  -9.948477149009705E-3  -5.098813176155090E-1   8.459353446960449E-1  
 4.856000000000000E7    -5.125547647476196E-1   8.497371673583984E-1  -1.486908737570047E-2  -9.666069410741329E-3  -1.487606298178434E-2  -9.676277637481690E-3  -5.092359781265259E-1   8.467189073562622E-1  
 4.858000000000000E7    -5.117633938789368E-1   8.504427671432495E-1  -1.443123910576105E-2  -9.362422861158848E-3  -1.439993642270565E-2  -9.376510977745056E-3  -5.087868571281433E-1   8.472309112548828E-1  
 4.860000000000000E7    -5.107340216636658E-1   8.511329889297485E-1  -1.397149357944727E-2  -9.060580283403397E-3  -1.394961308687925E-2  -9.054009802639484E-3  -5.076438188552856E-1   8.475068807601929E-1  
 4.862000000000000E7    -5.098860263824463E-1   8.515922427177429E-1  -1.350054144859314E-2  -8.779465220868588E-3  -1.347401179373264E-2  -8.788145147264004E-3  -5.072801113128662E-1   8.478322029113770E-1  
 4.864000000000000E7    -5.089008808135986E-1   8.523012399673462E-1  -1.304722949862480E-2  -8.473093621432781E-3  -1.303434092551470E-2  -8.474711328744888E-3  -5.058595538139343E-1   8.483722209930420E-1  
 4.866000000000000E7    -5.083527565002441E-1   8.528684973716736E-1  -1.258882135152817E-2  -8.207882754504681E-3  -1.257390342652798E-2  -8.179096505045891E-3  -5.052964091300964E-1   8.490245342254639E-1  
 4.868000000000000E7    -5.076047778129578E-1   8.531113862991333E-1  -1.212750934064388E-2  -7.917648181319237E-3  -1.211849320679903E-2  -7.903368212282658E-3  -5.044345855712891E-1   8.496367931365967E-1  
 4.870000000000000E7    -5.065412521362305E-1   8.535366058349609E-1  -1.168410386890173E-2  -7.613719440996647E-3  -1.167182996869087E-2  -7.611811626702547E-3  -5.031836628913879E-1   8.499554991722107E-1  
 4.872000000000000E7    -5.058073401451111E-1   8.540224432945252E-1  -1.122062280774117E-2  -7.303147111088038E-3  -1.120595168322325E-2  -7.327915169298649E-3  -5.028905272483826E-1   8.503715395927429E-1  
 4.874000000000000E7    -5.052051544189453E-1   8.543274402618408E-1  -1.075234450399876E-2  -7.032955531030893E-3  -1.073493435978890E-2  -7.029694970697165E-3  -5.016980171203613E-1   8.506108522415161E-1  
 4.876000000000000E7    -5.039263367652893E-1   8.551875948905945E-1  -1.028851699084044E-2  -6.768665742129087E-3  -1.029011886566877E-2  -6.743925623595715E-3  -5.010142326354981E-1   8.512813448905945E-1  
 4.878000000000000E7    -5.030554533004761E-1   8.559092283248901E-1  -9.851446375250816E-3  -6.477285642176867E-3  -9.825076907873154E-3  -6.443692371249199E-3  -5.004659295082092E-1   8.519249558448792E-1  
 4.880000000000000E7    -5.024399161338806E-1   8.557182550430298E-1  -9.385263547301292E-3  -6.185184232890606E-3  -9.368310682475567E-3  -6.193338893353939E-3  -4.992849528789520E-1   8.523835539817810E-1  
 4.882000000000000E7    -5.012515783309937E-1   8.563793897628784E-1  -8.928883820772171E-3  -5.890484899282455E-3  -8.916967548429966E-3  -5.898230243474245E-3  -4.985007345676422E-1   8.528808951377869E-1  
 4.884000000000000E7    -5.009765028953552E-1   8.569132685661316E-1  -8.481591939926148E-3  -5.626499187201262E-3  -8.460962213575840E-3  -5.620999261736870E-3  -4.978952705860138E-1   8.534761667251587E-1  
 4.886000000000000E7    -4.998342990875244E-1   8.570931553840637E-1  -8.022768422961235E-3  -5.349328275769949E-3  -8.014209568500519E-3  -5.336534231901169E-3  -4.967689812183380E-1   8.537345528602600E-1  
 4.888000000000000E7    -4.989840388298035E-1   8.582293391227722E-1  -7.553338538855314E-3  -5.051670130342245E-3  -7.544239982962608E-3  -5.073819309473038E-3  -4.961551129817963E-1   8.542799353599548E-1  
 4.890000000000000E7    -4.980398118495941E-1   8.582457900047302E-1  -7.105068769305944E-3  -4.778959322720766E-3  -7.098602596670389E-3  -4.792665131390095E-3  -4.955399930477142E-1   8.550330400466919E-1  
 4.892000000000000E7    -4.968318939208984E-1   8.591482043266296E-1  -6.657273042947054E-3  -4.504776094108820E-3  -6.629824638366699E-3  -4.510703030973673E-3  -4.945111870765686E-1   8.553557395935059E-1  
 4.894000000000000E7    -4.964199662208557E-1   8.592757582664490E-1  -6.189232226461172E-3  -4.253791645169258E-3  -6.171114742755890E-3  -4.229670390486717E-3  -4.937727749347687E-1   8.558929562568665E-1  
 4.896000000000000E7    -4.953100383281708E-1   8.596643805503845E-1  -5.708061624318361E-3  -3.951971419155598E-3  -5.725008435547352E-3  -3.953044302761555E-3  -4.925105571746826E-1   8.567445278167725E-1  
 4.898000000000000E7    -4.947960972785950E-1   8.600485920906067E-1  -5.263125058263540E-3  -3.695196704939008E-3  -5.259300582110882E-3  -3.681421047076583E-3  -4.918847382068634E-1   8.566251397132874E-1  
 4.900000000000000E7    -4.942891597747803E-1   8.608397841453552E-1  -4.813610576093197E-3  -3.419471438974142E-3  -4.797769244760275E-3  -3.426877083256841E-3  -4.909795820713043E-1   8.570150732994080E-1  
 4.902000000000000E7    -4.933537244796753E-1   8.610033988952637E-1  -4.349399358034134E-3  -3.149605588987470E-3  -4.347628448158503E-3  -3.162076929584146E-3  -4.905229508876801E-1   8.578032851219177E-1  
 4.904000000000000E7    -4.922495186328888E-1   8.615772724151611E-1  -3.890774911269546E-3  -2.890222705900669E-3  -3.887157188728452E-3  -2.887417562305927E-3  -4.892571866512299E-1   8.581331968307495E-1  
 4.906000000000000E7    -4.911508262157440E-1   8.623065352439880E-1  -3.426100127398968E-3  -2.614452736452222E-3  -3.427723655477166E-3  -2.613562857732177E-3  -4.884462356567383E-1   8.590636253356934E-1  
 4.908000000000000E7    -4.906992614269257E-1   8.627573847770691E-1  -2.985968021675944E-3  -2.360522747039795E-3  -2.984178252518177E-3  -2.345339627936482E-3  -4.875713884830475E-1   8.592897653579712E-1  
 4.910000000000000E7    -4.892796874046326E-1   8.632073998451233E-1  -2.514513675123453E-3  -2.087177475914359E-3  -2.514970954507589E-3  -2.078771824017167E-3  -4.866689741611481E-1   8.597491383552551E-1  
 4.912000000000000E7    -4.889019429683685E-1   8.638775944709778E-1  -2.065791049972177E-3  -1.825933810323477E-3  -2.065526321530342E-3  -1.805923297069967E-3  -4.862010180950165E-1   8.601820468902588E-1  
 4.914000000000000E7    -4.878747463226318E-1   8.637366890907288E-1  -1.603214652277529E-3  -1.559332595206797E-3  -1.607805956155062E-3  -1.557312440127134E-3  -4.850601851940155E-1   8.605453372001648E-1  
 4.916000000000000E7    -4.869030117988586E-1   8.645011782646179E-1  -1.146145979873836E-3  -1.314603141508997E-3  -1.145027694292367E-3  -1.290583400987089E-3  -4.842748641967773E-1   8.613236546516419E-1  
 4.918000000000000E7    -4.864211082458496E-1   8.648370504379273E-1  -6.902586901560426E-4  -1.032574102282524E-3  -6.739677046425641E-4  -1.037556445226073E-3  -4.836991429328919E-1   8.616576790809631E-1  
 4.920000000000000E7    -4.854404926300049E-1   8.654204010963440E-1  -2.240604662802070E-4  -7.715327665209770E-4  -2.172827225876972E-4  -7.741258013993502E-4  -4.824688434600830E-1   8.620599508285523E-1  
 4.922000000000000E7    -4.845046401023865E-1   8.658384084701538E-1   2.165792975574732E-4  -5.114621017128229E-4   2.278465253766626E-4  -5.167226772755384E-4  -4.816339313983917E-1   8.625666499137878E-1  
 4.924000000000000E7    -4.838721752166748E-1   8.667002320289612E-1   6.908421055413783E-4  -2.730478299781680E-4   6.765465368516743E-4  -2.657194272615016E-4  -4.807184338569641E-1   8.628863096237183E-1  
 4.926000000000000E7    -4.830943346023560E-1   8.669881224632263E-1   1.138842664659023E-3   4.829001341022376E-7   1.153329852968454E-3  -7.174438906076830E-6  -4.800301492214203E-1   8.635739684104919E-1  
 4.928000000000000E7    -4.820058643817902E-1   8.672876954078674E-1   1.615566434338689E-3   2.469918981660157E-4   1.614328240975738E-3   2.575616817921400E-4  -4.795061051845551E-1   8.639751076698303E-1  
 4.930000000000000E7    -4.813020229339600E-1   8.676396608352661E-1   2.062921877950430E-3   5.074019427411258E-4   2.067476976662874E-3   4.936567274853587E-4  -4.783730208873749E-1   8.642042875289917E-1  
 4.932000000000000E7    -4.805520176887512E-1   8.681520819664002E-1   2.538585569709539E-3   7.720506982877851E-4   2.534859813749790E-3   7.659055991098285E-4  -4.777224957942963E-1   8.649026155471802E-1  
 4.934000000000000E7    -4.795297682285309E-1   8.684294819831848E-1   2.983375685289502E-3   1.014335895888507E-3   2.980734687298536E-3   1.016664551571012E-3  -4.769749641418457E-1   8.653350472450256E-1  
 4.936000000000000E7    -4.787277579307556E-1   8.694961667060852E-1   3.429612144827843E-3   1.246554311364889E-3   3.445859998464584E-3   1.256028190255165E-3  -4.759709537029266E-1   8.657057881355286E-1  
 4.938000000000000E7    -4.779250323772430E-1   8.696973919868469E-1   3.912860061973333E-3   1.518796896561980E-3   3.887066384777427E-3   1.511423615738750E-3  -4.750774204730988E-1   8.660911321640015E-1  
 4.940000000000000E7    -4.772530198097229E-1   8.700007200241089E-1   4.364585503935814E-3   1.763383857905865E-3   4.352743271738291E-3   1.746858702972531E-3  -4.745087027549744E-1   8.666721582412720E-1  
 4.942000000000000E7    -4.764817059040070E-1   8.705966472625732E-1   4.821457900106907E-3   2.011668635532260E-3   4.828159231692553E-3   2.010942203924060E-3  -4.733573496341705E-1   8.670924305915833E-1  
 4.944000000000000E7    -4.754890501499176E-1   8.706563115119934E-1   5.278013180941343E-3   2.259189728647471E-3   5.288667976856232E-3   2.253988990560174E-3  -4.726856946945190E-1   8.675330877304077E-1  
 4.946000000000000E7    -4.744789898395538E-1   8.709987998008728E-1   5.740326363593340E-3   2.493556821718812E-3   5.720749497413635E-3   2.482744166627526E-3  -4.720096588134766E-1   8.679373264312744E-1  
 4.948000000000000E7    -4.737362563610077E-1   8.716931343078613E-1   6.183741614222527E-3   2.737053204327822E-3   6.188343744724989E-3   2.746362471953034E-3  -4.711051881313324E-1   8.684928417205811E-1  
 4.950000000000000E7    -4.731486737728119E-1   8.718951344490051E-1   6.654049269855022E-3   2.991304500028491E-3   6.652590818703175E-3   2.984961727634072E-3  -4.701366126537323E-1   8.687818050384522E-1  
 4.952000000000000E7    -4.719720780849457E-1   8.727704882621765E-1   7.115437649190426E-3   3.229541238397360E-3   7.106964010745287E-3   3.211884293705225E-3  -4.692102968692780E-1   8.693737387657166E-1  
 4.954000000000000E7    -4.711625576019287E-1   8.731430768966675E-1   7.572373840957880E-3   3.478006459772587E-3   7.562804035842419E-3   3.460607957094908E-3  -4.682141244411469E-1   8.697209358215332E-1  
 4.956000000000000E7    -4.704236388206482E-1   8.735421299934387E-1   8.024866692721844E-3   3.705303184688091E-3   8.011349476873875E-3   3.703114809468389E-3  -4.679560065269470E-1   8.699727654457092E-1  
 4.958000000000000E7    -4.692954123020172E-1   8.737758398056030E-1   8.496334776282311E-3   3.932106308639050E-3   8.488222956657410E-3   3.939117770642042E-3  -4.666610956192017E-1   8.706793189048767E-1  
 4.960000000000000E7    -4.684507548809052E-1   8.742341995239258E-1   8.951781317591667E-3   4.182029515504837E-3   8.937355130910873E-3   4.170727916061878E-3  -4.659305810928345E-1   8.704730868339539E-1  
 4.962000000000000E7    -4.680882990360260E-1   8.746801614761353E-1   9.386069141328335E-3   4.420259967446327E-3   9.383614175021648E-3   4.411497153341770E-3  -4.651720821857452E-1   8.713266253471375E-1  
 4.964000000000000E7    -4.669945240020752E-1   8.750021457672119E-1   9.872699156403542E-3   4.633668810129166E-3   9.858165867626667E-3   4.647098947316408E-3  -4.640227556228638E-1   8.716646432876587E-1  
 4.966000000000000E7    -4.661900103092194E-1   8.756815791130066E-1   1.033009309321642E-2   4.894007928669453E-3   1.032061409205198E-2   4.882031586021185E-3  -4.632396399974823E-1   8.723969459533691E-1  
 4.968000000000000E7    -4.653603732585907E-1   8.758323788642883E-1   1.078436430543661E-2   5.119946319609880E-3   1.076397765427828E-2   5.109183955937624E-3  -4.623835980892181E-1   8.729005455970764E-1  
 4.970000000000000E7    -4.646991491317749E-1   8.762946128845215E-1   1.124195102602243E-2   5.342145916074514E-3   1.121459156274796E-2   5.342263728380203E-3  -4.615265130996704E-1   8.730977177619934E-1  
 4.972000000000000E7    -4.635451734066010E-1   8.769511580467224E-1   1.169486343860626E-2   5.581301636993885E-3   1.169006247073412E-2   5.554801784455776E-3  -4.608731865882874E-1   8.733453750610352E-1  
 4.974000000000000E7    -4.626674354076386E-1   8.773918747901917E-1   1.214620284736157E-2   5.794389639049768E-3   1.214574277400971E-2   5.802279803901911E-3  -4.601039588451386E-1   8.739771246910095E-1  
 4.976000000000000E7    -4.620919227600098E-1   8.776730298995972E-1   1.261235959827900E-2   6.027582101523876E-3   1.259964145720005E-2   6.026407238095999E-3  -4.592744410037994E-1   8.746339678764343E-1  
 4.978000000000000E7    -4.613912105560303E-1   8.784099817276001E-1   1.308254059404135E-2   6.259376648813486E-3   1.306023634970188E-2   6.260983180254698E-3  -4.584124088287354E-1   8.750790953636169E-1  
 4.980000000000000E7    -4.599888324737549E-1   8.784186840057373E-1   1.353263761848211E-2   6.466357037425041E-3   1.350170560181141E-2   6.479252595454454E-3  -4.573888480663300E-1   8.753520846366882E-1  
 4.982000000000000E7    -4.590519666671753E-1   8.789432048797607E-1   1.398058887571096E-2   6.706400774419308E-3   1.397829130291939E-2   6.701642181724310E-3  -4.566492140293121E-1   8.755529522895813E-1  
 4.984000000000000E7    -4.587011039257050E-1   8.795158267021179E-1   1.443796604871750E-2   6.944807711988688E-3   1.443605031818152E-2   6.949096918106079E-3  -4.559931159019470E-1   8.759224414825440E-1  
 4.986000000000000E7    -4.579967856407166E-1   8.796205520629883E-1   1.491874735802412E-2   7.172467187047005E-3   1.489619445055723E-2   7.168698124587536E-3  -4.552533924579620E-1   8.765897154808044E-1  
 4.988000000000000E7    -4.567454457283020E-1   8.801549077033997E-1   1.536360196769238E-2   7.376532070338726E-3   1.536018215119839E-2   7.369555067270994E-3  -4.544792175292969E-1   8.769197463989258E-1  
 4.990000000000000E7    -4.557215869426727E-1   8.808329701423645E-1   1.582000777125359E-2   7.596632465720177E-3   1.581617631018162E-2   7.592368405312300E-3  -4.534254372119904E-1   8.772054910659790E-1  
 4.992000000000000E7    -4.549051821231842E-1   8.811902999877930E-1   1.630803197622299E-2   7.813346572220326E-3   1.627923361957073E-2   7.809747010469437E-3  -4.526579380035400E-1   8.779640197753906E-1  
 4.994000000000000E7    -4.545427560806274E-1   8.818919062614441E-1   1.674795709550381E-2   8.063491433858872E-3   1.674231328070164E-2   8.032416924834251E-3  -4.518543779850006E-1   8.783214092254639E-1  
 4.996000000000000E7    -4.532862305641174E-1   8.820366263389587E-1   1.721056737005711E-2   8.241055533289909E-3   1.719026453793049E-2   8.242392912507057E-3  -4.508483111858368E-1   8.786692023277283E-1  
 4.998000000000000E7    -4.526929557323456E-1   8.822836279869080E-1   1.764588430523872E-2   8.480405434966087E-3   1.763245649635792E-2   8.474314585328102E-3  -4.500691890716553E-1   8.789022564888001E-1  
 5.000000000000000E7    -4.519568681716919E-1   8.824358582496643E-1   1.811715774238110E-2   8.694357238709927E-3   1.810039393603802E-2   8.685132488608360E-3  -4.488847851753235E-1   8.795150518417358E-1  
 5.002000000000000E7    -4.509389102458954E-1   8.832938075065613E-1   1.858290843665600E-2   8.911977522075176E-3   1.855559274554253E-2   8.889948949217796E-3  -4.483912885189056E-1   8.800851106643677E-1  
 5.004000000000000E7    -4.502236545085907E-1   8.837188482284546E-1   1.904814690351486E-2   9.113189764320850E-3   1.901232637465000E-2   9.105196222662926E-3  -4.477114081382752E-1   8.802371621131897E-1  
 5.006000000000000E7    -4.489395916461945E-1   8.843191266059876E-1   1.951492018997669E-2   9.310521185398102E-3   1.946775056421757E-2   9.316454641520977E-3  -4.463547170162201E-1   8.810960650444031E-1  
 5.008000000000000E7    -4.483627974987030E-1   8.846954703330994E-1   1.993962004780769E-2   9.550501592457295E-3   1.994379423558712E-2   9.546054527163506E-3  -4.458201825618744E-1   8.810336589813232E-1  
 5.010000000000000E7    -4.476654231548309E-1   8.850201368331909E-1   2.040075883269310E-2   9.776838123798370E-3   2.039015665650368E-2   9.770256467163563E-3  -4.450211524963379E-1   8.816908001899719E-1  
 5.012000000000000E7    -4.470327496528626E-1   8.851681351661682E-1   2.084241621196270E-2   9.973939508199692E-3   2.083893306553364E-2   9.972181171178818E-3  -4.440042972564697E-1   8.819324374198914E-1  
 5.014000000000000E7    -4.457536041736603E-1   8.851981759071350E-1   2.131114527583122E-2   1.015326939523220E-2   2.130724675953388E-2   1.016618777066469E-2  -4.435133934020996E-1   8.822478055953980E-1  
 5.016000000000000E7    -4.452403187751770E-1   8.861707448959351E-1   2.178401499986649E-2   1.036975719034672E-2   2.176940068602562E-2   1.036262325942516E-2  -4.422405064105988E-1   8.825103640556335E-1  
 5.018000000000000E7    -4.439617097377777E-1   8.867297172546387E-1   2.224904671311379E-2   1.058284565806389E-2   2.221282944083214E-2   1.055400911718607E-2  -4.414712488651276E-1   8.831823468208313E-1  
 5.020000000000000E7    -4.435785412788391E-1   8.868255019187927E-1   2.271318063139916E-2   1.076693274080753E-2   2.267728373408318E-2   1.077225431799889E-2  -4.406644999980927E-1   8.835329413414002E-1  
 5.022000000000000E7    -4.424025118350983E-1   8.869847655296326E-1   2.315073460340500E-2   1.099576521664858E-2   2.313538081943989E-2   1.095518004149199E-2  -4.399007856845856E-1   8.843020796775818E-1  
 5.024000000000000E7    -4.416530430316925E-1   8.876923322677612E-1   2.362018078565598E-2   1.119581796228886E-2   2.358842454850674E-2   1.117350440472364E-2  -4.390714168548584E-1   8.841868042945862E-1  
 5.026000000000000E7    -4.404658973217011E-1   8.880552649497986E-1   2.408290840685368E-2   1.138713862746954E-2   2.404207177460194E-2   1.139355637133122E-2  -4.383281767368317E-1   8.849190473556519E-1  
 5.028000000000000E7    -4.401278793811798E-1   8.882866501808167E-1   2.454300969839096E-2   1.160498615354300E-2   2.450633421540260E-2   1.160375494509935E-2  -4.372805058956146E-1   8.853527903556824E-1  
 5.030000000000000E7    -4.389660358428955E-1   8.888034224510193E-1   2.500411495566368E-2   1.181884575635195E-2   2.497169189155102E-2   1.177068520337343E-2  -4.367817044258118E-1   8.857874870300293E-1  
 5.032000000000000E7    -4.381488263607025E-1   8.890988230705261E-1   2.545541524887085E-2   1.198682468384504E-2   2.543161995708942E-2   1.198474410921335E-2  -4.359715580940247E-1   8.862436413764954E-1  
 5.034000000000000E7    -4.374240338802338E-1   8.895248174667358E-1   2.592238411307335E-2   1.218125317245722E-2   2.587829530239105E-2   1.218350138515234E-2  -4.351303875446320E-1   8.866109251976013E-1  
 5.036000000000000E7    -4.363476634025574E-1   8.897185921669006E-1   2.635978534817696E-2   1.238736975938082E-2   2.631731331348419E-2   1.237035915255547E-2  -4.341935813426971E-1   8.866839408874512E-1  
 5.038000000000000E7    -4.358578026294708E-1   8.903249502182007E-1   2.683337777853012E-2   1.258592680096626E-2   2.678159065544605E-2   1.256362255662680E-2  -4.332393407821655E-1   8.869114518165588E-1  
 5.040000000000000E7    -4.348440468311310E-1   8.905442953109741E-1   2.727809920907021E-2   1.275797933340073E-2   2.725202031433582E-2   1.274937670677900E-2  -4.320838153362274E-1   8.875452876091003E-1  
 5.042000000000000E7    -4.342462718486786E-1   8.912237286567688E-1   2.775332517921925E-2   1.293825358152390E-2   2.769384533166885E-2   1.294685807079077E-2  -4.316720068454742E-1   8.877707123756409E-1  
 5.044000000000000E7    -4.330137073993683E-1   8.914806246757507E-1   2.819336205720902E-2   1.314738020300865E-2   2.817797847092152E-2   1.311898790299892E-2  -4.306178092956543E-1   8.882803320884705E-1  
 5.046000000000000E7    -4.324388206005096E-1   8.919349312782288E-1   2.866535447537899E-2   1.334638893604279E-2   2.863428369164467E-2   1.334445085376501E-2  -4.302820861339569E-1   8.886455893516541E-1  
 5.048000000000000E7    -4.314897060394287E-1   8.923599720001221E-1   2.912757731974125E-2   1.352702919393778E-2   2.908536419272423E-2   1.348932553082705E-2  -4.289458096027374E-1   8.890375494956970E-1  
 5.050000000000000E7    -4.304957091808319E-1   8.925381302833557E-1   2.957223355770111E-2   1.370926573872566E-2   2.953873760998249E-2   1.369408983737230E-2  -4.284355640411377E-1   8.892399072647095E-1  
 5.052000000000000E7    -4.297706186771393E-1   8.929232954978943E-1   2.999782189726830E-2   1.389944646507502E-2   2.998303435742855E-2   1.393791753798723E-2  -4.273297786712647E-1   8.894584774971008E-1  
 5.054000000000000E7    -4.288212954998016E-1   8.936358690261841E-1   3.048956580460072E-2   1.408585906028748E-2   3.046554140746594E-2   1.406545192003250E-2  -4.265411496162415E-1   8.902114629745483E-1  
 5.056000000000000E7    -4.280432462692261E-1   8.938127160072327E-1   3.094950690865517E-2   1.428176090121269E-2   3.089702315628529E-2   1.427284721285105E-2  -4.257040917873383E-1   8.905771374702454E-1  
 5.058000000000000E7    -4.274986684322357E-1   8.940851092338562E-1   3.138217702507973E-2   1.446401793509722E-2   3.134601190686226E-2   1.446600817143917E-2  -4.249782860279083E-1   8.908632397651672E-1  
 5.060000000000000E7    -4.265531003475189E-1   8.947658538818359E-1   3.188217803835869E-2   1.465089805424213E-2   3.182445839047432E-2   1.464007887989283E-2  -4.238764345645905E-1   8.914844393730164E-1  
 5.062000000000000E7    -4.258697032928467E-1   8.949058055877686E-1   3.231290727853775E-2   1.484557613730431E-2   3.227789700031281E-2   1.483293529599905E-2  -4.230708777904511E-1   8.917633891105652E-1  
 5.064000000000000E7    -4.246079325675964E-1   8.951306939125061E-1   3.276849538087845E-2   1.501890551298857E-2   3.273852542042732E-2   1.500509120523930E-2  -4.222235083580017E-1   8.918682336807251E-1  
 5.066000000000000E7    -4.238045215606690E-1   8.956536650657654E-1   3.325866907835007E-2   1.520024985074997E-2   3.320867940783501E-2   1.516780443489552E-2  -4.212273955345154E-1   8.926157355308533E-1  
 5.068000000000000E7    -4.232780933380127E-1   8.959954977035523E-1   3.368329256772995E-2   1.540773548185825E-2   3.366779536008835E-2   1.538083236664534E-2  -4.206494390964508E-1   8.928754925727844E-1  
 5.070000000000000E7    -4.221445918083191E-1   8.961423039436340E-1   3.413441404700279E-2   1.556683890521526E-2   3.410467877984047E-2   1.552981790155172E-2  -4.197778999805450E-1   8.929985165596008E-1  
 5.072000000000000E7    -4.212158024311066E-1   8.968571424484253E-1   3.461062163114548E-2   1.577369496226311E-2   3.457058221101761E-2   1.572260819375515E-2  -4.190260469913483E-1   8.936504125595093E-1  
 5.074000000000000E7    -4.203905463218689E-1   8.972303867340088E-1   3.506293147802353E-2   1.589864678680897E-2   3.501803800463677E-2   1.589702069759369E-2  -4.182752370834351E-1   8.936459422111511E-1  
 5.076000000000000E7    -4.197012782096863E-1   8.975062966346741E-1   3.552465885877609E-2   1.610737480223179E-2   3.552016615867615E-2   1.606322079896927E-2  -4.175098538398743E-1   8.945881128311157E-1  
 5.078000000000000E7    -4.192153215408325E-1   8.978153467178345E-1   3.595775365829468E-2   1.627611555159092E-2   3.591938316822052E-2   1.628811657428742E-2  -4.165872633457184E-1   8.945913314819336E-1  
 5.080000000000000E7    -4.180542528629303E-1   8.978475928306580E-1   3.641638159751892E-2   1.646514236927033E-2   3.636927157640457E-2   1.645563542842865E-2  -4.158334732055664E-1   8.949418067932129E-1  
 5.082000000000000E7    -4.170194864273071E-1   8.984759449958801E-1   3.688374906778336E-2   1.662301458418369E-2   3.686228767037392E-2   1.660013943910599E-2  -4.149070978164673E-1   8.954010009765625E-1  
 5.084000000000000E7    -4.159681797027588E-1   8.989220261573792E-1   3.734663873910904E-2   1.676704548299313E-2   3.733206912875176E-2   1.676343753933907E-2  -4.143342673778534E-1   8.961498737335205E-1  
 5.086000000000000E7    -4.154338240623474E-1   8.991261720657349E-1   3.778546303510666E-2   1.695379614830017E-2   3.776026144623756E-2   1.691995374858379E-2  -4.131120145320892E-1   8.964029550552368E-1  
 5.088000000000000E7    -4.147326946258545E-1   8.997533321380615E-1   3.824513405561447E-2   1.712029054760933E-2   3.819201141595841E-2   1.711098663508892E-2  -4.122754335403442E-1   8.963147997856140E-1  
 5.090000000000000E7    -4.141608774662018E-1   8.998290896415710E-1   3.871227800846100E-2   1.728687435388565E-2   3.866634890437126E-2   1.726345717906952E-2  -4.113037288188934E-1   8.967773914337158E-1  
 5.092000000000000E7    -4.129160940647125E-1   9.003350138664246E-1   3.918293863534927E-2   1.746254973113537E-2   3.912824392318726E-2   1.747670583426952E-2  -4.105557501316071E-1   8.973186612129211E-1  
 5.094000000000000E7    -4.121986925601959E-1   9.008136391639710E-1   3.963751345872879E-2   1.762471906840801E-2   3.959671407938004E-2   1.762975379824638E-2  -4.098789095878601E-1   8.979297280311585E-1  
 5.096000000000000E7    -4.111811816692352E-1   9.008437395095825E-1   4.006301239132881E-2   1.781598664820194E-2   4.004506766796112E-2   1.777232624590397E-2  -4.089339971542358E-1   8.982875943183899E-1  
 5.098000000000000E7    -4.105356335639954E-1   9.015706777572632E-1   4.056185111403465E-2   1.795895397663117E-2   4.052891209721565E-2   1.797039061784744E-2  -4.078784286975861E-1   8.985894918441773E-1  
 5.100000000000000E7    -4.091849327087402E-1   9.016996026039124E-1   4.098330065608025E-2   1.809507422149181E-2   4.095639288425446E-2   1.811102963984013E-2  -4.072003960609436E-1   8.988351821899414E-1  
 5.102000000000000E7    -4.086796641349793E-1   9.018568992614746E-1   4.141996800899506E-2   1.828851923346520E-2   4.136416688561440E-2   1.826560683548451E-2  -4.064508378505707E-1   8.989911675453186E-1  
 5.104000000000000E7    -4.078462421894074E-1   9.027140736579895E-1   4.190366715192795E-2   1.845030300319195E-2   4.187438637018204E-2   1.844467967748642E-2  -4.055236279964447E-1   8.993145823478699E-1  
 5.106000000000000E7    -4.065011441707611E-1   9.028697609901428E-1   4.238307103514671E-2   1.857960596680641E-2   4.232601448893547E-2   1.854176446795464E-2  -4.042913317680359E-1   8.998043537139893E-1  
 5.108000000000000E7    -4.059349000453949E-1   9.031807780265808E-1   4.282493889331818E-2   1.875807344913483E-2   4.277403652667999E-2   1.874151639640331E-2  -4.037430882453919E-1   9.001898765563965E-1  
 5.110000000000000E7    -4.052057564258575E-1   9.036552309989929E-1   4.330987110733986E-2   1.888858526945114E-2   4.323872551321983E-2   1.891318708658218E-2  -4.027130305767059E-1   9.007580876350403E-1  
 5.112000000000000E7    -4.044000208377838E-1   9.036956429481506E-1   4.371241107583046E-2   1.908168010413647E-2   4.369059950113297E-2   1.907059550285339E-2  -4.021407961845398E-1   9.006478190422058E-1  
 5.114000000000000E7    -4.037639200687408E-1   9.044267535209656E-1   4.420822113752365E-2   1.926254667341709E-2   4.415763169527054E-2   1.924829743802548E-2  -4.012036919593811E-1   9.012896418571472E-1  
 5.116000000000000E7    -4.029118418693543E-1   9.045635461807251E-1   4.467498511075974E-2   1.939205266535282E-2   4.460076987743378E-2   1.939868368208408E-2  -4.004126787185669E-1   9.017006158828735E-1  
 5.118000000000000E7    -4.021157920360565E-1   9.044182896614075E-1   4.507908970117569E-2   1.955764368176460E-2   4.503860697150230E-2   1.952913217246532E-2  -3.995684683322907E-1   9.020519852638245E-1  
 5.120000000000000E7    -4.011368155479431E-1   9.052994847297669E-1   4.557902738451958E-2   1.971955783665180E-2   4.549915716052055E-2   1.966359466314316E-2  -3.987456858158112E-1   9.020749330520630E-1  
 5.122000000000000E7    -4.004457592964172E-1   9.055762290954590E-1   4.600222781300545E-2   1.989006809890270E-2   4.594912752509117E-2   1.985428854823113E-2  -3.981111943721771E-1   9.022295475006104E-1  
 5.124000000000000E7    -3.993994891643524E-1   9.056174755096436E-1   4.645645618438721E-2   2.001693472266197E-2   4.641126468777657E-2   2.000404149293900E-2  -3.969322741031647E-1   9.030471444129944E-1  
 5.126000000000000E7    -3.981366157531738E-1   9.062843918800354E-1   4.693507403135300E-2   2.014268189668655E-2   4.683091863989830E-2   2.012426778674126E-2  -3.960781097412109E-1   9.030966758728027E-1  
 5.128000000000000E7    -3.980894088745117E-1   9.066697955131531E-1   4.737756028771401E-2   2.031774073839188E-2   4.733848199248314E-2   2.032957039773464E-2  -3.954800963401794E-1   9.036933183670044E-1  
 5.130000000000000E7    -3.970919549465179E-1   9.072060585021973E-1   4.784685745835304E-2   2.044090442359448E-2   4.781433567404747E-2   2.046225778758526E-2  -3.941046297550201E-1   9.041810035705566E-1  
 5.132000000000000E7    -3.962512314319611E-1   9.074201583862305E-1   4.830802604556084E-2   2.060411684215069E-2   4.823445901274681E-2   2.056476660072804E-2  -3.934660553932190E-1   9.042245149612427E-1  
 5.134000000000000E7    -3.953562378883362E-1   9.073314070701599E-1   4.870275408029556E-2   2.077461779117584E-2   4.866901040077210E-2   2.077490650117397E-2  -3.931656777858734E-1   9.047201275825501E-1  
 5.136000000000000E7    -3.942638039588928E-1   9.079492688179016E-1   4.921109974384308E-2   2.090213634073734E-2   4.922296106815338E-2   2.092543989419937E-2  -3.924083113670349E-1   9.051678776741028E-1  
 5.138000000000000E7    -3.935248553752899E-1   9.083660244941711E-1   4.966238513588905E-2   2.107675559818745E-2   4.961249232292175E-2   2.102321572601795E-2  -3.912930786609650E-1   9.057219028472900E-1  
 5.140000000000000E7    -3.925500214099884E-1   9.084937572479248E-1   5.008113011717796E-2   2.124813012778759E-2   5.007709935307503E-2   2.118922211229801E-2  -3.906582295894623E-1   9.057161211967468E-1  
 5.142000000000000E7    -3.922132253646851E-1   9.090688824653626E-1   5.057546123862267E-2   2.136210724711418E-2   5.048957467079163E-2   2.132812328636646E-2  -3.894165158271790E-1   9.059934616088867E-1  
 5.144000000000000E7    -3.909973204135895E-1   9.091612100601196E-1   5.100651830434799E-2   2.150457724928856E-2   5.094331502914429E-2   2.147901430726051E-2  -3.888674974441528E-1   9.061813950538635E-1  
 5.146000000000000E7    -3.899152278900147E-1   9.093662500381470E-1   5.145991966128349E-2   2.161824889481068E-2   5.139075219631195E-2   2.162683196365833E-2  -3.881850540637970E-1   9.065713882446289E-1  
 5.148000000000000E7    -3.891468346118927E-1   9.096053838729858E-1   5.190532654523850E-2   2.174388431012631E-2   5.183372274041176E-2   2.170807309448719E-2  -3.871899545192719E-1   9.067135453224182E-1  
 5.150000000000000E7    -3.887152671813965E-1   9.103970527648926E-1   5.236687883734703E-2   2.194091491401196E-2   5.232748389244080E-2   2.193608507514000E-2  -3.866161704063416E-1   9.073449969291687E-1  
 5.152000000000000E7    -3.878095448017120E-1   9.104958772659302E-1   5.284930393099785E-2   2.206422761082649E-2   5.277958884835243E-2   2.206631004810333E-2  -3.854565620422363E-1   9.080546498298645E-1  
 5.154000000000000E7    -3.871676921844482E-1   9.107021689414978E-1   5.326809361577034E-2   2.218701317906380E-2   5.325974524021149E-2   2.219864167273045E-2  -3.845559358596802E-1   9.078008532524109E-1  
 5.156000000000000E7    -3.863911330699921E-1   9.113684892654419E-1   5.373866856098175E-2   2.233490161597729E-2   5.367566272616386E-2   2.237372100353241E-2  -3.836174309253693E-1   9.080697894096375E-1  
 5.158000000000000E7    -3.851528465747833E-1   9.114982485771179E-1   5.419415608048439E-2   2.245462872087956E-2   5.411284416913986E-2   2.248100377619267E-2  -3.828106820583344E-1   9.086005091667175E-1  
 5.160000000000000E7    -3.844131231307983E-1   9.117915034294128E-1   5.463250353932381E-2   2.261170186102390E-2   5.457812175154686E-2   2.255818992853165E-2  -3.818657696247101E-1   9.091520905494690E-1  
 5.162000000000000E7    -3.835007548332214E-1   9.119812846183777E-1   5.510083213448525E-2   2.275444194674492E-2   5.503386631608009E-2   2.275412529706955E-2  -3.813812136650085E-1   9.094071388244629E-1  
 5.164000000000000E7    -3.825056850910187E-1   9.125883579254150E-1   5.556998401880264E-2   2.285712398588657E-2   5.548253282904625E-2   2.285180799663067E-2  -3.802999556064606E-1   9.094524979591370E-1  
 5.166000000000000E7    -3.819676041603088E-1   9.125378131866455E-1   5.600370839238167E-2   2.301104553043842E-2   5.592283234000206E-2   2.302374131977558E-2  -3.795646429061890E-1   9.099051356315613E-1  
 5.168000000000000E7    -3.806825280189514E-1   9.133624434471130E-1   5.648146942257881E-2   2.310479804873467E-2   5.643718689680100E-2   2.312913164496422E-2  -3.785847723484039E-1   9.102210402488709E-1  
 5.170000000000000E7    -3.802261352539063E-1   9.134184718132019E-1   5.689910799264908E-2   2.328616380691528E-2   5.684301257133484E-2   2.326333522796631E-2  -3.778546154499054E-1   9.103513360023499E-1  
 5.172000000000000E7    -3.790135085582733E-1   9.136371016502380E-1   5.737304314970970E-2   2.337464690208435E-2   5.729156732559204E-2   2.339615486562252E-2  -3.771611452102661E-1   9.107372760772705E-1  
 5.174000000000000E7    -3.784974813461304E-1   9.144252538681030E-1   5.778349936008453E-2   2.353228442370892E-2   5.777069181203842E-2   2.347287908196449E-2  -3.758766353130341E-1   9.110473394393921E-1  
 5.176000000000000E7    -3.775332868099213E-1   9.145904779434204E-1   5.824839323759079E-2   2.366934716701508E-2   5.822134017944336E-2   2.367075905203819E-2  -3.753954470157623E-1   9.114387631416321E-1  
 5.178000000000000E7    -3.768119513988495E-1   9.145889878273010E-1   5.872166901826859E-2   2.377416566014290E-2   5.863316357135773E-2   2.378538623452187E-2  -3.742834925651550E-1   9.116939306259155E-1  
 5.180000000000000E7    -3.759363591670990E-1   9.148654341697693E-1   5.912997201085091E-2   2.392321638762951E-2   5.910212546586990E-2   2.389753609895706E-2  -3.735824823379517E-1   9.120307564735413E-1  
 5.182000000000000E7    -3.750285804271698E-1   9.150979518890381E-1   5.964249372482300E-2   2.397955209016800E-2   5.955119803547859E-2   2.403755858540535E-2  -3.730049431324005E-1   9.127910733222961E-1  
 5.184000000000000E7    -3.740819394588471E-1   9.156638979911804E-1   6.009275466203690E-2   2.410293743014336E-2   6.000593677163124E-2   2.413952536880970E-2  -3.717765212059021E-1   9.124828577041626E-1  
 5.186000000000000E7    -3.733525872230530E-1   9.159193634986877E-1   6.056324020028114E-2   2.422776632010937E-2   6.049219518899918E-2   2.423936873674393E-2  -3.707902133464813E-1   9.128800630569458E-1  
 5.188000000000000E7    -3.725262284278870E-1   9.161036610603333E-1   6.099043413996697E-2   2.436390146613121E-2   6.093369051814079E-2   2.436114847660065E-2  -3.700067102909088E-1   9.135689139366150E-1  
 5.190000000000000E7    -3.715875744819641E-1   9.165719151496887E-1   6.145608797669411E-2   2.447828091681004E-2   6.140426173806191E-2   2.447263337671757E-2  -3.692999482154846E-1   9.140659570693970E-1  
 5.192000000000000E7    -3.709559440612793E-1   9.168999195098877E-1   6.189231574535370E-2   2.460656501352787E-2   6.184923648834229E-2   2.460997551679611E-2  -3.686894774436951E-1   9.140746593475342E-1  
 5.194000000000000E7    -3.696341216564179E-1   9.169294834136963E-1   6.228788569569588E-2   2.472690865397453E-2   6.226322054862976E-2   2.473008073866367E-2  -3.677105307579041E-1   9.140936732292175E-1  
 5.196000000000000E7    -3.693023920059204E-1   9.175374507904053E-1   6.283158808946610E-2   2.492288500070572E-2   6.274877488613129E-2   2.485908940434456E-2  -3.669644594192505E-1   9.145371913909912E-1  
 5.198000000000000E7    -3.681789636611939E-1   9.176473617553711E-1   6.324057281017304E-2   2.503091469407082E-2   6.322049349546433E-2   2.502772584557533E-2  -3.662644624710083E-1   9.153508543968201E-1  
 5.200000000000000E7    -3.673922419548035E-1   9.179604649543762E-1   6.372971087694168E-2   2.512791007757187E-2   6.361009180545807E-2   2.509822137653828E-2  -3.651715815067291E-1   9.150990247726440E-1  
 5.202000000000000E7    -3.665480315685272E-1   9.181202054023743E-1   6.409693509340286E-2   2.521712146699429E-2   6.408196687698364E-2   2.518962882459164E-2  -3.642328083515167E-1   9.155072569847107E-1  
 5.204000000000000E7    -3.655733168125153E-1   9.189311265945435E-1   6.459011137485504E-2   2.536483295261860E-2   6.455206871032715E-2   2.534921467304230E-2  -3.635876178741455E-1   9.157446622848511E-1  
 5.206000000000000E7    -3.649826943874359E-1   9.189892411231995E-1   6.502477079629898E-2   2.546484209597111E-2   6.497853994369507E-2   2.546867914497852E-2  -3.627921640872955E-1   9.160528779029846E-1  
 5.208000000000000E7    -3.643495142459869E-1   9.192788600921631E-1   6.548385322093964E-2   2.555647864937782E-2   6.546217203140259E-2   2.555062435567379E-2  -3.613890707492828E-1   9.163709282875061E-1  
 5.210000000000000E7    -3.633934855461121E-1   9.196819067001343E-1   6.599764525890350E-2   2.567056193947792E-2   6.590713560581207E-2   2.563031762838364E-2  -3.608993589878082E-1   9.170222282409668E-1  
 5.212000000000000E7    -3.626368641853333E-1   9.195735454559326E-1   6.643541902303696E-2   2.578236348927021E-2   6.637125462293625E-2   2.576903998851776E-2  -3.599650859832764E-1   9.174256920814514E-1  
 5.214000000000000E7    -3.611197769641876E-1   9.199773073196411E-1   6.688464432954788E-2   2.587614394724369E-2   6.679684668779373E-2   2.583202160894871E-2  -3.592675328254700E-1   9.175788164138794E-1  
 5.216000000000000E7    -3.608259260654450E-1   9.204372167587280E-1   6.728503853082657E-2   2.607345581054688E-2   6.725216656923294E-2   2.601843141019344E-2  -3.587359189987183E-1   9.173566102981567E-1  
 5.218000000000000E7    -3.601169288158417E-1   9.205896854400635E-1   6.776123493909836E-2   2.615884318947792E-2   6.772015243768692E-2   2.612486109137535E-2  -3.576791584491730E-1   9.178893566131592E-1  
 5.220000000000000E7    -3.591952025890350E-1   9.207812547683716E-1   6.818630546331406E-2   2.623833157122135E-2   6.816268712282181E-2   2.622496709227562E-2  -3.569237887859345E-1   9.181168675422669E-1  
 5.222000000000000E7    -3.582595288753510E-1   9.214375019073486E-1   6.867995858192444E-2   2.632205747067928E-2   6.860397011041641E-2   2.626164816319943E-2  -3.556011021137238E-1   9.183557033538818E-1  
 5.224000000000000E7    -3.576229214668274E-1   9.218831658363342E-1   6.914563477039337E-2   2.648782357573509E-2   6.907761096954346E-2   2.650330215692520E-2  -3.553421199321747E-1   9.188433289527893E-1  
 5.226000000000000E7    -3.564722836017609E-1   9.218253493309021E-1   6.956817209720612E-2   2.650360949337483E-2   6.947478652000427E-2   2.649923786520958E-2  -3.538923263549805E-1   9.188787937164307E-1  
 5.228000000000000E7    -3.557691276073456E-1   9.220353960990906E-1   7.000117748975754E-2   2.662418782711029E-2   6.994280964136124E-2   2.670852839946747E-2  -3.534224629402161E-1   9.190612435340881E-1  
 5.230000000000000E7    -3.550249636173248E-1   9.226058721542358E-1   7.043724507093430E-2   2.675371244549751E-2   7.038936764001846E-2   2.677266485989094E-2  -3.525463044643402E-1   9.195275902748108E-1  
 5.232000000000000E7    -3.537425994873047E-1   9.223858714103699E-1   7.088363170623779E-2   2.684076502919197E-2   7.085369527339935E-2   2.676371298730373E-2  -3.518297374248505E-1   9.198492169380188E-1  
 5.234000000000000E7    -3.530912101268768E-1   9.227426052093506E-1   7.134228944778442E-2   2.696217969059944E-2   7.127871364355087E-2   2.693242952227593E-2  -3.507556021213532E-1   9.201321601867676E-1  
 5.236000000000000E7    -3.523689806461334E-1   9.235422611236572E-1   7.183139771223068E-2   2.702913247048855E-2   7.177472859621048E-2   2.706089429557324E-2  -3.499774932861328E-1   9.205100536346436E-1  
 5.238000000000000E7    -3.515011966228485E-1   9.234744906425476E-1   7.230467349290848E-2   2.714932151138783E-2   7.221397757530212E-2   2.713655121624470E-2  -3.489098250865936E-1   9.208062887191773E-1  
 5.240000000000000E7    -3.509941697120667E-1   9.234015345573425E-1   7.270932942628861E-2   2.729811891913414E-2   7.263863086700440E-2   2.724666520953178E-2  -3.484958708286285E-1   9.212642908096314E-1  
 5.242000000000000E7    -3.495309352874756E-1   9.239736795425415E-1   7.314722239971161E-2   2.732563391327858E-2   7.306539267301559E-2   2.732709795236588E-2  -3.474673926830292E-1   9.212123751640320E-1  
 5.244000000000000E7    -3.491401374340057E-1   9.242033362388611E-1   7.358382642269135E-2   2.745975181460381E-2   7.350501418113709E-2   2.744815871119499E-2  -3.468245267868042E-1   9.213620424270630E-1  
 5.246000000000000E7    -3.481211066246033E-1   9.246680736541748E-1   7.400748133659363E-2   2.752386406064034E-2   7.399420440196991E-2   2.751799300312996E-2  -3.457584977149963E-1   9.217690825462341E-1  
 5.248000000000000E7    -3.470537960529327E-1   9.247660636901856E-1   7.455276697874069E-2   2.758374623954296E-2   7.445479929447174E-2   2.761461213231087E-2  -3.447545468807221E-1   9.224208593368530E-1  
 5.250000000000000E7    -3.464781343936920E-1   9.252430796623230E-1   7.492069900035858E-2   2.771751210093498E-2   7.492780685424805E-2   2.774634212255478E-2  -3.440511822700501E-1   9.221487045288086E-1  
 5.252000000000000E7    -3.455405235290527E-1   9.254747629165649E-1   7.535861432552338E-2   2.781556546688080E-2   7.531863451004028E-2   2.785167098045349E-2  -3.434863388538361E-1   9.227052330970764E-1  
 5.254000000000000E7    -3.448975682258606E-1   9.258551597595215E-1   7.590693980455399E-2   2.790874242782593E-2   7.588212937116623E-2   2.791065722703934E-2  -3.424341976642609E-1   9.233658313751221E-1  
 5.256000000000000E7    -3.436445593833923E-1   9.261713624000549E-1   7.631809264421463E-2   2.797651104629040E-2   7.628553360700607E-2   2.798654325306416E-2  -3.415187001228333E-1   9.235932826995850E-1  
 5.258000000000000E7    -3.431609869003296E-1   9.261061549186707E-1   7.675388455390930E-2   2.812329493463039E-2   7.665748149156570E-2   2.813772484660149E-2  -3.410184383392334E-1   9.232725501060486E-1  
 5.260000000000000E7    -3.424008786678314E-1   9.261412024497986E-1   7.713689655065537E-2   2.819668129086494E-2   7.714474201202393E-2   2.819699421525002E-2  -3.404352664947510E-1   9.238801598548889E-1  
 5.262000000000000E7    -3.414742052555084E-1   9.266504645347595E-1   7.762847095727921E-2   2.834749408066273E-2   7.760725915431976E-2   2.832242287695408E-2  -3.393867611885071E-1   9.241667389869690E-1  
 5.264000000000000E7    -3.407210409641266E-1   9.270432591438294E-1   7.807718962430954E-2   2.834661863744259E-2   7.801958918571472E-2   2.834136411547661E-2  -3.379931151866913E-1   9.244281649589539E-1  
 5.266000000000000E7    -3.399269282817841E-1   9.270609617233276E-1   7.848095893859863E-2   2.844978868961334E-2   7.845426350831986E-2   2.843943983316422E-2  -3.373609483242035E-1   9.245419502258301E-1  
 5.268000000000000E7    -3.389954566955566E-1   9.275672435760498E-1   7.895907014608383E-2   2.856414020061493E-2   7.895446568727493E-2   2.855982817709446E-2  -3.368352651596069E-1   9.249609112739563E-1  
 5.270000000000000E7    -3.379920721054077E-1   9.279777407646179E-1   7.946211844682694E-2   2.868610806763172E-2   7.935088127851486E-2   2.863110229372978E-2  -3.356825113296509E-1   9.249827861785889E-1  
 5.272000000000000E7    -3.371731042861939E-1   9.280951619148254E-1   7.987751066684723E-2   2.870544977486134E-2   7.976768910884857E-2   2.870906144380570E-2  -3.347697854042053E-1   9.252147674560547E-1  
 5.274000000000000E7    -3.365328311920166E-1   9.282162785530090E-1   8.029599487781525E-2   2.879810519516468E-2   8.026045560836792E-2   2.885378524661064E-2  -3.339537084102631E-1   9.256155490875244E-1  
 5.276000000000000E7    -3.355511724948883E-1   9.285664558410645E-1   8.076420426368713E-2   2.887113019824028E-2   8.067404478788376E-2   2.887310087680817E-2  -3.332155346870422E-1   9.260893464088440E-1  
 5.278000000000000E7    -3.345082402229309E-1   9.287278652191162E-1   8.122699707746506E-2   2.895287983119488E-2   8.114300668239594E-2   2.897891402244568E-2  -3.327777683734894E-1   9.264369010925293E-1  
 5.280000000000000E7    -3.341753482818604E-1   9.294772744178772E-1   8.174000680446625E-2   2.903722040355206E-2   8.170634508132935E-2   2.908420003950596E-2  -3.314774334430695E-1   9.265546798706055E-1  
 5.282000000000000E7    -3.331707715988159E-1   9.294691085815430E-1   8.208165317773819E-2   2.911445870995522E-2   8.207073062658310E-2   2.917281538248062E-2  -3.306852877140045E-1   9.269725084304810E-1  
 5.284000000000000E7    -3.322845399379730E-1   9.300115704536438E-1   8.254972845315933E-2   2.914887107908726E-2   8.251924812793732E-2   2.928947284817696E-2  -3.300040364265442E-1   9.271240830421448E-1  
 5.286000000000000E7    -3.316587209701538E-1   9.301095008850098E-1   8.295409381389618E-2   2.934805862605572E-2   8.294094353914261E-2   2.927531301975250E-2  -3.292076289653778E-1   9.271165132522583E-1  
 5.288000000000000E7    -3.303779065608978E-1   9.302841424942017E-1   8.352717757225037E-2   2.935622073709965E-2   8.342294394969940E-2   2.934448048472405E-2  -3.279491066932678E-1   9.275452494621277E-1  
 5.290000000000000E7    -3.296632766723633E-1   9.303764104843140E-1   8.386306464672089E-2   2.950863540172577E-2   8.389157801866531E-2   2.942808344960213E-2  -3.272399008274078E-1   9.279784560203552E-1  
 5.292000000000000E7    -3.288448750972748E-1   9.307006001472473E-1   8.429129421710968E-2   2.956166118383408E-2   8.434662222862244E-2   2.957806363701820E-2  -3.267366588115692E-1   9.281313419342041E-1  
 5.294000000000000E7    -3.281285166740418E-1   9.311692118644714E-1   8.480902016162872E-2   2.964441850781441E-2   8.478464186191559E-2   2.962059713900089E-2  -3.257898092269898E-1   9.281529784202576E-1  
 5.296000000000000E7    -3.274383842945099E-1   9.312583208084106E-1   8.528394997119904E-2   2.969360724091530E-2   8.514369279146195E-2   2.970140054821968E-2  -3.246972560882568E-1   9.285035133361816E-1  
 5.298000000000000E7    -3.264455497264862E-1   9.315701723098755E-1   8.572577685117722E-2   2.973275445401669E-2   8.562545478343964E-2   2.968922071158886E-2  -3.237757384777069E-1   9.286244511604309E-1  
 5.300000000000000E7    -3.256283700466156E-1   9.316914677619934E-1   8.611105382442474E-2   2.978104725480080E-2   8.610898256301880E-2   2.984296157956123E-2  -3.231593072414398E-1   9.290668368339539E-1  
 5.302000000000000E7    -3.245426416397095E-1   9.323770403862000E-1   8.655203133821487E-2   2.977824956178665E-2   8.655613660812378E-2   2.982087060809135E-2  -3.221155405044556E-1   9.291781187057495E-1  
 5.304000000000000E7    -3.240527510643005E-1   9.321368932723999E-1   8.699949085712433E-2   2.998400479555130E-2   8.695323765277863E-2   2.997794002294540E-2  -3.213490843772888E-1   9.293557405471802E-1  
 5.306000000000000E7    -3.232451081275940E-1   9.325075745582581E-1   8.742925524711609E-2   3.005736693739891E-2   8.740767836570740E-2   3.009180352091789E-2  -3.209985494613648E-1   9.295332431793213E-1  
 5.308000000000000E7    -3.221689760684967E-1   9.324575662612915E-1   8.779424428939819E-2   3.018443845212460E-2   8.780144155025482E-2   3.015400096774101E-2  -3.200897872447968E-1   9.298408627510071E-1  
 5.310000000000000E7    -3.213913142681122E-1   9.331038594245911E-1   8.836057782173157E-2   3.020027652382851E-2   8.829496800899506E-2   3.016520105302334E-2  -3.190842866897583E-1   9.302936792373657E-1  
 5.312000000000000E7    -3.202292323112488E-1   9.333011507987976E-1   8.885189145803452E-2   3.023678809404373E-2   8.877310156822205E-2   3.023310191929340E-2  -3.186092674732208E-1   9.306519627571106E-1  
 5.314000000000000E7    -3.196022212505341E-1   9.331234693527222E-1   8.925634622573853E-2   3.032505139708519E-2   8.917838335037231E-2   3.033284284174442E-2  -3.174735307693481E-1   9.307287335395813E-1  
 5.316000000000000E7    -3.188244402408600E-1   9.334831237792969E-1   8.964718878269196E-2   3.038524836301804E-2   8.958987146615982E-2   3.042883053421974E-2  -3.164962530136108E-1   9.311633706092835E-1  
 5.318000000000000E7    -3.179045617580414E-1   9.339753985404968E-1   9.013967961072922E-2   3.041154146194458E-2   9.017132222652435E-2   3.044291399419308E-2  -3.155612051486969E-1   9.315026402473450E-1  
 5.320000000000000E7    -3.169384002685547E-1   9.339915513992310E-1   9.052216261625290E-2   3.049601987004280E-2   9.052184224128723E-2   3.041449934244156E-2  -3.149431049823761E-1   9.314130544662476E-1  
 5.322000000000000E7    -3.161440193653107E-1   9.342852234840393E-1   9.098704159259796E-2   3.052367456257343E-2   9.097036719322205E-2   3.055334649980068E-2  -3.140802979469299E-1   9.317635893821716E-1  
 5.324000000000000E7    -3.155981302261353E-1   9.346900582313538E-1   9.144548326730728E-2   3.060534410178661E-2   9.142851084470749E-2   3.058781847357750E-2  -3.132373690605164E-1   9.318298101425171E-1  
 5.326000000000000E7    -3.147651851177216E-1   9.352588653564453E-1   9.186894446611404E-2   3.063751012086868E-2   9.185281395912170E-2   3.074728697538376E-2  -3.123578131198883E-1   9.320330023765564E-1  
 5.328000000000000E7    -3.139406740665436E-1   9.352564811706543E-1   9.239725768566132E-2   3.072341158986092E-2   9.230947494506836E-2   3.077019006013870E-2  -3.114145398139954E-1   9.326037168502808E-1  
 5.330000000000000E7    -3.130170404911041E-1   9.355732798576355E-1   9.283739328384399E-2   3.084285743534565E-2   9.279143810272217E-2   3.079186938703060E-2  -3.106892108917236E-1   9.331039190292358E-1  
 5.332000000000000E7    -3.121429681777954E-1   9.354496002197266E-1   9.317063540220261E-2   3.086752817034721E-2   9.320157021284103E-2   3.088029287755489E-2  -3.096430897712708E-1   9.331317543983460E-1  
 5.334000000000000E7    -3.111425638198853E-1   9.359856247901917E-1   9.359039366245270E-2   3.097833693027496E-2   9.362828731536865E-2   3.094387426972389E-2  -3.090259432792664E-1   9.331604838371277E-1  
 5.336000000000000E7    -3.103559017181397E-1   9.359898567199707E-1   9.409345686435700E-2   3.097856231033802E-2   9.403215348720551E-2   3.096231259405613E-2  -3.080898523330689E-1   9.332208633422852E-1  
 5.338000000000000E7    -3.094506859779358E-1   9.362038373947144E-1   9.459621459245682E-2   3.106166981160641E-2   9.451106190681458E-2   3.102025389671326E-2  -3.072634935379028E-1   9.336140155792236E-1  
 5.340000000000000E7    -3.089979290962219E-1   9.365240931510925E-1   9.495989233255386E-2   3.114683181047440E-2   9.496777504682541E-2   3.113330714404583E-2  -3.064497113227844E-1   9.339537620544434E-1  
 5.342000000000000E7    -3.079307675361633E-1   9.368537068367004E-1   9.542690217494965E-2   3.108780272305012E-2   9.540385007858276E-2   3.115310519933701E-2  -3.054845333099365E-1   9.340754151344299E-1  
 5.344000000000000E7    -3.071696162223816E-1   9.368841052055359E-1   9.581748396158218E-2   3.119405545294285E-2   9.583984315395355E-2   3.122423775494099E-2  -3.044679462909699E-1   9.343037605285645E-1  
 5.346000000000000E7    -3.064922988414764E-1   9.370999336242676E-1   9.630648046731949E-2   3.122276812791824E-2   9.620385617017746E-2   3.125253319740295E-2  -3.035365343093872E-1   9.344388246536255E-1  
 5.348000000000000E7    -3.054856359958649E-1   9.376826882362366E-1   9.679224342107773E-2   3.137961402535439E-2   9.679489582777023E-2   3.136743605136871E-2  -3.029916882514954E-1   9.348488450050354E-1  
 5.350000000000000E7    -3.048905730247498E-1   9.373310208320618E-1   9.724552929401398E-2   3.144026175141335E-2   9.711106121540070E-2   3.139144927263260E-2  -3.023391664028168E-1   9.351954460144043E-1  
 5.352000000000000E7    -3.039240241050720E-1   9.379678964614868E-1   9.767515957355499E-2   3.145349770784378E-2   9.760076552629471E-2   3.140241652727127E-2  -3.012680113315582E-1   9.350938200950623E-1  
 5.354000000000000E7    -3.030230104923248E-1   9.380690455436707E-1   9.806144237518311E-2   3.144755214452744E-2   9.798063337802887E-2   3.146842867136002E-2  -3.001868724822998E-1   9.352727532386780E-1  
 5.356000000000000E7    -3.021587729454041E-1   9.383148550987244E-1   9.850388020277023E-2   3.148917481303215E-2   9.845975041389465E-2   3.153134882450104E-2  -2.997983694076538E-1   9.354283213615418E-1  
 5.358000000000000E7    -3.014470338821411E-1   9.384624361991882E-1   9.901922196149826E-2   3.159987926483154E-2   9.893780201673508E-2   3.158143535256386E-2  -2.989718914031982E-1   9.362240433692932E-1  
 5.360000000000000E7    -3.005382418632507E-1   9.387521147727966E-1   9.941981732845306E-2   3.161131963133812E-2   9.931439906358719E-2   3.164666891098023E-2  -2.981668710708618E-1   9.359817504882813E-1  
 5.362000000000000E7    -2.995060384273529E-1   9.388264417648315E-1   9.989569336175919E-2   3.161945939064026E-2   9.976579248905182E-2   3.163790702819824E-2  -2.970167398452759E-1   9.364451169967651E-1  
 5.364000000000000E7    -2.986694574356079E-1   9.395264387130737E-1   1.002650856971741E-1   3.168829530477524E-2   1.002775356173515E-1   3.169891983270645E-2  -2.962932884693146E-1   9.360820651054382E-1  
 5.366000000000000E7    -2.977594137191773E-1   9.392327070236206E-1   1.007753536105156E-1   3.172650933265686E-2   1.007247418165207E-1   3.171874582767487E-2  -2.955169081687927E-1   9.369176626205444E-1  
 5.368000000000000E7    -2.972330451011658E-1   9.400320649147034E-1   1.012011244893074E-1   3.182775527238846E-2   1.012202352285385E-1   3.180994093418121E-2  -2.945930361747742E-1   9.372473955154419E-1  
 5.370000000000000E7    -2.960045635700226E-1   9.395020008087158E-1   1.015912815928459E-1   3.178794682025909E-2   1.015540063381195E-1   3.184740245342255E-2  -2.935960590839386E-1   9.371403455734253E-1  
 5.372000000000000E7    -2.952893674373627E-1   9.399154782295227E-1   1.021158099174500E-1   3.184346482157707E-2   1.019529029726982E-1   3.185452893376350E-2  -2.929449379444122E-1   9.372882843017578E-1  
 5.374000000000000E7    -2.945359945297241E-1   9.399088621139526E-1   1.025304868817329E-1   3.195005655288696E-2   1.023328155279160E-1   3.195579349994659E-2  -2.922016084194183E-1   9.373826384544373E-1  
 5.376000000000000E7    -2.937460541725159E-1   9.406073689460754E-1   1.029679477214813E-1   3.200659900903702E-2   1.029703617095947E-1   3.195060044527054E-2  -2.912543416023254E-1   9.377235770225525E-1  
 5.378000000000000E7    -2.928469777107239E-1   9.406207799911499E-1   1.034038811922073E-1   3.204591572284699E-2   1.033188328146935E-1   3.204049170017242E-2  -2.902763187885284E-1   9.380999803543091E-1  
 5.380000000000000E7    -2.920254468917847E-1   9.410538673400879E-1   1.038404852151871E-1   3.206805512309074E-2   1.037899330258369E-1   3.205321356654167E-2  -2.894865572452545E-1   9.380404949188232E-1  
 5.382000000000000E7    -2.909961640834808E-1   9.410397410392761E-1   1.042347922921181E-1   3.215105831623077E-2   1.041762307286263E-1   3.213721141219139E-2  -2.891392409801483E-1   9.382423162460327E-1  
 5.384000000000000E7    -2.904435396194458E-1   9.414862990379334E-1   1.047218590974808E-1   3.218506276607513E-2   1.046774461865425E-1   3.217753767967224E-2  -2.883449792861939E-1   9.387944340705872E-1  
 5.386000000000000E7    -2.896800339221954E-1   9.413468837738037E-1   1.051305457949638E-1   3.220164775848389E-2   1.051179319620132E-1   3.225572407245636E-2  -2.873429059982300E-1   9.394418001174927E-1  
 5.388000000000000E7    -2.886450886726379E-1   9.419600367546082E-1   1.055987551808357E-1   3.229225799441338E-2   1.056281030178070E-1   3.217297419905663E-2  -2.863340973854065E-1   9.395849704742432E-1  
 5.390000000000000E7    -2.878193855285645E-1   9.423279166221619E-1   1.059989556670189E-1   3.231552988290787E-2   1.059869453310967E-1   3.229591622948647E-2  -2.858694195747376E-1   9.392108321189880E-1  
 5.392000000000000E7    -2.865862846374512E-1   9.424102306365967E-1   1.064692735671997E-1   3.233724832534790E-2   1.064514666795731E-1   3.224060684442520E-2  -2.847607433795929E-1   9.396055340766907E-1  
 5.394000000000000E7    -2.861434519290924E-1   9.422444105148315E-1   1.068859100341797E-1   3.232299163937569E-2   1.068074554204941E-1   3.231640160083771E-2  -2.838568091392517E-1   9.396480321884155E-1  
 5.396000000000000E7    -2.853167653083801E-1   9.426832199096680E-1   1.074126213788986E-1   3.239132463932037E-2   1.073292270302773E-1   3.236826136708260E-2  -2.830770313739777E-1   9.404063820838928E-1  
 5.398000000000000E7    -2.845997512340546E-1   9.427274465560913E-1   1.077407598495483E-1   3.240343183279038E-2   1.077377572655678E-1   3.239162266254425E-2  -2.819834947586060E-1   9.400133490562439E-1  
 5.400000000000000E7    -2.839144468307495E-1   9.427115321159363E-1   1.081813052296639E-1   3.245564922690392E-2   1.081419661641121E-1   3.238983452320099E-2  -2.812092900276184E-1   9.403662085533142E-1  
 5.402000000000000E7    -2.825145125389099E-1   9.433490037918091E-1   1.085922941565514E-1   3.243293613195419E-2   1.085652932524681E-1   3.238584101200104E-2  -2.804276049137116E-1   9.400082826614380E-1  
 5.404000000000000E7    -2.818851768970490E-1   9.432671070098877E-1   1.090768128633499E-1   3.241897374391556E-2   1.090254336595535E-1   3.248278796672821E-2  -2.794119417667389E-1   9.407628178596497E-1  
 5.406000000000000E7    -2.814758419990540E-1   9.436998963356018E-1   1.095425188541412E-1   3.251660987734795E-2   1.094977930188179E-1   3.250411152839661E-2  -2.787072956562042E-1   9.411781430244446E-1  
 5.408000000000000E7    -2.803087532520294E-1   9.438868165016174E-1   1.099352464079857E-1   3.253101930022240E-2   1.098669394850731E-1   3.247363865375519E-2  -2.778911590576172E-1   9.412431716918945E-1  
 5.410000000000000E7    -2.795369029045105E-1   9.442049860954285E-1   1.104919165372849E-1   3.254088759422302E-2   1.103386431932449E-1   3.257432952523232E-2  -2.770384550094605E-1   9.416034221649170E-1  
 5.412000000000000E7    -2.785555720329285E-1   9.437619447708130E-1   1.108002886176109E-1   3.258913010358810E-2   1.107321083545685E-1   3.258810937404633E-2  -2.764816582202911E-1   9.418186545372009E-1  
 5.414000000000000E7    -2.778165340423584E-1   9.444350004196167E-1   1.113107874989510E-1   3.260173276066780E-2   1.112059205770493E-1   3.260203450918198E-2  -2.752932906150818E-1   9.417782425880432E-1  
 5.416000000000000E7    -2.767595946788788E-1   9.443817138671875E-1   1.116355732083321E-1   3.263389319181442E-2   1.116121783852577E-1   3.262577205896378E-2  -2.745771110057831E-1   9.418985843658447E-1  
 5.418000000000000E7    -2.762202024459839E-1   9.443090558052063E-1   1.121318340301514E-1   3.266435861587524E-2   1.120040789246559E-1   3.265752643346787E-2  -2.735183835029602E-1   9.420032501220703E-1  
 5.420000000000000E7    -2.752859592437744E-1   9.449354410171509E-1   1.126227378845215E-1   3.265299648046494E-2   1.125442907214165E-1   3.277034685015678E-2  -2.727599442005158E-1   9.427015781402588E-1  
 5.422000000000000E7    -2.744910418987274E-1   9.450928568840027E-1   1.130722239613533E-1   3.272132948040962E-2   1.129868105053902E-1   3.270775079727173E-2  -2.724868953227997E-1   9.428455829620361E-1  
 5.424000000000000E7    -2.733771502971649E-1   9.452295303344727E-1   1.134532392024994E-1   3.271586447954178E-2   1.133542433381081E-1   3.269632160663605E-2  -2.713672518730164E-1   9.426476955413818E-1  
 5.426000000000000E7    -2.726794779300690E-1   9.454308748245239E-1   1.138815954327583E-1   3.271422907710075E-2   1.137931421399117E-1   3.277169913053513E-2  -2.703869342803955E-1   9.428677558898926E-1  
 5.428000000000000E7    -2.718082070350647E-1   9.457846283912659E-1   1.143435016274452E-1   3.277075290679932E-2   1.143286824226379E-1   3.274281695485115E-2  -2.692921757698059E-1   9.434022903442383E-1  
 5.430000000000000E7    -2.712005078792572E-1   9.460335969924927E-1   1.147915124893189E-1   3.282560035586357E-2   1.146603822708130E-1   3.280904889106751E-2  -2.688178420066834E-1   9.432526230812073E-1  
 5.432000000000000E7    -2.700942158699036E-1   9.461688399314880E-1   1.151850670576096E-1   3.279192745685577E-2   1.151937693357468E-1   3.278580680489540E-2  -2.678896486759186E-1   9.435855150222778E-1  
 5.434000000000000E7    -2.697425186634064E-1   9.463176727294922E-1   1.155752837657929E-1   3.294299542903900E-2   1.156722307205200E-1   3.286805003881455E-2  -2.672094702720642E-1   9.438269138336182E-1  
 5.436000000000000E7    -2.684653699398041E-1   9.463102817535400E-1   1.159534454345703E-1   3.294871747493744E-2   1.159588620066643E-1   3.283100947737694E-2  -2.664851844310761E-1   9.436821341514587E-1  
 5.438000000000000E7    -2.677355706691742E-1   9.463421702384949E-1   1.164896264672279E-1   3.281653672456741E-2   1.164158955216408E-1   3.286622837185860E-2  -2.655031979084015E-1   9.442139863967896E-1  
 5.440000000000000E7    -2.666032612323761E-1   9.468516707420349E-1   1.169447377324104E-1   3.276270255446434E-2   1.168727502226830E-1   3.284399956464768E-2  -2.643592059612274E-1   9.445988535881043E-1  
 5.442000000000000E7    -2.659894824028015E-1   9.467087388038635E-1   1.172661408782005E-1   3.291284292936325E-2   1.172973141074181E-1   3.298782557249069E-2  -2.642152607440949E-1   9.444569349288940E-1  
 5.444000000000000E7    -2.650913298130035E-1   9.468486905097961E-1   1.177547201514244E-1   3.289807587862015E-2   1.177337169647217E-1   3.290586918592453E-2  -2.629037797451019E-1   9.446815252304077E-1  
 5.446000000000000E7    -2.643986344337463E-1   9.472919702529907E-1   1.181924790143967E-1   3.296080231666565E-2   1.180556118488312E-1   3.296791389584541E-2  -2.622773349285126E-1   9.448474645614624E-1  
 5.448000000000000E7    -2.634056806564331E-1   9.473561644554138E-1   1.186005324125290E-1   3.300260752439499E-2   1.185905411839485E-1   3.295686095952988E-2  -2.615183293819428E-1   9.450013041496277E-1  
 5.450000000000000E7    -2.623596489429474E-1   9.476993083953857E-1   1.191364973783493E-1   3.284141421318054E-2   1.190205365419388E-1   3.296695277094841E-2  -2.605179250240326E-1   9.452982544898987E-1  
 5.452000000000000E7    -2.619073987007141E-1   9.478399157524109E-1   1.195595115423203E-1   3.290279954671860E-2   1.195071339607239E-1   3.304568678140640E-2  -2.593593895435333E-1   9.454419016838074E-1  
 5.454000000000000E7    -2.612466216087341E-1   9.477826952934265E-1   1.199277490377426E-1   3.293249756097794E-2   1.198741644620895E-1   3.294921293854713E-2  -2.586192190647125E-1   9.458747506141663E-1  
 5.456000000000000E7    -2.606148123741150E-1   9.483862519264221E-1   1.204161867499352E-1   3.300696983933449E-2   1.203990131616592E-1   3.299684450030327E-2  -2.577515542507172E-1   9.457170963287354E-1  
 5.458000000000000E7    -2.593958079814911E-1   9.486228227615356E-1   1.208959817886353E-1   3.294486552476883E-2   1.208558231592178E-1   3.294086456298828E-2  -2.570807635784149E-1   9.461638927459717E-1  
 5.460000000000000E7    -2.585780918598175E-1   9.483418464660645E-1   1.211913749575615E-1   3.300178796052933E-2   1.212157905101776E-1   3.294897824525833E-2  -2.564739584922791E-1   9.460983276367188E-1  
 5.462000000000000E7    -2.576843798160553E-1   9.486597776412964E-1   1.217023432254791E-1   3.295513615012169E-2   1.216844916343689E-1   3.307558223605156E-2  -2.554633915424347E-1   9.461454749107361E-1  
 5.464000000000000E7    -2.570560574531555E-1   9.491287469863892E-1   1.222763210535049E-1   3.301087766885757E-2   1.220984682440758E-1   3.301117941737175E-2  -2.541651129722595E-1   9.465368390083313E-1  
 5.466000000000000E7    -2.562744021415710E-1   9.489817023277283E-1   1.225656718015671E-1   3.306354954838753E-2   1.225183308124542E-1   3.310908377170563E-2  -2.539040744304657E-1   9.463816881179810E-1  
 5.468000000000000E7    -2.551438212394714E-1   9.490947127342224E-1   1.230316162109375E-1   3.301396220922470E-2   1.228962242603302E-1   3.307362273335457E-2  -2.525562644004822E-1   9.466961026191711E-1  
 5.470000000000000E7    -2.545465230941773E-1   9.497109055519104E-1   1.234150081872940E-1   3.307122737169266E-2   1.234784796833992E-1   3.305900841951370E-2  -2.521715462207794E-1   9.470687508583069E-1  
 5.472000000000000E7    -2.535008788108826E-1   9.496244788169861E-1   1.237335354089737E-1   3.308512642979622E-2   1.238324269652367E-1   3.301107883453369E-2  -2.513473927974701E-1   9.469507336616516E-1  
 5.474000000000000E7    -2.529619336128235E-1   9.497229456901550E-1   1.242559552192688E-1   3.305393457412720E-2   1.242224499583244E-1   3.304462879896164E-2  -2.501914799213409E-1   9.472264051437378E-1  
 5.476000000000000E7    -2.519914507865906E-1   9.500604867935181E-1   1.247613579034805E-1   3.300604224205017E-2   1.246025785803795E-1   3.303643316030502E-2  -2.493029385805130E-1   9.470707774162293E-1  
 5.478000000000000E7    -2.508647143840790E-1   9.496686458587647E-1   1.251012682914734E-1   3.304307907819748E-2   1.251361817121506E-1   3.310832381248474E-2  -2.489395737648010E-1   9.476924538612366E-1  
 5.480000000000000E7    -2.500396668910980E-1   9.502519965171814E-1   1.256486922502518E-1   3.297969698905945E-2   1.255089342594147E-1   3.297170996665955E-2  -2.474714666604996E-1   9.479636549949646E-1  
 5.482000000000000E7    -2.494673430919647E-1   9.504334330558777E-1   1.259821653366089E-1   3.308128565549851E-2   1.259292066097260E-1   3.315772861242294E-2  -2.473474144935608E-1   9.478757381439209E-1  
 5.484000000000000E7    -2.485971897840500E-1   9.507965445518494E-1   1.264066249132156E-1   3.300473839044571E-2   1.263333410024643E-1   3.295779228210449E-2  -2.460487186908722E-1   9.479951858520508E-1  
 5.486000000000000E7    -2.479177266359329E-1   9.506877660751343E-1   1.268945038318634E-1   3.302500024437904E-2   1.267722994089127E-1   3.300394490361214E-2  -2.452245205640793E-1   9.482684731483460E-1  
 5.488000000000000E7    -2.470411807298660E-1   9.508438706398010E-1   1.273084133863449E-1   3.301835060119629E-2   1.272103935480118E-1   3.298375755548477E-2  -2.444694787263870E-1   9.487482905387878E-1  
 5.490000000000000E7    -2.462632805109024E-1   9.509612917900085E-1   1.277563571929932E-1   3.298134356737137E-2   1.276274323463440E-1   3.302599117159843E-2  -2.436350584030151E-1   9.483765363693237E-1  
 5.492000000000000E7    -2.454296350479126E-1   9.515638351440430E-1   1.281621903181076E-1   3.306175768375397E-2   1.281732469797134E-1   3.306600078940392E-2  -2.431340962648392E-1   9.489050507545471E-1  
 5.494000000000000E7    -2.449637800455093E-1   9.511123299598694E-1   1.285619288682938E-1   3.305486589670181E-2   1.285567730665207E-1   3.311218321323395E-2  -2.420808672904968E-1   9.491511583328247E-1  
 5.496000000000000E7    -2.436410933732987E-1   9.512504935264587E-1   1.290360242128372E-1   3.297086805105209E-2   1.289402097463608E-1   3.299725800752640E-2  -2.411222308874130E-1   9.494822621345520E-1  
 5.498000000000000E7    -2.433054745197296E-1   9.514567852020264E-1   1.294637173414230E-1   3.314509987831116E-2   1.293066740036011E-1   3.312470018863678E-2  -2.405682206153870E-1   9.492748379707336E-1  
 5.500000000000000E7    -2.417237758636475E-1   9.519461989402771E-1   1.299174576997757E-1   3.289530053734779E-2   1.298429071903229E-1   3.301275521516800E-2  -2.396384328603745E-1   9.493739008903503E-1  
 5.502000000000000E7    -2.410727441310883E-1   9.523454904556274E-1   1.303913146257401E-1   3.305593878030777E-2   1.302798390388489E-1   3.306387364864349E-2  -2.388209700584412E-1   9.497829675674439E-1  
 5.504000000000000E7    -2.401993572711945E-1   9.520815610885620E-1   1.306921988725662E-1   3.301915526390076E-2   1.307507902383804E-1   3.294585645198822E-2  -2.379274964332581E-1   9.498259425163269E-1  
 5.506000000000000E7    -2.391875088214874E-1   9.523423314094544E-1   1.311909407377243E-1   3.300297632813454E-2   1.311240345239639E-1   3.290420770645142E-2  -2.371205538511276E-1   9.500840902328491E-1  
 5.508000000000000E7    -2.386693358421326E-1   9.524836540222168E-1   1.316683292388916E-1   3.304052352905273E-2   1.315754055976868E-1   3.305723518133164E-2  -2.363746911287308E-1   9.500727653503418E-1  
 5.510000000000000E7    -2.377939969301224E-1   9.522187113761902E-1   1.319725513458252E-1   3.299826383590698E-2   1.319033801555634E-1   3.291608393192291E-2  -2.355002909898758E-1   9.502873420715332E-1  
 5.512000000000000E7    -2.369166016578674E-1   9.529200196266174E-1   1.324792206287384E-1   3.301287442445755E-2   1.324919313192368E-1   3.287486359477043E-2  -2.347007393836975E-1   9.506990313529968E-1  
 5.514000000000000E7    -2.363742738962174E-1   9.531185030937195E-1   1.329093426465988E-1   3.303500264883041E-2   1.329578310251236E-1   3.302934020757675E-2  -2.339645028114319E-1   9.507948160171509E-1  
 5.516000000000000E7    -2.353202998638153E-1   9.532747864723206E-1   1.333851516246796E-1   3.300083056092262E-2   1.332725882530212E-1   3.298656642436981E-2  -2.332784682512283E-1   9.508751630783081E-1  
 5.518000000000000E7    -2.347687035799027E-1   9.532272219657898E-1   1.337560564279556E-1   3.294399380683899E-2   1.335391253232956E-1   3.294122964143753E-2  -2.321828454732895E-1   9.504141211509705E-1  
 5.520000000000000E7    -2.338726520538330E-1   9.536781907081604E-1   1.342280954122543E-1   3.289817646145821E-2   1.341820061206818E-1   3.281056880950928E-2  -2.311171293258667E-1   9.510309696197510E-1  
 5.522000000000000E7    -2.330131083726883E-1   9.538893103599548E-1   1.346806883811951E-1   3.288710862398148E-2   1.346502304077148E-1   3.292986378073692E-2  -2.303666174411774E-1   9.511479735374451E-1  
 5.524000000000000E7    -2.319464832544327E-1   9.537351131439209E-1   1.349469274282455E-1   3.298114240169525E-2   1.350247710943222E-1   3.287962451577187E-2  -2.299143522977829E-1   9.512397050857544E-1  
 5.526000000000000E7    -2.314530760049820E-1   9.537128806114197E-1   1.354033201932907E-1   3.294682502746582E-2   1.353050470352173E-1   3.283281624317169E-2  -2.285318374633789E-1   9.513329863548279E-1  
 5.528000000000000E7    -2.303161770105362E-1   9.541084170341492E-1   1.358921527862549E-1   3.277445584535599E-2   1.358399689197540E-1   3.284278884530067E-2  -2.279208451509476E-1   9.516376256942749E-1  
 5.530000000000000E7    -2.294114232063294E-1   9.541271328926086E-1   1.362812370061874E-1   3.294852003455162E-2   1.362573504447937E-1   3.284555673599243E-2  -2.271967083215714E-1   9.517828822135925E-1  
 5.532000000000000E7    -2.286607772111893E-1   9.541731476783752E-1   1.367218196392059E-1   3.277686238288879E-2   1.367244273424149E-1   3.280588239431381E-2  -2.263464033603668E-1   9.521507024765015E-1  
 5.534000000000000E7    -2.279652804136276E-1   9.548173546791077E-1   1.372386515140533E-1   3.278265148401260E-2   1.372129172086716E-1   3.289498016238213E-2  -2.252823412418366E-1   9.521426558494568E-1  
 5.536000000000000E7    -2.270505577325821E-1   9.546592235565186E-1   1.376176923513413E-1   3.272650390863419E-2   1.375658065080643E-1   3.273596614599228E-2  -2.246758937835693E-1   9.521758556365967E-1  
 5.538000000000000E7    -2.261513918638229E-1   9.548121690750122E-1   1.379889398813248E-1   3.273274004459381E-2   1.379267126321793E-1   3.288057446479797E-2  -2.239698916673660E-1   9.523510932922363E-1  
 5.540000000000000E7    -2.253440022468567E-1   9.552045464515686E-1   1.385374516248703E-1   3.273173421621323E-2   1.384579241275787E-1   3.272885829210281E-2  -2.229982465505600E-1   9.527271986007690E-1  
 5.542000000000000E7    -2.248101979494095E-1   9.550898075103760E-1   1.389306485652924E-1   3.278804942965508E-2   1.388417780399323E-1   3.273904323577881E-2  -2.220764011144638E-1   9.526909589767456E-1  
 5.544000000000000E7    -2.234098762273789E-1   9.555542469024658E-1   1.394028216600418E-1   3.260232508182526E-2   1.392942517995834E-1   3.258468210697174E-2  -2.212992459535599E-1   9.526597857475281E-1  
 5.546000000000000E7    -2.230661213397980E-1   9.553880095481873E-1   1.397253572940826E-1   3.263997659087181E-2   1.396615803241730E-1   3.261541575193405E-2  -2.203031927347183E-1   9.527536630630493E-1  
 5.548000000000000E7    -2.220038473606110E-1   9.559714794158936E-1   1.402209252119064E-1   3.265044093132019E-2   1.401293426752091E-1   3.254492208361626E-2  -2.198500931262970E-1   9.529827833175659E-1  
 5.550000000000000E7    -2.214339673519135E-1   9.554573893547058E-1   1.405067145824432E-1   3.265355154871941E-2   1.404648274183273E-1   3.261097893118858E-2  -2.188784182071686E-1   9.531934261322022E-1  
 5.552000000000000E7    -2.200826853513718E-1   9.556779265403748E-1   1.409853100776672E-1   3.253653272986412E-2   1.409150809049606E-1   3.251636028289795E-2  -2.178590446710587E-1   9.535417556762695E-1  
 5.554000000000000E7    -2.193180471658707E-1   9.559532403945923E-1   1.414581388235092E-1   3.250476717948914E-2   1.413887590169907E-1   3.248234093189240E-2  -2.171344459056854E-1   9.537851810455322E-1  
 5.556000000000000E7    -2.186497896909714E-1   9.558711051940918E-1   1.418738514184952E-1   3.245676681399345E-2   1.417618840932846E-1   3.251648321747780E-2  -2.162277400493622E-1   9.537865519523621E-1  
 5.558000000000000E7    -2.175227552652359E-1   9.562252759933472E-1   1.423146724700928E-1   3.244671225547791E-2   1.422915011644363E-1   3.247474133968353E-2  -2.153055369853973E-1   9.541528224945068E-1  
 5.560000000000000E7    -2.170778363943100E-1   9.565102458000183E-1   1.428442597389221E-1   3.251181170344353E-2   1.426850408315659E-1   3.250873088836670E-2  -2.148335129022598E-1   9.538758397102356E-1  
 5.562000000000000E7    -2.164104729890823E-1   9.565106630325317E-1   1.431460827589035E-1   3.238604962825775E-2   1.430774182081223E-1   3.250486403703690E-2  -2.137442082166672E-1   9.540472626686096E-1  
 5.564000000000000E7    -2.154425829648972E-1   9.564164280891419E-1   1.435878723859787E-1   3.244776278734207E-2   1.434808820486069E-1   3.239259123802185E-2  -2.125720083713532E-1   9.542541503906250E-1  
 5.566000000000000E7    -2.147803455591202E-1   9.565721154212952E-1   1.439534425735474E-1   3.241028264164925E-2   1.437714695930481E-1   3.242644295096397E-2  -2.123282104730606E-1   9.541833996772766E-1  
 5.568000000000000E7    -2.137198895215988E-1   9.568758606910706E-1   1.443122923374176E-1   3.228050842881203E-2   1.441927850246429E-1   3.233555704355240E-2  -2.114050239324570E-1   9.542171955108643E-1  
 5.570000000000000E7    -2.131118327379227E-1   9.571915268898010E-1   1.448445916175842E-1   3.241690248250961E-2   1.447412669658661E-1   3.234677016735077E-2  -2.104760259389877E-1   9.546705484390259E-1  
 5.572000000000000E7    -2.119698524475098E-1   9.573010206222534E-1   1.452244520187378E-1   3.228772804141045E-2   1.451605111360550E-1   3.232038766145706E-2  -2.097153365612030E-1   9.544920325279236E-1  
 5.574000000000000E7    -2.112660855054855E-1   9.570097923278809E-1   1.455731242895126E-1   3.226235508918762E-2   1.455790102481842E-1   3.226989507675171E-2  -2.089514583349228E-1   9.546186923980713E-1  
 5.576000000000000E7    -2.104094028472900E-1   9.572889208793640E-1   1.462456732988358E-1   3.222724795341492E-2   1.460711210966110E-1   3.221714124083519E-2  -2.083754837512970E-1   9.551934599876404E-1  
 5.578000000000000E7    -2.097514271736145E-1   9.576314091682434E-1   1.465622335672379E-1   3.210815787315369E-2   1.464114785194397E-1   3.213885426521301E-2  -2.070929706096649E-1   9.553738832473755E-1  
 5.580000000000000E7    -2.086181044578552E-1   9.574652910232544E-1   1.468388885259628E-1   3.208239004015923E-2   1.468116790056229E-1   3.213412314653397E-2  -2.062022238969803E-1   9.552507996559143E-1  
 5.582000000000000E7    -2.079401910305023E-1   9.574217200279236E-1   1.472979187965393E-1   3.205709904432297E-2   1.471864730119705E-1   3.203310444951057E-2  -2.057678550481796E-1   9.548927545547485E-1  
 5.584000000000000E7    -2.073743790388107E-1   9.578445553779602E-1   1.477552205324173E-1   3.213047236204147E-2   1.477385461330414E-1   3.213854879140854E-2  -2.048885375261307E-1   9.553025960922241E-1  
 5.586000000000000E7    -2.062245160341263E-1   9.582639336585999E-1   1.483729034662247E-1   3.206199407577515E-2   1.482661962509155E-1   3.202239423990250E-2  -2.038312107324600E-1   9.554547667503357E-1  
 5.588000000000000E7    -2.051605731248856E-1   9.578192234039307E-1   1.485406309366226E-1   3.196258097887039E-2   1.485655307769775E-1   3.203999996185303E-2  -2.033270150423050E-1   9.555156826972961E-1  
 5.590000000000000E7    -2.046754211187363E-1   9.579814672470093E-1   1.489532440900803E-1   3.191471099853516E-2   1.489283144474030E-1   3.196227923035622E-2  -2.023620158433914E-1   9.555523991584778E-1  
 5.592000000000000E7    -2.039313614368439E-1   9.582931995391846E-1   1.494438797235489E-1   3.197451680898666E-2   1.492294967174530E-1   3.193629905581474E-2  -2.014246433973312E-1   9.557480216026306E-1  
 5.594000000000000E7    -2.031116336584091E-1   9.586732983589172E-1   1.499710828065872E-1   3.194376826286316E-2   1.498428881168366E-1   3.177039697766304E-2  -2.002849429845810E-1   9.558528661727905E-1  
 5.596000000000000E7    -2.022669911384583E-1   9.586998820304871E-1   1.502323299646378E-1   3.188488259911537E-2   1.503002941608429E-1   3.185654059052467E-2  -1.999436169862747E-1   9.560768604278565E-1  
 5.598000000000000E7    -2.012401372194290E-1   9.589278697967529E-1   1.508086621761322E-1   3.166157379746437E-2   1.508191972970963E-1   3.179321438074112E-2  -1.984681636095047E-1   9.565440416336060E-1  
 5.600000000000000E7    -2.006315737962723E-1   9.584954380989075E-1   1.510889232158661E-1   3.181175142526627E-2   1.510396897792816E-1   3.171811252832413E-2  -1.981042623519898E-1   9.566001892089844E-1  
 5.602000000000000E7    -1.994177401065826E-1   9.586519002914429E-1   1.514786183834076E-1   3.169370815157890E-2   1.514763087034226E-1   3.161531314253807E-2  -1.973597854375839E-1   9.563517570495606E-1  
 5.604000000000000E7    -1.985564827919006E-1   9.587379097938538E-1   1.518349796533585E-1   3.163190186023712E-2   1.519492268562317E-1   3.155723959207535E-2  -1.963252723217011E-1   9.566476941108704E-1  
 5.606000000000000E7    -1.979070603847504E-1   9.591329693794251E-1   1.523660421371460E-1   3.159047290682793E-2   1.522811353206635E-1   3.157756477594376E-2  -1.955879926681519E-1   9.568900465965271E-1  
 5.608000000000000E7    -1.971633285284042E-1   9.591863155364990E-1   1.528584957122803E-1   3.148397058248520E-2   1.527055203914642E-1   3.162550553679466E-2  -1.947662681341171E-1   9.567660689353943E-1  
 5.610000000000000E7    -1.962384879589081E-1   9.593076705932617E-1   1.533248722553253E-1   3.155823051929474E-2   1.531807333230972E-1   3.154579550027847E-2  -1.939127594232559E-1   9.570874571800232E-1  
 5.612000000000000E7    -1.954455673694611E-1   9.592111706733704E-1   1.535558700561523E-1   3.141138702630997E-2   1.535114496946335E-1   3.156069293618202E-2  -1.932739317417145E-1   9.568188786506653E-1  
 5.614000000000000E7    -1.951347887516022E-1   9.596676826477051E-1   1.540428251028061E-1   3.134901821613312E-2   1.540604382753372E-1   3.144671767950058E-2  -1.920660883188248E-1   9.571539759635925E-1  
 5.616000000000000E7    -1.938509345054627E-1   9.595188498497009E-1   1.543444395065308E-1   3.127506747841835E-2   1.542795896530151E-1   3.132744878530502E-2  -1.915025860071182E-1   9.568278789520264E-1  
 5.618000000000000E7    -1.928940862417221E-1   9.593481421470642E-1   1.549062281847000E-1   3.134233504533768E-2   1.547754704952240E-1   3.122990578413010E-2  -1.905262172222138E-1   9.573756456375122E-1  
 5.620000000000000E7    -1.922646015882492E-1   9.601366519927979E-1   1.552909761667252E-1   3.127014264464378E-2   1.551905274391174E-1   3.148236870765686E-2  -1.902808398008347E-1   9.574838280677795E-1  
 5.622000000000000E7    -1.915964633226395E-1   9.600562453269959E-1   1.558069735765457E-1   3.125461563467979E-2   1.557226777076721E-1   3.122692182660103E-2  -1.887465715408325E-1   9.575262069702148E-1  
 5.624000000000000E7    -1.904012560844421E-1   9.601573944091797E-1   1.560830771923065E-1   3.098802454769611E-2   1.561009138822556E-1   3.109785355627537E-2  -1.880820393562317E-1   9.573737978935242E-1  
 5.626000000000000E7    -1.896222531795502E-1   9.604676961898804E-1   1.564809381961823E-1   3.108298033475876E-2   1.564144492149353E-1   3.115405514836311E-2  -1.875582188367844E-1   9.574558138847351E-1  
 5.628000000000000E7    -1.889899522066116E-1   9.600869417190552E-1   1.569557189941406E-1   3.122071363031864E-2   1.568659245967865E-1   3.106940537691116E-2  -1.863783150911331E-1   9.580154418945313E-1  
 5.630000000000000E7    -1.879942119121552E-1   9.599569439888001E-1   1.572720259428024E-1   3.095211088657379E-2   1.571997106075287E-1   3.092234954237938E-2  -1.855355203151703E-1   9.578719735145569E-1  
 5.632000000000000E7    -1.872007697820664E-1   9.607360363006592E-1   1.578667163848877E-1   3.096662089228630E-2   1.577803492546082E-1   3.102217800915241E-2  -1.846432387828827E-1   9.579876065254211E-1  
 5.634000000000000E7    -1.865208894014359E-1   9.606847167015076E-1   1.581422388553619E-1   3.090633824467659E-2   1.581079512834549E-1   3.095889836549759E-2  -1.841473728418350E-1   9.579306244850159E-1  
 5.636000000000000E7    -1.858442276716232E-1   9.607859253883362E-1   1.585889309644699E-1   3.095686621963978E-2   1.586046069860458E-1   3.083506040275097E-2  -1.832774132490158E-1   9.584864974021912E-1  
 5.638000000000000E7    -1.848001629114151E-1   9.608170986175537E-1   1.589788794517517E-1   3.077833913266659E-2   1.589497178792954E-1   3.077619522809982E-2  -1.823582202196121E-1   9.584763050079346E-1  
 5.640000000000000E7    -1.841336339712143E-1   9.607642889022827E-1   1.594226658344269E-1   3.076137416064739E-2   1.593808829784393E-1   3.066198341548443E-2  -1.815909445285797E-1   9.583466649055481E-1  
 5.642000000000000E7    -1.833016574382782E-1   9.609942436218262E-1   1.599207818508148E-1   3.072400949895382E-2   1.597667485475540E-1   3.064870461821556E-2  -1.810007542371750E-1   9.588537216186523E-1  
 5.644000000000000E7    -1.821294277906418E-1   9.608292579650879E-1   1.602211445569992E-1   3.052078373730183E-2   1.601332873106003E-1   3.060919418931007E-2  -1.802215129137039E-1   9.584444165229797E-1  
 5.646000000000000E7    -1.813599914312363E-1   9.610797166824341E-1   1.605865210294724E-1   3.056172654032707E-2   1.605940461158752E-1   3.046837821602821E-2  -1.792128682136536E-1   9.586183428764343E-1  
 5.648000000000000E7    -1.805007010698319E-1   9.613295197486877E-1   1.611386537551880E-1   3.043303638696671E-2   1.611388176679611E-1   3.045010566711426E-2  -1.783007383346558E-1   9.591537117958069E-1  
 5.650000000000000E7    -1.799475997686386E-1   9.611688256263733E-1   1.615379452705383E-1   3.044116310775280E-2   1.614377200603485E-1   3.039527125656605E-2  -1.774277985095978E-1   9.588614702224731E-1  
 5.652000000000000E7    -1.783720850944519E-1   9.613759517669678E-1   1.619136780500412E-1   3.037548810243607E-2   1.618237495422363E-1   3.016827814280987E-2  -1.763777732849121E-1   9.589586257934570E-1  
 5.654000000000000E7    -1.782433390617371E-1   9.618247151374817E-1   1.623619943857193E-1   3.043284825980663E-2   1.623639762401581E-1   3.041395731270313E-2  -1.761014759540558E-1   9.591609835624695E-1  
 5.656000000000000E7    -1.774837225675583E-1   9.616552591323853E-1   1.627514511346817E-1   3.015325963497162E-2   1.626660972833633E-1   3.023439086973667E-2  -1.745764911174774E-1   9.592837691307068E-1  
 5.658000000000000E7    -1.765868663787842E-1   9.616541266441345E-1   1.629919409751892E-1   3.008380346000195E-2   1.630329191684723E-1   3.022540174424648E-2  -1.739481985569000E-1   9.587996006011963E-1  
 5.660000000000000E7    -1.755875349044800E-1   9.619419574737549E-1   1.635561585426331E-1   3.002308495342732E-2   1.634836345911026E-1   3.017172031104565E-2  -1.735020130872726E-1   9.589802026748657E-1  
 5.662000000000000E7    -1.750227957963944E-1   9.619198441505432E-1   1.640499830245972E-1   2.995138801634312E-2   1.639593541622162E-1   2.994598262012005E-2  -1.723412722349167E-1   9.596731662750244E-1  
 5.664000000000000E7    -1.742837280035019E-1   9.613274335861206E-1   1.643658131361008E-1   2.989737503230572E-2   1.642430275678635E-1   2.998054586350918E-2  -1.717519909143448E-1   9.596957564353943E-1  
 5.666000000000000E7    -1.734064519405365E-1   9.619221687316895E-1   1.648784875869751E-1   2.983596734702587E-2   1.646735221147537E-1   2.994346246123314E-2  -1.710012257099152E-1   9.597107172012329E-1  
 5.668000000000000E7    -1.724743843078613E-1   9.621431231498718E-1   1.653698086738586E-1   2.989518642425537E-2   1.650236248970032E-1   2.990432642400265E-2  -1.701881140470505E-1   9.597283601760864E-1  
 5.670000000000000E7    -1.719653457403183E-1   9.622819423675537E-1   1.655922234058380E-1   2.982301823794842E-2   1.655385792255402E-1   2.977431751787663E-2  -1.692652702331543E-1   9.600324034690857E-1  
 5.672000000000000E7    -1.709355860948563E-1   9.622361063957214E-1   1.661065965890884E-1   2.966788038611412E-2   1.660018116235733E-1   2.961516007781029E-2  -1.682269275188446E-1   9.600433707237244E-1  
 5.674000000000000E7    -1.700022965669632E-1   9.624576568603516E-1   1.664355695247650E-1   2.962969057261944E-2   1.665435582399368E-1   2.954767644405365E-2  -1.674019545316696E-1   9.599500298500061E-1  
 5.676000000000000E7    -1.689322292804718E-1   9.623625278472900E-1   1.668564826250076E-1   2.951452322304249E-2   1.667864173650742E-1   2.956982143223286E-2  -1.667579263448715E-1   9.602320790290833E-1  
 5.678000000000000E7    -1.685044467449188E-1   9.625508189201355E-1   1.671675741672516E-1   2.944200858473778E-2   1.672183424234390E-1   2.953207679092884E-2  -1.657970696687698E-1   9.601126909255981E-1  
 5.680000000000000E7    -1.675125956535339E-1   9.621956944465637E-1   1.676674187183380E-1   2.931185811758041E-2   1.675302833318710E-1   2.933693863451481E-2  -1.651741117238998E-1   9.603224396705627E-1  
 5.682000000000000E7    -1.669351458549500E-1   9.626417160034180E-1   1.680622398853302E-1   2.938888035714626E-2   1.680022627115250E-1   2.937799878418446E-2  -1.643839329481125E-1   9.604523777961731E-1  
 5.684000000000000E7    -1.657218486070633E-1   9.629763364791870E-1   1.685746163129807E-1   2.922180294990540E-2   1.684056818485260E-1   2.921345271170139E-2  -1.634771078824997E-1   9.602938890457153E-1  
 5.686000000000000E7    -1.649049222469330E-1   9.625553488731384E-1   1.690049767494202E-1   2.920085936784744E-2   1.688526868820190E-1   2.919544093310833E-2  -1.627097427845001E-1   9.606346487998962E-1  
 5.688000000000000E7    -1.644042879343033E-1   9.632682204246521E-1   1.694106757640839E-1   2.907106839120388E-2   1.692499220371246E-1   2.914054319262505E-2  -1.616307795047760E-1   9.603945612907410E-1  
 5.690000000000000E7    -1.632308512926102E-1   9.631781578063965E-1   1.698133200407028E-1   2.907786332070828E-2   1.698129177093506E-1   2.898580208420754E-2  -1.605967581272125E-1   9.608572721481323E-1  
 5.692000000000000E7    -1.626683324575424E-1   9.631487131118774E-1   1.701101064682007E-1   2.900564670562744E-2   1.700761169195175E-1   2.900446951389313E-2  -1.603910326957703E-1   9.607368707656860E-1  
 5.694000000000000E7    -1.616698950529099E-1   9.631929397583008E-1   1.706432700157166E-1   2.893664315342903E-2   1.705231666564941E-1   2.884669415652752E-2  -1.596125066280365E-1   9.606833457946777E-1  
 5.696000000000000E7    -1.610688120126724E-1   9.633424282073975E-1   1.710333079099655E-1   2.880416065454483E-2   1.708397418260574E-1   2.889019064605236E-2  -1.583485752344132E-1   9.609200954437256E-1  
 5.698000000000000E7    -1.599878370761871E-1   9.632307887077332E-1   1.713299900293350E-1   2.878145687282085E-2   1.713265031576157E-1   2.883801423013210E-2  -1.577894389629364E-1   9.606728553771973E-1  
 5.700000000000000E7    -1.592054218053818E-1   9.632575511932373E-1   1.716930717229843E-1   2.870237082242966E-2   1.716822683811188E-1   2.861679531633854E-2  -1.568318456411362E-1   9.607726931571960E-1  
 5.702000000000000E7    -1.586596220731735E-1   9.634530544281006E-1   1.721604466438294E-1   2.863061055541039E-2   1.721268594264984E-1   2.856493927538395E-2  -1.562999486923218E-1   9.607561230659485E-1  
 5.704000000000000E7    -1.575813144445419E-1   9.634781479835510E-1   1.725971698760986E-1   2.846165373921394E-2   1.724471151828766E-1   2.851464785635471E-2  -1.554065793752670E-1   9.608855247497559E-1  
 5.706000000000000E7    -1.568657755851746E-1   9.637528657913208E-1   1.730348318815231E-1   2.835511602461338E-2   1.730233877897263E-1   2.825689874589443E-2  -1.538711339235306E-1   9.609799981117249E-1  
 5.708000000000000E7    -1.560771912336350E-1   9.637088775634766E-1   1.733240634202957E-1   2.844793163239956E-2   1.732945889234543E-1   2.842007391154766E-2  -1.537087112665176E-1   9.612503051757813E-1  
 5.710000000000000E7    -1.551966071128845E-1   9.636586308479309E-1   1.738181263208389E-1   2.818344160914421E-2   1.738416254520416E-1   2.832942828536034E-2  -1.527961343526840E-1   9.615120291709900E-1  
 5.712000000000000E7    -1.547814756631851E-1   9.638350009918213E-1   1.742501705884934E-1   2.819005586206913E-2   1.741386651992798E-1   2.825406193733215E-2  -1.517305672168732E-1   9.611040353775024E-1  
 5.714000000000000E7    -1.537498682737351E-1   9.639557600021362E-1   1.746735423803330E-1   2.814028970897198E-2   1.746075153350830E-1   2.815476246178150E-2  -1.512597799301148E-1   9.615802764892578E-1  
 5.716000000000000E7    -1.527688801288605E-1   9.638742804527283E-1   1.749044060707092E-1   2.804370038211346E-2   1.749574840068817E-1   2.798445895314217E-2  -1.501603424549103E-1   9.613358974456787E-1  
 5.718000000000000E7    -1.518856436014175E-1   9.643908143043518E-1   1.754534542560577E-1   2.773477137088776E-2   1.753991395235062E-1   2.785331383347511E-2  -1.492404341697693E-1   9.614034891128540E-1  
 5.720000000000000E7    -1.512339413166046E-1   9.642792940139771E-1   1.758699864149094E-1   2.782972902059555E-2   1.758031547069550E-1   2.789324149489403E-2  -1.488269120454788E-1   9.616321325302124E-1  
 5.722000000000000E7    -1.500461101531982E-1   9.642760157585144E-1   1.762253791093826E-1   2.764480561017990E-2   1.762409508228302E-1   2.769917249679565E-2  -1.477856934070587E-1   9.619509577751160E-1  
 5.724000000000000E7    -1.497381776571274E-1   9.640491008758545E-1   1.766494810581207E-1   2.770305983722210E-2   1.766529977321625E-1   2.768071182072163E-2  -1.469447463750839E-1   9.617864489555359E-1  
 5.726000000000000E7    -1.487563997507095E-1   9.644044041633606E-1   1.770116537809372E-1   2.760553173720837E-2   1.770359575748444E-1   2.759696915745735E-2  -1.458526849746704E-1   9.620085358619690E-1  
 5.728000000000000E7    -1.477546095848084E-1   9.644149541854858E-1   1.775167286396027E-1   2.748355828225613E-2   1.772821694612503E-1   2.756234630942345E-2  -1.454530507326126E-1   9.619628787040710E-1  
 5.730000000000000E7    -1.468330472707748E-1   9.646064639091492E-1   1.779724806547165E-1   2.734769880771637E-2   1.778032034635544E-1   2.742950432002544E-2  -1.446014791727066E-1   9.620174169540405E-1  
 5.732000000000000E7    -1.458684802055359E-1   9.643289446830750E-1   1.784028559923172E-1   2.722939848899841E-2   1.781076192855835E-1   2.719613164663315E-2  -1.436268091201782E-1   9.622515439987183E-1  
 5.734000000000000E7    -1.450622528791428E-1   9.644594788551331E-1   1.787471622228622E-1   2.715755812823772E-2   1.786755323410034E-1   2.716776728630066E-2  -1.427497714757919E-1   9.620945453643799E-1  
 5.736000000000000E7    -1.447083950042725E-1   9.645376801490784E-1   1.790893226861954E-1   2.709288522601128E-2   1.790918856859207E-1   2.717605419456959E-2  -1.420223712921143E-1   9.623587131500244E-1  
 5.738000000000000E7    -1.435834169387817E-1   9.647145271301270E-1   1.794446557760239E-1   2.702564932405949E-2   1.794034838676453E-1   2.708457037806511E-2  -1.410738378763199E-1   9.620546698570252E-1  
 5.740000000000000E7    -1.432640701532364E-1   9.646400213241577E-1   1.798550337553024E-1   2.698025293648243E-2   1.797745823860169E-1   2.682441659271717E-2  -1.401781141757965E-1   9.621111750602722E-1  
 5.742000000000000E7    -1.420145481824875E-1   9.649804234504700E-1   1.802836209535599E-1   2.689530700445175E-2   1.801371127367020E-1   2.691777609288693E-2  -1.396395266056061E-1   9.621213078498840E-1  
 5.744000000000000E7    -1.412254124879837E-1   9.644547104835510E-1   1.806010305881500E-1   2.682780474424362E-2   1.806685030460358E-1   2.671317756175995E-2  -1.385992765426636E-1   9.622506499290466E-1  
 5.746000000000000E7    -1.402603536844254E-1   9.647062420845032E-1   1.810454577207565E-1   2.675363235175610E-2   1.810348778963089E-1   2.665925212204456E-2  -1.380137354135513E-1   9.622272253036499E-1  
 5.748000000000000E7    -1.396354585886002E-1   9.649231433868408E-1   1.815940290689468E-1   2.641885355114937E-2   1.815693974494934E-1   2.643495611846447E-2  -1.367302536964417E-1   9.626825451850891E-1  
 5.750000000000000E7    -1.388382315635681E-1   9.645940065383911E-1   1.818351000547409E-1   2.661087922751904E-2   1.818050146102905E-1   2.655983716249466E-2  -1.361607462167740E-1   9.626259803771973E-1  
 5.752000000000000E7    -1.380553394556046E-1   9.648595452308655E-1   1.823302805423737E-1   2.635478228330612E-2   1.822253763675690E-1   2.632007375359535E-2  -1.351551413536072E-1   9.627112150192261E-1  
 5.754000000000000E7    -1.371918469667435E-1   9.649375081062317E-1   1.826118528842926E-1   2.626825496554375E-2   1.825649887323380E-1   2.640500478446484E-2  -1.346779465675354E-1   9.622178673744202E-1  
 5.756000000000000E7    -1.360404789447784E-1   9.653162360191345E-1   1.831455826759338E-1   2.611478045582771E-2   1.830122023820877E-1   2.603771165013313E-2  -1.338016837835312E-1   9.626081585884094E-1  
 5.758000000000000E7    -1.356224566698074E-1   9.652723670005798E-1   1.835434585809708E-1   2.614285796880722E-2   1.833472698926926E-1   2.610956691205502E-2  -1.332298666238785E-1   9.629393219947815E-1  
 5.760000000000000E7    -1.346265822649002E-1   9.654944539070129E-1   1.839494705200195E-1   2.600382268428803E-2   1.838370263576508E-1   2.599345706403256E-2  -1.324268430471420E-1   9.626798629760742E-1  
 5.762000000000000E7    -1.341703087091446E-1   9.654193520545960E-1   1.843525171279907E-1   2.601153589785099E-2   1.842654198408127E-1   2.605721540749073E-2  -1.316749304533005E-1   9.627923369407654E-1  
 5.764000000000000E7    -1.333907544612885E-1   9.654518961906433E-1   1.847354024648666E-1   2.583171986043453E-2   1.847232282161713E-1   2.583325095474720E-2  -1.306460350751877E-1   9.625414013862610E-1  
 5.766000000000000E7    -1.324401944875717E-1   9.654229879379273E-1   1.851659864187241E-1   2.569638937711716E-2   1.850432455539703E-1   2.567407861351967E-2  -1.296218782663345E-1   9.628441929817200E-1  
 5.768000000000000E7    -1.313401013612747E-1   9.654608368873596E-1   1.856249570846558E-1   2.564452588558197E-2   1.853102147579193E-1   2.558996900916100E-2  -1.293176412582398E-1   9.628104567527771E-1  
 5.770000000000000E7    -1.305030882358551E-1   9.656350016593933E-1   1.859281808137894E-1   2.543080970644951E-2   1.858254969120026E-1   2.546459436416626E-2  -1.280283927917481E-1   9.629805088043213E-1  
 5.772000000000000E7    -1.297536194324493E-1   9.652412533760071E-1   1.863038539886475E-1   2.552717179059982E-2   1.861553192138672E-1   2.536737173795700E-2  -1.277015954256058E-1   9.628348946571350E-1  
 5.774000000000000E7    -1.289620548486710E-1   9.655627012252808E-1   1.868129521608353E-1   2.541221491992474E-2   1.866290569305420E-1   2.512120269238949E-2  -1.264797002077103E-1   9.630486369132996E-1  
 5.776000000000000E7    -1.280301809310913E-1   9.657191634178162E-1   1.870967000722885E-1   2.511962875723839E-2   1.871096491813660E-1   2.517066150903702E-2  -1.257894486188889E-1   9.628977775573731E-1  
 5.778000000000000E7    -1.277381181716919E-1   9.656829833984375E-1   1.874870806932449E-1   2.507512271404266E-2   1.873480975627899E-1   2.506214752793312E-2  -1.248238831758499E-1   9.628707766532898E-1  
 5.780000000000000E7    -1.267887204885483E-1   9.655734896659851E-1   1.880040019750595E-1   2.495684847235680E-2   1.878078132867813E-1   2.508335188031197E-2  -1.242364794015884E-1   9.629967808723450E-1  
 5.782000000000000E7    -1.261201500892639E-1   9.659373164176941E-1   1.883692294359207E-1   2.490867301821709E-2   1.883767992258072E-1   2.488722465932369E-2  -1.230152845382690E-1   9.631882309913635E-1  
 5.784000000000000E7    -1.251435279846191E-1   9.656597375869751E-1   1.886986047029495E-1   2.487961761653423E-2   1.885974258184433E-1   2.491022646427155E-2  -1.225532293319702E-1   9.632040262222290E-1  
 5.786000000000000E7    -1.240265667438507E-1   9.660145640373230E-1   1.892806589603424E-1   2.473193779587746E-2   1.890789866447449E-1   2.471167780458927E-2  -1.222620084881783E-1   9.638885855674744E-1  
 5.788000000000000E7    -1.236302182078362E-1   9.657635688781738E-1   1.894742399454117E-1   2.458555437624455E-2   1.895058900117874E-1   2.458053082227707E-2  -1.206356659531593E-1   9.633114337921143E-1  
 5.790000000000000E7    -1.227048784494400E-1   9.657187461853027E-1   1.898529976606369E-1   2.443782612681389E-2   1.898037493228912E-1   2.454213798046112E-2  -1.199946701526642E-1   9.635077714920044E-1  
 5.792000000000000E7    -1.216995790600777E-1   9.659880995750427E-1   1.903106570243835E-1   2.436336502432823E-2   1.901802420616150E-1   2.431865967810154E-2  -1.194172948598862E-1   9.633892178535461E-1  
 5.794000000000000E7    -1.209455281496048E-1   9.658812880516052E-1   1.906541734933853E-1   2.427591755986214E-2   1.906837075948715E-1   2.430329099297524E-2  -1.183295175433159E-1   9.634385108947754E-1  
 5.796000000000000E7    -1.203878745436668E-1   9.659463763237000E-1   1.909975856542587E-1   2.414060756564140E-2   1.908242404460907E-1   2.413639426231384E-2  -1.175876930356026E-1   9.634724855422974E-1  
 5.798000000000000E7    -1.193283796310425E-1   9.660429954528809E-1   1.915234625339508E-1   2.389054186642170E-2   1.913672834634781E-1   2.398942597210407E-2  -1.167517006397247E-1   9.634494185447693E-1  
 5.800000000000000E7    -1.184168830513954E-1   9.658476710319519E-1   1.918143779039383E-1   2.392443828284740E-2   1.917717605829239E-1   2.395194582641125E-2  -1.159992814064026E-1   9.635204672813416E-1  
 5.802000000000000E7    -1.175462156534195E-1   9.664562940597534E-1   1.922161728143692E-1   2.375275641679764E-2   1.922370046377182E-1   2.385330945253372E-2  -1.151570901274681E-1   9.633920192718506E-1  
 5.804000000000000E7    -1.167839616537094E-1   9.662808775901794E-1   1.924759894609451E-1   2.362170070409775E-2   1.926422864198685E-1   2.364118397235870E-2  -1.140673607587814E-1   9.635328650474548E-1  
 5.806000000000000E7    -1.159746274352074E-1   9.659217596054077E-1   1.930022388696671E-1   2.359345927834511E-2   1.929927170276642E-1   2.355264127254486E-2  -1.139836013317108E-1   9.635176658630371E-1  
 5.808000000000000E7    -1.151181384921074E-1   9.662582874298096E-1   1.934250146150589E-1   2.341089770197868E-2   1.935177296400070E-1   2.349922433495522E-2  -1.126635968685150E-1   9.634672403335571E-1  
 5.810000000000000E7    -1.142922118306160E-1   9.662036299705505E-1   1.937876939773560E-1   2.328374795615673E-2   1.937043219804764E-1   2.341518551111221E-2  -1.119607090950012E-1   9.633321166038513E-1  
 5.812000000000000E7    -1.135413944721222E-1   9.657980799674988E-1   1.942513436079025E-1   2.334673888981342E-2   1.941229254007340E-1   2.332990057766438E-2  -1.114923655986786E-1   9.637866020202637E-1  
 5.814000000000000E7    -1.124527454376221E-1   9.662849307060242E-1   1.945833563804627E-1   2.312318421900272E-2   1.945062875747681E-1   2.313230745494366E-2  -1.103100180625916E-1   9.634238481521606E-1  
 5.816000000000000E7    -1.118859499692917E-1   9.662806391716003E-1   1.951185315847397E-1   2.298991940915585E-2   1.949236094951630E-1   2.306579053401947E-2  -1.094819828867912E-1   9.639022946357727E-1  
 5.818000000000000E7    -1.113153100013733E-1   9.664064049720764E-1   1.954528838396072E-1   2.292056009173393E-2   1.951738893985748E-1   2.291340939700604E-2  -1.089769676327705E-1   9.639626741409302E-1  
 5.820000000000000E7    -1.104158461093903E-1   9.664675593376160E-1   1.959011405706406E-1   2.278740145266056E-2   1.958667635917664E-1   2.269082330167294E-2  -1.077881678938866E-1   9.639185070991516E-1  
 5.822000000000000E7    -1.097249165177345E-1   9.662536382675171E-1   1.961874961853027E-1   2.275433391332626E-2   1.961099803447723E-1   2.265419997274876E-2  -1.071790307760239E-1   9.638591408729553E-1  
 5.824000000000000E7    -1.089710295200348E-1   9.663236141204834E-1   1.965133547782898E-1   2.266640774905682E-2   1.963578909635544E-1   2.247524447739124E-2  -1.062761247158051E-1   9.637534618377686E-1  
 5.826000000000000E7    -1.076832339167595E-1   9.667177796363831E-1   1.970002800226212E-1   2.245686948299408E-2   1.969909667968750E-1   2.252320758998394E-2  -1.058813557028770E-1   9.635503292083740E-1  
 5.828000000000000E7    -1.069277971982956E-1   9.663090705871582E-1   1.973739713430405E-1   2.213604748249054E-2   1.973873823881149E-1   2.224337123334408E-2  -1.045104041695595E-1   9.641749858856201E-1  
 5.830000000000000E7    -1.060468107461929E-1   9.666045308113098E-1   1.977792680263519E-1   2.207443676888943E-2   1.975815445184708E-1   2.217359840869904E-2  -1.040304154157639E-1   9.637890458106995E-1  
 5.832000000000000E7    -1.054361835122109E-1   9.667209386825562E-1   1.981473416090012E-1   2.205930091440678E-2   1.980623751878738E-1   2.201187238097191E-2  -1.032082140445709E-1   9.636974930763245E-1  
 5.834000000000000E7    -1.046218872070313E-1   9.664877057075501E-1   1.983588039875031E-1   2.197846770286560E-2   1.984498947858810E-1   2.187603712081909E-2  -1.023518294095993E-1   9.636687040328980E-1  
 5.836000000000000E7    -1.039890423417091E-1   9.664586782455444E-1   1.987634301185608E-1   2.196326479315758E-2   1.988246589899063E-1   2.187988907098770E-2  -1.012073233723640E-1   9.636790752410889E-1  
 5.838000000000000E7    -1.031544879078865E-1   9.664793014526367E-1   1.993034780025482E-1   2.156847901642323E-2   1.992198973894119E-1   2.178720757365227E-2  -1.005129069089890E-1   9.638411402702332E-1  
 5.840000000000000E7    -1.023889631032944E-1   9.667173624038696E-1   1.997398138046265E-1   2.162079513072968E-2   1.995683312416077E-1   2.154687605798245E-2  -9.990233927965164E-2   9.639000296592712E-1  
 5.842000000000000E7    -1.016639545559883E-1   9.664877653121948E-1   2.001288235187531E-1   2.145358175039291E-2   1.998370736837387E-1   2.161660604178906E-2  -9.868118911981583E-2   9.639321565628052E-1  
 5.844000000000000E7    -1.006753742694855E-1   9.665179252624512E-1   2.004575282335281E-1   2.129413001239300E-2   2.003977447748184E-1   2.133052796125412E-2  -9.845010936260223E-2   9.638257622718811E-1  
 5.846000000000000E7    -9.981637448072434E-2   9.666129946708679E-1   2.008835822343826E-1   2.115050330758095E-2   2.007670849561691E-1   2.104575373232365E-2  -9.732189029455185E-2   9.640367031097412E-1  
 5.848000000000000E7    -9.882140159606934E-2   9.667585492134094E-1   2.013070434331894E-1   2.101666480302811E-2   2.012958526611328E-1   2.099166251718998E-2  -9.656457602977753E-2   9.642741084098816E-1  
 5.850000000000000E7    -9.816171973943710E-2   9.665681123733521E-1   2.016582041978836E-1   2.098762616515160E-2   2.015246301889420E-1   2.083983272314072E-2  -9.556238353252411E-2   9.638890624046326E-1  
 5.852000000000000E7    -9.765767306089401E-2   9.664731025695801E-1   2.019450366497040E-1   2.080980688333511E-2   2.018978595733643E-1   2.092972956597805E-2  -9.473783522844315E-2   9.640032649040222E-1  
 5.854000000000000E7    -9.657827764749527E-2   9.665604829788208E-1   2.023467272520065E-1   2.075989916920662E-2   2.022211104631424E-1   2.088798768818378E-2  -9.437443315982819E-2   9.637511968612671E-1  
 5.856000000000000E7    -9.596912562847138E-2   9.667809605598450E-1   2.029579579830170E-1   2.064094319939613E-2   2.026256620883942E-1   2.060117945075035E-2  -9.355366975069046E-2   9.639296531677246E-1  
 5.858000000000000E7    -9.511760622262955E-2   9.666956663131714E-1   2.032053917646408E-1   2.031970955431461E-2   2.032575607299805E-1   2.036461606621742E-2  -9.208254516124725E-2   9.642598628997803E-1  
 5.860000000000000E7    -9.403251111507416E-2   9.668655395507813E-1   2.035768330097199E-1   2.010934799909592E-2   2.036181241273880E-1   2.027753181755543E-2  -9.160126745700836E-2   9.637637138366699E-1  
 5.862000000000000E7    -9.374176710844040E-2   9.669490456581116E-1   2.039752155542374E-1   2.018830180168152E-2   2.038714587688446E-1   2.022729441523552E-2  -9.066705405712128E-2   9.639061689376831E-1  
 5.864000000000000E7    -9.271798282861710E-2   9.667733311653137E-1   2.043223530054092E-1   2.008443325757980E-2   2.041921168565750E-1   2.007240615785122E-2  -9.016102552413940E-2   9.640249609947205E-1  
 5.866000000000000E7    -9.181551635265350E-2   9.666898250579834E-1   2.047323137521744E-1   1.996321417391300E-2   2.045954912900925E-1   1.984195597469807E-2  -8.940734714269638E-2   9.639531970024109E-1  
 5.868000000000000E7    -9.089722484350205E-2   9.669523239135742E-1   2.051656842231751E-1   1.967511326074600E-2   2.052045613527298E-1   1.973004639148712E-2  -8.805520087480545E-2   9.640619754791260E-1  
 5.870000000000000E7    -9.016308188438416E-2   9.667705297470093E-1   2.055904567241669E-1   1.965260505676270E-2   2.055586278438568E-1   1.983221620321274E-2  -8.743461966514587E-2   9.642457962036133E-1  
 5.872000000000000E7    -8.955920487642288E-2   9.667295813560486E-1   2.058100104331970E-1   1.958392933011055E-2   2.058036327362061E-1   1.947696506977081E-2  -8.675623685121536E-2   9.639569520950317E-1  
 5.874000000000000E7    -8.875297009944916E-2   9.665414690971375E-1   2.063216120004654E-1   1.937446184456348E-2   2.061110883951187E-1   1.952471770346165E-2  -8.621066063642502E-2   9.643190503120422E-1  
 5.876000000000000E7    -8.796141296625137E-2   9.667670130729675E-1   2.067225426435471E-1   1.913890801370144E-2   2.067608684301376E-1   1.917973533272743E-2  -8.522063493728638E-2   9.641273617744446E-1  
 5.878000000000000E7    -8.696586638689041E-2   9.668706655502319E-1   2.071155905723572E-1   1.917017623782158E-2   2.070471942424774E-1   1.908111199736595E-2  -8.411061018705368E-2   9.637443423271179E-1  
 5.880000000000000E7    -8.610925823450089E-2   9.665800333023071E-1   2.074670493602753E-1   1.895935833454132E-2   2.073048949241638E-1   1.910267397761345E-2  -8.394092321395874E-2   9.642078876495361E-1  
 5.882000000000000E7    -8.601447939872742E-2   9.667553305625916E-1   2.077360153198242E-1   1.876633241772652E-2   2.077873796224594E-1   1.897086761891842E-2  -8.262402564287186E-2   9.639537334442139E-1  
 5.884000000000000E7    -8.454138040542603E-2   9.669501781463623E-1   2.082334905862808E-1   1.869329810142517E-2   2.080224156379700E-1   1.853583566844463E-2  -8.175534009933472E-2   9.639915227890015E-1  
 5.886000000000000E7    -8.356195688247681E-2   9.668185710906982E-1   2.087128311395645E-1   1.850466988980770E-2   2.085708975791931E-1   1.861018687486649E-2  -8.145791292190552E-2   9.640550613403320E-1  
 5.888000000000000E7    -8.309014886617661E-2   9.665577411651611E-1   2.089628577232361E-1   1.845516636967659E-2   2.089330852031708E-1   1.846142485737801E-2  -8.036547899246216E-2   9.640377163887024E-1  
 5.890000000000000E7    -8.228735625743866E-2   9.666363596916199E-1   2.094074785709381E-1   1.846367307007313E-2   2.092012912034988E-1   1.822387799620628E-2  -7.945509999990463E-2   9.641999006271362E-1  
 5.892000000000000E7    -8.162075281143189E-2   9.667439460754395E-1   2.094977647066116E-1   1.820185035467148E-2   2.095246165990830E-1   1.812045648694038E-2  -7.852630317211151E-2   9.637733697891235E-1  
 5.894000000000000E7    -8.048477768898010E-2   9.667730927467346E-1   2.101178616285324E-1   1.786670647561550E-2   2.100250869989395E-1   1.790023408830166E-2  -7.798931002616882E-2   9.641626477241516E-1  
 5.896000000000000E7    -7.961647957563400E-2   9.666170477867127E-1   2.104640305042267E-1   1.783544570207596E-2   2.105051130056381E-1   1.778059080243111E-2  -7.734334468841553E-2   9.637590050697327E-1  
 5.898000000000000E7    -7.895309478044510E-2   9.669770002365112E-1   2.108586281538010E-1   1.773368194699287E-2   2.106422483921051E-1   1.772365160286427E-2  -7.638207823038101E-2   9.639221429824829E-1  
 5.900000000000000E7    -7.789735496044159E-2   9.668666720390320E-1   2.112156748771668E-1   1.751426234841347E-2   2.110804319381714E-1   1.757100969552994E-2  -7.583603262901306E-2   9.642981290817261E-1  
 5.902000000000000E7    -7.736103981733322E-2   9.664562344551086E-1   2.115970104932785E-1   1.727189496159554E-2   2.116878032684326E-1   1.739442162215710E-2  -7.455001771450043E-2   9.643184542655945E-1  
 5.904000000000000E7    -7.678509503602982E-2   9.665377736091614E-1   2.120579034090042E-1   1.727065257728100E-2   2.119350135326386E-1   1.736074127256870E-2  -7.399744540452957E-2   9.641531705856323E-1  
 5.906000000000000E7    -7.568700611591339E-2   9.668465256690979E-1   2.125078141689301E-1   1.698792539536953E-2   2.122311592102051E-1   1.704423315823078E-2  -7.293558865785599E-2   9.639381170272827E-1  
 5.908000000000000E7    -7.499815523624420E-2   9.667126536369324E-1   2.128052264451981E-1   1.719099842011929E-2   2.127381712198257E-1   1.702983677387238E-2  -7.258933037519455E-2   9.641417860984802E-1  
 5.910000000000000E7    -7.405811548233032E-2   9.667611718177795E-1   2.130579501390457E-1   1.692545227706432E-2   2.130137383937836E-1   1.683631166815758E-2  -7.151661068201065E-2   9.635072350502014E-1  
 5.912000000000000E7    -7.357389479875565E-2   9.664641618728638E-1   2.137076854705811E-1   1.679708622395992E-2   2.135386019945145E-1   1.680760644376278E-2  -7.082954794168472E-2   9.641718864440918E-1  
 5.914000000000000E7    -7.241511344909668E-2   9.667974710464478E-1   2.139939963817596E-1   1.663430035114288E-2   2.138611376285553E-1   1.655591651797295E-2  -6.998525559902191E-2   9.639899730682373E-1  
 5.916000000000000E7    -7.189074903726578E-2   9.664219021797180E-1   2.142580151557922E-1   1.661138795316219E-2   2.142554521560669E-1   1.644567400217056E-2  -6.935609132051468E-2   9.640793204307556E-1  
 5.918000000000000E7    -7.072556018829346E-2   9.665670394897461E-1   2.147582471370697E-1   1.611985825002194E-2   2.146791070699692E-1   1.619120873510838E-2  -6.836611777544022E-2   9.642190337181091E-1  
 5.920000000000000E7    -7.000206410884857E-2   9.662174582481384E-1   2.149817198514938E-1   1.603024080395699E-2   2.149041891098023E-1   1.614297926425934E-2  -6.763853877782822E-2   9.637567996978760E-1  
 5.922000000000000E7    -6.928984820842743E-2   9.664651751518250E-1   2.154613435268402E-1   1.582472957670689E-2   2.155075222253799E-1   1.593316160142422E-2  -6.685575097799301E-2   9.640227556228638E-1  
 5.924000000000000E7    -6.832756847143173E-2   9.664965867996216E-1   2.157375365495682E-1   1.600361429154873E-2   2.157246023416519E-1   1.590659096837044E-2  -6.638329476118088E-2   9.636922478675842E-1  
 5.926000000000000E7    -6.807620078325272E-2   9.665466547012329E-1   2.162499427795410E-1   1.583418063819408E-2   2.161085009574890E-1   1.577188633382320E-2  -6.534422934055328E-2   9.640444517135620E-1  
 5.928000000000000E7    -6.682898104190826E-2   9.662221074104309E-1   2.164795547723770E-1   1.538819074630737E-2   2.165352255105972E-1   1.556014455854893E-2  -6.418154388666153E-2   9.637441039085388E-1  
 5.930000000000000E7    -6.609122455120087E-2   9.665562510490418E-1   2.170387953519821E-1   1.540440134704113E-2   2.168492227792740E-1   1.545829325914383E-2  -6.350018829107285E-2   9.639914035797119E-1  
 5.932000000000000E7    -6.539268046617508E-2   9.663016796112061E-1   2.173324525356293E-1   1.517691835761070E-2   2.171427458524704E-1   1.513960026204586E-2  -6.288298964500427E-2   9.639068245887756E-1  
 5.934000000000000E7    -6.448370218276978E-2   9.661891460418701E-1   2.176059484481812E-1   1.490512117743492E-2   2.176097780466080E-1   1.508571207523346E-2  -6.175172701478005E-2   9.635962247848511E-1  
 5.936000000000000E7    -6.370392441749573E-2   9.661905169487000E-1   2.179865390062332E-1   1.496023684740067E-2   2.177597880363464E-1   1.508971303701401E-2  -6.161779537796974E-2   9.635929465293884E-1  
 5.938000000000000E7    -6.287109851837158E-2   9.662666320800781E-1   2.183487117290497E-1   1.479005813598633E-2   2.182663977146149E-1   1.476019062101841E-2  -6.060930341482163E-2   9.635887742042542E-1  
 5.940000000000000E7    -6.223144382238388E-2   9.662078619003296E-1   2.188322395086289E-1   1.449473202228546E-2   2.188439816236496E-1   1.470420323312283E-2  -5.966914817690849E-2   9.637305736541748E-1  
 5.942000000000000E7    -6.155093014240265E-2   9.660801291465759E-1   2.192018777132034E-1   1.452917046844959E-2   2.190498262643814E-1   1.448329910635948E-2  -5.878306925296783E-2   9.637709259986877E-1  
 5.944000000000000E7    -6.068370491266251E-2   9.666423201560974E-1   2.195161730051041E-1   1.432150043547154E-2   2.195362448692322E-1   1.431434974074364E-2  -5.799321085214615E-2   9.635689854621887E-1  
 5.946000000000000E7    -5.985146760940552E-2   9.662247300148010E-1   2.199283987283707E-1   1.426511816680431E-2   2.197661697864533E-1   1.413381099700928E-2  -5.712387338280678E-2   9.634676575660706E-1  
 5.948000000000000E7    -5.934463068842888E-2   9.663226008415222E-1   2.204872965812683E-1   1.397817209362984E-2   2.201977223157883E-1   1.414438337087631E-2  -5.640322342514992E-2   9.638686180114746E-1  
 5.950000000000000E7    -5.822579190135002E-2   9.661240577697754E-1   2.206413000822067E-1   1.380115188658238E-2   2.205383032560349E-1   1.385043747723103E-2  -5.582657456398010E-2   9.636068940162659E-1  
 5.952000000000000E7    -5.772867426276207E-2   9.663569331169128E-1   2.211494147777557E-1   1.379254460334778E-2   2.208441495895386E-1   1.370719261467457E-2  -5.484801530838013E-2   9.632353782653809E-1  
 5.954000000000000E7    -5.670095235109329E-2   9.661956429481506E-1   2.214935421943665E-1   1.345236226916313E-2   2.213718295097351E-1   1.368647255003452E-2  -5.418348312377930E-2   9.632669091224670E-1  
 5.956000000000000E7    -5.580977350473404E-2   9.660203456878662E-1   2.217439562082291E-1   1.331934332847595E-2   2.218076884746552E-1   1.330466754734516E-2  -5.326166376471520E-2   9.633723497390747E-1  
 5.958000000000000E7    -5.505350977182388E-2   9.660978913307190E-1   2.222212851047516E-1   1.304670423269272E-2   2.221320867538452E-1   1.311516761779785E-2  -5.223684385418892E-2   9.634466767311096E-1  
 5.960000000000000E7    -5.409921705722809E-2   9.661160111427307E-1   2.225611358880997E-1   1.296218298375607E-2   2.224239408969879E-1   1.305622421205044E-2  -5.154093727469444E-2   9.630642533302307E-1  
 5.962000000000000E7    -5.316237732768059E-2   9.659651517868042E-1   2.229202985763550E-1   1.284674555063248E-2   2.228639423847199E-1   1.287135668098927E-2  -5.082376673817635E-2   9.631838202476502E-1  
 5.964000000000000E7    -5.266581475734711E-2   9.658609032630920E-1   2.232697606086731E-1   1.278132572770119E-2   2.231601476669312E-1   1.270846463739872E-2  -5.004251375794411E-2   9.633771777153015E-1  
 5.966000000000000E7    -5.184485018253326E-2   9.659798145294190E-1   2.236059010028839E-1   1.242901757359505E-2   2.235873639583588E-1   1.269410364329815E-2  -4.931739717721939E-2   9.632248878479004E-1  
 5.968000000000000E7    -5.082697048783302E-2   9.657243490219116E-1   2.241427004337311E-1   1.234851777553558E-2   2.239239215850830E-1   1.232077181339264E-2  -4.832003265619278E-2   9.633076190948486E-1  
 5.970000000000000E7    -5.004605650901794E-2   9.657107591629028E-1   2.244165390729904E-1   1.216617412865162E-2   2.243023812770844E-1   1.212510280311108E-2  -4.771967977285385E-2   9.630748629570007E-1  
 5.972000000000000E7    -4.920962080359459E-2   9.657510519027710E-1   2.248522937297821E-1   1.202455721795559E-2   2.247639447450638E-1   1.205714046955109E-2  -4.699482396245003E-2   9.630731344223023E-1  
 5.974000000000000E7    -4.851938784122467E-2   9.655723571777344E-1   2.250946909189224E-1   1.191774569451809E-2   2.250131815671921E-1   1.196634024381638E-2  -4.662834480404854E-2   9.634920954704285E-1  
 5.976000000000000E7    -4.762007668614388E-2   9.658254384994507E-1   2.255202531814575E-1   1.151854544878006E-2   2.255455255508423E-1   1.173534989356995E-2  -4.526565223932266E-2   9.632070660591126E-1  
 5.978000000000000E7    -4.685666412115097E-2   9.658941626548767E-1   2.258264273405075E-1   1.151584461331368E-2   2.257297784090042E-1   1.156835258007050E-2  -4.459125176072121E-2   9.628027677536011E-1  
 5.980000000000000E7    -4.642309993505478E-2   9.655448198318481E-1   2.264277040958405E-1   1.152363419532776E-2   2.262249141931534E-1   1.142413355410099E-2  -4.363347589969635E-2   9.633315205574036E-1  
 5.982000000000000E7    -4.556661099195480E-2   9.656338691711426E-1   2.265382707118988E-1   1.124792546033859E-2   2.265449911355972E-1   1.127557270228863E-2  -4.298540204763413E-2   9.628621935844421E-1  
 5.984000000000000E7    -4.478085041046143E-2   9.658319354057312E-1   2.270912826061249E-1   1.099651865661144E-2   2.269259691238403E-1   1.110562309622765E-2  -4.187011346220970E-2   9.628581404685974E-1  
 5.986000000000000E7    -4.457238316535950E-2   9.656080603599548E-1   2.273776233196259E-1   1.100945845246315E-2   2.272493690252304E-1   1.103033870458603E-2  -4.121271148324013E-2   9.628902673721314E-1  
 5.988000000000000E7    -4.341204091906548E-2   9.657722115516663E-1   2.277721315622330E-1   1.080983690917492E-2   2.278085350990295E-1   1.084754057228565E-2  -4.034660756587982E-2   9.631044864654541E-1  
 5.990000000000000E7    -4.241228476166725E-2   9.655802249908447E-1   2.280594408512116E-1   1.052209362387657E-2   2.280828803777695E-1   1.046731695532799E-2  -3.900276124477387E-2   9.626654982566834E-1  
 5.992000000000000E7    -4.152189567685127E-2   9.652775526046753E-1   2.284399718046188E-1   1.024331152439117E-2   2.284174263477325E-1   1.027549058198929E-2  -3.841920569539070E-2   9.627640843391419E-1  
 5.994000000000000E7    -4.058594629168510E-2   9.654985070228577E-1   2.288535535335541E-1   1.023394614458084E-2   2.288583964109421E-1   1.019176840782166E-2  -3.817451745271683E-2   9.627443552017212E-1  
 5.996000000000000E7    -3.999238088726997E-2   9.651157259941101E-1   2.292012572288513E-1   9.962171316146851E-3   2.290185540914536E-1   1.005328446626663E-2  -3.723515197634697E-2   9.627441763877869E-1  
 5.998000000000000E7    -3.931702673435211E-2   9.655711650848389E-1   2.295935899019241E-1   9.995192289352417E-3   2.294353395700455E-1   1.009345427155495E-2  -3.695989027619362E-2   9.623677730560303E-1  
 6.000000000000000E7    -3.797071054577828E-2   9.653284549713135E-1   2.300702333450317E-1   9.689701721072197E-3   2.298464924097061E-1   9.529590606689453E-3  -3.546190634369850E-2   9.625151157379150E-1  
 6.002000000000000E7    -3.756698966026306E-2   9.652836918830872E-1   2.302922606468201E-1   9.485971182584763E-3   2.301309406757355E-1   9.388802573084831E-3  -3.485135361552239E-2   9.625204205513001E-1  
 6.004000000000000E7    -3.675667196512222E-2   9.650375843048096E-1   2.306315898895264E-1   9.510293602943420E-3   2.305287122726440E-1   9.544895961880684E-3  -3.397196531295776E-2   9.626867771148682E-1  
 6.006000000000000E7    -3.604174405336380E-2   9.651678800582886E-1   2.310642749071121E-1   9.148286655545235E-3   2.309104502201080E-1   9.107228368520737E-3  -3.310848027467728E-2   9.624760150909424E-1  
 6.008000000000000E7    -3.480147197842598E-2   9.651110768318176E-1   2.315009236335754E-1   8.922172710299492E-3   2.312809079885483E-1   8.894991129636765E-3  -3.234454244375229E-2   9.623969197273254E-1  
 6.010000000000000E7    -3.449122607707977E-2   9.654008150100708E-1   2.318651229143143E-1   8.694263175129890E-3   2.318721264600754E-1   8.910123258829117E-3  -3.140242025256157E-2   9.622956514358521E-1  
 6.012000000000000E7    -3.367255255579948E-2   9.649001955986023E-1   2.321252822875977E-1   8.676771074533463E-3   2.319455444812775E-1   8.712543174624443E-3  -3.084458969533444E-2   9.621239304542542E-1  
 6.014000000000000E7    -3.265083953738213E-2   9.649595022201538E-1   2.325278073549271E-1   8.401000872254372E-3   2.322696745395660E-1   8.317466825246811E-3  -3.002538532018662E-2   9.623107314109802E-1  
 6.016000000000000E7    -3.191796690225601E-2   9.648843407630920E-1   2.328794449567795E-1   8.282884955406189E-3   2.326985299587250E-1   8.270617574453354E-3  -2.956556156277657E-2   9.622613787651062E-1  
 6.018000000000000E7    -3.116702288389206E-2   9.649589657783508E-1   2.332201451063156E-1   7.964072749018669E-3   2.330449521541596E-1   8.140025660395622E-3  -2.845653891563416E-2   9.621505737304688E-1  
 6.020000000000000E7    -3.031895682215691E-2   9.646686911582947E-1   2.334702312946320E-1   7.814005017280579E-3   2.334151417016983E-1   7.919512689113617E-3  -2.751516364514828E-2   9.619936943054199E-1  
 6.022000000000000E7    -2.948911115527153E-2   9.646590352058411E-1   2.340192794799805E-1   7.607672363519669E-3   2.338758856058121E-1   7.864661514759064E-3  -2.694554068148136E-2   9.619761109352112E-1  
 6.024000000000000E7    -2.891354449093342E-2   9.648739099502564E-1   2.343650907278061E-1   7.458698004484177E-3   2.341357916593552E-1   7.493987679481506E-3  -2.594431117177010E-2   9.620575308799744E-1  
 6.026000000000000E7    -2.796072885394096E-2   9.646753668785095E-1   2.346552312374115E-1   7.560692727565765E-3   2.347159981727600E-1   7.514173164963722E-3  -2.557347156107426E-2   9.621232151985169E-1  
 6.028000000000000E7    -2.722707763314247E-2   9.646391272544861E-1   2.349265366792679E-1   7.337316870689392E-3   2.349397689104080E-1   7.319815456867218E-3  -2.458943426609039E-2   9.618237614631653E-1  
 6.030000000000000E7    -2.636139094829559E-2   9.645745754241943E-1   2.354277670383453E-1   7.194058969616890E-3   2.353090941905975E-1   7.071096450090408E-3  -2.384595572948456E-2   9.618598818778992E-1  
 6.032000000000000E7    -2.564144693315029E-2   9.641773700714111E-1   2.357229143381119E-1   7.045362144708633E-3   2.357072085142136E-1   6.924591958522797E-3  -2.302377857267857E-2   9.618893265724182E-1  
 6.034000000000000E7    -2.500887587666512E-2   9.645338654518127E-1   2.360504567623138E-1   6.657211109995842E-3   2.361262440681458E-1   6.695488467812538E-3  -2.209340594708920E-2   9.616675972938538E-1  
 6.036000000000000E7    -2.421577274799347E-2   9.640986919403076E-1   2.364762574434280E-1   6.610285490751267E-3   2.363110184669495E-1   6.530174985527992E-3  -2.166353352367878E-2   9.618101716041565E-1  
 6.038000000000000E7    -2.327238209545612E-2   9.643945693969727E-1   2.369096130132675E-1   6.372990086674690E-3   2.366552799940109E-1   6.352260708808899E-3  -2.089914120733738E-2   9.616639018058777E-1  
 6.040000000000000E7    -2.246753498911858E-2   9.639255404472351E-1   2.372010499238968E-1   6.100891157984734E-3   2.369988560676575E-1   6.125904619693756E-3  -1.994292065501213E-2   9.614129066467285E-1  
 6.042000000000000E7    -2.157793007791042E-2   9.643251299858093E-1   2.376240193843842E-1   6.005682051181793E-3   2.375052124261856E-1   5.871569737792015E-3  -1.897505484521389E-2   9.614139199256897E-1  
 6.044000000000000E7    -2.101212553679943E-2   9.638680219650269E-1   2.378756254911423E-1   5.740288645029068E-3   2.378815263509750E-1   5.784297361969948E-3  -1.822757907211781E-2   9.613108038902283E-1  
 6.046000000000000E7    -2.017878182232380E-2   9.639074802398682E-1   2.383192181587219E-1   5.659015849232674E-3   2.382548302412033E-1   5.584077909588814E-3  -1.762601733207703E-2   9.617671370506287E-1  
 6.048000000000000E7    -1.962844282388687E-2   9.639152288436890E-1   2.387118488550186E-1   5.371838808059692E-3   2.385524213314056E-1   5.499169230461121E-3  -1.664698496460915E-2   9.612653851509094E-1  
 6.050000000000000E7    -1.878275349736214E-2   9.638401865959168E-1   2.389878183603287E-1   5.178060382604599E-3   2.390638440847397E-1   5.219865590333939E-3  -1.564527302980423E-2   9.615166783332825E-1  
 6.052000000000000E7    -1.774253323674202E-2   9.641463756561279E-1   2.394488155841827E-1   5.102077499032021E-3   2.392874062061310E-1   5.004458129405975E-3  -1.510989945381880E-2   9.612361788749695E-1  
 6.054000000000000E7    -1.735764555633068E-2   9.637891650199890E-1   2.397613525390625E-1   4.864413291215897E-3   2.396268546581268E-1   4.879232496023178E-3  -1.443984918296337E-2   9.609495997428894E-1  
 6.056000000000000E7    -1.616203784942627E-2   9.634462594985962E-1   2.398962825536728E-1   4.475846886634827E-3   2.397568821907044E-1   4.448899999260902E-3  -1.332169398665428E-2   9.607624411582947E-1  
 6.058000000000000E7    -1.553010288625956E-2   9.636713862419128E-1   2.403466254472733E-1   4.532791674137116E-3   2.402181029319763E-1   4.523409530520439E-3  -1.266903802752495E-2   9.609298110008240E-1  
 6.060000000000000E7    -1.484529487788677E-2   9.634564518928528E-1   2.406517565250397E-1   4.303436726331711E-3   2.405831366777420E-1   4.322249442338944E-3  -1.205045636743307E-2   9.607697725296021E-1  
 6.062000000000000E7    -1.409095153212547E-2   9.632145166397095E-1   2.412631362676621E-1   4.159532487392426E-3   2.407274991273880E-1   4.211254417896271E-3  -1.143267378211021E-2   9.608017802238464E-1  
 6.064000000000000E7    -1.358169130980969E-2   9.633625745773315E-1   2.416752278804779E-1   4.029246047139168E-3   2.414297908544540E-1   3.946514800190926E-3  -1.040554139763117E-2   9.608987569808960E-1  
 6.066000000000000E7    -1.247582398355007E-2   9.633043408393860E-1   2.418491095304489E-1   3.842486068606377E-3   2.416937202215195E-1   3.876194357872009E-3  -9.977188892662525E-3   9.608449935913086E-1  
 6.068000000000000E7    -1.158000715076923E-2   9.634085297584534E-1   2.421693354845047E-1   3.532350063323975E-3   2.421739250421524E-1   3.555353730916977E-3  -9.073270484805107E-3   9.606370329856873E-1  
 6.070000000000000E7    -1.063365396112204E-2   9.633488059043884E-1   2.425207942724228E-1   3.345921635627747E-3   2.424083054065704E-1   3.340959548950195E-3  -8.159126155078411E-3   9.602319002151489E-1  
 6.072000000000000E7    -1.018290780484676E-2   9.633511900901794E-1   2.430248707532883E-1   3.194849938154221E-3   2.429608702659607E-1   3.125634044408798E-3  -7.408217992633581E-3   9.604768753051758E-1  
 6.074000000000000E7    -9.143989533185959E-3   9.632973670959473E-1   2.432053685188294E-1   2.885151654481888E-3   2.431637048721314E-1   3.084065392613411E-3  -6.410191766917706E-3   9.601512551307678E-1  
 6.076000000000000E7    -8.564531803131104E-3   9.630433320999146E-1   2.436042577028275E-1   2.736698836088181E-3   2.434098422527313E-1   2.576554194092751E-3  -5.711937323212624E-3   9.598243236541748E-1  
 6.078000000000000E7    -7.805927656590939E-3   9.628745317459106E-1   2.440735250711441E-1   2.448555082082748E-3   2.437458336353302E-1   2.502206712961197E-3  -4.839850123971701E-3   9.599539041519165E-1  
 6.080000000000000E7    -6.393279880285263E-3   9.627298712730408E-1   2.443028539419174E-1   2.391489222645760E-3   2.441006302833557E-1   2.151081338524818E-3  -4.116916097700596E-3   9.598292112350464E-1  
 6.082000000000000E7    -6.012727972120047E-3   9.630998373031616E-1   2.447280138731003E-1   2.313401550054550E-3   2.447046041488648E-1   2.165598794817925E-3  -3.672289662063122E-3   9.598961472511292E-1  
 6.084000000000000E7    -5.530309863388538E-3   9.628304839134216E-1   2.449910193681717E-1   1.937085762619972E-3   2.450182735919952E-1   1.969894394278526E-3  -2.404086757451296E-3   9.599270820617676E-1  
 6.086000000000000E7    -4.458528012037277E-3   9.627803564071655E-1   2.452431172132492E-1   1.709720119833946E-3   2.453393936157227E-1   1.771589741110802E-3  -1.864560414105654E-3   9.597120285034180E-1  
 6.088000000000000E7    -3.925775643438101E-3   9.626058936119080E-1   2.458361238241196E-1   1.510089263319969E-3   2.456280291080475E-1   1.580443233251572E-3  -8.154744282364845E-4   9.594363570213318E-1  
 6.090000000000000E7    -3.041135147213936E-3   9.624442458152771E-1   2.462809681892395E-1   1.301309093832970E-3   2.460848391056061E-1   1.199169084429741E-3  -1.891935244202614E-4   9.599527120590210E-1  
 6.092000000000000E7    -2.203959506005049E-3   9.624253511428833E-1   2.463827878236771E-1   1.072024926543236E-3   2.463742047548294E-1   1.185737550258637E-3   7.466874085366726E-4   9.593769907951355E-1  
 6.094000000000000E7    -1.257201191037893E-3   9.622076749801636E-1   2.467453032732010E-1   9.089652448892593E-4   2.467895299196243E-1   1.013463363051415E-3   1.385551411658526E-3   9.595211744308472E-1  
 6.096000000000000E7    -1.805517822504044E-4   9.620584845542908E-1   2.470854967832565E-1   6.025154143571854E-4   2.470603585243225E-1   7.040668278932571E-4   2.444704994559288E-3   9.592097401618958E-1  
 6.098000000000000E7     2.600071020424366E-4   9.619501829147339E-1   2.475349307060242E-1   4.732161760330200E-4   2.473487108945847E-1   5.397703498601914E-4   2.821621485054493E-3   9.595199823379517E-1  
 6.100000000000000E7     1.196619588881731E-3   9.615334868431091E-1   2.477957010269165E-1   3.525074571371079E-4   2.476317733526230E-1   3.720689564943314E-4   3.789123147726059E-3   9.591543674468994E-1  
 6.102000000000000E7     1.730802003294230E-3   9.619372487068176E-1   2.480900734663010E-1   1.822225749492645E-4   2.480825483798981E-1   6.191618740558624E-5   4.566056653857231E-3   9.590897560119629E-1  
 6.104000000000000E7     2.644586376845837E-3   9.618415832519531E-1   2.485127449035645E-1  -1.678746193647385E-4   2.484946995973587E-1   2.929382026195526E-5   5.009233020246029E-3   9.589241147041321E-1  
 6.106000000000000E7     3.150646109133959E-3   9.619162082672119E-1   2.488434463739395E-1  -1.380406320095062E-4   2.487386465072632E-1  -2.680420875549316E-4   5.969378165900707E-3   9.588922858238220E-1  
 6.108000000000000E7     3.966450691223145E-3   9.615719318389893E-1   2.491749823093414E-1  -4.786793142557144E-4   2.491020709276199E-1  -3.676116466522217E-4   6.860657129436731E-3   9.585995078086853E-1  
 6.110000000000000E7     4.873764701187611E-3   9.613183140754700E-1   2.494425624608994E-1  -5.673579871654511E-4   2.494098544120789E-1  -5.478505045175552E-4   7.321361452341080E-3   9.586436748504639E-1  
 6.112000000000000E7     5.610911175608635E-3   9.615308046340942E-1   2.501841485500336E-1  -6.426256150007248E-4   2.499491870403290E-1  -8.007474243640900E-4   8.534778840839863E-3   9.589065909385681E-1  
 6.114000000000000E7     6.547386292368174E-3   9.612504839897156E-1   2.500492930412293E-1  -1.101911067962647E-3   2.501937747001648E-1  -1.117872074246407E-3   9.197806939482689E-3   9.584245085716248E-1  
 6.116000000000000E7     7.643096614629030E-3   9.611788392066956E-1   2.505677640438080E-1  -1.407697796821594E-3   2.504206299781799E-1  -1.381469890475273E-3   9.960344061255455E-3   9.585928916931152E-1  
 6.118000000000000E7     7.991604506969452E-3   9.612607955932617E-1   2.508766949176788E-1  -1.314349472522736E-3   2.507493197917938E-1  -1.563791185617447E-3   1.046005822718144E-2   9.579676389694214E-1  
 6.120000000000000E7     8.657706901431084E-3   9.610872864723206E-1   2.513496875762940E-1  -1.708399504423142E-3   2.513649463653565E-1  -1.739669591188431E-3   1.174320280551910E-2   9.584004878997803E-1  
 6.122000000000000E7     9.398603811860085E-3   9.611703157424927E-1   2.515480518341065E-1  -1.904862001538277E-3   2.514060735702515E-1  -1.711893826723099E-3   1.215539127588272E-2   9.582288861274719E-1  
 6.124000000000000E7     1.040566340088844E-2   9.608989953994751E-1   2.519098818302155E-1  -2.048246562480927E-3   2.518233954906464E-1  -2.003272995352745E-3   1.339278928935528E-2   9.581841230392456E-1  
 6.126000000000000E7     1.112366281449795E-2   9.610374569892883E-1   2.522276341915131E-1  -2.332929521799088E-3   2.522619366645813E-1  -2.219090238213539E-3   1.358127221465111E-2   9.577862024307251E-1  
 6.128000000000000E7     1.222948264330626E-2   9.605762362480164E-1   2.527903616428375E-1  -2.534335479140282E-3   2.525907754898071E-1  -2.513960003852844E-3   1.441102940589190E-2   9.579511284828186E-1  
 6.130000000000000E7     1.255018729716539E-2   9.606752991676331E-1   2.529251575469971E-1  -2.647209912538528E-3   2.528351545333862E-1  -2.629462629556656E-3   1.551374141126871E-2   9.577140808105469E-1  
 6.132000000000000E7     1.350598316639662E-2   9.606468081474304E-1   2.533829212188721E-1  -2.909652888774872E-3   2.532684206962585E-1  -3.114204853773117E-3   1.611134968698025E-2   9.577155709266663E-1  
 6.134000000000000E7     1.440958492457867E-2   9.603353738784790E-1   2.536825835704804E-1  -3.208469599485397E-3   2.538033127784729E-1  -3.021040931344032E-3   1.673567853868008E-2   9.577966928482056E-1  
 6.136000000000000E7     1.502272672951222E-2   9.605943560600281E-1   2.539551258087158E-1  -3.249520435929298E-3   2.538461983203888E-1  -3.225212916731834E-3   1.771560311317444E-2   9.572482109069824E-1  
 6.138000000000000E7     1.589532941579819E-2   9.602571129798889E-1   2.544334530830383E-1  -3.617987036705017E-3   2.543793618679047E-1  -3.480661660432816E-3   1.870876550674439E-2   9.574670195579529E-1  
 6.140000000000000E7     1.674757152795792E-2   9.603285789489746E-1   2.545263767242432E-1  -3.792406991124153E-3   2.546181082725525E-1  -3.616785630583763E-3   1.932138018310070E-2   9.572041630744934E-1  
 6.142000000000000E7     1.751634851098061E-2   9.599038958549500E-1   2.551247179508209E-1  -4.124382510781288E-3   2.547813653945923E-1  -4.036178812384605E-3   1.977507770061493E-2   9.570248723030090E-1  
 6.144000000000000E7     1.821867562830448E-2   9.601805210113525E-1   2.553731203079224E-1  -4.274958744645119E-3   2.553118765354157E-1  -4.200927913188934E-3   2.087131328880787E-2   9.571610093116760E-1  
 6.146000000000000E7     1.892989128828049E-2   9.597607254981995E-1   2.556795477867127E-1  -4.439916461706162E-3   2.556678652763367E-1  -4.428926855325699E-3   2.162094973027706E-2   9.568562507629395E-1  
 6.148000000000000E7     1.980093866586685E-2   9.598625302314758E-1   2.560970187187195E-1  -4.699850454926491E-3   2.559949755668640E-1  -4.623074084520340E-3   2.207430079579353E-2   9.568206071853638E-1  
 6.150000000000000E7     2.029386721551418E-2   9.596412181854248E-1   2.564536333084106E-1  -4.581954330205917E-3   2.563783526420593E-1  -4.716113209724426E-3   2.270411327481270E-2   9.568472504615784E-1  
 6.152000000000000E7     2.109557017683983E-2   9.595701098442078E-1   2.566726803779602E-1  -4.967268556356430E-3   2.564909756183624E-1  -5.044719204306603E-3   2.369415387511253E-2   9.563939571380615E-1  
 6.154000000000000E7     2.182324230670929E-2   9.594970345497131E-1   2.571349442005158E-1  -5.231855437159538E-3   2.571133375167847E-1  -5.186021327972412E-3   2.460621297359467E-2   9.567987322807312E-1  
 6.156000000000000E7     2.249289490282536E-2   9.595866203308106E-1   2.573437988758087E-1  -5.509801208972931E-3   2.574179172515869E-1  -5.361640825867653E-3   2.555253356695175E-2   9.565950036048889E-1  
 6.158000000000000E7     2.356067858636379E-2   9.591119289398193E-1   2.578268051147461E-1  -5.698869004845619E-3   2.578627765178680E-1  -5.720674991607666E-3   2.628898620605469E-2   9.563995599746704E-1  
 6.160000000000000E7     2.412213012576103E-2   9.591479301452637E-1   2.581776678562164E-1  -5.828639492392540E-3   2.579520344734192E-1  -5.954151973128319E-3   2.672532945871353E-2   9.564073085784912E-1  
 6.162000000000000E7     2.501082792878151E-2   9.590727090835571E-1   2.583679556846619E-1  -6.118154153227806E-3   2.584447264671326E-1  -5.867497995495796E-3   2.764622122049332E-2   9.562841057777405E-1  
 6.164000000000000E7     2.577988803386688E-2   9.589756131172180E-1   2.586744129657745E-1  -6.410144269466400E-3   2.587990760803223E-1  -6.342764943838120E-3   2.836589515209198E-2   9.561854004859924E-1  
 6.166000000000000E7     2.633469179272652E-2   9.588311910629273E-1   2.591064870357513E-1  -6.291955709457398E-3   2.588709592819214E-1  -6.245972588658333E-3   2.906215563416481E-2   9.558491110801697E-1  
 6.168000000000000E7     2.737911045551300E-2   9.586146473884583E-1   2.594006955623627E-1  -6.609702482819557E-3   2.594247162342072E-1  -6.718402728438377E-3   2.978712134063244E-2   9.556223154067993E-1  
 6.170000000000000E7     2.819356136023998E-2   9.585232734680176E-1   2.598103284835815E-1  -6.922485306859016E-3   2.596151828765869E-1  -6.914973258972168E-3   3.058993071317673E-2   9.555612206459045E-1  
 6.172000000000000E7     2.901049517095089E-2   9.588052034378052E-1   2.603258490562439E-1  -7.220912724733353E-3   2.601936161518097E-1  -7.147533819079399E-3   3.153899312019348E-2   9.556485414505005E-1  
 6.174000000000000E7     2.955291420221329E-2   9.582986235618591E-1   2.605252861976624E-1  -7.295129820704460E-3   2.603662312030792E-1  -7.287323474884033E-3   3.218487277626991E-2   9.553328752517700E-1  
 6.176000000000000E7     3.021197952330113E-2   9.582806229591370E-1   2.607349753379822E-1  -7.559670135378838E-3   2.606302797794342E-1  -7.530247792601585E-3   3.306417167186737E-2   9.553558826446533E-1  
 6.178000000000000E7     3.107552602887154E-2   9.578860402107239E-1   2.612470686435700E-1  -7.778141647577286E-3   2.611947953701019E-1  -7.880462333559990E-3   3.407832607626915E-2   9.554095864295960E-1  
 6.180000000000000E7     3.155588358640671E-2   9.583988785743713E-1   2.615017294883728E-1  -8.073412813246250E-3   2.614090144634247E-1  -7.992716506123543E-3   3.475245088338852E-2   9.549775123596191E-1  
 6.182000000000000E7     3.260935842990875E-2   9.580912590026856E-1   2.618802785873413E-1  -8.102750405669212E-3   2.617624402046204E-1  -8.249411359429359E-3   3.542660549283028E-2   9.550899863243103E-1  
 6.184000000000000E7     3.338673710823059E-2   9.580181241035461E-1   2.620719075202942E-1  -8.539393544197083E-3   2.619625926017761E-1  -8.344735950231552E-3   3.612275421619415E-2   9.548230171203613E-1  
 6.186000000000000E7     3.446626290678978E-2   9.577956795692444E-1   2.624610364437103E-1  -8.425793610513210E-3   2.622468769550324E-1  -8.759660646319389E-3   3.680928051471710E-2   9.548774361610413E-1  
 6.188000000000000E7     3.523494675755501E-2   9.579019546508789E-1   2.628591954708099E-1  -8.986567147076130E-3   2.628300189971924E-1  -8.958897553384304E-3   3.787953034043312E-2   9.547755718231201E-1  
 6.190000000000000E7     3.565278276801109E-2   9.570561647415161E-1   2.631783783435822E-1  -9.187328629195690E-3   2.631332278251648E-1  -9.189568459987640E-3   3.852263092994690E-2   9.548882246017456E-1  
 6.192000000000000E7     3.644672781229019E-2   9.572635293006897E-1   2.634949088096619E-1  -9.315600618720055E-3   2.634297013282776E-1  -9.230322204530239E-3   3.920168057084084E-2   9.547013044357300E-1  
 6.194000000000000E7     3.725803270936012E-2   9.572112560272217E-1   2.639433443546295E-1  -9.615207090973854E-3   2.636800706386566E-1  -9.678565897047520E-3   4.001296684145927E-2   9.543372988700867E-1  
 6.196000000000000E7     3.838165849447250E-2   9.571642875671387E-1   2.641901671886444E-1  -9.943090379238129E-3   2.640959918498993E-1  -1.006538979709148E-2   4.091323167085648E-2   9.542644023895264E-1  
 6.198000000000000E7     3.892188891768456E-2   9.571445584297180E-1   2.647054791450501E-1  -1.025306154042482E-2   2.644676566123962E-1  -1.019292324781418E-2   4.151558130979538E-2   9.543230533599854E-1  
 6.200000000000000E7     3.976742178201675E-2   9.568554162979126E-1   2.647401392459869E-1  -1.045834273099899E-2   2.647830247879028E-1  -1.029470842331648E-2   4.230610281229019E-2   9.538783431053162E-1  
 6.202000000000000E7     4.060990363359451E-2   9.567678570747376E-1   2.653049528598785E-1  -1.072105020284653E-2   2.649189829826355E-1  -1.038089115172625E-2   4.318151623010635E-2   9.539653658866882E-1  
 6.204000000000000E7     4.086297005414963E-2   9.567240476608276E-1   2.656396925449371E-1  -1.052540913224220E-2   2.653234601020813E-1  -1.064997352659702E-2   4.394703730940819E-2   9.538062810897827E-1  
 6.206000000000000E7     4.233494773507118E-2   9.565804600715637E-1   2.660351991653442E-1  -1.109935715794563E-2   2.657627165317535E-1  -1.111556403338909E-2   4.462882876396179E-2   9.538614749908447E-1  
 6.208000000000000E7     4.276823997497559E-2   9.562330245971680E-1   2.662650346755981E-1  -1.129328273236752E-2   2.661969661712647E-1  -1.119301281869412E-2   4.533831402659416E-2   9.539862871170044E-1  
 6.210000000000000E7     4.319481551647186E-2   9.561064839363098E-1   2.665698826313019E-1  -1.148794498294592E-2   2.664198279380798E-1  -1.120682153850794E-2   4.621690511703491E-2   9.537717700004578E-1  
 6.212000000000000E7     4.438423737883568E-2   9.562132358551025E-1   2.667669653892517E-1  -1.178829465061426E-2   2.664738595485687E-1  -1.170756295323372E-2   4.690275713801384E-2   9.532800316810608E-1  
 6.214000000000000E7     4.503349214792252E-2   9.559586048126221E-1   2.670840024948120E-1  -1.187150552868843E-2   2.670195400714874E-1  -1.181911304593086E-2   4.766327887773514E-2   9.531908035278320E-1  
 6.216000000000000E7     4.549111798405647E-2   9.560995697975159E-1   2.673473656177521E-1  -1.216291729360819E-2   2.672669589519501E-1  -1.202153787016869E-2   4.829871654510498E-2   9.532085061073303E-1  
 6.218000000000000E7     4.625655338168144E-2   9.556867480278015E-1   2.678096294403076E-1  -1.232950855046511E-2   2.677885890007019E-1  -1.233429554849863E-2   4.915260896086693E-2   9.530833959579468E-1  
 6.220000000000000E7     4.710673168301582E-2   9.555727839469910E-1   2.682167291641235E-1  -1.248754095286131E-2   2.681185007095337E-1  -1.244947593659163E-2   4.970047622919083E-2   9.532155990600586E-1  
 6.222000000000000E7     4.779725149273872E-2   9.554287195205689E-1   2.684319317340851E-1  -1.299688220024109E-2   2.682349085807800E-1  -1.284381560981274E-2   5.090715363621712E-2   9.527981877326965E-1  
 6.224000000000000E7     4.878032580018044E-2   9.550642371177673E-1   2.687722444534302E-1  -1.323309261351824E-2   2.684818506240845E-1  -1.293888222426176E-2   5.175101011991501E-2   9.530897140502930E-1  
 6.226000000000000E7     4.970986023545265E-2   9.552747011184692E-1   2.690819501876831E-1  -1.344870869070292E-2   2.691493928432465E-1  -1.344401296228170E-2   5.271114036440849E-2   9.525327682495117E-1  
 6.228000000000000E7     5.010373890399933E-2   9.552499055862427E-1   2.694153785705566E-1  -1.343305408954620E-2   2.693898677825928E-1  -1.337522827088833E-2   5.313241481781006E-2   9.523800611495972E-1  
 6.230000000000000E7     5.091900005936623E-2   9.547966718673706E-1   2.697134315967560E-1  -1.383240427821875E-2   2.695708870887756E-1  -1.376202143728733E-2   5.419674515724182E-2   9.523248672485352E-1  
 6.232000000000000E7     5.185697972774506E-2   9.547182917594910E-1   2.701413929462433E-1  -1.405445858836174E-2   2.701328694820404E-1  -1.390852127224207E-2   5.462314933538437E-2   9.523238539695740E-1  
 6.234000000000000E7     5.252003297209740E-2   9.549093842506409E-1   2.705133557319641E-1  -1.419616676867008E-2   2.702312171459198E-1  -1.425996050238609E-2   5.518563464283943E-2   9.518769383430481E-1  
 6.236000000000000E7     5.327387154102325E-2   9.544650316238403E-1   2.707056999206543E-1  -1.441711653023958E-2   2.705917656421661E-1  -1.445314288139343E-2   5.612837895751000E-2   9.517849683761597E-1  
 6.238000000000000E7     5.422514677047730E-2   9.545217752456665E-1   2.711362540721893E-1  -1.467973459511995E-2   2.710383534431458E-1  -1.474525220692158E-2   5.682699382305145E-2   9.518775343894959E-1  
 6.240000000000000E7     5.479123815894127E-2   9.544368982315064E-1   2.711871564388275E-1  -1.478951051831245E-2   2.713681161403656E-1  -1.482393313199282E-2   5.734033882617950E-2   9.514305591583252E-1  
 6.242000000000000E7     5.558523535728455E-2   9.538182616233826E-1   2.715739905834198E-1  -1.504786685109139E-2   2.714374363422394E-1  -1.529293600469828E-2   5.790399760007858E-2   9.514576792716980E-1  
 6.244000000000000E7     5.626198276877403E-2   9.540200233459473E-1   2.720710337162018E-1  -1.532363984733820E-2   2.718621194362640E-1  -1.543955132365227E-2   5.915202572941780E-2   9.510584473609924E-1  
 6.246000000000000E7     5.706060677766800E-2   9.541839361190796E-1   2.724589109420776E-1  -1.563287898898125E-2   2.723537981510162E-1  -1.567464321851730E-2   5.994381383061409E-2   9.511812925338745E-1  
 6.248000000000000E7     5.781367048621178E-2   9.539295434951782E-1   2.727186977863312E-1  -1.600746810436249E-2   2.725484371185303E-1  -1.563641056418419E-2   6.056793779134750E-2   9.506890177726746E-1  
 6.250000000000000E7     5.869141966104507E-2   9.535681605339050E-1   2.729874849319458E-1  -1.603497192263603E-2   2.728068530559540E-1  -1.616546139121056E-2   6.113009527325630E-2   9.506982564926148E-1  
 6.252000000000000E7     5.944210290908814E-2   9.534188508987427E-1   2.732522785663605E-1  -1.645299419760704E-2   2.730949223041534E-1  -1.639689132571220E-2   6.204755604267120E-2   9.505808949470520E-1  
 6.254000000000000E7     5.988067761063576E-2   9.533518552780151E-1   2.736461460590363E-1  -1.644626818597317E-2   2.734276354312897E-1  -1.656845211982727E-2   6.267382949590683E-2   9.504414200782776E-1  
 6.256000000000000E7     6.118189170956612E-2   9.533756971359253E-1   2.739452421665192E-1  -1.701335050165653E-2   2.738929688930512E-1  -1.687750965356827E-2   6.358642876148224E-2   9.504408240318298E-1  
 6.258000000000000E7     6.199114397168160E-2   9.533659815788269E-1   2.744639515876770E-1  -1.723424345254898E-2   2.742508649826050E-1  -1.711893081665039E-2   6.423854827880859E-2   9.503974914550781E-1  
 6.260000000000000E7     6.205221638083458E-2   9.530966877937317E-1   2.747249603271484E-1  -1.730852201581001E-2   2.744204103946686E-1  -1.729568466544151E-2   6.529203057289124E-2   9.505078792572022E-1  
 6.262000000000000E7     6.314831972122192E-2   9.529181718826294E-1   2.748196423053742E-1  -1.750936731696129E-2   2.748730778694153E-1  -1.743727177381516E-2   6.590553373098373E-2   9.499047994613648E-1  
 6.264000000000000E7     6.381165236234665E-2   9.527019858360291E-1   2.751904129981995E-1  -1.805891655385494E-2   2.752908766269684E-1  -1.780513301491737E-2   6.647337228059769E-2   9.494485855102539E-1  
 6.266000000000000E7     6.458324939012528E-2   9.525257945060730E-1   2.755500972270966E-1  -1.806258223950863E-2   2.753787934780121E-1  -1.797134056687355E-2   6.734013557434082E-2   9.496925473213196E-1  
 6.268000000000000E7     6.530262529850006E-2   9.523395895957947E-1   2.760364711284638E-1  -1.809917949140072E-2   2.758540511131287E-1  -1.822990924119949E-2   6.797889620065689E-2   9.493889808654785E-1  
 6.270000000000000E7     6.633023917675018E-2   9.523699879646301E-1   2.763365805149078E-1  -1.860107295215130E-2   2.763326168060303E-1  -1.865354366600514E-2   6.902363151311874E-2   9.493398070335388E-1  
 6.272000000000000E7     6.692702323198319E-2   9.520171284675598E-1   2.764914631843567E-1  -1.873150467872620E-2   2.763351500034332E-1  -1.884573325514793E-2   6.925162672996521E-2   9.493570923805237E-1  
 6.274000000000000E7     6.777392327785492E-2   9.518219232559204E-1   2.767291367053986E-1  -1.897185668349266E-2   2.764915525913239E-1  -1.902864873409271E-2   7.034827023744583E-2   9.491304159164429E-1  
 6.276000000000000E7     6.853871792554855E-2   9.522045254707336E-1   2.773343622684479E-1  -1.912586018443108E-2   2.771770358085632E-1  -1.914450898766518E-2   7.084517180919647E-2   9.488549232482910E-1  
 6.278000000000000E7     6.890469044446945E-2   9.513553977012634E-1   2.774646580219269E-1  -1.954384520649910E-2   2.773721814155579E-1  -1.948474347591400E-2   7.211458683013916E-2   9.487788677215576E-1  
 6.280000000000000E7     6.998101621866226E-2   9.514893293380737E-1   2.778552770614624E-1  -1.991943083703518E-2   2.776577770709992E-1  -1.973834261298180E-2   7.274895161390305E-2   9.485744833946228E-1  
 6.282000000000000E7     7.069744169712067E-2   9.512414336204529E-1   2.782455980777741E-1  -2.001368999481201E-2   2.779606878757477E-1  -1.989350840449333E-2   7.346994429826737E-2   9.485030174255371E-1  
 6.284000000000000E7     7.132077962160111E-2   9.511332511901856E-1   2.781824171543121E-1  -2.017040178179741E-2   2.783179581165314E-1  -2.032126858830452E-2   7.448349148035049E-2   9.481195807456970E-1  
 6.286000000000000E7     7.221405208110809E-2   9.513180255889893E-1   2.786851227283478E-1  -2.040014415979385E-2   2.786475419998169E-1  -2.046463266015053E-2   7.461896538734436E-2   9.480808377265930E-1  
 6.288000000000000E7     7.252447307109833E-2   9.513079524040222E-1   2.792095243930817E-1  -2.076220326125622E-2   2.790055871009827E-1  -2.056928724050522E-2   7.543933391571045E-2   9.479052424430847E-1  
 6.290000000000000E7     7.358304411172867E-2   9.508035182952881E-1   2.793289721012116E-1  -2.101498842239380E-2   2.794247865676880E-1  -2.104000560939312E-2   7.633886486291885E-2   9.474092125892639E-1  
 6.292000000000000E7     7.445387542247772E-2   9.506087303161621E-1   2.798711955547333E-1  -2.110258117318153E-2   2.797262668609619E-1  -2.118813619017601E-2   7.700569182634354E-2   9.479306340217590E-1  
 6.294000000000000E7     7.494702935218811E-2   9.506247639656067E-1   2.801552116870880E-1  -2.130702883005142E-2   2.801263630390167E-1  -2.134036272764206E-2   7.780720293521881E-2   9.476469755172730E-1  
 6.296000000000000E7     7.614099979400635E-2   9.505855441093445E-1   2.804325819015503E-1  -2.170225232839584E-2   2.802183032035828E-1  -2.181763947010040E-2   7.851559668779373E-2   9.473843574523926E-1  
 6.298000000000000E7     7.664679735898972E-2   9.503799676895142E-1   2.805696129798889E-1  -2.190142869949341E-2   2.806381583213806E-1  -2.184421755373478E-2   7.943982630968094E-2   9.470923542976379E-1  
 6.300000000000000E7     7.746053487062454E-2   9.503037333488464E-1   2.810441553592682E-1  -2.222688868641853E-2   2.810245156288147E-1  -2.199280820786953E-2   7.983366400003433E-2   9.473046660423279E-1  
 6.302000000000000E7     7.859773188829422E-2   9.500619769096375E-1   2.813116908073425E-1  -2.244814671576023E-2   2.813182771205902E-1  -2.274716645479202E-2   8.082582056522369E-2   9.468276500701904E-1  
 6.304000000000000E7     7.903493940830231E-2   9.497953653335571E-1   2.815854251384735E-1  -2.294311672449112E-2   2.814781963825226E-1  -2.276407554745674E-2   8.149627596139908E-2   9.465889930725098E-1  
 6.306000000000000E7     7.980192452669144E-2   9.495670795440674E-1   2.818338274955750E-1  -2.292579598724842E-2   2.816804945468903E-1  -2.305742166936398E-2   8.225456625223160E-2   9.462913870811462E-1  
 6.308000000000000E7     8.073652535676956E-2   9.493512511253357E-1   2.821886241436005E-1  -2.334047108888626E-2   2.821661829948425E-1  -2.334418147802353E-2   8.322420716285706E-2   9.466297030448914E-1  
 6.310000000000000E7     8.124651014804840E-2   9.494985342025757E-1   2.826699614524841E-1  -2.358857169747353E-2   2.824613153934479E-1  -2.339705452322960E-2   8.366622030735016E-2   9.462214708328247E-1  
 6.312000000000000E7     8.201863616704941E-2   9.489039182662964E-1   2.829353809356690E-1  -2.376582473516464E-2   2.826290428638458E-1  -2.372562512755394E-2   8.449108898639679E-2   9.461940526962280E-1  
 6.314000000000000E7     8.262159675359726E-2   9.490450024604797E-1   2.831063270568848E-1  -2.409373223781586E-2   2.830592691898346E-1  -2.377611398696899E-2   8.524601161479950E-2   9.460117816925049E-1  
 6.316000000000000E7     8.341364562511444E-2   9.486068487167358E-1   2.834001481533051E-1  -2.421361953020096E-2   2.833120524883270E-1  -2.426633611321449E-2   8.607614040374756E-2   9.456984400749207E-1  
 6.318000000000000E7     8.449984341859818E-2   9.485758543014526E-1   2.840405106544495E-1  -2.446232363581657E-2   2.837271690368652E-1  -2.457308769226074E-2   8.704299479722977E-2   9.457402229309082E-1  
 6.320000000000000E7     8.491562306880951E-2   9.482680559158325E-1   2.841084897518158E-1  -2.486361563205719E-2   2.840640544891357E-1  -2.469031885266304E-2   8.770236372947693E-2   9.454614520072937E-1  
 6.322000000000000E7     8.561726659536362E-2   9.484303593635559E-1   2.845149040222168E-1  -2.503183484077454E-2   2.843066155910492E-1  -2.497353591024876E-2   8.837340027093887E-2   9.454313516616821E-1  
 6.324000000000000E7     8.654385060071945E-2   9.481720924377441E-1   2.846518158912659E-1  -2.526858821511269E-2   2.845602631568909E-1  -2.519618533551693E-2   8.923861384391785E-2   9.452965259552002E-1  
 6.326000000000000E7     8.703332394361496E-2   9.480084180831909E-1   2.848080098628998E-1  -2.556968852877617E-2   2.846517264842987E-1  -2.549164183437824E-2   8.962902426719666E-2   9.449000358581543E-1  
 6.328000000000000E7     8.768061548471451E-2   9.476267099380493E-1   2.852219939231873E-1  -2.571421861648560E-2   2.849261760711670E-1  -2.558702230453491E-2   9.054811298847199E-2   9.447554945945740E-1  
 6.330000000000000E7     8.874157816171646E-2   9.477146267890930E-1   2.854847609996796E-1  -2.619630657136440E-2   2.854790091514587E-1  -2.602635324001312E-2   9.096425771713257E-2   9.448946118354797E-1  
 6.332000000000000E7     8.925181627273560E-2   9.475153684616089E-1   2.859420478343964E-1  -2.636274695396423E-2   2.858901917934418E-1  -2.614657580852509E-2   9.181082248687744E-2   9.448447227478027E-1  
 6.334000000000000E7     9.017148613929749E-2   9.471361041069031E-1   2.862726747989655E-1  -2.640083618462086E-2   2.859416604042053E-1  -2.663294039666653E-2   9.280344843864441E-2   9.443024396896362E-1  
 6.336000000000000E7     9.099789708852768E-2   9.470000267028809E-1   2.864112257957459E-1  -2.692533470690250E-2   2.862864136695862E-1  -2.683074958622456E-2   9.365128725767136E-2   9.439773559570313E-1  
 6.338000000000000E7     9.153790026903153E-2   9.470154643058777E-1   2.866010665893555E-1  -2.695611678063870E-2   2.866158783435822E-1  -2.694284729659557E-2   9.433123469352722E-2   9.438832998275757E-1  
 6.340000000000000E7     9.240846335887909E-2   9.470128417015076E-1   2.871012389659882E-1  -2.746002934873104E-2   2.872460782527924E-1  -2.737299725413322E-2   9.480030834674835E-2   9.441695809364319E-1  
 6.342000000000000E7     9.332388639450073E-2   9.465466737747192E-1   2.873663008213043E-1  -2.769368700683117E-2   2.873203158378601E-1  -2.759530954062939E-2   9.573603421449661E-2   9.436658024787903E-1  
 6.344000000000000E7     9.367819130420685E-2   9.465935826301575E-1   2.875734865665436E-1  -2.802489139139652E-2   2.876027226448059E-1  -2.798097766935825E-2   9.636425971984863E-2   9.433526396751404E-1  
 6.346000000000000E7     9.482263773679733E-2   9.461621642112732E-1   2.882860898971558E-1  -2.825477905571461E-2   2.880590856075287E-1  -2.808110415935516E-2   9.747385978698731E-2   9.435274600982666E-1  
 6.348000000000000E7     9.522532671689987E-2   9.461206793785095E-1   2.883082926273346E-1  -2.829163335263729E-2   2.881842553615570E-1  -2.829782292246819E-2   9.814189374446869E-2   9.429685473442078E-1  
 6.350000000000000E7     9.595376998186112E-2   9.460346102714539E-1   2.886637747287750E-1  -2.858246304094791E-2   2.885502278804779E-1  -2.852924540638924E-2   9.854464977979660E-2   9.433068633079529E-1  
 6.352000000000000E7     9.704318642616272E-2   9.458757042884827E-1   2.887640893459320E-1  -2.907653152942658E-2   2.888553142547607E-1  -2.898454852402210E-2   9.947665780782700E-2   9.425439834594727E-1  
 6.354000000000000E7     9.775115549564362E-2   9.454690217971802E-1   2.891205251216888E-1  -2.938925474882126E-2   2.891126573085785E-1  -2.900852449238300E-2   1.003717631101608E-1   9.426965713500977E-1  
 6.356000000000000E7     9.825156629085541E-2   9.454903602600098E-1   2.895791530609131E-1  -2.974026650190353E-2   2.893284559249878E-1  -2.940474450588226E-2   1.009307205677033E-1   9.425664544105530E-1  
 6.358000000000000E7     9.892651438713074E-2   9.452593326568604E-1   2.896089553833008E-1  -2.996261604130268E-2   2.895020842552185E-1  -2.955043688416481E-2   1.017874330282211E-1   9.421644806861877E-1  
 6.360000000000000E7     9.941342473030090E-2   9.450286030769348E-1   2.900783419609070E-1  -3.007155284285545E-2   2.899418175220490E-1  -3.005031310021877E-2   1.026019454002380E-1   9.422216415405273E-1  
 6.362000000000000E7     1.002718359231949E-1   9.451688528060913E-1   2.904267907142639E-1  -3.023276291787624E-2   2.904746234416962E-1  -3.014129400253296E-2   1.032229810953140E-1   9.419839978218079E-1  
 6.364000000000000E7     1.011829972267151E-1   9.446274042129517E-1   2.906623780727387E-1  -3.074232302606106E-2   2.904053330421448E-1  -3.043247014284134E-2   1.040755286812782E-1   9.417988061904907E-1  
 6.366000000000000E7     1.021022275090218E-1   9.448773264884949E-1   2.911328673362732E-1  -3.071814961731434E-2   2.910757660865784E-1  -3.075170144438744E-2   1.044081300497055E-1   9.415014982223511E-1  
 6.368000000000000E7     1.030274778604507E-1   9.444236755371094E-1   2.911595702171326E-1  -3.118348494172096E-2   2.912591695785523E-1  -3.099379129707813E-2   1.054550185799599E-1   9.413434267044067E-1  
 6.370000000000000E7     1.036896631121635E-1   9.444074034690857E-1   2.918095588684082E-1  -3.147549182176590E-2   2.914914190769196E-1  -3.139619901776314E-2   1.062013208866119E-1   9.413543343544006E-1  
 6.372000000000000E7     1.043434366583824E-1   9.437792301177979E-1   2.920269966125488E-1  -3.164094686508179E-2   2.918183505535126E-1  -3.160873427987099E-2   1.070913746953011E-1   9.412151575088501E-1  
 6.374000000000000E7     1.050243973731995E-1   9.442918300628662E-1   2.924361228942871E-1  -3.175012022256851E-2   2.922361791133881E-1  -3.182863071560860E-2   1.074869036674500E-1   9.407461881637573E-1  
 6.376000000000000E7     1.056973710656166E-1   9.435429573059082E-1   2.925196588039398E-1  -3.210152313113213E-2   2.923788428306580E-1  -3.199414536356926E-2   1.084231883287430E-1   9.408852458000183E-1  
 6.378000000000000E7     1.064660996198654E-1   9.434514045715332E-1   2.930617034435272E-1  -3.276443853974342E-2   2.929185330867767E-1  -3.264092653989792E-2   1.089190319180489E-1   9.405543804168701E-1  
 6.380000000000000E7     1.073043942451477E-1   9.433122873306274E-1   2.931067943572998E-1  -3.281695768237114E-2   2.931098043918610E-1  -3.268337249755859E-2   1.098431944847107E-1   9.403445124626160E-1  
 6.382000000000000E7     1.077483966946602E-1   9.431457519531250E-1   2.933491468429565E-1  -3.307136520743370E-2   2.934448719024658E-1  -3.294631093740463E-2   1.107767298817635E-1   9.403601288795471E-1  
 6.384000000000000E7     1.087105497717857E-1   9.427664875984192E-1   2.936132550239563E-1  -3.355713188648224E-2   2.935391366481781E-1  -3.311254829168320E-2   1.115253418684006E-1   9.398909211158752E-1  
 6.386000000000000E7     1.094261482357979E-1   9.425472617149353E-1   2.938775718212128E-1  -3.352796286344528E-2   2.938951253890991E-1  -3.347811475396156E-2   1.121532693505287E-1   9.400118589401245E-1  
 6.388000000000000E7     1.102322340011597E-1   9.425888657569885E-1   2.943542301654816E-1  -3.412367776036263E-2   2.942555546760559E-1  -3.385254368185997E-2   1.127862036228180E-1   9.397394061088562E-1  
 6.390000000000000E7     1.111516803503037E-1   9.422448873519898E-1   2.946802675724030E-1  -3.402750566601753E-2   2.945657372474670E-1  -3.393153473734856E-2   1.134200096130371E-1   9.396881461143494E-1  
 6.392000000000000E7     1.116343364119530E-1   9.423096776008606E-1   2.947373688220978E-1  -3.433499857783318E-2   2.949727773666382E-1  -3.456649184226990E-2   1.144634857773781E-1   9.390097856521606E-1  
 6.394000000000000E7     1.124308109283447E-1   9.419842362403870E-1   2.949958145618439E-1  -3.477626293897629E-2   2.951714694499970E-1  -3.471172228455544E-2   1.149223595857620E-1   9.390321969985962E-1  
 6.396000000000000E7     1.130716353654862E-1   9.420210123062134E-1   2.953227758407593E-1  -3.497790172696114E-2   2.953775823116303E-1  -3.488057851791382E-2   1.155763864517212E-1   9.387223720550537E-1  
 6.398000000000000E7     1.136551722884178E-1   9.415203928947449E-1   2.956843674182892E-1  -3.523289039731026E-2   2.955754995346069E-1  -3.503960371017456E-2   1.162949129939079E-1   9.386710524559021E-1  
 6.400000000000000E7     1.146699488162994E-1   9.415076971054077E-1   2.961922287940979E-1  -3.544098511338234E-2   2.958737015724182E-1  -3.560957685112953E-2   1.170886754989624E-1   9.385268688201904E-1  
 6.402000000000000E7     1.152512580156326E-1   9.411346316337585E-1   2.962336540222168E-1  -3.556766733527184E-2   2.962699532508850E-1  -3.559133410453796E-2   1.175745800137520E-1   9.383041858673096E-1  
 6.404000000000000E7     1.159991323947907E-1   9.412924051284790E-1   2.965787053108215E-1  -3.593136742711067E-2   2.963550388813019E-1  -3.593362867832184E-2   1.184923201799393E-1   9.384481310844421E-1  
 6.406000000000000E7     1.165654510259628E-1   9.408928751945496E-1   2.969920039176941E-1  -3.619020804762840E-2   2.966851294040680E-1  -3.613180667161942E-2   1.193085610866547E-1   9.378404617309570E-1  
 6.408000000000000E7     1.177956089377403E-1   9.406386017799377E-1   2.972581982612610E-1  -3.657868131995201E-2   2.971147894859314E-1  -3.673250600695610E-2   1.202307343482971E-1   9.375546574592590E-1  
 6.410000000000000E7     1.181691288948059E-1   9.404157996177673E-1   2.975975871086121E-1  -3.701166063547134E-2   2.974019646644592E-1  -3.677838295698166E-2   1.210300922393799E-1   9.375455975532532E-1  
 6.412000000000000E7     1.191530153155327E-1   9.405092000961304E-1   2.977608740329742E-1  -3.729354962706566E-2   2.977275252342224E-1  -3.712614998221397E-2   1.213688254356384E-1   9.372481703758240E-1  
 6.414000000000000E7     1.195761635899544E-1   9.402141571044922E-1   2.982694804668427E-1  -3.749780729413033E-2   2.981500327587128E-1  -3.735479339957237E-2   1.227195635437965E-1   9.370608925819397E-1  
 6.416000000000000E7     1.205330416560173E-1   9.400126934051514E-1   2.983668744564056E-1  -3.761798888444901E-2   2.982389032840729E-1  -3.749053180217743E-2   1.231396645307541E-1   9.371542930603027E-1  
 6.418000000000000E7     1.211520880460739E-1   9.398492574691773E-1   2.985876202583313E-1  -3.793780878186226E-2   2.985651791095734E-1  -3.781671449542046E-2   1.235962212085724E-1   9.367218613624573E-1  
 6.420000000000000E7     1.218747273087502E-1   9.395067095756531E-1   2.990396022796631E-1  -3.816869854927063E-2   2.988845705986023E-1  -3.816619515419006E-2   1.244718506932259E-1   9.366423487663269E-1  
 6.422000000000000E7     1.224613785743713E-1   9.395753741264343E-1   2.992276549339294E-1  -3.859579563140869E-2   2.993212044239044E-1  -3.854557499289513E-2   1.249519437551498E-1   9.361261725425720E-1  
 6.424000000000000E7     1.230143532156944E-1   9.389744400978088E-1   2.993895113468170E-1  -3.860189020633698E-2   2.992938458919525E-1  -3.872460499405861E-2   1.256421804428101E-1   9.361314773559570E-1  
 6.426000000000000E7     1.238012909889221E-1   9.386621713638306E-1   2.997218072414398E-1  -3.900061920285225E-2   2.996362447738648E-1  -3.886228799819946E-2   1.266280561685562E-1   9.359794855117798E-1  
 6.428000000000000E7     1.247213855385780E-1   9.388011097908020E-1   2.998890280723572E-1  -3.962165862321854E-2   3.000273406505585E-1  -3.925294801592827E-2   1.273957788944244E-1   9.356995224952698E-1  
 6.430000000000000E7     1.255084872245789E-1   9.386126995086670E-1   3.003722429275513E-1  -3.969577699899674E-2   3.001922369003296E-1  -3.976776078343391E-2   1.283195614814758E-1   9.357370734214783E-1  
 6.432000000000000E7     1.260188221931458E-1   9.383171200752258E-1   3.007129728794098E-1  -4.001971706748009E-2   3.004436492919922E-1  -3.990175575017929E-2   1.288504898548126E-1   9.350342750549316E-1  
 6.434000000000000E7     1.268243938684464E-1   9.376578927040100E-1   3.007655441761017E-1  -4.016639292240143E-2   3.007062971591950E-1  -4.020745307207108E-2   1.295039653778076E-1   9.349229335784912E-1  
 6.436000000000000E7     1.276902854442596E-1   9.380493164062500E-1   3.012725114822388E-1  -4.036086052656174E-2   3.012318611145020E-1  -4.043200612068176E-2   1.300544887781143E-1   9.348480701446533E-1  
 6.438000000000000E7     1.283791959285736E-1   9.375246167182922E-1   3.013986647129059E-1  -4.076121374964714E-2   3.012227416038513E-1  -4.082350060343742E-2   1.309527307748795E-1   9.348132014274597E-1  
 6.440000000000000E7     1.289924085140228E-1   9.374427795410156E-1   3.018208146095276E-1  -4.112478718161583E-2   3.018827140331268E-1  -4.097057878971100E-2   1.318523138761520E-1   9.345696568489075E-1  
 6.442000000000000E7     1.300921589136124E-1   9.375111460685730E-1   3.022215962409973E-1  -4.129389673471451E-2   3.022153377532959E-1  -4.129748418927193E-2   1.320855766534805E-1   9.344021677970886E-1  
 6.444000000000000E7     1.306597590446472E-1   9.369772076606751E-1   3.022687435150147E-1  -4.162728786468506E-2   3.022260069847107E-1  -4.164760559797287E-2   1.332966387271881E-1   9.340265989303589E-1  
 6.446000000000000E7     1.313623487949371E-1   9.368085265159607E-1   3.028560578823090E-1  -4.194051027297974E-2   3.025639653205872E-1  -4.193069040775299E-2   1.338125318288803E-1   9.339647889137268E-1  
 6.448000000000000E7     1.320585906505585E-1   9.368966817855835E-1   3.029116094112396E-1  -4.209761694073677E-2   3.027027547359467E-1  -4.202198609709740E-2   1.346089839935303E-1   9.334214925765991E-1  
 6.450000000000000E7     1.325869262218475E-1   9.363180398941040E-1   3.031401634216309E-1  -4.238494113087654E-2   3.031163513660431E-1  -4.227780550718308E-2   1.350183635950089E-1   9.334484338760376E-1  
 6.452000000000000E7     1.333098709583283E-1   9.359827637672424E-1   3.033641278743744E-1  -4.254981130361557E-2   3.032338619232178E-1  -4.257246479392052E-2   1.360564082860947E-1   9.331123232841492E-1  
 6.454000000000000E7     1.342414170503616E-1   9.362528324127197E-1   3.038352429866791E-1  -4.299455136060715E-2   3.037424683570862E-1  -4.289133846759796E-2   1.364803463220596E-1   9.330118298530579E-1  
 6.456000000000000E7     1.352695822715759E-1   9.358059167861939E-1   3.038320541381836E-1  -4.354043304920197E-2   3.039615750312805E-1  -4.343624040484428E-2   1.374421119689941E-1   9.326997399330139E-1  
 6.458000000000000E7     1.359832584857941E-1   9.357885718345642E-1   3.043712675571442E-1  -4.367850348353386E-2   3.042820096015930E-1  -4.377028346061707E-2   1.384607106447220E-1   9.324395656585693E-1  
 6.460000000000000E7     1.363201886415482E-1   9.356658458709717E-1   3.044826984405518E-1  -4.385688155889511E-2   3.046817183494568E-1  -4.381520301103592E-2   1.388476938009262E-1   9.325733184814453E-1  
 6.462000000000000E7     1.373038738965988E-1   9.350537061691284E-1   3.050283193588257E-1  -4.419509693980217E-2   3.049743771553040E-1  -4.412237182259560E-2   1.396732479333878E-1   9.324555993080139E-1  
 6.464000000000000E7     1.378947943449020E-1   9.350420832633972E-1   3.051627278327942E-1  -4.460615664720535E-2   3.051065504550934E-1  -4.450962319970131E-2   1.404825150966644E-1   9.321192502975464E-1  
 6.466000000000000E7     1.386165916919708E-1   9.345918297767639E-1   3.055115342140198E-1  -4.484342411160469E-2   3.052192926406860E-1  -4.484163224697113E-2   1.416417211294174E-1   9.319080710411072E-1  
 6.468000000000000E7     1.397015601396561E-1   9.345059394836426E-1   3.057156503200531E-1  -4.526897519826889E-2   3.057558536529541E-1  -4.511154815554619E-2   1.421034634113312E-1   9.319545030593872E-1  
 6.470000000000000E7     1.401452571153641E-1   9.346548318862915E-1   3.061000406742096E-1  -4.548704996705055E-2   3.060983419418335E-1  -4.535636678338051E-2   1.424423754215241E-1   9.316116571426392E-1  
 6.472000000000000E7     1.409505158662796E-1   9.344388246536255E-1   3.062694966793060E-1  -4.546982049942017E-2   3.062204122543335E-1  -4.560856521129608E-2   1.434601098299027E-1   9.311262965202332E-1  
 6.474000000000000E7     1.411137133836746E-1   9.339799880981445E-1   3.066871166229248E-1  -4.595765098929405E-2   3.065680563449860E-1  -4.580228030681610E-2   1.443542391061783E-1   9.311552047729492E-1  
 6.476000000000000E7     1.422313302755356E-1   9.342074990272522E-1   3.069277703762054E-1  -4.605987668037415E-2   3.067435622215271E-1  -4.611887782812119E-2   1.446746289730072E-1   9.311550855636597E-1  
 6.478000000000000E7     1.428007930517197E-1   9.338150620460510E-1   3.072228431701660E-1  -4.650305956602097E-2   3.071506023406982E-1  -4.628904163837433E-2   1.456693708896637E-1   9.306397438049316E-1  
 6.480000000000000E7     1.439125984907150E-1   9.333913922309876E-1   3.073365390300751E-1  -4.693622887134552E-2   3.073175847530365E-1  -4.681080952286720E-2   1.462374925613403E-1   9.303839206695557E-1  
 6.482000000000000E7     1.441074162721634E-1   9.333398342132568E-1   3.077837824821472E-1  -4.740963503718376E-2   3.077839910984039E-1  -4.725244268774986E-2   1.474368721246719E-1   9.300708174705505E-1  
 6.484000000000000E7     1.450319290161133E-1   9.332290291786194E-1   3.080622255802155E-1  -4.751998558640480E-2   3.076191544532776E-1  -4.754843935370445E-2   1.477400213479996E-1   9.302058815956116E-1  
 6.486000000000000E7     1.459872126579285E-1   9.326599836349487E-1   3.084104061126709E-1  -4.774846881628037E-2   3.080815076828003E-1  -4.770431295037270E-2   1.480790078639984E-1   9.301182627677918E-1  
 6.488000000000000E7     1.465637236833572E-1   9.325174093246460E-1   3.086098730564117E-1  -4.801305383443832E-2   3.084452152252197E-1  -4.787386953830719E-2   1.492900848388672E-1   9.297613501548767E-1  
 6.490000000000000E7     1.471483707427979E-1   9.324942231178284E-1   3.086112439632416E-1  -4.829924181103706E-2   3.089309930801392E-1  -4.840366914868355E-2   1.496777087450028E-1   9.291927814483643E-1  
 6.492000000000000E7     1.478121131658554E-1   9.319301843643189E-1   3.090192079544067E-1  -4.861323907971382E-2   3.087571263313294E-1  -4.866802692413330E-2   1.505625396966934E-1   9.292907714843750E-1  
 6.494000000000000E7     1.487506031990051E-1   9.319667816162109E-1   3.094748258590698E-1  -4.870134592056274E-2   3.091576099395752E-1  -4.878778383135796E-2   1.512801349163055E-1   9.292337894439697E-1  
 6.496000000000000E7     1.493301093578339E-1   9.318917393684387E-1   3.094677031040192E-1  -4.908926784992218E-2   3.095661401748657E-1  -4.900612309575081E-2   1.519930958747864E-1   9.288049936294556E-1  
 6.498000000000000E7     1.500161886215210E-1   9.316599965095520E-1   3.101069033145905E-1  -4.954604059457779E-2   3.098922967910767E-1  -4.931197687983513E-2   1.527565568685532E-1   9.287306666374207E-1  
 6.500000000000000E7     1.508727073669434E-1   9.312242269515991E-1   3.099111616611481E-1  -4.985712096095085E-2   3.098667562007904E-1  -4.968601092696190E-2   1.534917801618576E-1   9.281667470932007E-1  
 6.502000000000000E7     1.513188779354096E-1   9.312328100204468E-1   3.105791807174683E-1  -4.993712902069092E-2   3.103548884391785E-1  -4.976630583405495E-2   1.541521400213242E-1   9.281663298606873E-1  
 6.504000000000000E7     1.521551609039307E-1   9.310971498489380E-1   3.106382191181183E-1  -5.025774985551834E-2   3.107860088348389E-1  -5.016161501407623E-2   1.547619551420212E-1   9.278289675712585E-1  
 6.506000000000000E7     1.526132971048355E-1   9.306818842887878E-1   3.108839690685272E-1  -5.061199516057968E-2   3.108981847763062E-1  -5.064611881971359E-2   1.554603874683380E-1   9.277602434158325E-1  
 6.508000000000000E7     1.533103585243225E-1   9.305741190910339E-1   3.113435208797455E-1  -5.108800902962685E-2   3.111865222454071E-1  -5.089829489588738E-2   1.564893573522568E-1   9.272099733352661E-1  
 6.510000000000000E7     1.544382274150848E-1   9.302711486816406E-1   3.117094337940216E-1  -5.128792300820351E-2   3.114378154277802E-1  -5.090330913662911E-2   1.565151959657669E-1   9.271600842475891E-1  
 6.512000000000000E7     1.552734822034836E-1   9.299637675285339E-1   3.116708099842072E-1  -5.174412578344345E-2   3.116230964660645E-1  -5.142985656857491E-2   1.577530950307846E-1   9.269823431968689E-1  
 6.514000000000000E7     1.559679210186005E-1   9.297289848327637E-1   3.121921420097351E-1  -5.166617035865784E-2   3.119750320911408E-1  -5.177042260766029E-2   1.583062708377838E-1   9.265183806419373E-1  
 6.516000000000000E7     1.563932299613953E-1   9.296259880065918E-1   3.123298287391663E-1  -5.216443911194801E-2   3.124368786811829E-1  -5.227129161357880E-2   1.592181921005249E-1   9.262996912002564E-1  
 6.518000000000000E7     1.572999358177185E-1   9.295222163200378E-1   3.126301169395447E-1  -5.244775861501694E-2   3.124171197414398E-1  -5.221992358565331E-2   1.596623063087463E-1   9.261751174926758E-1  
 6.520000000000000E7     1.583887934684753E-1   9.292755126953125E-1   3.129446208477020E-1  -5.280469357967377E-2   3.129224777221680E-1  -5.292232334613800E-2   1.607671976089478E-1   9.263285398483276E-1  
 6.522000000000000E7     1.585804373025894E-1   9.288279414176941E-1   3.131678402423859E-1  -5.315572768449783E-2   3.130235373973846E-1  -5.298807844519615E-2   1.610669344663620E-1   9.259703159332275E-1  
 6.524000000000000E7     1.597010046243668E-1   9.287256002426148E-1   3.134560286998749E-1  -5.330509319901466E-2   3.133578896522522E-1  -5.349640548229218E-2   1.622569561004639E-1   9.259501099586487E-1  
 6.526000000000000E7     1.601779013872147E-1   9.284530878067017E-1   3.135084509849548E-1  -5.382686480879784E-2   3.137344717979431E-1  -5.375937744975090E-2   1.629427522420883E-1   9.252887368202210E-1  
 6.528000000000000E7     1.607780903577805E-1   9.283926486968994E-1   3.137298822402954E-1  -5.396121740341187E-2   3.135912120342255E-1  -5.395723879337311E-2   1.630290895700455E-1   9.249286651611328E-1  
 6.530000000000000E7     1.612133085727692E-1   9.279551506042481E-1   3.141428530216217E-1  -5.433387309312820E-2   3.140417635440826E-1  -5.437989532947540E-2   1.641570478677750E-1   9.249265193939209E-1  
 6.532000000000000E7     1.619196385145187E-1   9.276828765869141E-1   3.143301010131836E-1  -5.453443899750710E-2   3.144859969615936E-1  -5.422866716980934E-2   1.647533178329468E-1   9.244826436042786E-1  
 6.534000000000000E7     1.626481562852860E-1   9.272480010986328E-1   3.146322071552277E-1  -5.519296228885651E-2   3.146678805351257E-1  -5.480987578630447E-2   1.655452400445938E-1   9.244349598884583E-1  
 6.536000000000000E7     1.634651273488998E-1   9.278804063796997E-1   3.147970438003540E-1  -5.504711344838142E-2   3.151127398014069E-1  -5.518297478556633E-2   1.661796122789383E-1   9.241531491279602E-1  
 6.538000000000000E7     1.642966419458389E-1   9.268866777420044E-1   3.153249621391296E-1  -5.551465973258019E-2   3.152433037757874E-1  -5.546040832996368E-2   1.669849455356598E-1   9.239588379859924E-1  
 6.540000000000000E7     1.653735786676407E-1   9.265487790107727E-1   3.156830966472626E-1  -5.582108721137047E-2   3.152868449687958E-1  -5.569829791784287E-2   1.675749123096466E-1   9.236949086189270E-1  
 6.542000000000000E7     1.652907431125641E-1   9.264469742774963E-1   3.158745169639587E-1  -5.605421587824822E-2   3.158832490444183E-1  -5.586354807019234E-2   1.682737618684769E-1   9.237936735153198E-1  
 6.544000000000000E7     1.665688008069992E-1   9.264063239097595E-1   3.159511685371399E-1  -5.636763572692871E-2   3.158586025238037E-1  -5.616389587521553E-2   1.687354147434235E-1   9.232041835784912E-1  
 6.546000000000000E7     1.671652495861054E-1   9.261726140975952E-1   3.163827955722809E-1  -5.672185122966766E-2   3.162896633148193E-1  -5.663102865219116E-2   1.698047518730164E-1   9.229738712310791E-1  
 6.548000000000000E7     1.677029728889465E-1   9.261944890022278E-1   3.167172372341156E-1  -5.692606419324875E-2   3.166916370391846E-1  -5.669270083308220E-2   1.704635173082352E-1   9.227060675621033E-1  
 6.550000000000000E7     1.686706542968750E-1   9.256864786148071E-1   3.169840872287750E-1  -5.721999704837799E-2   3.167158961296082E-1  -5.734082311391830E-2   1.709930896759033E-1   9.225356578826904E-1  
 6.552000000000000E7     1.692557334899902E-1   9.255669116973877E-1   3.170076012611389E-1  -5.776719748973846E-2   3.171911239624023E-1  -5.746259912848473E-2   1.716838032007217E-1   9.223089218139648E-1  
 6.554000000000000E7     1.698452532291412E-1   9.254406690597534E-1   3.174057006835938E-1  -5.777682736515999E-2   3.172606825828552E-1  -5.771037191152573E-2   1.725951731204987E-1   9.222151041030884E-1  
 6.556000000000000E7     1.705529391765595E-1   9.251637458801270E-1   3.176390230655670E-1  -5.830262601375580E-2   3.175421655178070E-1  -5.804463103413582E-2   1.733424663543701E-1   9.218026399612427E-1  
 6.558000000000000E7     1.710946410894394E-1   9.249178171157837E-1   3.177480399608612E-1  -5.842602998018265E-2   3.178060948848724E-1  -5.828741937875748E-2   1.739253252744675E-1   9.217213988304138E-1  
 6.560000000000000E7     1.719626486301422E-1   9.247110486030579E-1   3.182372152805328E-1  -5.878913775086403E-2   3.179827630519867E-1  -5.872296541929245E-2   1.745945513248444E-1   9.216037392616272E-1  
 6.562000000000000E7     1.727536767721176E-1   9.243745803833008E-1   3.183917701244354E-1  -5.901850014925003E-2   3.183958530426025E-1  -5.923727527260780E-2   1.752751469612122E-1   9.214255213737488E-1  
 6.564000000000000E7     1.731447875499725E-1   9.243542551994324E-1   3.185459077358246E-1  -5.944430083036423E-2   3.186353445053101E-1  -5.946084111928940E-2   1.761731058359146E-1   9.207732081413269E-1  
 6.566000000000000E7     1.743985116481781E-1   9.237363934516907E-1   3.188695311546326E-1  -5.964247509837151E-2   3.187936842441559E-1  -5.987073108553886E-2   1.769244372844696E-1   9.206700325012207E-1  
 6.568000000000000E7     1.748643517494202E-1   9.236067533493042E-1   3.193726241588593E-1  -6.022721156477928E-2   3.190459012985230E-1  -6.018128246068955E-2   1.776749640703201E-1   9.204381704330444E-1  
 6.570000000000000E7     1.756025999784470E-1   9.232177138328552E-1   3.193339109420776E-1  -6.027997285127640E-2   3.193034529685974E-1  -6.020610779523850E-2   1.781302094459534E-1   9.202122092247009E-1  
 6.572000000000000E7     1.761890202760696E-1   9.231895208358765E-1   3.197996318340302E-1  -6.059884652495384E-2   3.197445571422577E-1  -6.055197119712830E-2   1.788032054901123E-1   9.202169179916382E-1  
 6.574000000000000E7     1.770210266113281E-1   9.229620695114136E-1   3.199614584445953E-1  -6.078060716390610E-2   3.199400603771210E-1  -6.076397374272347E-2   1.793445050716400E-1   9.197179675102234E-1  
 6.576000000000000E7     1.775367856025696E-1   9.227750301361084E-1   3.202306330204010E-1  -6.151601672172546E-2   3.201164007186890E-1  -6.110452860593796E-2   1.803853213787079E-1   9.194664955139160E-1  
 6.578000000000000E7     1.782946586608887E-1   9.221594929695129E-1   3.205623924732208E-1  -6.179570406675339E-2   3.202472627162933E-1  -6.171338260173798E-2   1.810188591480255E-1   9.192177653312683E-1  
 6.580000000000000E7     1.787836700677872E-1   9.222658872604370E-1   3.207463622093201E-1  -6.177738681435585E-2   3.206903040409088E-1  -6.179671734571457E-2   1.818159967660904E-1   9.188185930252075E-1  
 6.582000000000000E7     1.797990947961807E-1   9.215771555900574E-1   3.211222887039185E-1  -6.233203783631325E-2   3.208638429641724E-1  -6.226034834980965E-2   1.820918768644333E-1   9.188625812530518E-1  
 6.584000000000000E7     1.802985370159149E-1   9.218287467956543E-1   3.212985694408417E-1  -6.262410432100296E-2   3.211598098278046E-1  -6.264178454875946E-2   1.833118349313736E-1   9.186996221542358E-1  
 6.586000000000000E7     1.810984164476395E-1   9.213106632232666E-1   3.213486373424530E-1  -6.286785006523132E-2   3.214130997657776E-1  -6.272578984498978E-2   1.834634095430374E-1   9.182387590408325E-1  
 6.588000000000000E7     1.816027015447617E-1   9.209763407707214E-1   3.216889500617981E-1  -6.333220750093460E-2   3.215048611164093E-1  -6.298216432332993E-2   1.847643256187439E-1   9.178026318550110E-1  
 6.590000000000000E7     1.822591274976730E-1   9.207372665405273E-1   3.221770524978638E-1  -6.353221833705902E-2   3.218720853328705E-1  -6.350640207529068E-2   1.856553703546524E-1   9.176834225654602E-1  
 6.592000000000000E7     1.831168383359909E-1   9.204549193382263E-1   3.220371901988983E-1  -6.416033953428268E-2   3.219514489173889E-1  -6.379179656505585E-2   1.863398104906082E-1   9.177075624465942E-1  
 6.594000000000000E7     1.836871504783630E-1   9.203944802284241E-1   3.225009441375732E-1  -6.400935351848602E-2   3.225165307521820E-1  -6.379929184913635E-2   1.865901350975037E-1   9.175949096679688E-1  
 6.596000000000000E7     1.845632493495941E-1   9.202436804771423E-1   3.226427137851715E-1  -6.453439593315125E-2   3.226873576641083E-1  -6.433979421854019E-2   1.874592900276184E-1   9.168656468391419E-1  
 6.598000000000000E7     1.853411942720413E-1   9.198353290557861E-1   3.231071531772614E-1  -6.488457322120667E-2   3.230943083763123E-1  -6.458049267530441E-2   1.882668286561966E-1   9.165185689926148E-1  
 6.600000000000000E7     1.860966384410858E-1   9.194824695587158E-1   3.234325051307678E-1  -6.511728465557098E-2   3.231323063373566E-1  -6.489565968513489E-2   1.885585486888886E-1   9.163646697998047E-1  
 6.602000000000000E7     1.868945658206940E-1   9.195865988731384E-1   3.234046697616577E-1  -6.534458696842194E-2   3.234038949012756E-1  -6.514922529459000E-2   1.891077160835266E-1   9.162594676017761E-1  
 6.604000000000000E7     1.871978193521500E-1   9.186305403709412E-1   3.238559961318970E-1  -6.571093946695328E-2   3.235366940498352E-1  -6.576365232467651E-2   1.902641057968140E-1   9.163000583648682E-1  
 6.606000000000000E7     1.882557123899460E-1   9.189873933792114E-1   3.238962888717651E-1  -6.620778143405914E-2   3.238532543182373E-1  -6.614924222230911E-2   1.907809823751450E-1   9.157689213752747E-1  
 6.608000000000000E7     1.889550387859345E-1   9.184031486511231E-1   3.242890238761902E-1  -6.638877838850021E-2   3.244601488113403E-1  -6.637440621852875E-2   1.913595944643021E-1   9.154791831970215E-1  
 6.610000000000000E7     1.896007061004639E-1   9.181700348854065E-1   3.247891962528229E-1  -6.669892370700836E-2   3.243249356746674E-1  -6.665222346782684E-2   1.923187226057053E-1   9.157215356826782E-1  
 6.612000000000000E7     1.904906779527664E-1   9.178944230079651E-1   3.247392475605011E-1  -6.717945635318756E-2   3.246482908725739E-1  -6.716711819171906E-2   1.927795857191086E-1   9.149733185768127E-1  
 6.614000000000000E7     1.905687153339386E-1   9.178909659385681E-1   3.249222338199616E-1  -6.742286682128906E-2   3.250422179698944E-1  -6.693174690008164E-2   1.939978003501892E-1   9.148793220520020E-1  
 6.616000000000000E7     1.915979832410812E-1   9.176321029663086E-1   3.252924084663391E-1  -6.764904409646988E-2   3.247991204261780E-1  -6.760850548744202E-2   1.942874789237976E-1   9.142789244651794E-1  
 6.618000000000000E7     1.918902695178986E-1   9.174976944923401E-1   3.253706097602844E-1  -6.773575395345688E-2   3.254022598266602E-1  -6.793341785669327E-2   1.950082927942276E-1   9.140048623085022E-1  
 6.620000000000000E7     1.929225027561188E-1   9.172264337539673E-1   3.256060779094696E-1  -6.818145513534546E-2   3.257347047328949E-1  -6.810432672500610E-2   1.957866698503494E-1   9.135308265686035E-1  
 6.622000000000000E7     1.937116533517838E-1   9.169722199440002E-1   3.260119855403900E-1  -6.860044598579407E-2   3.259387612342835E-1  -6.866456568241119E-2   1.965480744838715E-1   9.138593673706055E-1  
 6.624000000000000E7     1.945035308599472E-1   9.168480038642883E-1   3.261651098728180E-1  -6.904146820306778E-2   3.262201547622681E-1  -6.885708868503571E-2   1.970555484294891E-1   9.133890271186829E-1  
 6.626000000000000E7     1.952505707740784E-1   9.162670969963074E-1   3.264024555683136E-1  -6.934075802564621E-2   3.264300227165222E-1  -6.915286183357239E-2   1.977116167545319E-1   9.132459759712219E-1  
 6.628000000000000E7     1.955287605524063E-1   9.162704348564148E-1   3.266952633857727E-1  -6.961241364479065E-2   3.265720605850220E-1  -6.943123042583466E-2   1.981284767389298E-1   9.128697514533997E-1  
 6.630000000000000E7     1.963365525007248E-1   9.160397052764893E-1   3.273050785064697E-1  -6.979513168334961E-2   3.269740045070648E-1  -6.963998079299927E-2   1.990215778350830E-1   9.128939509391785E-1  
 6.632000000000000E7     1.971641033887863E-1   9.155367612838745E-1   3.273347318172455E-1  -7.021142542362213E-2   3.270753324031830E-1  -7.011937350034714E-2   1.997514814138413E-1   9.128589034080505E-1  
 6.634000000000000E7     1.978839784860611E-1   9.154480099678040E-1   3.272801041603088E-1  -7.050908356904984E-2   3.272601366043091E-1  -7.034188508987427E-2   2.004947364330292E-1   9.122698903083801E-1  
 6.636000000000000E7     1.984335631132126E-1   9.147818684577942E-1   3.277452588081360E-1  -7.076901942491531E-2   3.275981545448303E-1  -7.084739953279495E-2   2.012199759483337E-1   9.121429920196533E-1  
 6.638000000000000E7     1.989378780126572E-1   9.151949286460877E-1   3.280186355113983E-1  -7.122369110584259E-2   3.278772234916687E-1  -7.115168869495392E-2   2.018192708492279E-1   9.117787480354309E-1  
 6.640000000000000E7     1.996687203645706E-1   9.145232439041138E-1   3.282970786094666E-1  -7.159650325775147E-2   3.280920982360840E-1  -7.149270176887512E-2   2.026401907205582E-1   9.111869335174561E-1  
 6.642000000000000E7     2.002046704292297E-1   9.143522977828980E-1   3.284254074096680E-1  -7.173505425453186E-2   3.282993733882904E-1  -7.166880369186401E-2   2.032629698514938E-1   9.113723635673523E-1  
 6.644000000000000E7     2.010809779167175E-1   9.143018722534180E-1   3.287339508533478E-1  -7.227084040641785E-2   3.284315764904022E-1  -7.193270325660706E-2   2.038597166538239E-1   9.106977581977844E-1  
 6.646000000000000E7     2.018392384052277E-1   9.139179587364197E-1   3.286595940589905E-1  -7.233109325170517E-2   3.288162052631378E-1  -7.247883081436157E-2   2.045582681894302E-1   9.102609157562256E-1  
 6.648000000000000E7     2.025795876979828E-1   9.137258529663086E-1   3.291490972042084E-1  -7.298210263252258E-2   3.287397325038910E-1  -7.241216301918030E-2   2.054548412561417E-1   9.107345938682556E-1  
 6.650000000000000E7     2.030055820941925E-1   9.132024049758911E-1   3.293950557708740E-1  -7.300476729869843E-2   3.293107748031616E-1  -7.289267331361771E-2   2.060171067714691E-1   9.101973772048950E-1  
 6.652000000000000E7     2.036138623952866E-1   9.128301143646240E-1   3.294738233089447E-1  -7.328443229198456E-2   3.294149935245514E-1  -7.328577339649200E-2   2.069458365440369E-1   9.101385474205017E-1  
 6.654000000000000E7     2.047743648290634E-1   9.129672050476074E-1   3.295508325099945E-1  -7.351703941822052E-2   3.296556174755096E-1  -7.363375276327133E-2   2.070164084434509E-1   9.095949530601502E-1  
 6.656000000000000E7     2.051654160022736E-1   9.126442074775696E-1   3.301631510257721E-1  -7.412359118461609E-2   3.302334547042847E-1  -7.384951412677765E-2   2.079970836639404E-1   9.093292951583862E-1  
 6.658000000000000E7     2.062462121248245E-1   9.123560190200806E-1   3.302792906761169E-1  -7.436196506023407E-2   3.304496705532074E-1  -7.435906678438187E-2   2.084818333387375E-1   9.092321991920471E-1  
 6.660000000000000E7     2.065730243921280E-1   9.119110107421875E-1   3.304264247417450E-1  -7.463788986206055E-2   3.304029107093811E-1  -7.447761297225952E-2   2.094072252511978E-1   9.087108373641968E-1  
 6.662000000000000E7     2.069763094186783E-1   9.117271304130554E-1   3.306995630264282E-1  -7.521204650402069E-2   3.307651281356812E-1  -7.452207803726196E-2   2.099251598119736E-1   9.085176587104797E-1  
 6.664000000000000E7     2.077907323837280E-1   9.112748503684998E-1   3.309350013732910E-1  -7.548352330923080E-2   3.307733833789825E-1  -7.531931996345520E-2   2.111136317253113E-1   9.083919525146484E-1  
 6.666000000000000E7     2.082183808088303E-1   9.111657142639160E-1   3.311918973922730E-1  -7.566963136196137E-2   3.309933543205261E-1  -7.560766488313675E-2   2.112570405006409E-1   9.083257913589478E-1  
 6.668000000000000E7     2.095814198255539E-1   9.109981656074524E-1   3.313058614730835E-1  -7.604643702507019E-2   3.316623568534851E-1  -7.591287791728973E-2   2.118816822767258E-1   9.076229333877564E-1  
 6.670000000000000E7     2.099394500255585E-1   9.107461571693420E-1   3.314000368118286E-1  -7.631930708885193E-2   3.316833376884460E-1  -7.628489285707474E-2   2.128638774156570E-1   9.075245261192322E-1  
 6.672000000000000E7     2.106312066316605E-1   9.100640416145325E-1   3.316800594329834E-1  -7.679162919521332E-2   3.316848576068878E-1  -7.652761042118073E-2   2.134575098752976E-1   9.069671034812927E-1  
 6.674000000000000E7     2.112804502248764E-1   9.101517200469971E-1   3.324027955532074E-1  -7.725286483764648E-2   3.322358429431915E-1  -7.686080783605576E-2   2.146085053682327E-1   9.068983793258667E-1  
 6.676000000000000E7     2.117190957069397E-1   9.095702171325684E-1   3.324367403984070E-1  -7.731068134307861E-2   3.322396874427795E-1  -7.727664709091187E-2   2.144457697868347E-1   9.067435264587402E-1  
 6.678000000000000E7     2.128430306911469E-1   9.092250466346741E-1   3.327589333057404E-1  -7.773372530937195E-2   3.322395086288452E-1  -7.760342955589294E-2   2.152848839759827E-1   9.065865278244019E-1  
 6.680000000000000E7     2.135439664125443E-1   9.091243743896484E-1   3.329568207263947E-1  -7.796464115381241E-2   3.329052031040192E-1  -7.797658443450928E-2   2.162661254405975E-1   9.061467051506043E-1  
 6.682000000000000E7     2.142693996429443E-1   9.091507196426392E-1   3.330177962779999E-1  -7.834169268608093E-2   3.329919874668121E-1  -7.829457521438599E-2   2.167450189590454E-1   9.057868123054504E-1  
 6.684000000000000E7     2.150786519050598E-1   9.084316492080689E-1   3.332767188549042E-1  -7.861979305744171E-2   3.330900073051453E-1  -7.862139493227005E-2   2.175087481737137E-1   9.054872393608093E-1  
 6.686000000000000E7     2.155230194330216E-1   9.082159996032715E-1   3.336371183395386E-1  -7.888460159301758E-2   3.333820998668671E-1  -7.895578444004059E-2   2.178543210029602E-1   9.054552316665649E-1  
 6.688000000000000E7     2.160761952400208E-1   9.082987308502197E-1   3.340137004852295E-1  -7.926593720912933E-2   3.336928784847260E-1  -7.903063297271729E-2   2.188361287117004E-1   9.051218032836914E-1  
 6.690000000000000E7     2.168728858232498E-1   9.079054594039917E-1   3.343977332115173E-1  -7.956439256668091E-2   3.343568444252014E-1  -7.937792688608170E-2   2.192745357751846E-1   9.051182270050049E-1  
 6.692000000000000E7     2.175424396991730E-1   9.073809981346130E-1   3.342317044734955E-1  -8.015223592519760E-2   3.342489898204804E-1  -7.990848273038864E-2   2.203776836395264E-1   9.045795202255249E-1  
 6.694000000000000E7     2.181788682937622E-1   9.072125554084778E-1   3.345380723476410E-1  -8.033502101898193E-2   3.342027068138123E-1  -8.013798296451569E-2   2.209315150976181E-1   9.040905833244324E-1  
 6.696000000000000E7     2.189553380012512E-1   9.068840146064758E-1   3.348474502563477E-1  -8.060403168201447E-2   3.344262838363648E-1  -8.051481842994690E-2   2.217308431863785E-1   9.045192003250122E-1  
 6.698000000000000E7     2.191667109727860E-1   9.065942764282227E-1   3.349071741104126E-1  -8.079670369625092E-2   3.345877826213837E-1  -8.066890388727188E-2   2.220335453748703E-1   9.035904407501221E-1  
 6.700000000000000E7     2.199865132570267E-1   9.063951969146729E-1   3.350617885589600E-1  -8.126153051853180E-2   3.350859582424164E-1  -8.110827207565308E-2   2.230581790208817E-1   9.031774997711182E-1  
 6.702000000000000E7     2.207644432783127E-1   9.059261679649353E-1   3.355252444744110E-1  -8.174636960029602E-2   3.351712822914124E-1  -8.130682259798050E-2   2.237440049648285E-1   9.031955003738403E-1  
 6.704000000000000E7     2.214156836271286E-1   9.060307741165161E-1   3.354785144329071E-1  -8.206112682819367E-2   3.356060981750488E-1  -8.174622058868408E-2   2.243477404117584E-1   9.030243158340454E-1  
 6.706000000000000E7     2.223231196403503E-1   9.054815173149109E-1   3.359685540199280E-1  -8.237851411104202E-2   3.355223834514618E-1  -8.243011683225632E-2   2.250088006258011E-1   9.026984572410584E-1  
 6.708000000000000E7     2.229802310466766E-1   9.051381349563599E-1   3.364632427692413E-1  -8.272003382444382E-2   3.359010815620422E-1  -8.271826058626175E-2   2.255622893571854E-1   9.023394584655762E-1  
 6.710000000000000E7     2.235602736473084E-1   9.050888419151306E-1   3.364423215389252E-1  -8.299996703863144E-2   3.362254500389099E-1  -8.282059431076050E-2   2.261565774679184E-1   9.021165966987610E-1  
 6.712000000000000E7     2.243895530700684E-1   9.052426815032959E-1   3.366586863994598E-1  -8.325812965631485E-2   3.364361524581909E-1  -8.302856981754303E-2   2.264933437108994E-1   9.017312526702881E-1  
 6.714000000000000E7     2.250799685716629E-1   9.048197269439697E-1   3.369272053241730E-1  -8.376919478178024E-2   3.366738557815552E-1  -8.376508206129074E-2   2.274456322193146E-1   9.013920426368713E-1  
 6.716000000000000E7     2.257068306207657E-1   9.040756821632385E-1   3.371675014495850E-1  -8.374121785163879E-2   3.369957208633423E-1  -8.364242315292358E-2   2.278248071670532E-1   9.013791680335999E-1  
 6.718000000000000E7     2.262912690639496E-1   9.037427306175232E-1   3.370996415615082E-1  -8.448399603366852E-2   3.368747830390930E-1  -8.436728268861771E-2   2.288995385169983E-1   9.009824395179749E-1  
 6.720000000000000E7     2.273712158203125E-1   9.038270711898804E-1   3.374321460723877E-1  -8.471060544252396E-2   3.372814357280731E-1  -8.442100137472153E-2   2.295566797256470E-1   9.007566571235657E-1  
 6.722000000000000E7     2.277855277061462E-1   9.037420749664307E-1   3.378922939300537E-1  -8.480541408061981E-2   3.376382291316986E-1  -8.479358255863190E-2   2.302875667810440E-1   9.007859826087952E-1  
 6.724000000000000E7     2.285052984952927E-1   9.030366539955139E-1   3.378615379333496E-1  -8.562215417623520E-2   3.377209901809692E-1  -8.540821820497513E-2   2.307715564966202E-1   8.998045921325684E-1  
 6.726000000000000E7     2.291212230920792E-1   9.027143716812134E-1   3.381130397319794E-1  -8.585195988416672E-2   3.379747569561005E-1  -8.590284734964371E-2   2.316057980060577E-1   8.998638987541199E-1  
 6.728000000000000E7     2.295010536909103E-1   9.025252461433411E-1   3.383789956569672E-1  -8.602388203144074E-2   3.382665216922760E-1  -8.586191385984421E-2   2.321780920028687E-1   8.997789621353149E-1  
 6.730000000000000E7     2.301444113254547E-1   9.025263190269470E-1   3.389133214950562E-1  -8.636724948883057E-2   3.387320637702942E-1  -8.627736568450928E-2   2.330783158540726E-1   8.993185758590698E-1  
 6.732000000000000E7     2.311587184667587E-1   9.020203351974487E-1   3.387494385242462E-1  -8.665847778320313E-2   3.386905789375305E-1  -8.640638738870621E-2   2.331058084964752E-1   8.989593386650085E-1  
 6.734000000000000E7     2.320266664028168E-1   9.019591212272644E-1   3.390652537345886E-1  -8.706244081258774E-2   3.390364348888397E-1  -8.698809146881104E-2   2.342019826173782E-1   8.985618352890015E-1  
 6.736000000000000E7     2.325063347816467E-1   9.014047384262085E-1   3.393376469612122E-1  -8.745646476745606E-2   3.392744660377502E-1  -8.712925761938095E-2   2.347366809844971E-1   8.987438678741455E-1  
 6.738000000000000E7     2.332815527915955E-1   9.013702273368835E-1   3.394424617290497E-1  -8.762601017951965E-2   3.394545316696167E-1  -8.780378103256226E-2   2.360237985849381E-1   8.981104493141174E-1  
 6.740000000000000E7     2.337414026260376E-1   9.006618857383728E-1   3.398572206497192E-1  -8.790677785873413E-2   3.393920063972473E-1  -8.811965584754944E-2   2.361720651388168E-1   8.979476094245911E-1  
 6.742000000000000E7     2.343501299619675E-1   9.005398750305176E-1   3.398038744926453E-1  -8.826360106468201E-2   3.399135768413544E-1  -8.827316015958786E-2   2.367434203624725E-1   8.977349996566773E-1  
 6.744000000000000E7     2.351014018058777E-1   9.002682566642761E-1   3.400624990463257E-1  -8.869493007659912E-2   3.400952219963074E-1  -8.874764293432236E-2   2.372863739728928E-1   8.972992897033691E-1  
 6.746000000000000E7     2.356702983379364E-1   8.996995687484741E-1   3.401204347610474E-1  -8.930046856403351E-2   3.401292264461517E-1  -8.890442550182343E-2   2.383642941713333E-1   8.968315124511719E-1  
 6.748000000000000E7     2.362962514162064E-1   8.994736075401306E-1   3.405498564243317E-1  -8.921673148870468E-2   3.402900993824005E-1  -8.928391337394714E-2   2.390627712011337E-1   8.968786597251892E-1  
 6.750000000000000E7     2.366870194673538E-1   8.997612595558167E-1   3.405925333499908E-1  -8.957573771476746E-2   3.407535254955292E-1  -8.947856724262238E-2   2.395349293947220E-1   8.963302969932556E-1  
 6.752000000000000E7     2.375131994485855E-1   8.993400931358337E-1   3.409947156906128E-1  -9.015320241451263E-2   3.406986594200134E-1  -8.985098451375961E-2   2.403213083744049E-1   8.958307504653931E-1  
 6.754000000000000E7     2.384466379880905E-1   8.990175724029541E-1   3.413493633270264E-1  -9.054622054100037E-2   3.411119878292084E-1  -9.037445485591888E-2   2.410398870706558E-1   8.958729505538940E-1  
 6.756000000000000E7     2.387859523296356E-1   8.983813524246216E-1   3.414950370788574E-1  -9.071408957242966E-2   3.411282002925873E-1  -9.059736132621765E-2   2.416091710329056E-1   8.954401016235352E-1  
 6.758000000000000E7     2.394490987062454E-1   8.980291485786438E-1   3.416777253150940E-1  -9.130685776472092E-2   3.416745066642761E-1  -9.115203469991684E-2   2.423843592405319E-1   8.954243063926697E-1  
 6.760000000000000E7     2.398722767829895E-1   8.977933526039124E-1   3.420366048812866E-1  -9.134717285633087E-2   3.418348729610443E-1  -9.147039055824280E-2   2.432888448238373E-1   8.950235247612000E-1  
 6.762000000000000E7     2.411035597324371E-1   8.975041508674622E-1   3.419028520584106E-1  -9.191273897886276E-2   3.419844210147858E-1  -9.171938896179199E-2   2.437956184148789E-1   8.948667645454407E-1  
 6.764000000000000E7     2.417038232088089E-1   8.973872661590576E-1   3.425562679767609E-1  -9.223720431327820E-2   3.424962460994721E-1  -9.215762466192246E-2   2.442901283502579E-1   8.944478631019592E-1  
 6.766000000000000E7     2.420744895935059E-1   8.971506357192993E-1   3.425858914852142E-1  -9.258899092674255E-2   3.426574170589447E-1  -9.254043549299240E-2   2.450842261314392E-1   8.943343162536621E-1  
 6.768000000000000E7     2.429200410842896E-1   8.966587781906128E-1   3.428470194339752E-1  -9.287033975124359E-2   3.426869213581085E-1  -9.272320568561554E-2   2.454500049352646E-1   8.939973711967468E-1  
 6.770000000000000E7     2.436860948801041E-1   8.968951106071472E-1   3.428728878498077E-1  -9.327171742916107E-2   3.427432775497437E-1  -9.319946914911270E-2   2.462039291858673E-1   8.932834863662720E-1  
 6.772000000000000E7     2.442611902952194E-1   8.960848450660706E-1   3.432462811470032E-1  -9.340288490056992E-2   3.430799841880798E-1  -9.336368739604950E-2   2.470341920852661E-1   8.934593200683594E-1  
 6.774000000000000E7     2.445742338895798E-1   8.959872126579285E-1   3.433053791522980E-1  -9.380203485488892E-2   3.431993722915649E-1  -9.361645579338074E-2   2.474545240402222E-1   8.928013443946838E-1  
 6.776000000000000E7     2.459349632263184E-1   8.955351114273071E-1   3.435968458652496E-1  -9.426317363977432E-2   3.437599241733551E-1  -9.421717375516892E-2   2.483216971158981E-1   8.926193714141846E-1  
 6.778000000000000E7     2.460037171840668E-1   8.951703906059265E-1   3.436236679553986E-1  -9.438450634479523E-2   3.435523211956024E-1  -9.436495602130890E-2   2.487522214651108E-1   8.923857808113098E-1  
 6.780000000000000E7     2.466821521520615E-1   8.948969244956970E-1   3.440350890159607E-1  -9.498052299022675E-2   3.438347280025482E-1  -9.478937089443207E-2   2.495111674070358E-1   8.919492363929749E-1  
 6.782000000000000E7     2.475900948047638E-1   8.945846557617188E-1   3.439562916755676E-1  -9.534484148025513E-2   3.440854549407959E-1  -9.495529532432556E-2   2.502816319465637E-1   8.917456865310669E-1  
 6.784000000000000E7     2.478042691946030E-1   8.947045803070068E-1   3.443915545940399E-1  -9.536131471395493E-2   3.442483544349670E-1  -9.524278342723846E-2   2.508659362792969E-1   8.913872241973877E-1  
 6.786000000000000E7     2.487997561693192E-1   8.941328525543213E-1   3.445779979228973E-1  -9.587762504816055E-2   3.444952070713043E-1  -9.602141380310059E-2   2.518076896667481E-1   8.909210562705994E-1  
 6.788000000000000E7     2.495749890804291E-1   8.939358592033386E-1   3.448177874088287E-1  -9.631233662366867E-2   3.447498381137848E-1  -9.595721960067749E-2   2.520650625228882E-1   8.908976316452026E-1  
 6.790000000000000E7     2.504549026489258E-1   8.935083150863648E-1   3.449662327766419E-1  -9.691011905670166E-2   3.449786603450775E-1  -9.636830538511276E-2   2.531176209449768E-1   8.903963565826416E-1  
 6.792000000000000E7     2.510071992874146E-1   8.932981491088867E-1   3.452501296997070E-1  -9.680132567882538E-2   3.449900448322296E-1  -9.672769159078598E-2   2.533708810806274E-1   8.901299834251404E-1  
 6.794000000000000E7     2.514511942863464E-1   8.926570415496826E-1   3.455293476581574E-1  -9.754495322704315E-2   3.454029262065888E-1  -9.722688794136047E-2   2.541990876197815E-1   8.901774883270264E-1  
 6.796000000000000E7     2.524269223213196E-1   8.925629258155823E-1   3.455661237239838E-1  -9.783831238746643E-2   3.457237184047699E-1  -9.745255857706070E-2   2.546455860137940E-1   8.896658420562744E-1  
 6.798000000000000E7     2.527436316013336E-1   8.920866847038269E-1   3.459281921386719E-1  -9.795946627855301E-2   3.458335995674133E-1  -9.792091697454453E-2   2.554470598697662E-1   8.894757628440857E-1  
 6.800000000000000E7     2.532551288604736E-1   8.919151425361633E-1   3.460242748260498E-1  -9.839862585067749E-2   3.459225296974182E-1  -9.818115830421448E-2   2.563856840133667E-1   8.890178799629211E-1  
 6.802000000000000E7     2.542381882667542E-1   8.916483521461487E-1   3.462509810924530E-1  -9.889379888772965E-2   3.463247120380402E-1  -9.844553470611572E-2   2.569699585437775E-1   8.891106247901917E-1  
 6.804000000000000E7     2.546875476837158E-1   8.916559815406799E-1   3.467080295085907E-1  -9.903162717819214E-2   3.463968336582184E-1  -9.867212176322937E-2   2.575719952583313E-1   8.885281682014465E-1  
 6.806000000000000E7     2.553293704986572E-1   8.907676339149475E-1   3.468122184276581E-1  -9.949904680252075E-2   3.466570377349854E-1  -9.910549223423004E-2   2.579833865165710E-1   8.882021307945252E-1  
 6.808000000000000E7     2.557826936244965E-1   8.907372355461121E-1   3.468946814537048E-1  -9.979836642742157E-2   3.469105362892151E-1  -9.934204816818237E-2   2.588472962379456E-1   8.878236413002014E-1  
 6.810000000000000E7     2.566475570201874E-1   8.902907967567444E-1   3.471558988094330E-1  -9.998299181461334E-2   3.469683825969696E-1  -9.986943006515503E-2   2.593678236007690E-1   8.875297307968140E-1  
 6.812000000000000E7     2.570922970771790E-1   8.902320265769959E-1   3.473996222019196E-1  -1.004459559917450E-1   3.471721112728119E-1  -1.003585904836655E-1   2.602771520614624E-1   8.871948719024658E-1  
 6.814000000000000E7     2.577355206012726E-1   8.899267911911011E-1   3.476150333881378E-1  -1.009082347154617E-1   3.475447595119476E-1  -1.005793362855911E-1   2.609952688217163E-1   8.864585161209106E-1  
 6.816000000000000E7     2.588661015033722E-1   8.894612193107605E-1   3.477297425270081E-1  -1.011776030063629E-1   3.475290238857269E-1  -1.010983586311340E-1   2.615414559841156E-1   8.865358829498291E-1  
 6.818000000000000E7     2.593779861927033E-1   8.890787363052368E-1   3.479764759540558E-1  -1.017381697893143E-1   3.478055596351624E-1  -1.013993173837662E-1   2.621543109416962E-1   8.862261176109314E-1  
 6.820000000000000E7     2.598388493061066E-1   8.887796998023987E-1   3.480251133441925E-1  -1.018160730600357E-1   3.479695916175842E-1  -1.016927957534790E-1   2.628491222858429E-1   8.857812285423279E-1  
 6.822000000000000E7     2.610182762145996E-1   8.885614275932312E-1   3.483775258064270E-1  -1.024641543626785E-1   3.481744825839996E-1  -1.022450402379036E-1   2.632671892642975E-1   8.855932950973511E-1  
 6.824000000000000E7     2.611184716224670E-1   8.878551721572876E-1   3.485501110553742E-1  -1.027890220284462E-1   3.481962084770203E-1  -1.024982929229736E-1   2.642303109169006E-1   8.854032754898071E-1  
 6.826000000000000E7     2.620151937007904E-1   8.879713416099548E-1   3.486539423465729E-1  -1.028104946017265E-1   3.485436141490936E-1  -1.027595698833466E-1   2.645212411880493E-1   8.849756121635437E-1  
 6.828000000000000E7     2.626344561576843E-1   8.876158595085144E-1   3.489602506160736E-1  -1.032724082469940E-1   3.487429320812225E-1  -1.033748984336853E-1   2.651855945587158E-1   8.849455714225769E-1  
 6.830000000000000E7     2.632195651531220E-1   8.873356580734253E-1   3.489030897617340E-1  -1.035634428262711E-1   3.490849733352661E-1  -1.034212857484818E-1   2.657267451286316E-1   8.842624425888062E-1  
 6.832000000000000E7     2.638508677482605E-1   8.869785070419312E-1   3.492178916931152E-1  -1.039691194891930E-1   3.490713834762573E-1  -1.036890968680382E-1   2.664856910705566E-1   8.840646743774414E-1  
 6.834000000000000E7     2.643406987190247E-1   8.865656852722168E-1   3.496822416782379E-1  -1.044159084558487E-1   3.495174050331116E-1  -1.044017821550369E-1   2.673375606536865E-1   8.838245272636414E-1  
 6.836000000000000E7     2.650202214717865E-1   8.865785598754883E-1   3.497447371482849E-1  -1.047669351100922E-1   3.494802117347717E-1  -1.045847535133362E-1   2.678529918193817E-1   8.834088444709778E-1  
 6.838000000000000E7     2.655119895935059E-1   8.859951496124268E-1   3.500201106071472E-1  -1.052892431616783E-1   3.497880995273590E-1  -1.048726812005043E-1   2.686385214328766E-1   8.829925656318665E-1  
 6.840000000000000E7     2.664372622966766E-1   8.855703473091126E-1   3.500941395759583E-1  -1.056108549237251E-1   3.499068021774292E-1  -1.054697781801224E-1   2.693310678005219E-1   8.826593756675720E-1  
 6.842000000000000E7     2.666960358619690E-1   8.852484822273254E-1   3.502386212348938E-1  -1.057766228914261E-1   3.502225279808044E-1  -1.053606271743774E-1   2.701140046119690E-1   8.822711110115051E-1  
 6.844000000000000E7     2.678958475589752E-1   8.852751255035400E-1   3.507397770881653E-1  -1.063230559229851E-1   3.505504727363586E-1  -1.062068045139313E-1   2.707083523273468E-1   8.824381828308106E-1  
 6.846000000000000E7     2.684812843799591E-1   8.848062753677368E-1   3.508053421974182E-1  -1.064285635948181E-1   3.506880402565002E-1  -1.064347848296166E-1   2.708841264247894E-1   8.820208907127380E-1  
 6.848000000000000E7     2.686657607555389E-1   8.844229578971863E-1   3.506116271018982E-1  -1.064906343817711E-1   3.507312536239624E-1  -1.064964160323143E-1   2.716885507106781E-1   8.818373680114746E-1  
 6.850000000000000E7     2.696096897125244E-1   8.842956423759460E-1   3.510301411151886E-1  -1.073204725980759E-1   3.509022891521454E-1  -1.070896536111832E-1   2.725147604942322E-1   8.810870051383972E-1  
 6.852000000000000E7     2.704120874404907E-1   8.836442828178406E-1   3.513624072074890E-1  -1.077065989375114E-1   3.510128259658814E-1  -1.073266118764877E-1   2.728745937347412E-1   8.812101483345032E-1  
 6.854000000000000E7     2.708866894245148E-1   8.834900259971619E-1   3.515299856662750E-1  -1.080084294080734E-1   3.512066602706909E-1  -1.078098043799400E-1   2.736847102642059E-1   8.805657625198364E-1  
 6.856000000000000E7     2.716554999351502E-1   8.832762837409973E-1   3.515680432319641E-1  -1.084566712379456E-1   3.515942394733429E-1  -1.082068383693695E-1   2.740908563137054E-1   8.802638649940491E-1  
 6.858000000000000E7     2.723727524280548E-1   8.829914331436157E-1   3.517704010009766E-1  -1.087772548198700E-1   3.518753945827484E-1  -1.085194498300552E-1   2.750869691371918E-1   8.798992037773132E-1  
 6.860000000000000E7     2.723716497421265E-1   8.825719952583313E-1   3.518577218055725E-1  -1.091187894344330E-1   3.519252538681030E-1  -1.087602302432060E-1   2.759860455989838E-1   8.795466423034668E-1  
 6.862000000000000E7     2.736932933330536E-1   8.824358582496643E-1   3.523747622966766E-1  -1.094368919730187E-1   3.519375622272492E-1  -1.092998385429382E-1   2.763123214244843E-1   8.794358968734741E-1  
 6.864000000000000E7     2.742461562156677E-1   8.817851543426514E-1   3.523457050323486E-1  -1.096673831343651E-1   3.522404134273529E-1  -1.095700562000275E-1   2.767737507820129E-1   8.791161775588989E-1  
 6.866000000000000E7     2.750842869281769E-1   8.817821741104126E-1   3.526314795017242E-1  -1.100554615259171E-1   3.524837493896484E-1  -1.097692325711250E-1   2.771769165992737E-1   8.787557482719421E-1  
 6.868000000000000E7     2.753230035305023E-1   8.815138936042786E-1   3.528280258178711E-1  -1.104126870632172E-1   3.528591394424439E-1  -1.102240756154060E-1   2.782605588436127E-1   8.784210085868835E-1  
 6.870000000000000E7     2.761277556419373E-1   8.810693621635437E-1   3.529479801654816E-1  -1.110653132200241E-1   3.528390526771545E-1  -1.109568178653717E-1   2.789494693279266E-1   8.778729438781738E-1  
 6.872000000000000E7     2.767767012119293E-1   8.807584643363953E-1   3.530078828334808E-1  -1.113371849060059E-1   3.531707525253296E-1  -1.110137850046158E-1   2.797426879405975E-1   8.777145743370056E-1  
 6.874000000000000E7     2.768023312091827E-1   8.801559805870056E-1   3.536215424537659E-1  -1.116097494959831E-1   3.532439172267914E-1  -1.112031340599060E-1   2.803069651126862E-1   8.777127861976624E-1  
 6.876000000000000E7     2.779585719108582E-1   8.802570104598999E-1   3.535567224025726E-1  -1.118190884590149E-1   3.534431457519531E-1  -1.117461770772934E-1   2.806626558303833E-1   8.769524693489075E-1  
 6.878000000000000E7     2.785359025001526E-1   8.795841932296753E-1   3.537212014198303E-1  -1.122053116559982E-1   3.538182377815247E-1  -1.121296286582947E-1   2.815310955047607E-1   8.767054080963135E-1  
 6.880000000000000E7     2.794266045093536E-1   8.793404102325440E-1   3.538850843906403E-1  -1.126180514693260E-1   3.537526726722717E-1  -1.124386191368103E-1   2.818227112293243E-1   8.765124678611755E-1  
 6.882000000000000E7     2.795525789260864E-1   8.791989088058472E-1   3.542325198650360E-1  -1.129608899354935E-1   3.541354537010193E-1  -1.129641085863113E-1   2.826797664165497E-1   8.762111663818359E-1  
 6.884000000000000E7     2.802809178829193E-1   8.788182139396668E-1   3.542027473449707E-1  -1.131903380155563E-1   3.543822169303894E-1  -1.128259077668190E-1   2.831832170486450E-1   8.760417103767395E-1  
 6.886000000000000E7     2.809782922267914E-1   8.782998323440552E-1   3.544276654720306E-1  -1.136592179536820E-1   3.543981313705444E-1  -1.134568601846695E-1   2.839474678039551E-1   8.756388425827026E-1  
 6.888000000000000E7     2.821138203144074E-1   8.780221939086914E-1   3.546254634857178E-1  -1.141221597790718E-1   3.546644449234009E-1  -1.139971911907196E-1   2.844109237194061E-1   8.752867579460144E-1  
 6.890000000000000E7     2.822904884815216E-1   8.775575757026672E-1   3.547280430793762E-1  -1.146356537938118E-1   3.548332154750824E-1  -1.141275316476822E-1   2.849306464195252E-1   8.747004866600037E-1  
 6.892000000000000E7     2.831860780715942E-1   8.774733543395996E-1   3.548232316970825E-1  -1.148292571306229E-1   3.549465239048004E-1  -1.144667044281960E-1   2.855971157550812E-1   8.746425509452820E-1  
 6.894000000000000E7     2.835960388183594E-1   8.772379755973816E-1   3.552326858043671E-1  -1.147318333387375E-1   3.553760349750519E-1  -1.147007346153259E-1   2.859191298484802E-1   8.744288086891174E-1  
 6.896000000000000E7     2.844003736972809E-1   8.768442869186401E-1   3.556543290615082E-1  -1.153406500816345E-1   3.555433154106140E-1  -1.153768226504326E-1   2.866730690002441E-1   8.738829493522644E-1  
 6.898000000000000E7     2.849565148353577E-1   8.765084743499756E-1   3.557853102684021E-1  -1.156264767050743E-1   3.555589020252228E-1  -1.154936775565147E-1   2.874702513217926E-1   8.736045360565186E-1  
 6.900000000000000E7     2.856546640396118E-1   8.760488629341126E-1   3.557893335819244E-1  -1.161215305328369E-1   3.555456399917603E-1  -1.160796582698822E-1   2.882479429244995E-1   8.732627034187317E-1  
 6.902000000000000E7     2.859522998332977E-1   8.759111166000366E-1   3.560479283332825E-1  -1.164129450917244E-1   3.559407889842987E-1  -1.163638830184937E-1   2.889716327190399E-1   8.728427886962891E-1  
 6.904000000000000E7     2.869102060794830E-1   8.753216862678528E-1   3.562291264533997E-1  -1.172534525394440E-1   3.561244010925293E-1  -1.166744083166122E-1   2.897548377513886E-1   8.727041482925415E-1  
 6.906000000000000E7     2.875626087188721E-1   8.748377561569214E-1   3.562902510166168E-1  -1.172703802585602E-1   3.561239540576935E-1  -1.172682121396065E-1   2.901177704334259E-1   8.722548484802246E-1  
 6.908000000000000E7     2.879764437675476E-1   8.746719360351563E-1   3.566038310527802E-1  -1.173856183886528E-1   3.563643395900726E-1  -1.173671707510948E-1   2.910774946212769E-1   8.717988729476929E-1  
 6.910000000000000E7     2.886824607849121E-1   8.743746280670166E-1   3.566553890705109E-1  -1.179165318608284E-1   3.566660284996033E-1  -1.181651577353478E-1   2.915583550930023E-1   8.716130256652832E-1  
 6.912000000000000E7     2.894020080566406E-1   8.739167451858521E-1   3.570052087306976E-1  -1.182077750563622E-1   3.567788600921631E-1  -1.182450726628304E-1   2.920179367065430E-1   8.714392185211182E-1  
 6.914000000000000E7     2.896801233291626E-1   8.739405274391174E-1   3.569867312908173E-1  -1.186035424470902E-1   3.569611907005310E-1  -1.185436993837357E-1   2.929928600788117E-1   8.711558580398560E-1  
 6.916000000000000E7     2.906179726123810E-1   8.736906647682190E-1   3.573447465896606E-1  -1.191930025815964E-1   3.573292195796967E-1  -1.188420802354813E-1   2.935070097446442E-1   8.708450198173523E-1  
 6.918000000000000E7     2.910226881504059E-1   8.733958005905151E-1   3.575516343116760E-1  -1.195520907640457E-1   3.573651611804962E-1  -1.191581338644028E-1   2.941481471061707E-1   8.704182505607605E-1  
 6.920000000000000E7     2.917356193065643E-1   8.729734420776367E-1   3.575792610645294E-1  -1.197787150740624E-1   3.575974404811859E-1  -1.198812127113342E-1   2.948685884475708E-1   8.699670433998108E-1  
 6.922000000000000E7     2.925333380699158E-1   8.726527690887451E-1   3.581220507621765E-1  -1.203563287854195E-1   3.575919270515442E-1  -1.200007945299149E-1   2.955832779407501E-1   8.698369264602661E-1  
 6.924000000000000E7     2.931492626667023E-1   8.720346093177795E-1   3.579530417919159E-1  -1.207703948020935E-1   3.580318391323090E-1  -1.203926354646683E-1   2.957946360111237E-1   8.691464662551880E-1  
 6.926000000000000E7     2.931764125823975E-1   8.716960549354553E-1   3.582077920436859E-1  -1.210376322269440E-1   3.578815460205078E-1  -1.206253319978714E-1   2.969412505626679E-1   8.690634369850159E-1  
 6.928000000000000E7     2.942750155925751E-1   8.713721036911011E-1   3.583526611328125E-1  -1.213594526052475E-1   3.581550121307373E-1  -1.208074688911438E-1   2.970954477787018E-1   8.685355782508850E-1  
 6.930000000000000E7     2.951317727565765E-1   8.711899518966675E-1   3.587622046470642E-1  -1.220182776451111E-1   3.584482967853546E-1  -1.217249780893326E-1   2.979058921337128E-1   8.685234189033508E-1  
 6.932000000000000E7     2.959287464618683E-1   8.704851269721985E-1   3.586967885494232E-1  -1.224218904972076E-1   3.585583567619324E-1  -1.219836100935936E-1   2.983582913875580E-1   8.679940104484558E-1  
 6.934000000000000E7     2.962441444396973E-1   8.704702854156494E-1   3.588142991065979E-1  -1.226183623075485E-1   3.588080108165741E-1  -1.223383173346520E-1   2.988886833190918E-1   8.674820065498352E-1  
 6.936000000000000E7     2.972019016742706E-1   8.703663945198059E-1   3.591240346431732E-1  -1.229045838117600E-1   3.587437272071838E-1  -1.227753311395645E-1   2.997580170631409E-1   8.671433925628662E-1  
 6.938000000000000E7     2.972881793975830E-1   8.697479367256165E-1   3.590511381626129E-1  -1.232723221182823E-1   3.591333925724030E-1  -1.229363381862640E-1   3.005217313766480E-1   8.668884038925171E-1  
 6.940000000000000E7     2.978041172027588E-1   8.697809576988220E-1   3.594743311405182E-1  -1.235547661781311E-1   3.593262732028961E-1  -1.232475042343140E-1   3.011751770973206E-1   8.667146563529968E-1  
 6.942000000000000E7     2.986090779304504E-1   8.691994547843933E-1   3.594546318054199E-1  -1.239534616470337E-1   3.594113886356354E-1  -1.234098225831986E-1   3.016189932823181E-1   8.663119673728943E-1  
 6.944000000000000E7     2.989538908004761E-1   8.687909841537476E-1   3.596865534782410E-1  -1.241792067885399E-1   3.596919476985931E-1  -1.239923760294914E-1   3.020034432411194E-1   8.658940792083740E-1  
 6.946000000000000E7     2.999224662780762E-1   8.685455322265625E-1   3.597912788391113E-1  -1.247358694672585E-1   3.597626090049744E-1  -1.244897544384003E-1   3.029106557369232E-1   8.654772639274597E-1  
 6.948000000000000E7     3.002576529979706E-1   8.680100440979004E-1   3.599821031093597E-1  -1.251993030309677E-1   3.598349690437317E-1  -1.246854215860367E-1   3.031891286373138E-1   8.654820322990418E-1  
 6.950000000000000E7     3.013661801815033E-1   8.676683902740479E-1   3.601881265640259E-1  -1.255918592214584E-1   3.600775599479675E-1  -1.253826916217804E-1   3.040186166763306E-1   8.648208379745483E-1  
 6.952000000000000E7     3.015768229961395E-1   8.675631880760193E-1   3.607990741729736E-1  -1.254299581050873E-1   3.605873882770538E-1  -1.254131793975830E-1   3.047062754631043E-1   8.649351000785828E-1  
 6.954000000000000E7     3.018917143344879E-1   8.670467734336853E-1   3.603876233100891E-1  -1.260807812213898E-1   3.603955805301666E-1  -1.258145868778229E-1   3.052211701869965E-1   8.641850352287293E-1  
 6.956000000000000E7     3.029055893421173E-1   8.670370578765869E-1   3.605843186378479E-1  -1.265190690755844E-1   3.607536852359772E-1  -1.259821057319641E-1   3.055411279201508E-1   8.637700676918030E-1  
 6.958000000000000E7     3.034592270851135E-1   8.663745522499085E-1   3.609371781349182E-1  -1.270442605018616E-1   3.606997430324554E-1  -1.265316754579544E-1   3.065277338027954E-1   8.633576631546021E-1  
 6.960000000000000E7     3.045193850994110E-1   8.662191033363342E-1   3.608466684818268E-1  -1.273390650749207E-1   3.609823882579804E-1  -1.271099299192429E-1   3.068846762180328E-1   8.631941676139832E-1  
 6.962000000000000E7     3.046324849128723E-1   8.659539222717285E-1   3.611501753330231E-1  -1.278356015682221E-1   3.612661361694336E-1  -1.275255084037781E-1   3.078953027725220E-1   8.627889156341553E-1  
 6.964000000000000E7     3.054620027542114E-1   8.655618429183960E-1   3.613023459911346E-1  -1.281485408544540E-1   3.614627420902252E-1  -1.277150362730026E-1   3.084837496280670E-1   8.625949621200562E-1  
 6.966000000000000E7     3.057779967784882E-1   8.650845289230347E-1   3.614386916160584E-1  -1.284563839435577E-1   3.616027534008026E-1  -1.279487311840057E-1   3.088991343975067E-1   8.621165752410889E-1  
 6.968000000000000E7     3.065120279788971E-1   8.645636439323425E-1   3.618512153625488E-1  -1.289782226085663E-1   3.616498410701752E-1  -1.284556835889816E-1   3.098312616348267E-1   8.616639971733093E-1  
 6.970000000000000E7     3.071464598178864E-1   8.640343546867371E-1   3.619582653045654E-1  -1.290338933467865E-1   3.617737889289856E-1  -1.287718415260315E-1   3.100610971450806E-1   8.613940477371216E-1  
 6.972000000000000E7     3.078694045543671E-1   8.641438484191895E-1   3.621918559074402E-1  -1.297752857208252E-1   3.617464005947113E-1  -1.293443739414215E-1   3.107990026473999E-1   8.609827160835266E-1  
 6.974000000000000E7     3.085966706275940E-1   8.637792468070984E-1   3.623465001583099E-1  -1.297893673181534E-1   3.622730672359467E-1  -1.297569870948792E-1   3.114227950572968E-1   8.608831167221069E-1  
 6.976000000000000E7     3.089329600334168E-1   8.632909655570984E-1   3.623267114162445E-1  -1.304238587617874E-1   3.623347580432892E-1  -1.301153600215912E-1   3.120925426483154E-1   8.605454564094544E-1  
 6.978000000000000E7     3.097072541713715E-1   8.629150986671448E-1   3.630062937736511E-1  -1.305743753910065E-1   3.627886176109314E-1  -1.304716020822525E-1   3.126396536827087E-1   8.601424098014832E-1  
 6.980000000000000E7     3.104114532470703E-1   8.623966574668884E-1   3.625879585742950E-1  -1.312858611345291E-1   3.625115156173706E-1  -1.308443248271942E-1   3.132481873035431E-1   8.598798513412476E-1  
 6.982000000000000E7     3.109580874443054E-1   8.625153303146362E-1   3.628267347812653E-1  -1.312447786331177E-1   3.628176152706146E-1  -1.309055387973785E-1   3.138568401336670E-1   8.593400120735169E-1  
 6.984000000000000E7     3.116044700145721E-1   8.618624210357666E-1   3.629215657711029E-1  -1.318654716014862E-1   3.630304336547852E-1  -1.314296424388886E-1   3.146342337131500E-1   8.589088916778565E-1  
 6.986000000000000E7     3.125555515289307E-1   8.618261814117432E-1   3.635653853416443E-1  -1.321016848087311E-1   3.632014393806458E-1  -1.319416612386704E-1   3.149280548095703E-1   8.588314056396484E-1  
 6.988000000000000E7     3.127036392688751E-1   8.607639670372009E-1   3.632842600345612E-1  -1.324318200349808E-1   3.632843196392059E-1  -1.323705166578293E-1   3.158251047134399E-1   8.584352135658264E-1  
 6.990000000000000E7     3.137141764163971E-1   8.608297705650330E-1   3.635653555393219E-1  -1.329144835472107E-1   3.634236752986908E-1  -1.327269375324249E-1   3.164981007575989E-1   8.580228090286255E-1  
 6.992000000000000E7     3.144718408584595E-1   8.606078028678894E-1   3.637993633747101E-1  -1.330901235342026E-1   3.635502159595490E-1  -1.329521834850311E-1   3.169280588626862E-1   8.576426506042481E-1  
 6.994000000000000E7     3.148707747459412E-1   8.602423667907715E-1   3.637244701385498E-1  -1.336124837398529E-1   3.638778030872345E-1  -1.334149837493897E-1   3.176672458648682E-1   8.571577072143555E-1  
 6.996000000000000E7     3.154215514659882E-1   8.597552776336670E-1   3.642032146453857E-1  -1.339183896780014E-1   3.640519976615906E-1  -1.338487565517426E-1   3.180754780769348E-1   8.568334579467773E-1  
 6.998000000000000E7     3.160467147827148E-1   8.593004345893860E-1   3.639191091060638E-1  -1.343748271465302E-1   3.641360700130463E-1  -1.342093944549561E-1   3.188297152519226E-1   8.565815091133118E-1  
 7.000000000000000E7     3.163724243640900E-1   8.591056466102600E-1   3.642904460430145E-1  -1.345540285110474E-1   3.643177747726440E-1  -1.345315128564835E-1   3.195869922637940E-1   8.566061258316040E-1  
