#  HZ   S   RI   R     50.00 
! Rohde & Schwarz ZVT8 8Ports - Version 4.11 - 1300.0000k08 SN: 100242
! Date: 2026-07-13 13:56:20
! Measurements: S11 S21 S12 S22 
! 
 1.000000000000000E7    -8.552365899085999E-1   4.308334290981293E-1   1.093177422881126E-1   2.174158096313477E-1   1.096263527870178E-1   2.171876877546310E-1  -8.526555299758911E-1   4.277837276458740E-1  
 1.002000000000000E7    -8.547647595405579E-1   4.315052032470703E-1   1.095946505665779E-1   2.180145233869553E-1   1.098677515983582E-1   2.179263085126877E-1  -8.524709343910217E-1   4.279567897319794E-1  
 1.004000000000000E7    -8.538033962249756E-1   4.321358799934387E-1   1.102473288774490E-1   2.184795886278153E-1   1.103592813014984E-1   2.180479615926743E-1  -8.518423438072205E-1   4.291663765907288E-1  
 1.006000000000000E7    -8.536762595176697E-1   4.332327544689179E-1   1.105132997035980E-1   2.185454070568085E-1   1.109202951192856E-1   2.185849249362946E-1  -8.512963056564331E-1   4.300271868705750E-1  
 1.008000000000000E7    -8.532322645187378E-1   4.341558516025543E-1   1.110233664512634E-1   2.189390659332275E-1   1.112315729260445E-1   2.188585400581360E-1  -8.506475090980530E-1   4.306347072124481E-1  
 1.010000000000000E7    -8.527333736419678E-1   4.347096383571625E-1   1.113196760416031E-1   2.193889170885086E-1   1.114348843693733E-1   2.192768454551697E-1  -8.505254387855530E-1   4.309663772583008E-1  
 1.012000000000000E7    -8.525034785270691E-1   4.348531067371368E-1   1.117724999785423E-1   2.197359502315521E-1   1.122084483504295E-1   2.193682640790939E-1  -8.493803739547730E-1   4.322814345359802E-1  
 1.014000000000000E7    -8.516622185707092E-1   4.361540675163269E-1   1.124846637248993E-1   2.199387997388840E-1   1.127130314707756E-1   2.198123782873154E-1  -8.488379716873169E-1   4.327440857887268E-1  
 1.016000000000000E7    -8.508960604667664E-1   4.365186989307404E-1   1.126831173896790E-1   2.205003052949905E-1   1.130378022789955E-1   2.201558053493500E-1  -8.486980795860291E-1   4.337948262691498E-1  
 1.018000000000000E7    -8.507072329521179E-1   4.375584125518799E-1   1.131707131862640E-1   2.208964228630066E-1   1.135535165667534E-1   2.206850349903107E-1  -8.486406207084656E-1   4.340610802173615E-1  
 1.020000000000000E7    -8.499615788459778E-1   4.383240938186646E-1   1.136497780680656E-1   2.209198921918869E-1   1.137298420071602E-1   2.207250446081162E-1  -8.475180864334106E-1   4.348745644092560E-1  
 1.022000000000000E7    -8.492926359176636E-1   4.392488896846771E-1   1.138951778411865E-1   2.214768826961517E-1   1.141634136438370E-1   2.211218774318695E-1  -8.471795320510864E-1   4.354852437973023E-1  
 1.024000000000000E7    -8.488557934761047E-1   4.400725066661835E-1   1.146256998181343E-1   2.217563986778259E-1   1.150021404027939E-1   2.213487327098846E-1  -8.465220332145691E-1   4.369763135910034E-1  
 1.026000000000000E7    -8.483486771583557E-1   4.404880702495575E-1   1.148315966129303E-1   2.222902327775955E-1   1.150394231081009E-1   2.218250632286072E-1  -8.461672067642212E-1   4.368811845779419E-1  
 1.028000000000000E7    -8.476514220237732E-1   4.412563741207123E-1   1.152988076210022E-1   2.225672155618668E-1   1.157047301530838E-1   2.221645116806030E-1  -8.454486131668091E-1   4.376329183578491E-1  
 1.030000000000000E7    -8.475766181945801E-1   4.421086609363556E-1   1.160656586289406E-1   2.228293716907501E-1   1.162384003400803E-1   2.226365506649017E-1  -8.448055982589722E-1   4.389826357364655E-1  
 1.032000000000000E7    -8.468698859214783E-1   4.426134526729584E-1   1.163737103343010E-1   2.231950014829636E-1   1.166342347860336E-1   2.229810506105423E-1  -8.445488810539246E-1   4.396291375160217E-1  
 1.034000000000000E7    -8.465376496315002E-1   4.437752664089203E-1   1.168619990348816E-1   2.235807478427887E-1   1.170659810304642E-1   2.233678996562958E-1  -8.439781665802002E-1   4.403170049190521E-1  
 1.036000000000000E7    -8.458981513977051E-1   4.439081251621246E-1   1.172435134649277E-1   2.238095551729202E-1   1.172943413257599E-1   2.236285209655762E-1  -8.433298468589783E-1   4.406944215297699E-1  
 1.038000000000000E7    -8.450207114219666E-1   4.449578523635864E-1   1.175975576043129E-1   2.241694480180740E-1   1.180547177791596E-1   2.239901125431061E-1  -8.427335619926453E-1   4.417921006679535E-1  
 1.040000000000000E7    -8.444231748580933E-1   4.456303715705872E-1   1.180914267897606E-1   2.245307117700577E-1   1.184704974293709E-1   2.242494374513626E-1  -8.423053026199341E-1   4.424055814743042E-1  
 1.042000000000000E7    -8.439866304397583E-1   4.460703134536743E-1   1.185226142406464E-1   2.247577309608460E-1   1.188496202230454E-1   2.246417999267578E-1  -8.413851261138916E-1   4.431684017181397E-1  
 1.044000000000000E7    -8.435279130935669E-1   4.470899105072022E-1   1.191352903842926E-1   2.250559329986572E-1   1.194775700569153E-1   2.248564064502716E-1  -8.407667875289917E-1   4.439719915390015E-1  
 1.046000000000000E7    -8.432973623275757E-1   4.475538432598114E-1   1.196076720952988E-1   2.254928350448608E-1   1.194804683327675E-1   2.252695858478546E-1  -8.404314517974854E-1   4.443362653255463E-1  
 1.048000000000000E7    -8.425033688545227E-1   4.486185312271118E-1   1.199265867471695E-1   2.259918749332428E-1   1.201485022902489E-1   2.255475223064423E-1  -8.402427434921265E-1   4.451111257076263E-1  
 1.050000000000000E7    -8.419703245162964E-1   4.496615231037140E-1   1.204446479678154E-1   2.264288067817688E-1   1.208023503422737E-1   2.259572446346283E-1  -8.392838835716248E-1   4.461073279380798E-1  
 1.052000000000000E7    -8.418699502944946E-1   4.502346813678742E-1   1.210363358259201E-1   2.266503274440765E-1   1.211450397968292E-1   2.263315469026566E-1  -8.386883735656738E-1   4.467438459396362E-1  
 1.054000000000000E7    -8.410592675209045E-1   4.509081244468689E-1   1.214436516165733E-1   2.270973622798920E-1   1.214611902832985E-1   2.268782407045364E-1  -8.384636044502258E-1   4.472996890544891E-1  
 1.056000000000000E7    -8.408014774322510E-1   4.516258239746094E-1   1.216326132416725E-1   2.273961454629898E-1   1.217712238430977E-1   2.269344478845596E-1  -8.377611637115479E-1   4.478420019149780E-1  
 1.058000000000000E7    -8.398186564445496E-1   4.522535800933838E-1   1.223998367786408E-1   2.276521176099777E-1   1.225148811936379E-1   2.274698764085770E-1  -8.376213312149048E-1   4.489149451255798E-1  
 1.060000000000000E7    -8.393233418464661E-1   4.530571103096008E-1   1.226235628128052E-1   2.278529554605484E-1   1.230438649654388E-1   2.276470810174942E-1  -8.368323445320129E-1   4.495761692523956E-1  
 1.062000000000000E7    -8.384940028190613E-1   4.537654221057892E-1   1.233475580811501E-1   2.285236716270447E-1   1.237388253211975E-1   2.280409783124924E-1  -8.363023996353149E-1   4.508766233921051E-1  
 1.064000000000000E7    -8.382036089897156E-1   4.544613063335419E-1   1.239687949419022E-1   2.284955382347107E-1   1.239125728607178E-1   2.283403575420380E-1  -8.354365229606628E-1   4.510533213615418E-1  
 1.066000000000000E7    -8.378022909164429E-1   4.552292823791504E-1   1.242361515760422E-1   2.288928329944611E-1   1.245539709925652E-1   2.287766486406326E-1  -8.352013230323792E-1   4.522981047630310E-1  
 1.068000000000000E7    -8.372750282287598E-1   4.561118185520172E-1   1.244878768920898E-1   2.293965667486191E-1   1.247339397668839E-1   2.290572226047516E-1  -8.347715735435486E-1   4.527274072170258E-1  
 1.070000000000000E7    -8.364717364311218E-1   4.567733705043793E-1   1.247992515563965E-1   2.294288277626038E-1   1.251839995384216E-1   2.292693108320236E-1  -8.338684439659119E-1   4.528035521507263E-1  
 1.072000000000000E7    -8.362529873847961E-1   4.575847685337067E-1   1.254777759313583E-1   2.301458865404129E-1   1.257403194904327E-1   2.297093570232391E-1  -8.333861231803894E-1   4.538352787494659E-1  
 1.074000000000000E7    -8.354059457778931E-1   4.582295715808868E-1   1.262822747230530E-1   2.302882522344589E-1   1.263265311717987E-1   2.299831062555313E-1  -8.327699303627014E-1   4.552257359027863E-1  
 1.076000000000000E7    -8.346939682960510E-1   4.590097367763519E-1   1.267547756433487E-1   2.304362654685974E-1   1.266736239194870E-1   2.304545193910599E-1  -8.322789072990418E-1   4.552900195121765E-1  
 1.078000000000000E7    -8.344944715499878E-1   4.593947827816010E-1   1.270263493061066E-1   2.309620231389999E-1   1.271267086267471E-1   2.307278811931610E-1  -8.313566446304321E-1   4.562406241893768E-1  
 1.080000000000000E7    -8.337221741676331E-1   4.601295292377472E-1   1.272845119237900E-1   2.311013191938400E-1   1.273988932371140E-1   2.308658510446549E-1  -8.309265971183777E-1   4.566873908042908E-1  
 1.082000000000000E7    -8.335475325584412E-1   4.613447785377502E-1   1.278193742036820E-1   2.315008640289307E-1   1.280646622180939E-1   2.312558591365814E-1  -8.302553296089172E-1   4.573719203472138E-1  
 1.084000000000000E7    -8.327437043190002E-1   4.616913795471191E-1   1.285043358802795E-1   2.319153249263763E-1   1.288499832153320E-1   2.314410656690598E-1  -8.296967148780823E-1   4.585398435592651E-1  
 1.086000000000000E7    -8.317673802375794E-1   4.622213840484619E-1   1.290041804313660E-1   2.320941388607025E-1   1.290264129638672E-1   2.317185401916504E-1  -8.293333649635315E-1   4.590503573417664E-1  
 1.088000000000000E7    -8.314703702926636E-1   4.629193842411041E-1   1.294676214456558E-1   2.326138168573380E-1   1.295389235019684E-1   2.321790754795075E-1  -8.289881944656372E-1   4.600351154804230E-1  
 1.090000000000000E7    -8.305355906486511E-1   4.634031057357788E-1   1.296303272247315E-1   2.329146116971970E-1   1.297980248928070E-1   2.328655570745468E-1  -8.287611007690430E-1   4.602037072181702E-1  
 1.092000000000000E7    -8.300944566726685E-1   4.648178517818451E-1   1.303759664297104E-1   2.331674993038178E-1   1.306254118680954E-1   2.329661846160889E-1  -8.276658058166504E-1   4.611174166202545E-1  
 1.094000000000000E7    -8.292029500007629E-1   4.656456112861633E-1   1.307294517755508E-1   2.333239018917084E-1   1.310114413499832E-1   2.331127673387528E-1  -8.272625207901001E-1   4.618449807167053E-1  
 1.096000000000000E7    -8.292336463928223E-1   4.661056697368622E-1   1.313808709383011E-1   2.337724715471268E-1   1.313568949699402E-1   2.335279732942581E-1  -8.264979124069214E-1   4.623990952968597E-1  
 1.098000000000000E7    -8.284579515457153E-1   4.669357240200043E-1   1.319813728332520E-1   2.340500056743622E-1   1.317093074321747E-1   2.337289452552795E-1  -8.260481357574463E-1   4.629326760768890E-1  
 1.100000000000000E7    -8.282161355018616E-1   4.678680896759033E-1   1.324352025985718E-1   2.346029281616211E-1   1.327393203973770E-1   2.343143522739410E-1  -8.252417445182800E-1   4.639031887054443E-1  
 1.102000000000000E7    -8.275081515312195E-1   4.684703052043915E-1   1.327640712261200E-1   2.347459197044373E-1   1.328706443309784E-1   2.345667183399200E-1  -8.247863650321960E-1   4.645124971866608E-1  
 1.104000000000000E7    -8.261932134628296E-1   4.688886404037476E-1   1.332184672355652E-1   2.349215447902679E-1   1.332742869853973E-1   2.346054315567017E-1  -8.241791129112244E-1   4.656090140342712E-1  
 1.106000000000000E7    -8.259400725364685E-1   4.692866504192352E-1   1.337071806192398E-1   2.354710847139359E-1   1.339322924613953E-1   2.351073920726776E-1  -8.236435651779175E-1   4.667494893074036E-1  
 1.108000000000000E7    -8.257800340652466E-1   4.699069261550903E-1   1.342242360115051E-1   2.355331778526306E-1   1.342596113681793E-1   2.354249507188797E-1  -8.223995566368103E-1   4.668938219547272E-1  
 1.110000000000000E7    -8.247923254966736E-1   4.708161354064941E-1   1.343152374029160E-1   2.360247671604157E-1   1.347331553697586E-1   2.359016090631485E-1  -8.225934505462647E-1   4.678492546081543E-1  
 1.112000000000000E7    -8.241215348243713E-1   4.716380834579468E-1   1.351343393325806E-1   2.363449335098267E-1   1.352355927228928E-1   2.360740602016449E-1  -8.218820691108704E-1   4.682388901710510E-1  
 1.114000000000000E7    -8.236950635910034E-1   4.724258482456207E-1   1.357065737247467E-1   2.368389368057251E-1   1.358517110347748E-1   2.363791912794113E-1  -8.214486837387085E-1   4.689716696739197E-1  
 1.116000000000000E7    -8.230430483818054E-1   4.729081094264984E-1   1.361358612775803E-1   2.366784363985062E-1   1.362421810626984E-1   2.366136610507965E-1  -8.206990957260132E-1   4.696385562419891E-1  
 1.118000000000000E7    -8.224650621414185E-1   4.739510118961334E-1   1.363942772150040E-1   2.371425777673721E-1   1.364927589893341E-1   2.371945381164551E-1  -8.201768398284912E-1   4.706152379512787E-1  
 1.120000000000000E7    -8.220064640045166E-1   4.748033881187439E-1   1.371944695711136E-1   2.375586032867432E-1   1.372000277042389E-1   2.370544075965881E-1  -8.191133737564087E-1   4.710970222949982E-1  
 1.122000000000000E7    -8.217658996582031E-1   4.752178490161896E-1   1.375743299722672E-1   2.378540337085724E-1   1.377296745777130E-1   2.377231419086456E-1  -8.186526298522949E-1   4.720983505249023E-1  
 1.124000000000000E7    -8.210002183914185E-1   4.761436581611633E-1   1.377495229244232E-1   2.382950335741043E-1   1.381311118602753E-1   2.380375415086746E-1  -8.183126449584961E-1   4.719476699829102E-1  
 1.126000000000000E7    -8.203356862068176E-1   4.764576852321625E-1   1.385553628206253E-1   2.385914921760559E-1   1.388684660196304E-1   2.382577061653137E-1  -8.175464272499085E-1   4.733043611049652E-1  
 1.128000000000000E7    -8.198665380477905E-1   4.770694375038147E-1   1.390074193477631E-1   2.388641238212585E-1   1.392814368009567E-1   2.388146668672562E-1  -8.170368671417236E-1   4.740008711814880E-1  
 1.130000000000000E7    -8.189380168914795E-1   4.779470562934876E-1   1.394778043031693E-1   2.390418946743012E-1   1.399020105600357E-1   2.391547113656998E-1  -8.164899945259094E-1   4.747856557369232E-1  
 1.132000000000000E7    -8.182263970375061E-1   4.794022440910339E-1   1.401294469833374E-1   2.393273562192917E-1   1.403870880603790E-1   2.389707863330841E-1  -8.154592514038086E-1   4.750321507453919E-1  
 1.134000000000000E7    -8.182637691497803E-1   4.793564081192017E-1   1.405947506427765E-1   2.400086373090744E-1   1.406844854354858E-1   2.395650893449783E-1  -8.149605393409729E-1   4.755317568778992E-1  
 1.136000000000000E7    -8.172200918197632E-1   4.805350005626679E-1   1.410511732101440E-1   2.401607036590576E-1   1.410723626613617E-1   2.399741709232330E-1  -8.147848844528198E-1   4.766676723957062E-1  
 1.138000000000000E7    -8.166689276695252E-1   4.806749224662781E-1   1.413068473339081E-1   2.401174008846283E-1   1.416350305080414E-1   2.402539700269699E-1  -8.141483664512634E-1   4.773774445056915E-1  
 1.140000000000000E7    -8.162710070610046E-1   4.815260171890259E-1   1.416828334331513E-1   2.409499883651733E-1   1.418914496898651E-1   2.404239326715469E-1  -8.136696815490723E-1   4.779261946678162E-1  
 1.142000000000000E7    -8.154389858245850E-1   4.822168350219727E-1   1.423592120409012E-1   2.410085201263428E-1   1.426131278276444E-1   2.406898140907288E-1  -8.127077817916870E-1   4.785475432872772E-1  
 1.144000000000000E7    -8.145084977149963E-1   4.830763339996338E-1   1.429996341466904E-1   2.412603795528412E-1   1.432176232337952E-1   2.409835755825043E-1  -8.127505779266357E-1   4.795992076396942E-1  
 1.146000000000000E7    -8.142074942588806E-1   4.836133420467377E-1   1.433192938566208E-1   2.417108863592148E-1   1.436851024627686E-1   2.416150867938995E-1  -8.120971322059631E-1   4.799481928348541E-1  
 1.148000000000000E7    -8.136582374572754E-1   4.845958352088928E-1   1.438677012920380E-1   2.418264150619507E-1   1.442842781543732E-1   2.414994537830353E-1  -8.109130859375000E-1   4.810989499092102E-1  
 1.150000000000000E7    -8.125704526901245E-1   4.849404990673065E-1   1.443080902099609E-1   2.422109991312027E-1   1.445999741554260E-1   2.417700290679932E-1  -8.103148937225342E-1   4.816631972789764E-1  
 1.152000000000000E7    -8.121501207351685E-1   4.854478240013123E-1   1.448619961738586E-1   2.424821555614471E-1   1.450581103563309E-1   2.423512637615204E-1  -8.102425336837769E-1   4.821210205554962E-1  
 1.154000000000000E7    -8.115348219871521E-1   4.862682819366455E-1   1.453420817852020E-1   2.425433993339539E-1   1.453808248043060E-1   2.423710525035858E-1  -8.091688156127930E-1   4.829627871513367E-1  
 1.156000000000000E7    -8.112252354621887E-1   4.871017038822174E-1   1.461081057786942E-1   2.430241852998734E-1   1.462234556674957E-1   2.430340796709061E-1  -8.090392947196960E-1   4.835657775402069E-1  
 1.158000000000000E7    -8.103039860725403E-1   4.876902997493744E-1   1.463578492403030E-1   2.433319538831711E-1   1.465330719947815E-1   2.432095408439636E-1  -8.082239627838135E-1   4.843759834766388E-1  
 1.160000000000000E7    -8.095187544822693E-1   4.880654215812683E-1   1.466702073812485E-1   2.436953932046890E-1   1.470803469419479E-1   2.435711622238159E-1  -8.077737092971802E-1   4.844976365566254E-1  
 1.162000000000000E7    -8.090171217918396E-1   4.894429445266724E-1   1.473555564880371E-1   2.440910190343857E-1   1.476721763610840E-1   2.437677383422852E-1  -8.065863847732544E-1   4.856851398944855E-1  
 1.164000000000000E7    -8.084979653358460E-1   4.901124536991119E-1   1.479011178016663E-1   2.443787753582001E-1   1.483565717935562E-1   2.441940158605576E-1  -8.061972856521606E-1   4.860980212688446E-1  
 1.166000000000000E7    -8.079573512077332E-1   4.905599951744080E-1   1.486550271511078E-1   2.447612434625626E-1   1.486397087574005E-1   2.445891499519348E-1  -8.061428666114807E-1   4.869086444377899E-1  
 1.168000000000000E7    -8.076477050781250E-1   4.911271035671234E-1   1.490611732006073E-1   2.452851980924606E-1   1.492088586091995E-1   2.447012960910797E-1  -8.058039546012878E-1   4.879888892173767E-1  
 1.170000000000000E7    -8.066914081573486E-1   4.921880960464478E-1   1.496389359235764E-1   2.450795322656632E-1   1.497973948717117E-1   2.451077401638031E-1  -8.040511012077332E-1   4.885641634464264E-1  
 1.172000000000000E7    -8.058964610099793E-1   4.923854172229767E-1   1.498673409223557E-1   2.454397678375244E-1   1.502784937620163E-1   2.452082335948944E-1  -8.040217161178589E-1   4.895174205303192E-1  
 1.174000000000000E7    -8.053537607192993E-1   4.933147430419922E-1   1.503680497407913E-1   2.459127455949783E-1   1.506533473730087E-1   2.457556873559952E-1  -8.037586808204651E-1   4.894720017910004E-1  
 1.176000000000000E7    -8.051989674568176E-1   4.939575195312500E-1   1.507916301488876E-1   2.461142390966415E-1   1.511502265930176E-1   2.457847148180008E-1  -8.025175333023071E-1   4.903347492218018E-1  
 1.178000000000000E7    -8.045027852058411E-1   4.949683547019959E-1   1.517167091369629E-1   2.464806139469147E-1   1.520219892263413E-1   2.462809085845947E-1  -8.023045659065247E-1   4.910732209682465E-1  
 1.180000000000000E7    -8.040382266044617E-1   4.952274262905121E-1   1.519300043582916E-1   2.467156350612640E-1   1.522204428911209E-1   2.464864701032639E-1  -8.013124465942383E-1   4.916401803493500E-1  
 1.182000000000000E7    -8.028579950332642E-1   4.966759383678436E-1   1.524970382452011E-1   2.470926046371460E-1   1.526729762554169E-1   2.465592324733734E-1  -8.008132576942444E-1   4.924397766590118E-1  
 1.184000000000000E7    -8.025748133659363E-1   4.970341026782990E-1   1.532526463270187E-1   2.470035552978516E-1   1.534226238727570E-1   2.468667924404144E-1  -8.000116944313049E-1   4.933553338050842E-1  
 1.186000000000000E7    -8.020992279052734E-1   4.976122379302979E-1   1.537228822708130E-1   2.476694881916046E-1   1.539336144924164E-1   2.475406378507614E-1  -7.997556328773499E-1   4.939338266849518E-1  
 1.188000000000000E7    -8.005834817886353E-1   4.985184669494629E-1   1.541892737150192E-1   2.479660362005234E-1   1.542757749557495E-1   2.475778162479401E-1  -7.989901304244995E-1   4.947038590908051E-1  
 1.190000000000000E7    -8.001945018768311E-1   4.988161921501160E-1   1.543317139148712E-1   2.481462955474854E-1   1.547266095876694E-1   2.477591782808304E-1  -7.986794710159302E-1   4.949876964092255E-1  
 1.192000000000000E7    -8.000128269195557E-1   4.991913735866547E-1   1.548456549644470E-1   2.482954412698746E-1   1.551535278558731E-1   2.481711357831955E-1  -7.979719638824463E-1   4.957222044467926E-1  
 1.194000000000000E7    -7.993926405906677E-1   5.000610351562500E-1   1.556641012430191E-1   2.487371414899826E-1   1.558810770511627E-1   2.484123706817627E-1  -7.971963882446289E-1   4.966457188129425E-1  
 1.196000000000000E7    -7.988364100456238E-1   5.010216832160950E-1   1.560414284467697E-1   2.488739937543869E-1   1.562652140855789E-1   2.486559450626373E-1  -7.961376309394836E-1   4.969259202480316E-1  
 1.198000000000000E7    -7.982067465782166E-1   5.016000270843506E-1   1.567941159009934E-1   2.494626492261887E-1   1.569243222475052E-1   2.490854114294052E-1  -7.960909605026245E-1   4.980827569961548E-1  
 1.200000000000000E7    -7.972536087036133E-1   5.022923946380615E-1   1.570176333189011E-1   2.497887462377548E-1   1.573871821165085E-1   2.492959499359131E-1  -7.950748801231384E-1   4.987108111381531E-1  
 1.202000000000000E7    -7.964388132095337E-1   5.029903054237366E-1   1.577319204807282E-1   2.495693564414978E-1   1.582169979810715E-1   2.497479915618897E-1  -7.945531606674194E-1   4.995527565479279E-1  
 1.204000000000000E7    -7.960250377655029E-1   5.040118694305420E-1   1.579941660165787E-1   2.500808835029602E-1   1.583492159843445E-1   2.499572932720184E-1  -7.939187884330750E-1   4.999684691429138E-1  
 1.206000000000000E7    -7.953772544860840E-1   5.041556954383850E-1   1.586756110191345E-1   2.503097355365753E-1   1.591145396232605E-1   2.500846087932587E-1  -7.933937907218933E-1   5.003993511199951E-1  
 1.208000000000000E7    -7.945383191108704E-1   5.051333904266357E-1   1.593839079141617E-1   2.503911852836609E-1   1.597120016813278E-1   2.505600452423096E-1  -7.926945090293884E-1   5.012922883033752E-1  
 1.210000000000000E7    -7.945954799652100E-1   5.052951574325562E-1   1.596115529537201E-1   2.513687610626221E-1   1.599309891462326E-1   2.507828772068024E-1  -7.923209667205811E-1   5.019244551658630E-1  
 1.212000000000000E7    -7.936461567878723E-1   5.062682032585144E-1   1.604297906160355E-1   2.512500882148743E-1   1.605363190174103E-1   2.510327994823456E-1  -7.910979986190796E-1   5.022829174995422E-1  
 1.214000000000000E7    -7.931429147720337E-1   5.073475837707520E-1   1.607340276241303E-1   2.515800893306732E-1   1.611379235982895E-1   2.515080273151398E-1  -7.911917567253113E-1   5.027995109558106E-1  
 1.216000000000000E7    -7.921876311302185E-1   5.078634619712830E-1   1.613831818103790E-1   2.519624531269074E-1   1.617408543825150E-1   2.516771554946899E-1  -7.905319333076477E-1   5.043570995330811E-1  
 1.218000000000000E7    -7.920175194740295E-1   5.082740783691406E-1   1.617803126573563E-1   2.521824240684509E-1   1.619408428668976E-1   2.516773939132690E-1  -7.894675135612488E-1   5.045032501220703E-1  
 1.220000000000000E7    -7.913726568222046E-1   5.090775489807129E-1   1.624727696180344E-1   2.524469792842865E-1   1.629256010055542E-1   2.521432340145111E-1  -7.888541817665100E-1   5.054933428764343E-1  
 1.222000000000000E7    -7.905304431915283E-1   5.101624131202698E-1   1.628631204366684E-1   2.525788843631744E-1   1.631971001625061E-1   2.524876892566681E-1  -7.878366708755493E-1   5.054113864898682E-1  
 1.224000000000000E7    -7.899317741394043E-1   5.107344985008240E-1   1.637209504842758E-1   2.529603242874146E-1   1.638983339071274E-1   2.525115311145783E-1  -7.875986695289612E-1   5.069107413291931E-1  
 1.226000000000000E7    -7.889233231544495E-1   5.109548568725586E-1   1.644596755504608E-1   2.532784044742584E-1   1.643556952476502E-1   2.531208992004395E-1  -7.869449257850647E-1   5.075902342796326E-1  
 1.228000000000000E7    -7.883129715919495E-1   5.115962028503418E-1   1.646092534065247E-1   2.534975111484528E-1   1.649674624204636E-1   2.532270252704620E-1  -7.863193154335022E-1   5.082212090492249E-1  
 1.230000000000000E7    -7.880955338478088E-1   5.121842622756958E-1   1.650453060865402E-1   2.537190318107605E-1   1.653335690498352E-1   2.537061274051666E-1  -7.857508063316345E-1   5.087972879409790E-1  
 1.232000000000000E7    -7.872514128684998E-1   5.130587816238403E-1   1.656882464885712E-1   2.542313039302826E-1   1.661592721939087E-1   2.539731562137604E-1  -7.851929664611816E-1   5.093800425529480E-1  
 1.234000000000000E7    -7.866681814193726E-1   5.137940049171448E-1   1.659014374017716E-1   2.542324662208557E-1   1.663732379674912E-1   2.539480626583099E-1  -7.843894958496094E-1   5.095951557159424E-1  
 1.236000000000000E7    -7.856242060661316E-1   5.138765573501587E-1   1.665651202201843E-1   2.546983361244202E-1   1.667690426111221E-1   2.544645965099335E-1  -7.841809988021851E-1   5.105608105659485E-1  
 1.238000000000000E7    -7.855406403541565E-1   5.149916410446167E-1   1.671035885810852E-1   2.551063001155853E-1   1.675029844045639E-1   2.550353705883026E-1  -7.832289338111877E-1   5.114984512329102E-1  
 1.240000000000000E7    -7.846970558166504E-1   5.159827470779419E-1   1.678966730833054E-1   2.550804018974304E-1   1.680113524198532E-1   2.549844086170197E-1  -7.822645902633667E-1   5.115734934806824E-1  
 1.242000000000000E7    -7.837120294570923E-1   5.161190032958984E-1   1.681309491395950E-1   2.555362284183502E-1   1.685723960399628E-1   2.551882863044739E-1  -7.818527817726135E-1   5.125919580459595E-1  
 1.244000000000000E7    -7.828178405761719E-1   5.169866681098938E-1   1.688342690467835E-1   2.558875977993012E-1   1.690492033958435E-1   2.556003928184509E-1  -7.812873721122742E-1   5.133147239685059E-1  
 1.246000000000000E7    -7.826935052871704E-1   5.174582600593567E-1   1.694344282150269E-1   2.561199367046356E-1   1.695327311754227E-1   2.559863030910492E-1  -7.804118394851685E-1   5.140687823295593E-1  
 1.248000000000000E7    -7.818787097930908E-1   5.184951424598694E-1   1.701666563749313E-1   2.560746371746063E-1   1.701594889163971E-1   2.561649978160858E-1  -7.799688577651978E-1   5.145753026008606E-1  
 1.250000000000000E7    -7.812579274177551E-1   5.189019441604614E-1   1.702899336814880E-1   2.564252018928528E-1   1.704830378293991E-1   2.564833462238312E-1  -7.792097330093384E-1   5.151511430740356E-1  
 1.252000000000000E7    -7.804799675941467E-1   5.200636386871338E-1   1.711102873086929E-1   2.567281723022461E-1   1.714584380388260E-1   2.565341889858246E-1  -7.784935832023621E-1   5.161023736000061E-1  
 1.254000000000000E7    -7.796582579612732E-1   5.203102827072144E-1   1.717351078987122E-1   2.566899359226227E-1   1.717866957187653E-1   2.566504478454590E-1  -7.777036428451538E-1   5.168439745903015E-1  
 1.256000000000000E7    -7.791920304298401E-1   5.212084650993347E-1   1.718370616436005E-1   2.573923468589783E-1   1.724061965942383E-1   2.572034001350403E-1  -7.771626710891724E-1   5.170046091079712E-1  
 1.258000000000000E7    -7.783324122428894E-1   5.218214988708496E-1   1.725781261920929E-1   2.574937641620636E-1   1.728422045707703E-1   2.573968172073364E-1  -7.764925956726074E-1   5.176544785499573E-1  
 1.260000000000000E7    -7.780188918113709E-1   5.222688317298889E-1   1.729531139135361E-1   2.578575909137726E-1   1.733574122190476E-1   2.579091787338257E-1  -7.758152484893799E-1   5.184219479560852E-1  
 1.262000000000000E7    -7.774426937103272E-1   5.228400826454163E-1   1.735620796680450E-1   2.580789625644684E-1   1.739854663610458E-1   2.579677104949951E-1  -7.753978967666626E-1   5.190289616584778E-1  
 1.264000000000000E7    -7.766363620758057E-1   5.232616066932678E-1   1.742109954357147E-1   2.584381103515625E-1   1.744466125965118E-1   2.582870125770569E-1  -7.747256755828857E-1   5.201612710952759E-1  
 1.266000000000000E7    -7.764315605163574E-1   5.236873626708984E-1   1.747786998748779E-1   2.587411403656006E-1   1.747086495161057E-1   2.584855556488037E-1  -7.738361954689026E-1   5.206813812255859E-1  
 1.268000000000000E7    -7.761536836624146E-1   5.251740813255310E-1   1.754789799451828E-1   2.592265903949738E-1   1.755195707082748E-1   2.589134871959686E-1  -7.732133865356445E-1   5.206522941589356E-1  
 1.270000000000000E7    -7.746310234069824E-1   5.257149934768677E-1   1.757281869649887E-1   2.592642009258270E-1   1.761828362941742E-1   2.589733898639679E-1  -7.726836204528809E-1   5.213269591331482E-1  
 1.272000000000000E7    -7.741008996963501E-1   5.257704257965088E-1   1.764049232006073E-1   2.596291303634644E-1   1.768073290586472E-1   2.595085501670837E-1  -7.723409533500671E-1   5.227032899856567E-1  
 1.274000000000000E7    -7.732905149459839E-1   5.265194773674011E-1   1.768172085285187E-1   2.598486840724945E-1   1.770922839641571E-1   2.595500349998474E-1  -7.715705037117004E-1   5.227468013763428E-1  
 1.276000000000000E7    -7.729572057723999E-1   5.272988677024841E-1   1.778331995010376E-1   2.600918114185333E-1   1.779550611972809E-1   2.597148418426514E-1  -7.702575922012329E-1   5.239124894142151E-1  
 1.278000000000000E7    -7.724153995513916E-1   5.282808542251587E-1   1.783405393362045E-1   2.603631019592285E-1   1.784485727548599E-1   2.600320577621460E-1  -7.699605822563171E-1   5.246043801307678E-1  
 1.280000000000000E7    -7.713018655776978E-1   5.289776921272278E-1   1.787642836570740E-1   2.604905962944031E-1   1.787828654050827E-1   2.602327764034271E-1  -7.691926956176758E-1   5.247136950492859E-1  
 1.282000000000000E7    -7.706796526908875E-1   5.291775465011597E-1   1.789904534816742E-1   2.606602311134338E-1   1.793826520442963E-1   2.608290016651154E-1  -7.689352631568909E-1   5.255394577980042E-1  
 1.284000000000000E7    -7.700123190879822E-1   5.302188992500305E-1   1.796588897705078E-1   2.613653540611267E-1   1.799850910902023E-1   2.607470750808716E-1  -7.681986093521118E-1   5.265076756477356E-1  
 1.286000000000000E7    -7.692779302597046E-1   5.303744673728943E-1   1.802444458007813E-1   2.614347040653229E-1   1.805438995361328E-1   2.611808180809021E-1  -7.673286795616150E-1   5.269619226455689E-1  
 1.288000000000000E7    -7.686110734939575E-1   5.313871502876282E-1   1.806536316871643E-1   2.617162466049194E-1   1.810830533504486E-1   2.612731158733368E-1  -7.669475078582764E-1   5.276775956153870E-1  
 1.290000000000000E7    -7.682590484619141E-1   5.314430594444275E-1   1.811044067144394E-1   2.619641423225403E-1   1.814453750848770E-1   2.615861594676971E-1  -7.661334872245789E-1   5.279923081398010E-1  
 1.292000000000000E7    -7.673246860504150E-1   5.323250293731690E-1   1.814945489168167E-1   2.620214223861694E-1   1.817105859518051E-1   2.619359195232391E-1  -7.655329704284668E-1   5.285290479660034E-1  
 1.294000000000000E7    -7.668573856353760E-1   5.331716537475586E-1   1.821851581335068E-1   2.625226080417633E-1   1.827969402074814E-1   2.621606588363648E-1  -7.646971344947815E-1   5.296906232833862E-1  
 1.296000000000000E7    -7.657373547554016E-1   5.337702035903931E-1   1.830939948558807E-1   2.629017233848572E-1   1.834750175476074E-1   2.623662054538727E-1  -7.645326852798462E-1   5.301551818847656E-1  
 1.298000000000000E7    -7.654214501380920E-1   5.345540046691895E-1   1.840478777885437E-1   2.627409994602203E-1   1.839209049940109E-1   2.626254558563232E-1  -7.633485198020935E-1   5.304850339889526E-1  
 1.300000000000000E7    -7.646484375000000E-1   5.351575016975403E-1   1.842196583747864E-1   2.631807625293732E-1   1.841425895690918E-1   2.629295587539673E-1  -7.623606920242310E-1   5.308825969696045E-1  
 1.302000000000000E7    -7.637567520141602E-1   5.361636877059937E-1   1.848883926868439E-1   2.630152404308319E-1   1.849775016307831E-1   2.629452347755432E-1  -7.617210745811462E-1   5.319942831993103E-1  
 1.304000000000000E7    -7.632899284362793E-1   5.366038680076599E-1   1.850232481956482E-1   2.638859152793884E-1   1.854882538318634E-1   2.632961571216583E-1  -7.612645626068115E-1   5.321516990661621E-1  
 1.306000000000000E7    -7.625853419303894E-1   5.375610589981079E-1   1.864468157291412E-1   2.636709213256836E-1   1.863193213939667E-1   2.636068165302277E-1  -7.604607343673706E-1   5.333485603332520E-1  
 1.308000000000000E7    -7.622532844543457E-1   5.378869771957398E-1   1.864739209413528E-1   2.639314532279968E-1   1.867614835500717E-1   2.639219164848328E-1  -7.599053382873535E-1   5.338767766952515E-1  
 1.310000000000000E7    -7.611522674560547E-1   5.381390452384949E-1   1.870296746492386E-1   2.643569111824036E-1   1.873169839382172E-1   2.639313936233521E-1  -7.592437863349915E-1   5.345618724822998E-1  
 1.312000000000000E7    -7.605104446411133E-1   5.390990972518921E-1   1.874864995479584E-1   2.645778656005859E-1   1.877540051937103E-1   2.645443379878998E-1  -7.590461373329163E-1   5.351740717887878E-1  
 1.314000000000000E7    -7.598444819450378E-1   5.400222539901733E-1   1.885590553283691E-1   2.650952339172363E-1   1.882985681295395E-1   2.648886740207672E-1  -7.583116292953491E-1   5.356240272521973E-1  
 1.316000000000000E7    -7.591532468795776E-1   5.405855178833008E-1   1.886502206325531E-1   2.653560638427734E-1   1.890309005975723E-1   2.648941874504089E-1  -7.573558688163757E-1   5.363374352455139E-1  
 1.318000000000000E7    -7.584608793258667E-1   5.410540103912354E-1   1.895939111709595E-1   2.655862569808960E-1   1.897357702255249E-1   2.655239403247833E-1  -7.571429610252380E-1   5.374738574028015E-1  
 1.320000000000000E7    -7.577549815177918E-1   5.415702462196350E-1   1.900089979171753E-1   2.656692564487457E-1   1.900928765535355E-1   2.652019262313843E-1  -7.557795643806458E-1   5.377668142318726E-1  
 1.322000000000000E7    -7.567763924598694E-1   5.421187281608582E-1   1.905586421489716E-1   2.660128176212311E-1   1.908032298088074E-1   2.655803859233856E-1  -7.551857829093933E-1   5.385378599166870E-1  
 1.324000000000000E7    -7.565928101539612E-1   5.429573059082031E-1   1.911159455776215E-1   2.660739123821259E-1   1.913856863975525E-1   2.657952308654785E-1  -7.542308568954468E-1   5.388970971107483E-1  
 1.326000000000000E7    -7.559391856193543E-1   5.436216592788696E-1   1.918765604496002E-1   2.663408815860748E-1   1.918480694293976E-1   2.664280831813812E-1  -7.540609240531921E-1   5.396749377250671E-1  
 1.328000000000000E7    -7.551840543746948E-1   5.442865490913391E-1   1.922581940889359E-1   2.667628526687622E-1   1.923847645521164E-1   2.663600444793701E-1  -7.532361745834351E-1   5.402740240097046E-1  
 1.330000000000000E7    -7.544493675231934E-1   5.446597933769226E-1   1.927179545164108E-1   2.669447362422943E-1   1.930350661277771E-1   2.667789459228516E-1  -7.528246045112610E-1   5.407751798629761E-1  
 1.332000000000000E7    -7.536233663558960E-1   5.455627441406250E-1   1.932621300220490E-1   2.673727273941040E-1   1.936748176813126E-1   2.668321728706360E-1  -7.517824769020081E-1   5.415483117103577E-1  
 1.334000000000000E7    -7.533058524131775E-1   5.457523465156555E-1   1.938707232475281E-1   2.678122818470001E-1   1.940664052963257E-1   2.672635316848755E-1  -7.512494325637817E-1   5.424184799194336E-1  
 1.336000000000000E7    -7.523230910301209E-1   5.465883612632752E-1   1.945489048957825E-1   2.678036093711853E-1   1.943430602550507E-1   2.673884630203247E-1  -7.506685256958008E-1   5.428028702735901E-1  
 1.338000000000000E7    -7.517831921577454E-1   5.474682450294495E-1   1.950639486312866E-1   2.679229676723480E-1   1.954604834318161E-1   2.678474187850952E-1  -7.499680519104004E-1   5.436834692955017E-1  
 1.340000000000000E7    -7.510311007499695E-1   5.478203296661377E-1   1.959159374237061E-1   2.683055698871613E-1   1.960525661706924E-1   2.680349349975586E-1  -7.488402128219605E-1   5.443881154060364E-1  
 1.342000000000000E7    -7.499982714653015E-1   5.484269261360169E-1   1.963651031255722E-1   2.684651613235474E-1   1.965831369161606E-1   2.681645154953003E-1  -7.487420439720154E-1   5.447768568992615E-1  
 1.344000000000000E7    -7.498431801795960E-1   5.492942333221436E-1   1.966966539621353E-1   2.684888243675232E-1   1.968146562576294E-1   2.682276368141174E-1  -7.472865581512451E-1   5.450473427772522E-1  
 1.346000000000000E7    -7.490923404693604E-1   5.503324866294861E-1   1.975776702165604E-1   2.688955068588257E-1   1.977300643920898E-1   2.686973214149475E-1  -7.470461130142212E-1   5.455262660980225E-1  
 1.348000000000000E7    -7.478843331336975E-1   5.506364107131958E-1   1.979179978370667E-1   2.688178718090057E-1   1.983035206794739E-1   2.687521278858185E-1  -7.465953230857849E-1   5.465665459632874E-1  
 1.350000000000000E7    -7.474577426910400E-1   5.506871342658997E-1   1.983457207679749E-1   2.692160010337830E-1   1.989952027797699E-1   2.688834071159363E-1  -7.451983690261841E-1   5.472596883773804E-1  
 1.352000000000000E7    -7.466642856597900E-1   5.516992211341858E-1   1.993779093027115E-1   2.693567574024200E-1   1.992943286895752E-1   2.691780030727387E-1  -7.446780204772949E-1   5.475814938545227E-1  
 1.354000000000000E7    -7.459608912467957E-1   5.523659586906433E-1   1.998486965894699E-1   2.694166004657745E-1   2.000675946474075E-1   2.694014906883240E-1  -7.436155676841736E-1   5.481371879577637E-1  
 1.356000000000000E7    -7.452796697616577E-1   5.528079271316528E-1   2.000932395458221E-1   2.697655260562897E-1   2.004117667675018E-1   2.695192992687225E-1  -7.430703043937683E-1   5.489585399627686E-1  
 1.358000000000000E7    -7.446688413619995E-1   5.534996390342712E-1   2.011305391788483E-1   2.703177332878113E-1   2.013196051120758E-1   2.700988948345184E-1  -7.427668571472168E-1   5.497941374778748E-1  
 1.360000000000000E7    -7.439581155776978E-1   5.546285510063171E-1   2.016206681728363E-1   2.706364691257477E-1   2.017616331577301E-1   2.704735100269318E-1  -7.418041825294495E-1   5.502590537071228E-1  
 1.362000000000000E7    -7.437062859535217E-1   5.549225211143494E-1   2.020289301872253E-1   2.709157764911652E-1   2.027252763509750E-1   2.708441615104675E-1  -7.411954402923584E-1   5.508747696876526E-1  
 1.364000000000000E7    -7.426586747169495E-1   5.553930997848511E-1   2.025842070579529E-1   2.708934247493744E-1   2.026723325252533E-1   2.706479132175446E-1  -7.404106259346008E-1   5.511677861213684E-1  
 1.366000000000000E7    -7.419164776802063E-1   5.561306476593018E-1   2.031212449073792E-1   2.712381184101105E-1   2.035863399505615E-1   2.711865007877350E-1  -7.400407195091248E-1   5.518668293952942E-1  
 1.368000000000000E7    -7.411281466484070E-1   5.569078326225281E-1   2.037907242774963E-1   2.712860405445099E-1   2.041696906089783E-1   2.712580561637878E-1  -7.394887208938599E-1   5.524840950965881E-1  
 1.370000000000000E7    -7.403140068054199E-1   5.572978854179382E-1   2.045193165540695E-1   2.717911899089813E-1   2.048023939132690E-1   2.713372707366943E-1  -7.382774353027344E-1   5.533137321472168E-1  
 1.372000000000000E7    -7.401117086410523E-1   5.577503442764282E-1   2.046829611063004E-1   2.720199227333069E-1   2.051690965890884E-1   2.716356217861176E-1  -7.379322648048401E-1   5.536521673202515E-1  
 1.374000000000000E7    -7.389642000198364E-1   5.582819581031799E-1   2.055543959140778E-1   2.720895111560822E-1   2.055369168519974E-1   2.718854248523712E-1  -7.371394038200378E-1   5.541483759880066E-1  
 1.376000000000000E7    -7.385052442550659E-1   5.591223835945129E-1   2.061812281608582E-1   2.725890874862671E-1   2.066644579172134E-1   2.720489501953125E-1  -7.363981604576111E-1   5.551247000694275E-1  
 1.378000000000000E7    -7.377043366432190E-1   5.598383545875549E-1   2.066199183464050E-1   2.722092568874359E-1   2.069126665592194E-1   2.722312808036804E-1  -7.352436780929565E-1   5.552713871002197E-1  
 1.380000000000000E7    -7.367144823074341E-1   5.604442358016968E-1   2.074066549539566E-1   2.727772891521454E-1   2.075642794370651E-1   2.724108397960663E-1  -7.348279356956482E-1   5.564036965370178E-1  
 1.382000000000000E7    -7.360175251960754E-1   5.610036849975586E-1   2.079963833093643E-1   2.728849947452545E-1   2.080693393945694E-1   2.726919054985046E-1  -7.341489791870117E-1   5.565938949584961E-1  
 1.384000000000000E7    -7.354456782341003E-1   5.616052150726318E-1   2.084326893091202E-1   2.731459736824036E-1   2.088391333818436E-1   2.732666730880737E-1  -7.333765029907227E-1   5.571929812431335E-1  
 1.386000000000000E7    -7.351316213607788E-1   5.624548792839050E-1   2.093297243118286E-1   2.734526991844177E-1   2.093219757080078E-1   2.733728289604187E-1  -7.327489256858826E-1   5.580274462699890E-1  
 1.388000000000000E7    -7.341023683547974E-1   5.625598430633545E-1   2.095228433609009E-1   2.737441062927246E-1   2.099376022815704E-1   2.733520269393921E-1  -7.319077253341675E-1   5.588792562484741E-1  
 1.390000000000000E7    -7.328975200653076E-1   5.638704895973206E-1   2.105191200971603E-1   2.739464044570923E-1   2.108532339334488E-1   2.738684415817261E-1  -7.316923141479492E-1   5.592828392982483E-1  
 1.392000000000000E7    -7.328017950057983E-1   5.640287399291992E-1   2.109333723783493E-1   2.740949094295502E-1   2.110987156629562E-1   2.740767896175385E-1  -7.308788895606995E-1   5.598788857460022E-1  
 1.394000000000000E7    -7.317197918891907E-1   5.650280714035034E-1   2.118464857339859E-1   2.739820480346680E-1   2.122529298067093E-1   2.738160789012909E-1  -7.296549081802368E-1   5.606511831283569E-1  
 1.396000000000000E7    -7.308194637298584E-1   5.656337141990662E-1   2.123674601316452E-1   2.746780514717102E-1   2.127117663621903E-1   2.742557227611542E-1  -7.296020984649658E-1   5.613327026367188E-1  
 1.398000000000000E7    -7.304413318634033E-1   5.658851265907288E-1   2.126047462224960E-1   2.747005224227905E-1   2.131366729736328E-1   2.744331061840057E-1  -7.287269234657288E-1   5.617414712905884E-1  
 1.400000000000000E7    -7.301316857337952E-1   5.663492083549500E-1   2.132248580455780E-1   2.749868035316467E-1   2.137033045291901E-1   2.748023569583893E-1  -7.277752161026001E-1   5.624288320541382E-1  
 1.402000000000000E7    -7.291691303253174E-1   5.670678019523621E-1   2.142053395509720E-1   2.751623988151550E-1   2.142188549041748E-1   2.748842835426331E-1  -7.269801497459412E-1   5.627935528755188E-1  
 1.404000000000000E7    -7.283826470375061E-1   5.677449703216553E-1   2.148024141788483E-1   2.757086455821991E-1   2.146400213241577E-1   2.751058638095856E-1  -7.263458967208862E-1   5.638742446899414E-1  
 1.406000000000000E7    -7.274406552314758E-1   5.683434009552002E-1   2.150025665760040E-1   2.755820453166962E-1   2.153962850570679E-1   2.755328714847565E-1  -7.254809141159058E-1   5.645717382431030E-1  
 1.408000000000000E7    -7.272243499755859E-1   5.691346526145935E-1   2.158988714218140E-1   2.757621705532074E-1   2.163724005222321E-1   2.756510674953461E-1  -7.247427701950073E-1   5.650281906127930E-1  
 1.410000000000000E7    -7.260817289352417E-1   5.693897604942322E-1   2.164913117885590E-1   2.761682569980621E-1   2.166215628385544E-1   2.757672071456909E-1  -7.240496873855591E-1   5.658164620399475E-1  
 1.412000000000000E7    -7.252122163772583E-1   5.701825618743897E-1   2.170043587684631E-1   2.760800421237946E-1   2.174604386091232E-1   2.760910987854004E-1  -7.236893773078919E-1   5.662376284599304E-1  
 1.414000000000000E7    -7.245933413505554E-1   5.704361796379089E-1   2.178953289985657E-1   2.764120697975159E-1   2.181062698364258E-1   2.760178744792938E-1  -7.224553823471069E-1   5.669661164283752E-1  
 1.416000000000000E7    -7.237513065338135E-1   5.708855390548706E-1   2.184921801090241E-1   2.766054868698120E-1   2.185896188020706E-1   2.763729691505432E-1  -7.217365503311157E-1   5.676819682121277E-1  
 1.418000000000000E7    -7.229095101356506E-1   5.715088844299316E-1   2.188327312469482E-1   2.767874896526337E-1   2.189421504735947E-1   2.767969369888306E-1  -7.214738726615906E-1   5.677595734596252E-1  
 1.420000000000000E7    -7.224817872047424E-1   5.722970366477966E-1   2.196696549654007E-1   2.774439156055450E-1   2.197427004575729E-1   2.767101228237152E-1  -7.207962870597839E-1   5.689134597778320E-1  
 1.422000000000000E7    -7.216717004776001E-1   5.729158520698547E-1   2.201278656721115E-1   2.772319316864014E-1   2.204795330762863E-1   2.774496078491211E-1  -7.200864553451538E-1   5.689721107482910E-1  
 1.424000000000000E7    -7.208382487297058E-1   5.736358761787415E-1   2.205804437398911E-1   2.776663601398468E-1   2.208064794540405E-1   2.771992087364197E-1  -7.192674875259399E-1   5.696756839752197E-1  
 1.426000000000000E7    -7.200955152511597E-1   5.744072794914246E-1   2.212560772895813E-1   2.775714993476868E-1   2.216552197933197E-1   2.774350941181183E-1  -7.181190252304077E-1   5.704020857810974E-1  
 1.428000000000000E7    -7.195745706558228E-1   5.750442147254944E-1   2.217782884836197E-1   2.778533697128296E-1   2.223784625530243E-1   2.774434089660645E-1  -7.173890471458435E-1   5.708031058311462E-1  
 1.430000000000000E7    -7.188782095909119E-1   5.753846764564514E-1   2.226203531026840E-1   2.780261635780335E-1   2.230228632688522E-1   2.778761982917786E-1  -7.165218591690064E-1   5.711094141006470E-1  
 1.432000000000000E7    -7.175748348236084E-1   5.762432217597961E-1   2.232672423124313E-1   2.785982489585877E-1   2.236617058515549E-1   2.780186831951141E-1  -7.166291475296021E-1   5.718060731887817E-1  
 1.434000000000000E7    -7.170146107673645E-1   5.768203139305115E-1   2.240334600210190E-1   2.786860764026642E-1   2.243273407220841E-1   2.784598171710968E-1  -7.157400846481323E-1   5.730339884757996E-1  
 1.436000000000000E7    -7.169077396392822E-1   5.769114494323731E-1   2.241367697715759E-1   2.789199352264404E-1   2.246020138263702E-1   2.783834040164948E-1  -7.145602703094482E-1   5.733514428138733E-1  
 1.438000000000000E7    -7.156201601028442E-1   5.773147940635681E-1   2.250385880470276E-1   2.787158787250519E-1   2.249175906181335E-1   2.786969542503357E-1  -7.139379978179932E-1   5.738657116889954E-1  
 1.440000000000000E7    -7.150454521179199E-1   5.782235264778137E-1   2.255075573921204E-1   2.790892720222473E-1   2.259775698184967E-1   2.785230576992035E-1  -7.132946848869324E-1   5.743119716644287E-1  
 1.442000000000000E7    -7.143893241882324E-1   5.789716243743897E-1   2.266155183315277E-1   2.793170213699341E-1   2.268575280904770E-1   2.792923748493195E-1  -7.126095890998840E-1   5.752840638160706E-1  
 1.444000000000000E7    -7.136131525039673E-1   5.797744989395142E-1   2.270049899816513E-1   2.795583009719849E-1   2.271536439657211E-1   2.790650129318237E-1  -7.117215394973755E-1   5.754474997520447E-1  
 1.446000000000000E7    -7.126451134681702E-1   5.799900293350220E-1   2.273043692111969E-1   2.798957228660584E-1   2.275409102439880E-1   2.794910967350006E-1  -7.112023234367371E-1   5.756492614746094E-1  
 1.448000000000000E7    -7.118405699729919E-1   5.809401869773865E-1   2.278480231761932E-1   2.799538671970367E-1   2.283026874065399E-1   2.797619104385376E-1  -7.101208567619324E-1   5.764774084091187E-1  
 1.450000000000000E7    -7.113407850265503E-1   5.814769864082336E-1   2.288826704025269E-1   2.803779542446137E-1   2.289847880601883E-1   2.801159918308258E-1  -7.097614407539368E-1   5.772159695625305E-1  
 1.452000000000000E7    -7.105221152305603E-1   5.819966793060303E-1   2.293391823768616E-1   2.803629338741303E-1   2.297704219818115E-1   2.799106240272522E-1  -7.089823484420776E-1   5.774470567703247E-1  
 1.454000000000000E7    -7.095394730567932E-1   5.824484229087830E-1   2.301373332738876E-1   2.806388437747955E-1   2.304513007402420E-1   2.801204621791840E-1  -7.081724405288696E-1   5.784023404121399E-1  
 1.456000000000000E7    -7.090529799461365E-1   5.827099680900574E-1   2.304621934890747E-1   2.808922231197357E-1   2.305480688810349E-1   2.803688347339630E-1  -7.071754932403565E-1   5.787237286567688E-1  
 1.458000000000000E7    -7.080958485603333E-1   5.833728909492493E-1   2.313112318515778E-1   2.806271016597748E-1   2.314885407686234E-1   2.804407775402069E-1  -7.063618898391724E-1   5.794610977172852E-1  
 1.460000000000000E7    -7.075693011283875E-1   5.842938423156738E-1   2.319366782903671E-1   2.812433242797852E-1   2.321669012308121E-1   2.803741991519928E-1  -7.056130766868591E-1   5.800496935844421E-1  
 1.462000000000000E7    -7.065450549125671E-1   5.847011208534241E-1   2.327147126197815E-1   2.810701727867127E-1   2.329978793859482E-1   2.806891202926636E-1  -7.048222422599793E-1   5.807377696037293E-1  
 1.464000000000000E7    -7.063406705856323E-1   5.851127505302429E-1   2.334350496530533E-1   2.814293205738068E-1   2.334539294242859E-1   2.813476324081421E-1  -7.042498588562012E-1   5.814988613128662E-1  
 1.466000000000000E7    -7.049033045768738E-1   5.856140851974487E-1   2.336949706077576E-1   2.816154956817627E-1   2.339773029088974E-1   2.815417647361755E-1  -7.036936283111572E-1   5.815652608871460E-1  
 1.468000000000000E7    -7.045902609825134E-1   5.865511894226074E-1   2.344850003719330E-1   2.817549705505371E-1   2.348299473524094E-1   2.818200886249542E-1  -7.029730081558228E-1   5.819059610366821E-1  
 1.470000000000000E7    -7.036600112915039E-1   5.871211290359497E-1   2.352384328842163E-1   2.818226218223572E-1   2.355251610279083E-1   2.816634178161621E-1  -7.018912434577942E-1   5.825114846229553E-1  
 1.472000000000000E7    -7.030896544456482E-1   5.871713757514954E-1   2.356833815574646E-1   2.820338308811188E-1   2.362236380577087E-1   2.821193337440491E-1  -7.012926340103149E-1   5.835134983062744E-1  
 1.474000000000000E7    -7.021283507347107E-1   5.878987908363342E-1   2.365735620260239E-1   2.820765972137451E-1   2.368011772632599E-1   2.820904850959778E-1  -7.001791596412659E-1   5.840590596199036E-1  
 1.476000000000000E7    -7.013356685638428E-1   5.889422297477722E-1   2.371256947517395E-1   2.828009724617004E-1   2.374378144741058E-1   2.823855280876160E-1  -7.001711130142212E-1   5.848125815391541E-1  
 1.478000000000000E7    -7.007018923759460E-1   5.893106460571289E-1   2.374971210956574E-1   2.826438546180725E-1   2.376908361911774E-1   2.824639379978180E-1  -6.989387869834900E-1   5.851354002952576E-1  
 1.480000000000000E7    -6.996017098426819E-1   5.899753570556641E-1   2.382056713104248E-1   2.829252779483795E-1   2.383802980184555E-1   2.828170061111450E-1  -6.983067989349365E-1   5.858699083328247E-1  
 1.482000000000000E7    -6.992788314819336E-1   5.906860232353210E-1   2.391670048236847E-1   2.834264338016510E-1   2.391983419656754E-1   2.830496132373810E-1  -6.978133916854858E-1   5.863155722618103E-1  
 1.484000000000000E7    -6.986224055290222E-1   5.913258194923401E-1   2.397824823856354E-1   2.835330963134766E-1   2.401655614376068E-1   2.829034030437470E-1  -6.964203715324402E-1   5.873439311981201E-1  
 1.486000000000000E7    -6.979438662528992E-1   5.916746854782105E-1   2.402061671018601E-1   2.836302518844605E-1   2.404488325119019E-1   2.834520339965820E-1  -6.960341930389404E-1   5.871739983558655E-1  
 1.488000000000000E7    -6.970680356025696E-1   5.922182798385620E-1   2.408470511436462E-1   2.837756574153900E-1   2.412597239017487E-1   2.833181321620941E-1  -6.953771114349365E-1   5.877742767333984E-1  
 1.490000000000000E7    -6.958886384963989E-1   5.927992463111877E-1   2.414471060037613E-1   2.837657630443573E-1   2.419314235448837E-1   2.836361527442932E-1  -6.943054795265198E-1   5.883687138557434E-1  
 1.492000000000000E7    -6.950004100799561E-1   5.931292772293091E-1   2.420178055763245E-1   2.840382456779480E-1   2.425999790430069E-1   2.834112942218781E-1  -6.937465071678162E-1   5.892584919929504E-1  
 1.494000000000000E7    -6.947423815727234E-1   5.943484902381897E-1   2.431572079658508E-1   2.841764986515045E-1   2.432371079921722E-1   2.838363945484161E-1  -6.926525831222534E-1   5.896435976028442E-1  
 1.496000000000000E7    -6.936942338943481E-1   5.943536758422852E-1   2.434815913438797E-1   2.843462228775024E-1   2.439179569482803E-1   2.840668857097626E-1  -6.922042369842529E-1   5.902284979820252E-1  
 1.498000000000000E7    -6.929949522018433E-1   5.948254466056824E-1   2.438164353370667E-1   2.844585776329041E-1   2.445750087499619E-1   2.841883003711700E-1  -6.912190914154053E-1   5.910232067108154E-1  
 1.500000000000000E7    -6.925052404403687E-1   5.954396128654480E-1   2.449443042278290E-1   2.847900390625000E-1   2.450479269027710E-1   2.846472561359406E-1  -6.906607151031494E-1   5.917257070541382E-1  
 1.502000000000000E7    -6.914852261543274E-1   5.960454344749451E-1   2.454941719770432E-1   2.850798070430756E-1   2.453594654798508E-1   2.844522595405579E-1  -6.897554993629456E-1   5.922250151634216E-1  
 1.504000000000000E7    -6.906900405883789E-1   5.970128178596497E-1   2.463618665933609E-1   2.852614223957062E-1   2.467648088932037E-1   2.849717736244202E-1  -6.894837021827698E-1   5.928757786750794E-1  
 1.506000000000000E7    -6.901937723159790E-1   5.970090031623840E-1   2.468820214271545E-1   2.852565050125122E-1   2.468330413103104E-1   2.849663197994232E-1  -6.880017518997192E-1   5.933931469917297E-1  
 1.508000000000000E7    -6.893669962882996E-1   5.979207754135132E-1   2.474814504384995E-1   2.857050895690918E-1   2.475437223911285E-1   2.851342558860779E-1  -6.874226331710815E-1   5.938999652862549E-1  
 1.510000000000000E7    -6.884554624557495E-1   5.982941985130310E-1   2.481092065572739E-1   2.856878638267517E-1   2.483723908662796E-1   2.854226827621460E-1  -6.868711709976196E-1   5.943794250488281E-1  
 1.512000000000000E7    -6.876087188720703E-1   5.985628366470337E-1   2.490149289369583E-1   2.856315374374390E-1   2.491972893476486E-1   2.854525446891785E-1  -6.859984993934631E-1   5.953407883644104E-1  
 1.514000000000000E7    -6.871952414512634E-1   5.997698903083801E-1   2.492499947547913E-1   2.859697937965393E-1   2.498800009489059E-1   2.859651744365692E-1  -6.858992576599121E-1   5.950477123260498E-1  
 1.516000000000000E7    -6.859471797943115E-1   6.000605821609497E-1   2.502452433109283E-1   2.860121130943298E-1   2.500939965248108E-1   2.861879169940949E-1  -6.847403645515442E-1   5.960032939910889E-1  
 1.518000000000000E7    -6.855124831199646E-1   6.000001430511475E-1   2.505457997322083E-1   2.865720093250275E-1   2.508143782615662E-1   2.861468493938446E-1  -6.836611032485962E-1   5.969765782356262E-1  
 1.520000000000000E7    -6.842830777168274E-1   6.012654900550842E-1   2.515808641910553E-1   2.861393988132477E-1   2.518452107906342E-1   2.862361073493958E-1  -6.826412677764893E-1   5.970182418823242E-1  
 1.522000000000000E7    -6.838451027870178E-1   6.019465327262878E-1   2.521367967128754E-1   2.866876423358917E-1   2.523302137851715E-1   2.862540483474731E-1  -6.821668744087219E-1   5.978446006774902E-1  
 1.524000000000000E7    -6.827620267868042E-1   6.022365689277649E-1   2.524653673171997E-1   2.867924273014069E-1   2.528703212738037E-1   2.863659858703613E-1  -6.813739538192749E-1   5.985010862350464E-1  
 1.526000000000000E7    -6.822580695152283E-1   6.031237244606018E-1   2.536914348602295E-1   2.869172096252441E-1   2.537280023097992E-1   2.867099940776825E-1  -6.807089447975159E-1   5.991249084472656E-1  
 1.528000000000000E7    -6.813364624977112E-1   6.037994027137756E-1   2.541994154453278E-1   2.871325612068176E-1   2.546987533569336E-1   2.870811522006989E-1  -6.800382733345032E-1   5.998036265373230E-1  
 1.530000000000000E7    -6.808157563209534E-1   6.040974855422974E-1   2.544474601745606E-1   2.872205376625061E-1   2.550179958343506E-1   2.868873775005341E-1  -6.783473491668701E-1   5.996840596199036E-1  
 1.532000000000000E7    -6.798863410949707E-1   6.042047739028931E-1   2.551357448101044E-1   2.872222661972046E-1   2.556046843528748E-1   2.871351242065430E-1  -6.778349876403809E-1   6.004244685173035E-1  
 1.534000000000000E7    -6.788482666015625E-1   6.051750779151917E-1   2.559041082859039E-1   2.876389622688294E-1   2.561192512512207E-1   2.873357832431793E-1  -6.779771447181702E-1   6.007254123687744E-1  
 1.536000000000000E7    -6.783710718154907E-1   6.057171821594238E-1   2.565752863883972E-1   2.878041267395020E-1   2.570177018642426E-1   2.875978052616119E-1  -6.763947010040283E-1   6.016633510589600E-1  
 1.538000000000000E7    -6.774451136589050E-1   6.066055297851563E-1   2.575070858001709E-1   2.878631353378296E-1   2.576296627521515E-1   2.875199615955353E-1  -6.756224632263184E-1   6.020292043685913E-1  
 1.540000000000000E7    -6.766598224639893E-1   6.067350506782532E-1   2.578487396240234E-1   2.878469526767731E-1   2.582302689552307E-1   2.876068949699402E-1  -6.745795011520386E-1   6.025873422622681E-1  
 1.542000000000000E7    -6.755371093750000E-1   6.069579124450684E-1   2.587138116359711E-1   2.879079282283783E-1   2.589581012725830E-1   2.878590524196625E-1  -6.735529899597168E-1   6.033520698547363E-1  
 1.544000000000000E7    -6.752636432647705E-1   6.081711053848267E-1   2.595855891704559E-1   2.881260514259338E-1   2.595975399017334E-1   2.879502475261688E-1  -6.732051968574524E-1   6.035949587821960E-1  
 1.546000000000000E7    -6.744562387466431E-1   6.081481575965881E-1   2.601081728935242E-1   2.881592214107513E-1   2.606754302978516E-1   2.881744801998138E-1  -6.723882555961609E-1   6.043177843093872E-1  
 1.548000000000000E7    -6.734953522682190E-1   6.091036796569824E-1   2.608570456504822E-1   2.889373004436493E-1   2.611154615879059E-1   2.884411215782166E-1  -6.717586517333984E-1   6.050435900688171E-1  
 1.550000000000000E7    -6.725450158119202E-1   6.094043850898743E-1   2.613498270511627E-1   2.887483239173889E-1   2.614747881889343E-1   2.882838547229767E-1  -6.708230376243591E-1   6.053493618965149E-1  
 1.552000000000000E7    -6.719225049018860E-1   6.101422309875488E-1   2.622576951980591E-1   2.889412045478821E-1   2.624478638172150E-1   2.886705398559570E-1  -6.703501343727112E-1   6.057800650596619E-1  
 1.554000000000000E7    -6.715155243873596E-1   6.108182072639465E-1   2.622880637645721E-1   2.894284129142761E-1   2.633624374866486E-1   2.888276278972626E-1  -6.693251132965088E-1   6.067094802856445E-1  
 1.556000000000000E7    -6.704065799713135E-1   6.110153794288635E-1   2.632301151752472E-1   2.892364263534546E-1   2.635148465633392E-1   2.889855206012726E-1  -6.686607599258423E-1   6.066524982452393E-1  
 1.558000000000000E7    -6.701161265373230E-1   6.121222972869873E-1   2.640078663825989E-1   2.897200584411621E-1   2.648862898349762E-1   2.892442345619202E-1  -6.675705909729004E-1   6.077466607093811E-1  
 1.560000000000000E7    -6.686273813247681E-1   6.122493147850037E-1   2.646155655384064E-1   2.893807291984558E-1   2.652874588966370E-1   2.894318103790283E-1  -6.671670079231262E-1   6.083090305328369E-1  
 1.562000000000000E7    -6.679611206054688E-1   6.126610636711121E-1   2.653295099735260E-1   2.894964516162872E-1   2.652323842048645E-1   2.892917692661285E-1  -6.656626462936401E-1   6.079376935958862E-1  
 1.564000000000000E7    -6.672707796096802E-1   6.130873560905457E-1   2.658927440643311E-1   2.900455594062805E-1   2.662995159626007E-1   2.895369529724121E-1  -6.656376123428345E-1   6.083869338035584E-1  
 1.566000000000000E7    -6.664005517959595E-1   6.142705082893372E-1   2.668859362602234E-1   2.899421751499176E-1   2.670197486877441E-1   2.896119654178619E-1  -6.647987365722656E-1   6.087712645530701E-1  
 1.568000000000000E7    -6.656439304351807E-1   6.144988536834717E-1   2.676966786384583E-1   2.899010181427002E-1   2.676910459995270E-1   2.896727323532105E-1  -6.635144948959351E-1   6.101391315460205E-1  
 1.570000000000000E7    -6.647768020629883E-1   6.151768565177918E-1   2.684716582298279E-1   2.903242111206055E-1   2.685166895389557E-1   2.899241745471954E-1  -6.624236106872559E-1   6.109043359756470E-1  
 1.572000000000000E7    -6.636278629302979E-1   6.159400939941406E-1   2.687397003173828E-1   2.902204394340515E-1   2.696693837642670E-1   2.901378273963928E-1  -6.623570919036865E-1   6.109843850135803E-1  
 1.574000000000000E7    -6.631279587745667E-1   6.158529520034790E-1   2.695102691650391E-1   2.907603085041046E-1   2.698497772216797E-1   2.902660369873047E-1  -6.612277030944824E-1   6.117379665374756E-1  
 1.576000000000000E7    -6.624310016632080E-1   6.169275641441345E-1   2.704961895942688E-1   2.906349599361420E-1   2.707662582397461E-1   2.904033064842224E-1  -6.602547168731690E-1   6.119993329048157E-1  
 1.578000000000000E7    -6.615143418312073E-1   6.169161796569824E-1   2.706317305564880E-1   2.909820973873138E-1   2.707177698612213E-1   2.904064059257507E-1  -6.595253944396973E-1   6.126915812492371E-1  
 1.580000000000000E7    -6.604136824607849E-1   6.174533963203430E-1   2.717349231243134E-1   2.911498546600342E-1   2.719257175922394E-1   2.907413542270660E-1  -6.590729355812073E-1   6.135031580924988E-1  
 1.582000000000000E7    -6.596782803535461E-1   6.180751323699951E-1   2.721396088600159E-1   2.910505235195160E-1   2.725899517536163E-1   2.905557751655579E-1  -6.581569314002991E-1   6.140272021293640E-1  
 1.584000000000000E7    -6.589086055755615E-1   6.181569099426270E-1   2.728426754474640E-1   2.912399470806122E-1   2.732348144054413E-1   2.910165190696716E-1  -6.572433710098267E-1   6.144661903381348E-1  
 1.586000000000000E7    -6.582427024841309E-1   6.191800832748413E-1   2.736545801162720E-1   2.914654314517975E-1   2.737991213798523E-1   2.910215854644775E-1  -6.563491225242615E-1   6.146884560585022E-1  
 1.588000000000000E7    -6.572924852371216E-1   6.193462014198303E-1   2.744704186916351E-1   2.914453744888306E-1   2.747452855110169E-1   2.912093400955200E-1  -6.560205221176148E-1   6.152786612510681E-1  
 1.590000000000000E7    -6.564797759056091E-1   6.197934746742249E-1   2.749246060848236E-1   2.917398810386658E-1   2.751768827438355E-1   2.911674976348877E-1  -6.546538472175598E-1   6.156649589538574E-1  
 1.592000000000000E7    -6.554149389266968E-1   6.211866736412048E-1   2.758204638957977E-1   2.913989722728729E-1   2.759974002838135E-1   2.911254167556763E-1  -6.539502739906311E-1   6.161989569664002E-1  
 1.594000000000000E7    -6.546217799186707E-1   6.215509772300720E-1   2.764226794242859E-1   2.915178537368774E-1   2.769457697868347E-1   2.913669943809509E-1  -6.528658270835877E-1   6.164778470993042E-1  
 1.596000000000000E7    -6.541609168052673E-1   6.213096976280212E-1   2.773142755031586E-1   2.916626036167145E-1   2.767735421657562E-1   2.917000353336334E-1  -6.524372696876526E-1   6.174750328063965E-1  
 1.598000000000000E7    -6.527919173240662E-1   6.220388412475586E-1   2.777401208877564E-1   2.921460866928101E-1   2.777947783470154E-1   2.915884256362915E-1  -6.516170501708984E-1   6.184022426605225E-1  
 1.600000000000000E7    -6.525983214378357E-1   6.219914555549622E-1   2.784779965877533E-1   2.921679913997650E-1   2.785390615463257E-1   2.918075621128082E-1  -6.505200266838074E-1   6.186841130256653E-1  
 1.602000000000000E7    -6.519238948822022E-1   6.232411861419678E-1   2.792859673500061E-1   2.923604846000671E-1   2.795808911323547E-1   2.922787666320801E-1  -6.499183773994446E-1   6.193357110023499E-1  
 1.604000000000000E7    -6.506041288375855E-1   6.238312721252441E-1   2.798506617546082E-1   2.918072938919067E-1   2.799590528011322E-1   2.918035387992859E-1  -6.488376855850220E-1   6.191391348838806E-1  
 1.606000000000000E7    -6.498003005981445E-1   6.244186162948608E-1   2.805769741535187E-1   2.922766804695129E-1   2.809389531612396E-1   2.924495637416840E-1  -6.480254530906677E-1   6.201071143150330E-1  
 1.608000000000000E7    -6.493171453475952E-1   6.249684095382690E-1   2.810409069061279E-1   2.932944297790527E-1   2.814154326915741E-1   2.923202216625214E-1  -6.475415229797363E-1   6.201415061950684E-1  
 1.610000000000000E7    -6.486037969589233E-1   6.251785159111023E-1   2.822960615158081E-1   2.928049862384796E-1   2.825479507446289E-1   2.927930653095245E-1  -6.463967561721802E-1   6.212037205696106E-1  
 1.612000000000000E7    -6.475045680999756E-1   6.260432004928589E-1   2.826949357986450E-1   2.928103506565094E-1   2.831732332706451E-1   2.925344407558441E-1  -6.454974412918091E-1   6.213637590408325E-1  
 1.614000000000000E7    -6.467626094818115E-1   6.261400580406189E-1   2.831090092658997E-1   2.930920124053955E-1   2.834926247596741E-1   2.927800714969635E-1  -6.449174880981445E-1   6.219996809959412E-1  
 1.616000000000000E7    -6.456332206726074E-1   6.267191767692566E-1   2.840747237205505E-1   2.933178842067719E-1   2.844741940498352E-1   2.926993668079376E-1  -6.440862417221069E-1   6.228408813476563E-1  
 1.618000000000000E7    -6.449006199836731E-1   6.276757717132568E-1   2.847923338413239E-1   2.934420108795166E-1   2.854705750942230E-1   2.927480936050415E-1  -6.429964303970337E-1   6.232525110244751E-1  
 1.620000000000000E7    -6.438230872154236E-1   6.280890703201294E-1   2.858024537563324E-1   2.935133278369904E-1   2.860679924488068E-1   2.928265333175659E-1  -6.424408555030823E-1   6.234928965568543E-1  
 1.622000000000000E7    -6.435452103614807E-1   6.283089518547058E-1   2.861505150794983E-1   2.936585843563080E-1   2.865862846374512E-1   2.933277487754822E-1  -6.411906480789185E-1   6.241862177848816E-1  
 1.624000000000000E7    -6.424099802970886E-1   6.290668845176697E-1   2.871902585029602E-1   2.938189506530762E-1   2.873049080371857E-1   2.932261526584625E-1  -6.408040523529053E-1   6.247005462646484E-1  
 1.626000000000000E7    -6.411412954330444E-1   6.292443275451660E-1   2.874854207038879E-1   2.936970591545105E-1   2.878761291503906E-1   2.932136952877045E-1  -6.400099992752075E-1   6.256028413772583E-1  
 1.628000000000000E7    -6.407533884048462E-1   6.297988891601563E-1   2.883290946483612E-1   2.938145399093628E-1   2.884232103824616E-1   2.939518690109253E-1  -6.392016410827637E-1   6.256231069564819E-1  
 1.630000000000000E7    -6.399396657943726E-1   6.299143433570862E-1   2.890327572822571E-1   2.936807572841644E-1   2.894841730594635E-1   2.935963273048401E-1  -6.381442546844482E-1   6.261203289031982E-1  
 1.632000000000000E7    -6.391416192054749E-1   6.308428645133972E-1   2.895575463771820E-1   2.941401004791260E-1   2.896812260150909E-1   2.940216362476349E-1  -6.374057531356812E-1   6.261865496635437E-1  
 1.634000000000000E7    -6.384617090225220E-1   6.316325664520264E-1   2.906959950923920E-1   2.940551340579987E-1   2.905909717082977E-1   2.938502728939056E-1  -6.359578967094421E-1   6.266880035400391E-1  
 1.636000000000000E7    -6.370302438735962E-1   6.317703127861023E-1   2.912564277648926E-1   2.943495512008667E-1   2.913753986358643E-1   2.939001619815826E-1  -6.358029246330261E-1   6.278071999549866E-1  
 1.638000000000000E7    -6.365261673927307E-1   6.321713328361511E-1   2.918556630611420E-1   2.944643795490265E-1   2.920224070549011E-1   2.939077913761139E-1  -6.349899172782898E-1   6.277065873146057E-1  
 1.640000000000000E7    -6.356351971626282E-1   6.326153874397278E-1   2.923561334609985E-1   2.943832576274872E-1   2.928021550178528E-1   2.943422198295593E-1  -6.341305971145630E-1   6.290724873542786E-1  
 1.642000000000000E7    -6.346466541290283E-1   6.336382031440735E-1   2.934793829917908E-1   2.942093610763550E-1   2.938967347145081E-1   2.940253615379334E-1  -6.327347755432129E-1   6.291767954826355E-1  
 1.644000000000000E7    -6.337286233901978E-1   6.338518857955933E-1   2.939007282257080E-1   2.946500480175018E-1   2.947898507118225E-1   2.943097651004791E-1  -6.328856945037842E-1   6.295105814933777E-1  
 1.646000000000000E7    -6.329474449157715E-1   6.344579458236694E-1   2.944487929344177E-1   2.942428290843964E-1   2.948669791221619E-1   2.942093014717102E-1  -6.309416890144348E-1   6.294829845428467E-1  
 1.648000000000000E7    -6.321998834609985E-1   6.348670125007629E-1   2.951377630233765E-1   2.949455082416534E-1   2.958277761936188E-1   2.946679294109345E-1  -6.307836771011353E-1   6.303660869598389E-1  
 1.650000000000000E7    -6.314769387245178E-1   6.356031894683838E-1   2.964642643928528E-1   2.949877381324768E-1   2.967167794704437E-1   2.946376502513886E-1  -6.302502751350403E-1   6.309037804603577E-1  
 1.652000000000000E7    -6.308978796005249E-1   6.357681751251221E-1   2.970875501632690E-1   2.951820492744446E-1   2.971580922603607E-1   2.946491241455078E-1  -6.289599537849426E-1   6.314798593521118E-1  
 1.654000000000000E7    -6.298381090164185E-1   6.365807056427002E-1   2.975238263607025E-1   2.952565848827362E-1   2.979153990745544E-1   2.946417331695557E-1  -6.278629899024963E-1   6.321551203727722E-1  
 1.656000000000000E7    -6.285387873649597E-1   6.368603110313416E-1   2.982180416584015E-1   2.952577769756317E-1   2.985126972198486E-1   2.947764098644257E-1  -6.271760463714600E-1   6.322130560874939E-1  
 1.658000000000000E7    -6.277198791503906E-1   6.374199390411377E-1   2.985805273056030E-1   2.951432764530182E-1   2.993534803390503E-1   2.948909699916840E-1  -6.264954805374146E-1   6.329379677772522E-1  
 1.660000000000000E7    -6.270649433135986E-1   6.373793482780457E-1   2.993810772895813E-1   2.952480912208557E-1   2.996887266635895E-1   2.946727573871613E-1  -6.254808902740479E-1   6.335179209709168E-1  
 1.662000000000000E7    -6.260581612586975E-1   6.385188102722168E-1   3.006218969821930E-1   2.954227924346924E-1   3.009765744209290E-1   2.952259778976440E-1  -6.247019171714783E-1   6.339889168739319E-1  
 1.664000000000000E7    -6.253367662429810E-1   6.384495496749878E-1   3.009304702281952E-1   2.954071760177612E-1   3.018082380294800E-1   2.951289713382721E-1  -6.237983703613281E-1   6.342688202857971E-1  
 1.666000000000000E7    -6.245044469833374E-1   6.392036676406860E-1   3.018726706504822E-1   2.955759465694428E-1   3.020846247673035E-1   2.952042222023010E-1  -6.229485273361206E-1   6.346293091773987E-1  
 1.668000000000000E7    -6.240150332450867E-1   6.399509906768799E-1   3.029182553291321E-1   2.954334020614624E-1   3.028600215911865E-1   2.949775755405426E-1  -6.221004724502564E-1   6.353772878646851E-1  
 1.670000000000000E7    -6.224637627601624E-1   6.398705244064331E-1   3.034224808216095E-1   2.956942617893219E-1   3.035072684288025E-1   2.952234148979187E-1  -6.214970946311951E-1   6.356616020202637E-1  
 1.672000000000000E7    -6.218863129615784E-1   6.403862833976746E-1   3.041938245296478E-1   2.956877052783966E-1   3.043672442436218E-1   2.956867814064026E-1  -6.204003095626831E-1   6.363137960433960E-1  
 1.674000000000000E7    -6.210269331932068E-1   6.408134102821350E-1   3.047574162483215E-1   2.961246967315674E-1   3.052438199520111E-1   2.955485284328461E-1  -6.196002960205078E-1   6.368778347969055E-1  
 1.676000000000000E7    -6.203508973121643E-1   6.417363286018372E-1   3.057630062103272E-1   2.959908246994019E-1   3.057846128940582E-1   2.953579127788544E-1  -6.184294819831848E-1   6.372023820877075E-1  
 1.678000000000000E7    -6.193310618400574E-1   6.419295072555542E-1   3.057081699371338E-1   2.960993051528931E-1   3.062633275985718E-1   2.959095835685730E-1  -6.180307865142822E-1   6.378402709960938E-1  
 1.680000000000000E7    -6.183007359504700E-1   6.425427198410034E-1   3.072104752063751E-1   2.959513366222382E-1   3.071774244308472E-1   2.957455217838287E-1  -6.169338226318359E-1   6.383258104324341E-1  
 1.682000000000000E7    -6.177766919136047E-1   6.428568959236145E-1   3.080857992172241E-1   2.962352633476257E-1   3.079400360584259E-1   2.959312796592712E-1  -6.162871718406677E-1   6.385431885719299E-1  
 1.684000000000000E7    -6.167541146278381E-1   6.436011791229248E-1   3.086426258087158E-1   2.962313592433929E-1   3.086142241954804E-1   2.961132228374481E-1  -6.152194142341614E-1   6.391818523406982E-1  
 1.686000000000000E7    -6.158813238143921E-1   6.437820196151733E-1   3.092854619026184E-1   2.960098087787628E-1   3.093854784965515E-1   2.963493466377258E-1  -6.148230433464050E-1   6.394162178039551E-1  
 1.688000000000000E7    -6.149380207061768E-1   6.446036100387573E-1   3.099892139434815E-1   2.966464459896088E-1   3.104588091373444E-1   2.960714995861054E-1  -6.138005256652832E-1   6.404610276222229E-1  
 1.690000000000000E7    -6.144807338714600E-1   6.447446346282959E-1   3.104741871356964E-1   2.967770099639893E-1   3.108068108558655E-1   2.966242730617523E-1  -6.126880645751953E-1   6.404187083244324E-1  
 1.692000000000000E7    -6.134176850318909E-1   6.449778079986572E-1   3.115174174308777E-1   2.966815531253815E-1   3.116462230682373E-1   2.962585985660553E-1  -6.116247773170471E-1   6.414743661880493E-1  
 1.694000000000000E7    -6.128783226013184E-1   6.458635926246643E-1   3.122064769268036E-1   2.967678904533386E-1   3.126550316810608E-1   2.964105904102325E-1  -6.106409430503845E-1   6.414216756820679E-1  
 1.696000000000000E7    -6.116965413093567E-1   6.463974118232727E-1   3.128155469894409E-1   2.971244156360626E-1   3.131674826145172E-1   2.965724468231201E-1  -6.100018024444580E-1   6.418544650077820E-1  
 1.698000000000000E7    -6.106590032577515E-1   6.466770172119141E-1   3.136644959449768E-1   2.966540157794952E-1   3.142975568771362E-1   2.963588833808899E-1  -6.092126369476318E-1   6.420513391494751E-1  
 1.700000000000000E7    -6.103759407997131E-1   6.472480297088623E-1   3.143732547760010E-1   2.967440187931061E-1   3.146752417087555E-1   2.966491580009460E-1  -6.082700490951538E-1   6.426132917404175E-1  
 1.702000000000000E7    -6.090786457061768E-1   6.480284333229065E-1   3.153860270977020E-1   2.970148026943207E-1   3.154143095016480E-1   2.971616387367249E-1  -6.076174378395081E-1   6.437796950340271E-1  
 1.704000000000000E7    -6.081146597862244E-1   6.481618881225586E-1   3.157772719860077E-1   2.967711985111237E-1   3.161502182483673E-1   2.967127561569214E-1  -6.069540381431580E-1   6.436555981636047E-1  
 1.706000000000000E7    -6.069112420082092E-1   6.485700011253357E-1   3.165275454521179E-1   2.973436415195465E-1   3.169644176959992E-1   2.964645028114319E-1  -6.060812473297119E-1   6.445909738540649E-1  
 1.708000000000000E7    -6.066057682037354E-1   6.491013765335083E-1   3.177956342697144E-1   2.971435487270355E-1   3.175097703933716E-1   2.967320680618286E-1  -6.045020818710327E-1   6.447317004203796E-1  
 1.710000000000000E7    -6.054697632789612E-1   6.491194963455200E-1   3.181259334087372E-1   2.974854409694672E-1   3.180658817291260E-1   2.970985174179077E-1  -6.044565439224243E-1   6.455612182617188E-1  
 1.712000000000000E7    -6.047596335411072E-1   6.503148078918457E-1   3.190447986125946E-1   2.973427176475525E-1   3.191064000129700E-1   2.972160875797272E-1  -6.029422283172607E-1   6.455976366996765E-1  
 1.714000000000000E7    -6.035398244857788E-1   6.503035426139832E-1   3.193542957305908E-1   2.970557510852814E-1   3.198164403438568E-1   2.970205247402191E-1  -6.023405194282532E-1   6.462953686714172E-1  
 1.716000000000000E7    -6.027606725692749E-1   6.508675813674927E-1   3.208135962486267E-1   2.974691689014435E-1   3.204540610313416E-1   2.971594631671906E-1  -6.016052365303040E-1   6.469117403030396E-1  
 1.718000000000000E7    -6.021537184715271E-1   6.512454152107239E-1   3.210558295249939E-1   2.976815402507782E-1   3.212067484855652E-1   2.974641025066376E-1  -6.001729369163513E-1   6.468361616134644E-1  
 1.720000000000000E7    -6.010317206382752E-1   6.514390110969544E-1   3.217090666294098E-1   2.972495257854462E-1   3.218071162700653E-1   2.971208095550537E-1  -5.995671749114990E-1   6.475219726562500E-1  
 1.722000000000000E7    -6.000738143920898E-1   6.521602272987366E-1   3.226343989372253E-1   2.973678708076477E-1   3.229289054870606E-1   2.973654270172119E-1  -5.982720851898193E-1   6.481546163558960E-1  
 1.724000000000000E7    -5.989136695861816E-1   6.527650356292725E-1   3.233469426631928E-1   2.977688312530518E-1   3.235582113265991E-1   2.970312833786011E-1  -5.979705452919006E-1   6.479557752609253E-1  
 1.726000000000000E7    -5.981971025466919E-1   6.533983945846558E-1   3.239759504795075E-1   2.977072298526764E-1   3.241403698921204E-1   2.971245646476746E-1  -5.968031287193298E-1   6.486966013908386E-1  
 1.728000000000000E7    -5.974919795989990E-1   6.531882286071777E-1   3.248561918735504E-1   2.977211773395538E-1   3.247800469398499E-1   2.974368929862976E-1  -5.957393646240234E-1   6.492400765419006E-1  
 1.730000000000000E7    -5.961197018623352E-1   6.539728641510010E-1   3.255963921546936E-1   2.978199422359467E-1   3.255189955234528E-1   2.975728213787079E-1  -5.952619314193726E-1   6.494719386100769E-1  
 1.732000000000000E7    -5.954188704490662E-1   6.543723344802856E-1   3.261387944221497E-1   2.979252934455872E-1   3.269328176975250E-1   2.974891066551209E-1  -5.946908593177795E-1   6.504017710685730E-1  
 1.734000000000000E7    -5.952160954475403E-1   6.547181010246277E-1   3.271473944187164E-1   2.977539598941803E-1   3.274603784084320E-1   2.976753711700440E-1  -5.933351516723633E-1   6.504383087158203E-1  
 1.736000000000000E7    -5.940068364143372E-1   6.550619602203369E-1   3.275360465049744E-1   2.979730069637299E-1   3.278817534446716E-1   2.974153161048889E-1  -5.925558805465698E-1   6.514077186584473E-1  
 1.738000000000000E7    -5.926208496093750E-1   6.557689309120178E-1   3.284758925437927E-1   2.980228662490845E-1   3.287749588489533E-1   2.969389259815216E-1  -5.912539958953857E-1   6.511399149894714E-1  
 1.740000000000000E7    -5.923720002174377E-1   6.562640070915222E-1   3.295885026454926E-1   2.979714274406433E-1   3.291724622249603E-1   2.974800467491150E-1  -5.902122855186462E-1   6.518754363059998E-1  
 1.742000000000000E7    -5.910078287124634E-1   6.561356186866760E-1   3.301582634449005E-1   2.980418503284454E-1   3.299109935760498E-1   2.973420619964600E-1  -5.897718667984009E-1   6.522378325462341E-1  
 1.744000000000000E7    -5.905592441558838E-1   6.570326685905457E-1   3.313049376010895E-1   2.977779507637024E-1   3.308087289333344E-1   2.975675463676453E-1  -5.884055495262146E-1   6.523671746253967E-1  
 1.746000000000000E7    -5.899747610092163E-1   6.575866341590881E-1   3.318690061569214E-1   2.980211973190308E-1   3.316740691661835E-1   2.980971336364746E-1  -5.881071090698242E-1   6.531383991241455E-1  
 1.748000000000000E7    -5.881902575492859E-1   6.581316590309143E-1   3.323250412940979E-1   2.979935705661774E-1   3.327337503433228E-1   2.977482080459595E-1  -5.869471430778503E-1   6.534183621406555E-1  
 1.750000000000000E7    -5.875793695449829E-1   6.587756872177124E-1   3.327862024307251E-1   2.980937063694000E-1   3.328800797462463E-1   2.977690696716309E-1  -5.862314105033875E-1   6.535434126853943E-1  
 1.752000000000000E7    -5.867857933044434E-1   6.593865752220154E-1   3.338914215564728E-1   2.981069087982178E-1   3.341284692287445E-1   2.978116571903229E-1  -5.853613615036011E-1   6.544316411018372E-1  
 1.754000000000000E7    -5.860828161239624E-1   6.592889428138733E-1   3.348925411701202E-1   2.982245981693268E-1   3.347585499286652E-1   2.977284193038940E-1  -5.843887329101563E-1   6.551946401596069E-1  
 1.756000000000000E7    -5.848966836929321E-1   6.598948240280151E-1   3.354170620441437E-1   2.984253466129303E-1   3.358606994152069E-1   2.975939810276032E-1  -5.833711028099060E-1   6.552303433418274E-1  
 1.758000000000000E7    -5.841205120086670E-1   6.600850820541382E-1   3.358655273914337E-1   2.985853254795075E-1   3.362089693546295E-1   2.977375388145447E-1  -5.825797319412231E-1   6.555153131484985E-1  
 1.760000000000000E7    -5.834190845489502E-1   6.608537435531616E-1   3.369019627571106E-1   2.984445393085480E-1   3.373036682605743E-1   2.979355156421661E-1  -5.817028880119324E-1   6.561038494110107E-1  
 1.762000000000000E7    -5.822693109512329E-1   6.604179739952087E-1   3.378891348838806E-1   2.982894182205200E-1   3.379161655902863E-1   2.976994216442108E-1  -5.804758667945862E-1   6.564761996269226E-1  
 1.764000000000000E7    -5.813555717468262E-1   6.615167856216431E-1   3.386960625648499E-1   2.982935905456543E-1   3.384592831134796E-1   2.981128990650177E-1  -5.799661874771118E-1   6.570169925689697E-1  
 1.766000000000000E7    -5.805558562278748E-1   6.619686484336853E-1   3.393823504447937E-1   2.985475659370422E-1   3.393637239933014E-1   2.983033955097199E-1  -5.788471698760986E-1   6.574530005455017E-1  
 1.768000000000000E7    -5.796454548835754E-1   6.621057391166687E-1   3.397977054119110E-1   2.984162569046021E-1   3.400677144527435E-1   2.983987033367157E-1  -5.777378082275391E-1   6.577796339988709E-1  
 1.770000000000000E7    -5.784976482391357E-1   6.626036167144775E-1   3.405688405036926E-1   2.987685799598694E-1   3.409723937511444E-1   2.982909977436066E-1  -5.769850611686707E-1   6.582301855087280E-1  
 1.772000000000000E7    -5.778618454933167E-1   6.629785299301148E-1   3.413173854351044E-1   2.986069321632385E-1   3.417561054229736E-1   2.981062233448029E-1  -5.758177638053894E-1   6.583725810050964E-1  
 1.774000000000000E7    -5.764221549034119E-1   6.637722253799439E-1   3.421713709831238E-1   2.985053658485413E-1   3.429750800132752E-1   2.980966567993164E-1  -5.750570297241211E-1   6.588547229766846E-1  
 1.776000000000000E7    -5.756834149360657E-1   6.637983322143555E-1   3.429429829120636E-1   2.986263930797577E-1   3.431393802165985E-1   2.980063259601593E-1  -5.744583010673523E-1   6.595498323440552E-1  
 1.778000000000000E7    -5.749626159667969E-1   6.643238663673401E-1   3.436696529388428E-1   2.982977330684662E-1   3.438495397567749E-1   2.979667782783508E-1  -5.733299255371094E-1   6.597530841827393E-1  
 1.780000000000000E7    -5.739724636077881E-1   6.647874712944031E-1   3.443017005920410E-1   2.985017001628876E-1   3.449573516845703E-1   2.981970906257629E-1  -5.725576281547546E-1   6.604020595550537E-1  
 1.782000000000000E7    -5.731044411659241E-1   6.652240753173828E-1   3.452654480934143E-1   2.984990775585175E-1   3.452478647232056E-1   2.982184290885925E-1  -5.713397264480591E-1   6.604723334312439E-1  
 1.784000000000000E7    -5.721147656440735E-1   6.652395129203796E-1   3.463320136070252E-1   2.984124720096588E-1   3.463262915611267E-1   2.982773482799530E-1  -5.706199407577515E-1   6.614820361137390E-1  
 1.786000000000000E7    -5.710198879241943E-1   6.661735773086548E-1   3.468932509422302E-1   2.987287640571594E-1   3.468837141990662E-1   2.979986369609833E-1  -5.698232054710388E-1   6.611598134040833E-1  
 1.788000000000000E7    -5.703540444374085E-1   6.659846901893616E-1   3.477882146835327E-1   2.981510162353516E-1   3.476605415344238E-1   2.984549105167389E-1  -5.691058635711670E-1   6.624053716659546E-1  
 1.790000000000000E7    -5.695736408233643E-1   6.666448116302490E-1   3.482931256294251E-1   2.981097698211670E-1   3.487764298915863E-1   2.983900904655457E-1  -5.676669478416443E-1   6.626906394958496E-1  
 1.792000000000000E7    -5.684984326362610E-1   6.671109795570374E-1   3.491472303867340E-1   2.985236942768097E-1   3.493448197841644E-1   2.980712652206421E-1  -5.671476125717163E-1   6.625121235847473E-1  
 1.794000000000000E7    -5.676296353340149E-1   6.674873232841492E-1   3.498403429985046E-1   2.984242141246796E-1   3.503828644752502E-1   2.979742288589478E-1  -5.663117170333862E-1   6.631376743316650E-1  
 1.796000000000000E7    -5.664744377136231E-1   6.680517792701721E-1   3.506285250186920E-1   2.987754344940186E-1   3.511397540569305E-1   2.979800999164581E-1  -5.651894807815552E-1   6.637193560600281E-1  
 1.798000000000000E7    -5.661627650260925E-1   6.686058640480042E-1   3.516156673431397E-1   2.985543906688690E-1   3.518621623516083E-1   2.987862229347229E-1  -5.641148686408997E-1   6.638674736022949E-1  
 1.800000000000000E7    -5.647321939468384E-1   6.685863733291626E-1   3.525973260402679E-1   2.986028790473938E-1   3.526261746883392E-1   2.984447181224823E-1  -5.635710954666138E-1   6.646295189857483E-1  
 1.802000000000000E7    -5.642603635787964E-1   6.688592433929443E-1   3.528401255607605E-1   2.985832393169403E-1   3.534787595272064E-1   2.983257770538330E-1  -5.620222687721252E-1   6.646614670753479E-1  
 1.804000000000000E7    -5.622442960739136E-1   6.690829992294312E-1   3.538268804550171E-1   2.981327176094055E-1   3.540171384811401E-1   2.978851199150085E-1  -5.612778663635254E-1   6.647166609764099E-1  
 1.806000000000000E7    -5.621222853660584E-1   6.698087453842163E-1   3.543203473091126E-1   2.982892990112305E-1   3.546711802482605E-1   2.985310256481171E-1  -5.601813197135925E-1   6.651724576950073E-1  
 1.808000000000000E7    -5.614335536956787E-1   6.702758669853210E-1   3.553561270236969E-1   2.986632585525513E-1   3.553858697414398E-1   2.983484268188477E-1  -5.596506595611572E-1   6.657503247261047E-1  
 1.810000000000000E7    -5.602722167968750E-1   6.708487868309021E-1   3.564441800117493E-1   2.987976372241974E-1   3.561738431453705E-1   2.982906997203827E-1  -5.591155886650085E-1   6.659422516822815E-1  
 1.812000000000000E7    -5.595135092735291E-1   6.710130572319031E-1   3.567754626274109E-1   2.986191213130951E-1   3.572409451007843E-1   2.983847558498383E-1  -5.580850243568420E-1   6.669428348541260E-1  
 1.814000000000000E7    -5.583196878433228E-1   6.716510653495789E-1   3.580884933471680E-1   2.980988323688507E-1   3.579680323600769E-1   2.984126210212708E-1  -5.566952228546143E-1   6.672493219375610E-1  
 1.816000000000000E7    -5.573938488960266E-1   6.718848943710327E-1   3.586152195930481E-1   2.985680103302002E-1   3.586833178997040E-1   2.982586026191711E-1  -5.555172562599182E-1   6.676974892616272E-1  
 1.818000000000000E7    -5.561764836311340E-1   6.723569631576538E-1   3.592069149017334E-1   2.980608046054840E-1   3.594618439674377E-1   2.978825867176056E-1  -5.547761321067810E-1   6.676647663116455E-1  
 1.820000000000000E7    -5.551868081092835E-1   6.723273396492004E-1   3.598338365554810E-1   2.984400391578674E-1   3.604344725608826E-1   2.979987859725952E-1  -5.539380908012390E-1   6.679177880287170E-1  
 1.822000000000000E7    -5.547682046890259E-1   6.728335022926331E-1   3.608965575695038E-1   2.986051142215729E-1   3.609657883644104E-1   2.983256578445435E-1  -5.529927015304565E-1   6.682111024856567E-1  
 1.824000000000000E7    -5.528635978698731E-1   6.731566190719605E-1   3.614914119243622E-1   2.984926104545593E-1   3.619713187217712E-1   2.977625727653503E-1  -5.518378019332886E-1   6.688032150268555E-1  
 1.826000000000000E7    -5.527838468551636E-1   6.739704012870789E-1   3.625231981277466E-1   2.985943853855133E-1   3.626125156879425E-1   2.979617118835449E-1  -5.511450171470642E-1   6.691609025001526E-1  
 1.828000000000000E7    -5.520175695419312E-1   6.742788553237915E-1   3.631422519683838E-1   2.984124124050140E-1   3.637800514698029E-1   2.981842458248138E-1  -5.503695011138916E-1   6.697359681129456E-1  
 1.830000000000000E7    -5.504438281059265E-1   6.745296716690064E-1   3.641872406005859E-1   2.986904978752136E-1   3.641203045845032E-1   2.981841862201691E-1  -5.494527220726013E-1   6.700745820999146E-1  
 1.832000000000000E7    -5.496858954429627E-1   6.749032735824585E-1   3.649592995643616E-1   2.981969714164734E-1   3.648096919059753E-1   2.980062663555145E-1  -5.484321117401123E-1   6.705065965652466E-1  
 1.834000000000000E7    -5.486082434654236E-1   6.752413511276245E-1   3.656366765499115E-1   2.986504733562470E-1   3.656581640243530E-1   2.977618575096130E-1  -5.474035143852234E-1   6.707966923713684E-1  
 1.836000000000000E7    -5.479490160942078E-1   6.759449243545532E-1   3.664284944534302E-1   2.982783019542694E-1   3.666602075099945E-1   2.984035313129425E-1  -5.464091300964356E-1   6.710327267646790E-1  
 1.838000000000000E7    -5.470690727233887E-1   6.761935353279114E-1   3.675843775272369E-1   2.982882261276245E-1   3.673683106899262E-1   2.978265583515167E-1  -5.457011461257935E-1   6.715379953384399E-1  
 1.840000000000000E7    -5.457112193107605E-1   6.759961247444153E-1   3.678628802299500E-1   2.984216511249542E-1   3.678635954856873E-1   2.976762652397156E-1  -5.447880029678345E-1   6.716807484626770E-1  
 1.842000000000000E7    -5.447174906730652E-1   6.766536831855774E-1   3.693021237850189E-1   2.981489598751068E-1   3.690478503704071E-1   2.978335022926331E-1  -5.437868237495422E-1   6.721355319023132E-1  
 1.844000000000000E7    -5.441038608551025E-1   6.768763065338135E-1   3.694372773170471E-1   2.982359528541565E-1   3.693134486675263E-1   2.976953387260437E-1  -5.427287817001343E-1   6.724245548248291E-1  
 1.846000000000000E7    -5.430625677108765E-1   6.775054931640625E-1   3.699764609336853E-1   2.982231080532074E-1   3.703467249870300E-1   2.977823317050934E-1  -5.413169860839844E-1   6.725636720657349E-1  
 1.848000000000000E7    -5.419357419013977E-1   6.775154471397400E-1   3.709166944026947E-1   2.981383800506592E-1   3.713023364543915E-1   2.975352108478546E-1  -5.411391854286194E-1   6.729073524475098E-1  
 1.850000000000000E7    -5.416014790534973E-1   6.783104538917542E-1   3.719367980957031E-1   2.981029152870178E-1   3.721325695514679E-1   2.978932559490204E-1  -5.396883487701416E-1   6.732326745986939E-1  
 1.852000000000000E7    -5.401538014411926E-1   6.782669425010681E-1   3.725727200508118E-1   2.986501455307007E-1   3.729546368122101E-1   2.977303266525269E-1  -5.393529534339905E-1   6.742130517959595E-1  
 1.854000000000000E7    -5.394221544265747E-1   6.787351369857788E-1   3.738686144351959E-1   2.978781759738922E-1   3.739820122718811E-1   2.979699671268463E-1  -5.381876826286316E-1   6.746563911437988E-1  
 1.856000000000000E7    -5.381125807762146E-1   6.791315674781799E-1   3.746822476387024E-1   2.974824905395508E-1   3.745810091495514E-1   2.973784506320953E-1  -5.373036861419678E-1   6.749783158302307E-1  
 1.858000000000000E7    -5.378398299217224E-1   6.797513365745544E-1   3.753909468650818E-1   2.977016866207123E-1   3.756325840950012E-1   2.975896894931793E-1  -5.360929369926453E-1   6.748546361923218E-1  
 1.860000000000000E7    -5.366710424423218E-1   6.797114014625549E-1   3.760614395141602E-1   2.979197204113007E-1   3.761811852455139E-1   2.976703643798828E-1  -5.354545116424561E-1   6.755464673042297E-1  
 1.862000000000000E7    -5.355311036109924E-1   6.805098056793213E-1   3.770654797554016E-1   2.983490228652954E-1   3.771043419837952E-1   2.976902127265930E-1  -5.348420739173889E-1   6.758975386619568E-1  
 1.864000000000000E7    -5.341478586196899E-1   6.806378364562988E-1   3.779222965240479E-1   2.976012229919434E-1   3.777140974998474E-1   2.975891232490540E-1  -5.333669781684876E-1   6.764984726905823E-1  
 1.866000000000000E7    -5.336333513259888E-1   6.812295317649841E-1   3.783843517303467E-1   2.977848351001740E-1   3.789122402667999E-1   2.974717319011688E-1  -5.324337482452393E-1   6.766071915626526E-1  
 1.868000000000000E7    -5.327562689781189E-1   6.812526583671570E-1   3.791900277137756E-1   2.972742915153503E-1   3.792462944984436E-1   2.973217964172363E-1  -5.310057401657105E-1   6.763777732849121E-1  
 1.870000000000000E7    -5.315146446228027E-1   6.815137267112732E-1   3.798747658729553E-1   2.974528372287750E-1   3.804102540016174E-1   2.974698245525360E-1  -5.300776362419128E-1   6.772029995918274E-1  
 1.872000000000000E7    -5.303391218185425E-1   6.821773052215576E-1   3.806855082511902E-1   2.975573241710663E-1   3.809314668178558E-1   2.974741160869598E-1  -5.294942855834961E-1   6.777159571647644E-1  
 1.874000000000000E7    -5.294502973556519E-1   6.824057102203369E-1   3.817219138145447E-1   2.974956333637238E-1   3.816520869731903E-1   2.970102727413178E-1  -5.285985469818115E-1   6.778815984725952E-1  
 1.876000000000000E7    -5.285256505012512E-1   6.824309825897217E-1   3.825271129608154E-1   2.973768413066864E-1   3.823025226593018E-1   2.967669069766998E-1  -5.273016691207886E-1   6.782903075218201E-1  
 1.878000000000000E7    -5.278308987617493E-1   6.828407049179077E-1   3.833823204040527E-1   2.976776063442230E-1   3.832563161849976E-1   2.972937226295471E-1  -5.261678099632263E-1   6.791884899139404E-1  
 1.880000000000000E7    -5.266479849815369E-1   6.833901405334473E-1   3.841902613639832E-1   2.969963848590851E-1   3.841688334941864E-1   2.969123721122742E-1  -5.257403254508972E-1   6.787571907043457E-1  
 1.882000000000000E7    -5.255120396614075E-1   6.839758157730103E-1   3.853741884231567E-1   2.975882589817047E-1   3.849542140960693E-1   2.972559034824371E-1  -5.243508219718933E-1   6.795180439949036E-1  
 1.884000000000000E7    -5.248488187789917E-1   6.839168071746826E-1   3.857104480266571E-1   2.974277734756470E-1   3.857974112033844E-1   2.969373166561127E-1  -5.234704613685608E-1   6.799842715263367E-1  
 1.886000000000000E7    -5.240021347999573E-1   6.849659681320190E-1   3.866411745548248E-1   2.972496747970581E-1   3.865733146667481E-1   2.970148324966431E-1  -5.230369567871094E-1   6.798814535140991E-1  
 1.888000000000000E7    -5.229266285896301E-1   6.851602792739868E-1   3.872031569480896E-1   2.973092496395111E-1   3.876350224018097E-1   2.970001995563507E-1  -5.218814611434937E-1   6.801658868789673E-1  
 1.890000000000000E7    -5.218603014945984E-1   6.849293112754822E-1   3.879398703575134E-1   2.971005737781525E-1   3.882427811622620E-1   2.967776060104370E-1  -5.208026170730591E-1   6.809747219085693E-1  
 1.892000000000000E7    -5.210328698158264E-1   6.853908896446228E-1   3.888620734214783E-1   2.968153357505798E-1   3.886416256427765E-1   2.966882288455963E-1  -5.194218754768372E-1   6.812882423400879E-1  
 1.894000000000000E7    -5.198541879653931E-1   6.856518387794495E-1   3.898952901363373E-1   2.969720661640167E-1   3.896779119968414E-1   2.966237366199493E-1  -5.186597704887390E-1   6.812313199043274E-1  
 1.896000000000000E7    -5.192174315452576E-1   6.862241029739380E-1   3.905399143695831E-1   2.965880334377289E-1   3.903192877769470E-1   2.965285778045654E-1  -5.175925493240356E-1   6.815180182456970E-1  
 1.898000000000000E7    -5.183117389678955E-1   6.862145662307739E-1   3.911008834838867E-1   2.967827916145325E-1   3.915818333625794E-1   2.966744601726532E-1  -5.165609717369080E-1   6.821518540382385E-1  
 1.900000000000000E7    -5.175794363021851E-1   6.865500807762146E-1   3.922257423400879E-1   2.967969775199890E-1   3.920902013778687E-1   2.969210445880890E-1  -5.159849524497986E-1   6.819612979888916E-1  
 1.902000000000000E7    -5.160818696022034E-1   6.869434118270874E-1   3.931353688240051E-1   2.962432503700256E-1   3.931503295898438E-1   2.964805066585541E-1  -5.149606466293335E-1   6.825426816940308E-1  
 1.904000000000000E7    -5.153138041496277E-1   6.872682571411133E-1   3.942624330520630E-1   2.964822947978973E-1   3.939518332481384E-1   2.962622344493866E-1  -5.133756995201111E-1   6.825309395790100E-1  
 1.906000000000000E7    -5.141512155532837E-1   6.877750754356384E-1   3.950298726558685E-1   2.964503765106201E-1   3.947539925575256E-1   2.965128421783447E-1  -5.128883719444275E-1   6.835390329360962E-1  
 1.908000000000000E7    -5.134829282760620E-1   6.884478330612183E-1   3.951639831066132E-1   2.965664863586426E-1   3.959642350673676E-1   2.965754270553589E-1  -5.122334957122803E-1   6.833740472793579E-1  
 1.910000000000000E7    -5.123824477195740E-1   6.884291172027588E-1   3.962963521480560E-1   2.962082624435425E-1   3.963384330272675E-1   2.960836291313171E-1  -5.111334323883057E-1   6.840299367904663E-1  
 1.912000000000000E7    -5.108265876770020E-1   6.887537240982056E-1   3.972128927707672E-1   2.965078353881836E-1   3.975478410720825E-1   2.959736585617065E-1  -5.103861093521118E-1   6.838031411170960E-1  
 1.914000000000000E7    -5.102367997169495E-1   6.889029145240784E-1   3.975544869899750E-1   2.957821190357208E-1   3.980476856231690E-1   2.957125604152679E-1  -5.089803338050842E-1   6.848065257072449E-1  
 1.916000000000000E7    -5.092309713363648E-1   6.892483830451965E-1   3.988631963729858E-1   2.966146767139435E-1   3.991304039955139E-1   2.960474193096161E-1  -5.081819891929627E-1   6.849182248115540E-1  
 1.918000000000000E7    -5.080841779708862E-1   6.897677779197693E-1   3.994711935520172E-1   2.960467338562012E-1   3.997809886932373E-1   2.957937121391296E-1  -5.069779157638550E-1   6.851152181625366E-1  
 1.920000000000000E7    -5.072317719459534E-1   6.896707415580750E-1   4.007565677165985E-1   2.956807911396027E-1   4.008233845233917E-1   2.958437204360962E-1  -5.061621069908142E-1   6.851997971534729E-1  
 1.922000000000000E7    -5.058017969131470E-1   6.901794672012329E-1   4.013364017009735E-1   2.958604991436005E-1   4.013396799564362E-1   2.950719594955444E-1  -5.049976706504822E-1   6.859542131423950E-1  
 1.924000000000000E7    -5.053534507751465E-1   6.906766891479492E-1   4.020205438137054E-1   2.957307100296021E-1   4.022959172725678E-1   2.953910827636719E-1  -5.042316913604736E-1   6.857187151908875E-1  
 1.926000000000000E7    -5.042350292205811E-1   6.910677552223206E-1   4.029744863510132E-1   2.954452633857727E-1   4.027939140796661E-1   2.952376604080200E-1  -5.033323168754578E-1   6.860408186912537E-1  
 1.928000000000000E7    -5.033829212188721E-1   6.911939382553101E-1   4.036821722984314E-1   2.956902980804443E-1   4.034491181373596E-1   2.954276204109192E-1  -5.026225447654724E-1   6.862756013870239E-1  
 1.930000000000000E7    -5.026713609695435E-1   6.913624405860901E-1   4.047625064849854E-1   2.956592440605164E-1   4.043513536453247E-1   2.953640520572662E-1  -5.013951063156128E-1   6.868873238563538E-1  
 1.932000000000000E7    -5.015907287597656E-1   6.912321448326111E-1   4.056177139282227E-1   2.951185107231140E-1   4.054572880268097E-1   2.949362099170685E-1  -4.998898208141327E-1   6.872462034225464E-1  
 1.934000000000000E7    -5.004459023475647E-1   6.921867728233337E-1   4.064061641693115E-1   2.953595221042633E-1   4.063084721565247E-1   2.949017584323883E-1  -4.995678365230560E-1   6.871797442436218E-1  
 1.936000000000000E7    -4.995985925197601E-1   6.921988129615784E-1   4.069842398166657E-1   2.950727045536041E-1   4.070353507995606E-1   2.952020764350891E-1  -4.980089664459229E-1   6.878255605697632E-1  
 1.938000000000000E7    -4.984788000583649E-1   6.926888823509216E-1   4.081508517265320E-1   2.948111891746521E-1   4.077153801918030E-1   2.947226762771606E-1  -4.973580241203308E-1   6.878921389579773E-1  
 1.940000000000000E7    -4.978247880935669E-1   6.929625272750855E-1   4.084110260009766E-1   2.951232492923737E-1   4.088910520076752E-1   2.948591411113739E-1  -4.961319565773010E-1   6.885960102081299E-1  
 1.942000000000000E7    -4.964699149131775E-1   6.930949687957764E-1   4.093801379203796E-1   2.950243055820465E-1   4.094758033752441E-1   2.945533394813538E-1  -4.957336187362671E-1   6.883861422538757E-1  
 1.944000000000000E7    -4.952998757362366E-1   6.936805844306946E-1   4.103911519050598E-1   2.945020496845245E-1   4.106122553348541E-1   2.942515015602112E-1  -4.943324029445648E-1   6.887898445129395E-1  
 1.946000000000000E7    -4.943844079971314E-1   6.934360265731812E-1   4.111758470535278E-1   2.943707406520844E-1   4.110067486763001E-1   2.941103577613831E-1  -4.932619929313660E-1   6.893516182899475E-1  
 1.948000000000000E7    -4.932709336280823E-1   6.939356923103333E-1   4.125059843063355E-1   2.943531870841980E-1   4.122673869132996E-1   2.939622998237610E-1  -4.923794269561768E-1   6.895123124122620E-1  
 1.950000000000000E7    -4.926681220531464E-1   6.944621205329895E-1   4.125608205795288E-1   2.942610979080200E-1   4.128079414367676E-1   2.937647104263306E-1  -4.912030398845673E-1   6.892551183700562E-1  
 1.952000000000000E7    -4.916195571422577E-1   6.949421763420105E-1   4.137644767761231E-1   2.945788502693176E-1   4.136772155761719E-1   2.939804494380951E-1  -4.905052483081818E-1   6.899968385696411E-1  
 1.954000000000000E7    -4.903026223182678E-1   6.951136589050293E-1   4.141598939895630E-1   2.945758402347565E-1   4.146550297737122E-1   2.936253249645233E-1  -4.898971915245056E-1   6.901651024818420E-1  
 1.956000000000000E7    -4.895929992198944E-1   6.953727602958679E-1   4.153550863265991E-1   2.942138612270355E-1   4.158842563629150E-1   2.936928272247315E-1  -4.882254302501679E-1   6.903647780418396E-1  
 1.958000000000000E7    -4.885525107383728E-1   6.955751180648804E-1   4.162788689136505E-1   2.943232953548431E-1   4.165173470973969E-1   2.936622202396393E-1  -4.873395562171936E-1   6.908726692199707E-1  
 1.960000000000000E7    -4.871388077735901E-1   6.958853006362915E-1   4.171631932258606E-1   2.939301133155823E-1   4.176802337169647E-1   2.933417558670044E-1  -4.866946041584015E-1   6.913366913795471E-1  
 1.962000000000000E7    -4.864283800125122E-1   6.961194872856140E-1   4.178876280784607E-1   2.939154803752899E-1   4.177186489105225E-1   2.937323153018951E-1  -4.853798449039459E-1   6.915525197982788E-1  
 1.964000000000000E7    -4.857163727283478E-1   6.963309049606323E-1   4.184534549713135E-1   2.933056354522705E-1   4.189498424530029E-1   2.933340966701508E-1  -4.842270612716675E-1   6.917864084243774E-1  
 1.966000000000000E7    -4.843568801879883E-1   6.966685652732849E-1   4.198924899101257E-1   2.937713265419006E-1   4.198882579803467E-1   2.930186986923218E-1  -4.831540882587433E-1   6.917240619659424E-1  
 1.968000000000000E7    -4.834037423133850E-1   6.965941190719605E-1   4.202777147293091E-1   2.938739657402039E-1   4.204244911670685E-1   2.937710881233215E-1  -4.822708666324616E-1   6.924382448196411E-1  
 1.970000000000000E7    -4.822787344455719E-1   6.965710520744324E-1   4.215438663959503E-1   2.933582663536072E-1   4.210708737373352E-1   2.930669188499451E-1  -4.812043905258179E-1   6.925450563430786E-1  
 1.972000000000000E7    -4.817262291908264E-1   6.975371241569519E-1   4.222020506858826E-1   2.933075129985809E-1   4.224707782268524E-1   2.931303381919861E-1  -4.804599285125732E-1   6.925075054168701E-1  
 1.974000000000000E7    -4.801475703716278E-1   6.972330212593079E-1   4.228337705135346E-1   2.927157282829285E-1   4.229992926120758E-1   2.925633490085602E-1  -4.791687130928040E-1   6.932659149169922E-1  
 1.976000000000000E7    -4.792491793632507E-1   6.976951956748962E-1   4.235687851905823E-1   2.926258444786072E-1   4.240849316120148E-1   2.926269769668579E-1  -4.782605171203613E-1   6.930820345878601E-1  
 1.978000000000000E7    -4.783853292465210E-1   6.981143951416016E-1   4.248538315296173E-1   2.930428385734558E-1   4.247284829616547E-1   2.924833297729492E-1  -4.772806465625763E-1   6.930657029151917E-1  
 1.980000000000000E7    -4.773295223712921E-1   6.979465484619141E-1   4.257140457630158E-1   2.927808761596680E-1   4.253388047218323E-1   2.922796607017517E-1  -4.762054681777954E-1   6.939598917961121E-1  
 1.982000000000000E7    -4.766772687435150E-1   6.981955766677856E-1   4.265846312046051E-1   2.925051748752594E-1   4.263143837451935E-1   2.921716570854187E-1  -4.755029678344727E-1   6.942127943038940E-1  
 1.984000000000000E7    -4.753679335117340E-1   6.986833214759827E-1   4.266529083251953E-1   2.926418185234070E-1   4.272944629192352E-1   2.920789420604706E-1  -4.743744134902954E-1   6.938832998275757E-1  
 1.986000000000000E7    -4.742582440376282E-1   6.989498734474182E-1   4.275615215301514E-1   2.924345433712006E-1   4.282109141349793E-1   2.920722961425781E-1  -4.735675454139710E-1   6.940643191337585E-1  
 1.988000000000000E7    -4.730710089206696E-1   6.992409229278565E-1   4.294756948947907E-1   2.920593619346619E-1   4.288955926895142E-1   2.913263738155365E-1  -4.727406501770020E-1   6.949237585067749E-1  
 1.990000000000000E7    -4.723323881626129E-1   6.999443769454956E-1   4.294064044952393E-1   2.917038202285767E-1   4.297135770320892E-1   2.914652228355408E-1  -4.716229736804962E-1   6.949769258499146E-1  
 1.992000000000000E7    -4.711973667144775E-1   7.000174522399902E-1   4.304783642292023E-1   2.916423082351685E-1   4.309130311012268E-1   2.912794947624207E-1  -4.701095521450043E-1   6.957738995552063E-1  
 1.994000000000000E7    -4.700806438922882E-1   6.999599337577820E-1   4.315975606441498E-1   2.918533682823181E-1   4.313865900039673E-1   2.909522056579590E-1  -4.697476625442505E-1   6.956846117973328E-1  
 1.996000000000000E7    -4.693588316440582E-1   6.999452710151672E-1   4.320894479751587E-1   2.911606431007385E-1   4.322450757026672E-1   2.910003066062927E-1  -4.681013822555542E-1   6.960388422012329E-1  
 1.998000000000000E7    -4.684003889560700E-1   7.003787755966187E-1   4.329367578029633E-1   2.914816737174988E-1   4.329630732536316E-1   2.910502851009369E-1  -4.675263464450836E-1   6.962363123893738E-1  
 2.000000000000000E7    -4.671120047569275E-1   7.004907131195068E-1   4.339938759803772E-1   2.911278009414673E-1   4.335941076278687E-1   2.905429899692535E-1  -4.661276340484619E-1   6.966673731803894E-1  
 2.002000000000000E7    -4.674355983734131E-1   6.991841793060303E-1   4.340774416923523E-1   2.917261421680450E-1   4.338319897651672E-1   2.915886342525482E-1  -4.668996036052704E-1   6.946117281913757E-1  
 2.004000000000000E7    -4.664368033409119E-1   6.998572349548340E-1   4.347272217273712E-1   2.916322052478790E-1   4.342868626117706E-1   2.914131581783295E-1  -4.656318128108978E-1   6.948121786117554E-1  
 2.006000000000000E7    -4.648168981075287E-1   6.998505592346191E-1   4.354801476001740E-1   2.915957868099213E-1   4.355076551437378E-1   2.913510501384735E-1  -4.647979736328125E-1   6.946693658828735E-1  
 2.008000000000000E7    -4.641355574131012E-1   7.000122666358948E-1   4.364376664161682E-1   2.913643717765808E-1   4.359351992607117E-1   2.910217046737671E-1  -4.634007215499878E-1   6.954249143600464E-1  
 2.010000000000000E7    -4.632757306098938E-1   7.001441717147827E-1   4.370323717594147E-1   2.908477485179901E-1   4.369146823883057E-1   2.911997735500336E-1  -4.624105393886566E-1   6.957088708877564E-1  
 2.012000000000000E7    -4.620763361454010E-1   7.004628777503967E-1   4.378635883331299E-1   2.910001575946808E-1   4.376985728740692E-1   2.908774614334106E-1  -4.614276587963104E-1   6.959136128425598E-1  
 2.014000000000000E7    -4.607442617416382E-1   7.006845474243164E-1   4.389348030090332E-1   2.912042140960693E-1   4.386318325996399E-1   2.907409071922302E-1  -4.607056379318237E-1   6.961719393730164E-1  
 2.016000000000000E7    -4.599178433418274E-1   7.008398771286011E-1   4.399162530899048E-1   2.910415828227997E-1   4.396871924400330E-1   2.904935181140900E-1  -4.595952630043030E-1   6.964930295944214E-1  
 2.018000000000000E7    -4.591893851757050E-1   7.010458707809448E-1   4.409599900245667E-1   2.900668978691101E-1   4.404763579368591E-1   2.902246713638306E-1  -4.585765898227692E-1   6.966562271118164E-1  
 2.020000000000000E7    -4.580353498458862E-1   7.011978030204773E-1   4.418007135391235E-1   2.906557321548462E-1   4.412630200386047E-1   2.900769710540772E-1  -4.570804834365845E-1   6.964340806007385E-1  
 2.022000000000000E7    -4.570521712303162E-1   7.017079591751099E-1   4.430329799652100E-1   2.902866303920746E-1   4.418805539608002E-1   2.898190021514893E-1  -4.564937055110931E-1   6.973229050636292E-1  
 2.024000000000000E7    -4.563095271587372E-1   7.019077539443970E-1   4.430412352085114E-1   2.900521457195282E-1   4.432476162910461E-1   2.900303900241852E-1  -4.552493691444397E-1   6.976626515388489E-1  
 2.026000000000000E7    -4.549535214900971E-1   7.026031613349915E-1   4.439794719219208E-1   2.897304296493530E-1   4.442864954471588E-1   2.901438176631928E-1  -4.544502496719360E-1   6.977403163909912E-1  
 2.028000000000000E7    -4.543983042240143E-1   7.026458978652954E-1   4.450688660144806E-1   2.896886765956879E-1   4.448426961898804E-1   2.895050644874573E-1  -4.531131684780121E-1   6.978663206100464E-1  
 2.030000000000000E7    -4.532762765884399E-1   7.029066085815430E-1   4.453743398189545E-1   2.895606756210327E-1   4.459331631660461E-1   2.893696427345276E-1  -4.526093304157257E-1   6.975383162498474E-1  
 2.032000000000000E7    -4.520346224308014E-1   7.027169466018677E-1   4.468060731887817E-1   2.898315489292145E-1   4.468327164649963E-1   2.891923487186432E-1  -4.511235356330872E-1   6.983541250228882E-1  
 2.034000000000000E7    -4.506384432315826E-1   7.030201554298401E-1   4.480574727058411E-1   2.896375358104706E-1   4.476006925106049E-1   2.892367541790009E-1  -4.504953324794769E-1   6.987431645393372E-1  
 2.036000000000000E7    -4.499348998069763E-1   7.034272551536560E-1   4.482430517673492E-1   2.893253266811371E-1   4.481081664562225E-1   2.888068556785584E-1  -4.496071934700012E-1   6.986448168754578E-1  
 2.038000000000000E7    -4.486632347106934E-1   7.033108472824097E-1   4.494061470031738E-1   2.888995409011841E-1   4.494743943214417E-1   2.887022495269775E-1  -4.481777846813202E-1   6.988999247550964E-1  
 2.040000000000000E7    -4.475571513175964E-1   7.042514085769653E-1   4.499823451042175E-1   2.882943749427795E-1   4.498658776283264E-1   2.884174883365631E-1  -4.474630951881409E-1   6.986519098281860E-1  
 2.042000000000000E7    -4.460343718528748E-1   7.043409943580627E-1   4.511370956897736E-1   2.887545526027679E-1   4.504178464412689E-1   2.878660559654236E-1  -4.469228386878967E-1   6.993434429168701E-1  
 2.044000000000000E7    -4.454591870307922E-1   7.042864561080933E-1   4.519144594669342E-1   2.886066436767578E-1   4.515444636344910E-1   2.882146835327148E-1  -4.451507031917572E-1   6.994508504867554E-1  
 2.046000000000000E7    -4.443928897380829E-1   7.047037482261658E-1   4.528644382953644E-1   2.881830334663391E-1   4.527648091316223E-1   2.876295447349548E-1  -4.443928301334381E-1   6.991986632347107E-1  
 2.048000000000000E7    -4.437952339649200E-1   7.050260901451111E-1   4.537389576435089E-1   2.877497076988220E-1   4.538465142250061E-1   2.877564132213593E-1  -4.432443082332611E-1   6.995336413383484E-1  
 2.050000000000000E7    -4.427216053009033E-1   7.048475742340088E-1   4.547176957130432E-1   2.878465652465820E-1   4.547295570373535E-1   2.876601517200470E-1  -4.422113895416260E-1   6.998852491378784E-1  
 2.052000000000000E7    -4.414145648479462E-1   7.048325538635254E-1   4.554794728755951E-1   2.873463928699493E-1   4.550911188125610E-1   2.870262861251831E-1  -4.411109387874603E-1   7.000333070755005E-1  
 2.054000000000000E7    -4.403708577156067E-1   7.053130865097046E-1   4.561800062656403E-1   2.872697114944458E-1   4.558225572109222E-1   2.871894538402557E-1  -4.402084052562714E-1   7.002546787261963E-1  
 2.056000000000000E7    -4.394210278987885E-1   7.053592205047607E-1   4.569890201091766E-1   2.872389554977417E-1   4.567642509937286E-1   2.869031727313995E-1  -4.393033385276794E-1   7.008413672447205E-1  
 2.058000000000000E7    -4.382730126380920E-1   7.061040401458740E-1   4.575416445732117E-1   2.871521115303040E-1   4.574911594390869E-1   2.866701185703278E-1  -4.383298754692078E-1   7.006717920303345E-1  
 2.060000000000000E7    -4.375542998313904E-1   7.060121297836304E-1   4.585387110710144E-1   2.865751981735230E-1   4.587135910987854E-1   2.863302528858185E-1  -4.370613694190979E-1   7.009827494621277E-1  
 2.062000000000000E7    -4.364090263843536E-1   7.057199478149414E-1   4.597629010677338E-1   2.865498960018158E-1   4.594167172908783E-1   2.862172722816467E-1  -4.360325634479523E-1   7.013430595397949E-1  
 2.064000000000000E7    -4.351687729358673E-1   7.061417698860169E-1   4.605661034584045E-1   2.861244380474091E-1   4.605020284652710E-1   2.857413291931152E-1  -4.348851442337036E-1   7.014127969741821E-1  
 2.066000000000000E7    -4.341373741626740E-1   7.065330743789673E-1   4.613663256168366E-1   2.863242030143738E-1   4.611082077026367E-1   2.860883474349976E-1  -4.336514174938202E-1   7.015224099159241E-1  
 2.068000000000000E7    -4.332013428211212E-1   7.066634297370911E-1   4.624422788619995E-1   2.860190272331238E-1   4.620978236198425E-1   2.855399250984192E-1  -4.330509006977081E-1   7.023452520370483E-1  
 2.070000000000000E7    -4.321159720420837E-1   7.070390582084656E-1   4.629064798355103E-1   2.854760289192200E-1   4.632136821746826E-1   2.853365838527679E-1  -4.317525625228882E-1   7.020096778869629E-1  
 2.072000000000000E7    -4.308921396732330E-1   7.065064907073975E-1   4.643490314483643E-1   2.857602238655090E-1   4.637185931205750E-1   2.855099439620972E-1  -4.311145842075348E-1   7.027539014816284E-1  
 2.074000000000000E7    -4.300955832004547E-1   7.066666483879089E-1   4.653470814228058E-1   2.854106426239014E-1   4.649195373058319E-1   2.849304080009460E-1  -4.293808639049530E-1   7.027765512466431E-1  
 2.076000000000000E7    -4.288705289363861E-1   7.071562409400940E-1   4.657582938671112E-1   2.852260768413544E-1   4.658324122428894E-1   2.847012877464294E-1  -4.292677342891693E-1   7.024866938591003E-1  
 2.078000000000000E7    -4.276259243488312E-1   7.077397108078003E-1   4.667255282402039E-1   2.846842408180237E-1   4.669565260410309E-1   2.845837771892548E-1  -4.275979995727539E-1   7.027380466461182E-1  
 2.080000000000000E7    -4.272482395172119E-1   7.075460553169251E-1   4.678500294685364E-1   2.844958901405335E-1   4.676092863082886E-1   2.843192219734192E-1  -4.267691671848297E-1   7.030516862869263E-1  
 2.082000000000000E7    -4.255288243293762E-1   7.075120806694031E-1   4.687511324882507E-1   2.844447195529938E-1   4.682743847370148E-1   2.842291295528412E-1  -4.258543550968170E-1   7.034063339233398E-1  
 2.084000000000000E7    -4.247944951057434E-1   7.076582312583923E-1   4.694212675094605E-1   2.842375338077545E-1   4.689660668373108E-1   2.839481830596924E-1  -4.245619177818298E-1   7.032561898231506E-1  
 2.086000000000000E7    -4.235441982746124E-1   7.081385254859924E-1   4.703303575515747E-1   2.837067246437073E-1   4.703179299831390E-1   2.837599217891693E-1  -4.232449829578400E-1   7.034712433815002E-1  
 2.088000000000000E7    -4.228440523147583E-1   7.085411548614502E-1   4.706385731697083E-1   2.837358713150024E-1   4.709943234920502E-1   2.834700942039490E-1  -4.225978255271912E-1   7.036654949188232E-1  
 2.090000000000000E7    -4.215684533119202E-1   7.086380124092102E-1   4.720907807350159E-1   2.836905419826508E-1   4.717146158218384E-1   2.829193472862244E-1  -4.218317866325378E-1   7.038952112197876E-1  
 2.092000000000000E7    -4.206515252590179E-1   7.087569236755371E-1   4.731449484825134E-1   2.828122377395630E-1   4.729990959167481E-1   2.830359041690826E-1  -4.203766286373138E-1   7.038525342941284E-1  
 2.094000000000000E7    -4.191025495529175E-1   7.090127468109131E-1   4.740237295627594E-1   2.828844189643860E-1   4.737094044685364E-1   2.826039195060730E-1  -4.197188019752502E-1   7.043691277503967E-1  
 2.096000000000000E7    -4.181705713272095E-1   7.086541652679443E-1   4.746237099170685E-1   2.826958894729614E-1   4.743903279304504E-1   2.825091481208801E-1  -4.181137382984161E-1   7.043599486351013E-1  
 2.098000000000000E7    -4.174389839172363E-1   7.088385820388794E-1   4.756197631359100E-1   2.821759581565857E-1   4.754227399826050E-1   2.819492220878601E-1  -4.170681238174439E-1   7.048765420913696E-1  
 2.100000000000000E7    -4.163111448287964E-1   7.092571258544922E-1   4.761164188385010E-1   2.820109724998474E-1   4.763063192367554E-1   2.818501591682434E-1  -4.162367582321167E-1   7.048088908195496E-1  
 2.102000000000000E7    -4.152556657791138E-1   7.099131941795349E-1   4.774155616760254E-1   2.818259000778198E-1   4.772992134094238E-1   2.818094491958618E-1  -4.147155582904816E-1   7.049370408058167E-1  
 2.104000000000000E7    -4.140075147151947E-1   7.096283435821533E-1   4.779660403728485E-1   2.820226848125458E-1   4.780879616737366E-1   2.816547453403473E-1  -4.136974215507507E-1   7.056385874748230E-1  
 2.106000000000000E7    -4.132712185382843E-1   7.096624970436096E-1   4.793800115585327E-1   2.815188169479370E-1   4.793083965778351E-1   2.813634872436523E-1  -4.128588140010834E-1   7.049136161804199E-1  
 2.108000000000000E7    -4.121505916118622E-1   7.094341516494751E-1   4.804492592811585E-1   2.811368107795715E-1   4.802105128765106E-1   2.809618413448334E-1  -4.116608798503876E-1   7.054703235626221E-1  
 2.110000000000000E7    -4.110442996025085E-1   7.105282545089722E-1   4.805903732776642E-1   2.813726365566254E-1   4.807485640048981E-1   2.808382213115692E-1  -4.108995199203491E-1   7.055382728576660E-1  
 2.112000000000000E7    -4.102793633937836E-1   7.101442813873291E-1   4.818952083587647E-1   2.808290719985962E-1   4.816858768463135E-1   2.806724905967712E-1  -4.097419381141663E-1   7.057885527610779E-1  
 2.114000000000000E7    -4.092755019664764E-1   7.102759480476379E-1   4.826241731643677E-1   2.802252173423767E-1   4.825519323348999E-1   2.802760899066925E-1  -4.082941710948944E-1   7.059426307678223E-1  
 2.116000000000000E7    -4.080613851547241E-1   7.101323604583740E-1   4.836114645004273E-1   2.801253795623779E-1   4.836059808731079E-1   2.798840999603272E-1  -4.076692461967468E-1   7.059623599052429E-1  
 2.118000000000000E7    -4.069817066192627E-1   7.105917930603027E-1   4.842148125171661E-1   2.803189754486084E-1   4.841950833797455E-1   2.794550955295563E-1  -4.071517586708069E-1   7.060399651527405E-1  
 2.120000000000000E7    -4.057425558567047E-1   7.106271386146545E-1   4.856052398681641E-1   2.796270847320557E-1   4.851574003696442E-1   2.796032428741455E-1  -4.055700302124023E-1   7.066174745559692E-1  
 2.122000000000000E7    -4.048753082752228E-1   7.106922268867493E-1   4.860664308071137E-1   2.796162664890289E-1   4.859905838966370E-1   2.794250845909119E-1  -4.041881263256073E-1   7.063872814178467E-1  
 2.124000000000000E7    -4.036630392074585E-1   7.113802433013916E-1   4.871515035629273E-1   2.794099152088165E-1   4.870128035545349E-1   2.791199982166290E-1  -4.036702215671539E-1   7.065937519073486E-1  
 2.126000000000000E7    -4.025887250900269E-1   7.111643552780151E-1   4.881663918495178E-1   2.785912156105042E-1   4.880543053150177E-1   2.783633470535278E-1  -4.024985134601593E-1   7.064309120178223E-1  
 2.128000000000000E7    -4.015856087207794E-1   7.115336656570435E-1   4.889014959335327E-1   2.788298726081848E-1   4.884686470031738E-1   2.780215144157410E-1  -4.014661610126495E-1   7.068786025047302E-1  
 2.130000000000000E7    -4.003293812274933E-1   7.116629481315613E-1   4.897872805595398E-1   2.784278988838196E-1   4.899041950702667E-1   2.779931426048279E-1  -4.002144336700440E-1   7.066603899002075E-1  
 2.132000000000000E7    -3.991527557373047E-1   7.114261388778687E-1   4.908790588378906E-1   2.783623933792114E-1   4.905657172203064E-1   2.780205011367798E-1  -3.994289338588715E-1   7.068780064582825E-1  
 2.134000000000000E7    -3.984383046627045E-1   7.115929126739502E-1   4.917012453079224E-1   2.773989737033844E-1   4.913267791271210E-1   2.773974835872650E-1  -3.975872099399567E-1   7.072881460189819E-1  
 2.136000000000000E7    -3.972328007221222E-1   7.115057706832886E-1   4.925636947154999E-1   2.776298522949219E-1   4.920738041400909E-1   2.771565914154053E-1  -3.969485759735107E-1   7.072620391845703E-1  
 2.138000000000000E7    -3.961520195007324E-1   7.121191024780273E-1   4.928714632987976E-1   2.772725820541382E-1   4.929673671722412E-1   2.770550847053528E-1  -3.959215283393860E-1   7.070608735084534E-1  
 2.140000000000000E7    -3.952036201953888E-1   7.118399143218994E-1   4.946210384368897E-1   2.767136991024017E-1   4.939392805099487E-1   2.765021026134491E-1  -3.947831392288208E-1   7.070971727371216E-1  
 2.142000000000000E7    -3.941329121589661E-1   7.121113538742065E-1   4.951024651527405E-1   2.763664722442627E-1   4.950073957443237E-1   2.762612104415894E-1  -3.935360610485077E-1   7.072311639785767E-1  
 2.144000000000000E7    -3.927666544914246E-1   7.119894027709961E-1   4.963474869728088E-1   2.764784693717957E-1   4.959645271301270E-1   2.760888338088989E-1  -3.929395675659180E-1   7.081211805343628E-1  
 2.146000000000000E7    -3.915869295597076E-1   7.121496200561523E-1   4.971706867218018E-1   2.759144902229309E-1   4.965735971927643E-1   2.755243182182312E-1  -3.918019831180573E-1   7.077302336692810E-1  
 2.148000000000000E7    -3.910197317600250E-1   7.124040722846985E-1   4.974636733531952E-1   2.758098542690277E-1   4.978833794593811E-1   2.755427956581116E-1  -3.908360898494721E-1   7.076892852783203E-1  
 2.150000000000000E7    -3.897679448127747E-1   7.124716043472290E-1   4.991009831428528E-1   2.756053805351257E-1   4.982829391956329E-1   2.752957344055176E-1  -3.894970417022705E-1   7.083168625831604E-1  
 2.152000000000000E7    -3.886618912220001E-1   7.127103805541992E-1   4.994630813598633E-1   2.751985788345337E-1   4.995796382427216E-1   2.745306193828583E-1  -3.886736333370209E-1   7.075616717338562E-1  
 2.154000000000000E7    -3.879267871379852E-1   7.128919363021851E-1   5.006986856460571E-1   2.746842503547669E-1   5.004535913467407E-1   2.746647596359253E-1  -3.872587978839874E-1   7.081611156463623E-1  
 2.156000000000000E7    -3.863568007946014E-1   7.129341363906860E-1   5.007131099700928E-1   2.750070095062256E-1   5.013222694396973E-1   2.744742035865784E-1  -3.862534463405609E-1   7.081201672554016E-1  
 2.158000000000000E7    -3.856709897518158E-1   7.131583094596863E-1   5.024053454399109E-1   2.742829620838165E-1   5.021972060203552E-1   2.740907073020935E-1  -3.852533400058746E-1   7.084120512008667E-1  
 2.160000000000000E7    -3.843219280242920E-1   7.129567265510559E-1   5.032212138175964E-1   2.738627791404724E-1   5.028361678123474E-1   2.736231982707977E-1  -3.842371702194214E-1   7.086192369461060E-1  
 2.162000000000000E7    -3.831945955753326E-1   7.135986685752869E-1   5.040369629859924E-1   2.735409140586853E-1   5.036135315895081E-1   2.729513347148895E-1  -3.835282623767853E-1   7.084869742393494E-1  
 2.164000000000000E7    -3.822717368602753E-1   7.133008241653442E-1   5.050306320190430E-1   2.735577821731567E-1   5.048722624778748E-1   2.726961672306061E-1  -3.819077014923096E-1   7.088741660118103E-1  
 2.166000000000000E7    -3.809551894664764E-1   7.132176756858826E-1   5.060085058212280E-1   2.727996706962585E-1   5.061041712760925E-1   2.728202044963837E-1  -3.807690441608429E-1   7.088521718978882E-1  
 2.168000000000000E7    -3.801313042640686E-1   7.136610746383667E-1   5.065134167671204E-1   2.723529040813446E-1   5.067289471626282E-1   2.721545398235321E-1  -3.799479007720947E-1   7.090159654617310E-1  
 2.170000000000000E7    -3.789114058017731E-1   7.131879329681397E-1   5.080901980400085E-1   2.726832032203674E-1   5.074665546417236E-1   2.722815871238709E-1  -3.789702057838440E-1   7.096971273422241E-1  
 2.172000000000000E7    -3.776959478855133E-1   7.132899761199951E-1   5.085013508796692E-1   2.721099853515625E-1   5.085427761077881E-1   2.722549140453339E-1  -3.776325881481171E-1   7.093398571014404E-1  
 2.174000000000000E7    -3.767651319503784E-1   7.134853005409241E-1   5.093953609466553E-1   2.716566622257233E-1   5.092997550964356E-1   2.715102434158325E-1  -3.767243623733521E-1   7.092052102088928E-1  
 2.176000000000000E7    -3.758700191974640E-1   7.134619951248169E-1   5.108973979949951E-1   2.713188230991364E-1   5.103575587272644E-1   2.713615298271179E-1  -3.754524290561676E-1   7.092460393905640E-1  
 2.178000000000000E7    -3.744877576828003E-1   7.137170433998108E-1   5.114922523498535E-1   2.713451981544495E-1   5.112286210060120E-1   2.704406678676605E-1  -3.743743598461151E-1   7.097010612487793E-1  
 2.180000000000000E7    -3.734918534755707E-1   7.135154008865356E-1   5.122167468070984E-1   2.704713344573975E-1   5.118337869644165E-1   2.704702317714691E-1  -3.733134567737579E-1   7.095366120338440E-1  
 2.182000000000000E7    -3.724979758262634E-1   7.137946486473084E-1   5.132883191108704E-1   2.705689966678619E-1   5.126911401748657E-1   2.699318826198578E-1  -3.718588054180145E-1   7.093616127967835E-1  
 2.184000000000000E7    -3.714192211627960E-1   7.140498161315918E-1   5.143107175827026E-1   2.704833149909973E-1   5.136506557464600E-1   2.699078917503357E-1  -3.718005120754242E-1   7.093248367309570E-1  
 2.186000000000000E7    -3.702305555343628E-1   7.142751216888428E-1   5.146836638450623E-1   2.698469758033752E-1   5.143857598304749E-1   2.699437737464905E-1  -3.700195252895355E-1   7.094349861145020E-1  
 2.188000000000000E7    -3.691694140434265E-1   7.139201760292053E-1   5.158287882804871E-1   2.695328891277313E-1   5.149971246719360E-1   2.692992091178894E-1  -3.689557909965515E-1   7.098883986473084E-1  
 2.190000000000000E7    -3.679184615612030E-1   7.140158414840698E-1   5.167147517204285E-1   2.691234946250916E-1   5.165474414825440E-1   2.688433825969696E-1  -3.677544891834259E-1   7.097732424736023E-1  
 2.192000000000000E7    -3.671361804008484E-1   7.144985198974609E-1   5.178706645965576E-1   2.686918079853058E-1   5.176456570625305E-1   2.684568464756012E-1  -3.668142557144165E-1   7.096508145332336E-1  
 2.194000000000000E7    -3.657065033912659E-1   7.145863771438599E-1   5.186004042625427E-1   2.685063481330872E-1   5.184437036514282E-1   2.680979669094086E-1  -3.657184243202210E-1   7.094737887382507E-1  
 2.196000000000000E7    -3.644527494907379E-1   7.142090201377869E-1   5.192976593971252E-1   2.681280076503754E-1   5.193500518798828E-1   2.677708864212036E-1  -3.644150197505951E-1   7.101866006851196E-1  
 2.198000000000000E7    -3.636210262775421E-1   7.144051790237427E-1   5.203723907470703E-1   2.679299414157867E-1   5.198753476142883E-1   2.677057981491089E-1  -3.636578619480133E-1   7.098369598388672E-1  
 2.200000000000000E7    -3.627139329910278E-1   7.142185568809509E-1   5.217399597167969E-1   2.677267193794251E-1   5.214667916297913E-1   2.674731016159058E-1  -3.625346720218658E-1   7.098416090011597E-1  
 2.202000000000000E7    -3.615167140960693E-1   7.148209810256958E-1   5.222056508064270E-1   2.670387029647827E-1   5.220541357994080E-1   2.666870951652527E-1  -3.615071773529053E-1   7.098760008811951E-1  
 2.204000000000000E7    -3.605328202247620E-1   7.146481275558472E-1   5.230824351310730E-1   2.669662535190582E-1   5.227965116500855E-1   2.666544318199158E-1  -3.603385686874390E-1   7.101213932037354E-1  
 2.206000000000000E7    -3.594474792480469E-1   7.145532369613648E-1   5.239101052284241E-1   2.662242650985718E-1   5.236027836799622E-1   2.660936713218689E-1  -3.590577542781830E-1   7.105549573898315E-1  
 2.208000000000000E7    -3.578897714614868E-1   7.148186564445496E-1   5.249021649360657E-1   2.660104036331177E-1   5.245856046676636E-1   2.655131220817566E-1  -3.581461906433106E-1   7.100331783294678E-1  
 2.210000000000000E7    -3.574808239936829E-1   7.146126031875610E-1   5.258571505546570E-1   2.657445073127747E-1   5.255485177040100E-1   2.649970054626465E-1  -3.569357991218567E-1   7.101843953132629E-1  
 2.212000000000000E7    -3.560600876808167E-1   7.148419618606567E-1   5.262339115142822E-1   2.653068602085114E-1   5.263425111770630E-1   2.649805545806885E-1  -3.557641506195068E-1   7.101947069168091E-1  
 2.214000000000000E7    -3.544628322124481E-1   7.145218849182129E-1   5.279410481452942E-1   2.650892436504364E-1   5.278003811836243E-1   2.645107209682465E-1  -3.548147678375244E-1   7.104857563972473E-1  
 2.216000000000000E7    -3.535709083080292E-1   7.145539522171021E-1   5.287113189697266E-1   2.646072208881378E-1   5.277233123779297E-1   2.639433741569519E-1  -3.538374602794647E-1   7.104299664497376E-1  
 2.218000000000000E7    -3.521212637424469E-1   7.144055366516113E-1   5.295305252075195E-1   2.643146514892578E-1   5.293183326721191E-1   2.637407481670380E-1  -3.525121212005615E-1   7.103705406188965E-1  
 2.220000000000000E7    -3.513552844524384E-1   7.146056890487671E-1   5.304541587829590E-1   2.636289894580841E-1   5.304777622222900E-1   2.634293138980866E-1  -3.517687618732452E-1   7.106056213378906E-1  
 2.222000000000000E7    -3.503391742706299E-1   7.149215340614319E-1   5.311858057975769E-1   2.632682323455811E-1   5.310289859771729E-1   2.627253532409668E-1  -3.502422273159027E-1   7.102617025375366E-1  
 2.224000000000000E7    -3.494944870471954E-1   7.144141793251038E-1   5.321178436279297E-1   2.629376649856567E-1   5.319687724113464E-1   2.625208199024200E-1  -3.492924273014069E-1   7.102288007736206E-1  
 2.226000000000000E7    -3.480139374732971E-1   7.146372795104981E-1   5.329185724258423E-1   2.626211047172546E-1   5.326205492019653E-1   2.624137997627258E-1  -3.481371998786926E-1   7.104288935661316E-1  
 2.228000000000000E7    -3.466513156890869E-1   7.148343920707703E-1   5.338543653488159E-1   2.624091506004334E-1   5.335208177566528E-1   2.618049979209900E-1  -3.474894762039185E-1   7.100144028663635E-1  
 2.230000000000000E7    -3.458666801452637E-1   7.150765657424927E-1   5.348830223083496E-1   2.620578706264496E-1   5.343975424766541E-1   2.615535259246826E-1  -3.463371396064758E-1   7.102375626564026E-1  
 2.232000000000000E7    -3.450068831443787E-1   7.151073813438416E-1   5.359157919883728E-1   2.614234685897827E-1   5.354314446449280E-1   2.615757882595062E-1  -3.449149131774902E-1   7.104707956314087E-1  
 2.234000000000000E7    -3.441904187202454E-1   7.151073217391968E-1   5.367450118064880E-1   2.606390714645386E-1   5.365093946456909E-1   2.604621350765228E-1  -3.435163199901581E-1   7.102110981941223E-1  
 2.236000000000000E7    -3.430636823177338E-1   7.152171730995178E-1   5.375100970268250E-1   2.603967189788818E-1   5.374174714088440E-1   2.602847516536713E-1  -3.424334824085236E-1   7.103856205940247E-1  
 2.238000000000000E7    -3.417991995811462E-1   7.151449918746948E-1   5.381924510002136E-1   2.607151269912720E-1   5.383864641189575E-1   2.598044872283936E-1  -3.417179584503174E-1   7.101128697395325E-1  
 2.240000000000000E7    -3.407042920589447E-1   7.149336338043213E-1   5.393149852752686E-1   2.601186335086823E-1   5.389598608016968E-1   2.594783902168274E-1  -3.404601216316223E-1   7.102967500686646E-1  
 2.242000000000000E7    -3.394518196582794E-1   7.150406837463379E-1   5.402520895004273E-1   2.591693103313446E-1   5.402482151985169E-1   2.595134377479553E-1  -3.396312594413757E-1   7.101454138755798E-1  
 2.244000000000000E7    -3.383188247680664E-1   7.152594923973084E-1   5.410155057907105E-1   2.588408887386322E-1   5.409163832664490E-1   2.591671645641327E-1  -3.378185629844666E-1   7.100565433502197E-1  
 2.246000000000000E7    -3.375449180603027E-1   7.150140404701233E-1   5.418496131896973E-1   2.588225007057190E-1   5.419869422912598E-1   2.583636045455933E-1  -3.368716835975647E-1   7.104474306106567E-1  
 2.248000000000000E7    -3.362692594528198E-1   7.153172492980957E-1   5.428959131240845E-1   2.582155466079712E-1   5.426343679428101E-1   2.581473588943481E-1  -3.361910581588745E-1   7.105233073234558E-1  
 2.250000000000000E7    -3.348784148693085E-1   7.148361802101135E-1   5.442195534706116E-1   2.579333186149597E-1   5.435453653335571E-1   2.578301727771759E-1  -3.352521061897278E-1   7.107968330383301E-1  
 2.252000000000000E7    -3.343189358711243E-1   7.152301669120789E-1   5.442975759506226E-1   2.574849426746368E-1   5.444827675819397E-1   2.573350667953491E-1  -3.333837985992432E-1   7.106133103370667E-1  
 2.254000000000000E7    -3.329579234123230E-1   7.149865031242371E-1   5.457572937011719E-1   2.571109235286713E-1   5.455631613731384E-1   2.568133473396301E-1  -3.328347504138947E-1   7.103389501571655E-1  
 2.256000000000000E7    -3.314521312713623E-1   7.147845625877380E-1   5.464308857917786E-1   2.568564713001251E-1   5.465480089187622E-1   2.564288377761841E-1  -3.318451642990112E-1   7.103457450866699E-1  
 2.258000000000000E7    -3.306924998760223E-1   7.148096561431885E-1   5.477483868598938E-1   2.565382421016693E-1   5.472003817558289E-1   2.561986446380615E-1  -3.309206664562225E-1   7.102122902870178E-1  
 2.260000000000000E7    -3.295101523399353E-1   7.145563364028931E-1   5.484223365783691E-1   2.558748126029968E-1   5.482181906700134E-1   2.555684149265289E-1  -3.296567201614380E-1   7.103011012077332E-1  
 2.262000000000000E7    -3.282771110534668E-1   7.149923443794251E-1   5.492820739746094E-1   2.555963099002838E-1   5.494579672813416E-1   2.559513449668884E-1  -3.283009827136993E-1   7.103650569915772E-1  
 2.264000000000000E7    -3.272766172885895E-1   7.146530747413635E-1   5.503867864608765E-1   2.554417252540588E-1   5.501968264579773E-1   2.549587786197662E-1  -3.271992504596710E-1   7.101771831512451E-1  
 2.266000000000000E7    -3.258028030395508E-1   7.143444418907166E-1   5.514293313026428E-1   2.547343969345093E-1   5.511270761489868E-1   2.543618679046631E-1  -3.266104459762573E-1   7.102915048599243E-1  
 2.268000000000000E7    -3.248928189277649E-1   7.146297097206116E-1   5.523583889007568E-1   2.544802427291870E-1   5.520855188369751E-1   2.541331350803375E-1  -3.248756825923920E-1   7.103407382965088E-1  
 2.270000000000000E7    -3.239006102085114E-1   7.146759033203125E-1   5.529021620750427E-1   2.539232671260834E-1   5.526506900787354E-1   2.534555196762085E-1  -3.239245116710663E-1   7.103013396263123E-1  
 2.272000000000000E7    -3.230204880237579E-1   7.143629193305969E-1   5.538663268089294E-1   2.530800998210907E-1   5.536065697669983E-1   2.531471252441406E-1  -3.229619264602661E-1   7.099349498748779E-1  
 2.274000000000000E7    -3.216020762920380E-1   7.143706083297730E-1   5.546130537986755E-1   2.534132301807404E-1   5.544447302818298E-1   2.526992857456207E-1  -3.217627704143524E-1   7.100103497505188E-1  
 2.276000000000000E7    -3.203819394111633E-1   7.144536972045898E-1   5.552720427513123E-1   2.522124350070953E-1   5.556750297546387E-1   2.523529529571533E-1  -3.208596706390381E-1   7.099941372871399E-1  
 2.278000000000000E7    -3.190157413482666E-1   7.143616676330566E-1   5.567535161972046E-1   2.521653771400452E-1   5.562756061553955E-1   2.514115571975708E-1  -3.198923766613007E-1   7.100501656532288E-1  
 2.280000000000000E7    -3.185178339481354E-1   7.142211794853210E-1   5.576729178428650E-1   2.517018318176270E-1   5.567321181297302E-1   2.513870894908905E-1  -3.186382651329041E-1   7.102093696594238E-1  
 2.282000000000000E7    -3.175088167190552E-1   7.143915891647339E-1   5.581979751586914E-1   2.516540884971619E-1   5.581471323966980E-1   2.511132955551148E-1  -3.169995546340942E-1   7.098961472511292E-1  
 2.284000000000000E7    -3.162016272544861E-1   7.141505479812622E-1   5.593827366828919E-1   2.508359849452972E-1   5.593085289001465E-1   2.505833208560944E-1  -3.162349760532379E-1   7.100111246109009E-1  
 2.286000000000000E7    -3.147842884063721E-1   7.142395973205566E-1   5.604070425033569E-1   2.506994307041168E-1   5.598877072334290E-1   2.502439916133881E-1  -3.152603507041931E-1   7.098996043205261E-1  
 2.288000000000000E7    -3.139039278030396E-1   7.139518260955811E-1   5.613151788711548E-1   2.501882910728455E-1   5.608185529708862E-1   2.498317658901215E-1  -3.138645291328430E-1   7.099301218986511E-1  
 2.290000000000000E7    -3.130715191364288E-1   7.141817808151245E-1   5.624261498451233E-1   2.496460825204849E-1   5.618290305137634E-1   2.493302226066589E-1  -3.130681812763214E-1   7.104532122612000E-1  
 2.292000000000000E7    -3.114427924156189E-1   7.141559123992920E-1   5.631176829338074E-1   2.488509416580200E-1   5.624251365661621E-1   2.487417459487915E-1  -3.121771216392517E-1   7.099970579147339E-1  
 2.294000000000000E7    -3.106354475021362E-1   7.137908935546875E-1   5.641013383865356E-1   2.486791312694550E-1   5.634942054748535E-1   2.480992376804352E-1  -3.113828897476196E-1   7.098418474197388E-1  
 2.296000000000000E7    -3.097276687622070E-1   7.138792872428894E-1   5.649618506431580E-1   2.482212185859680E-1   5.648381114006043E-1   2.482439726591110E-1  -3.091794848442078E-1   7.097674608230591E-1  
 2.298000000000000E7    -3.085995912551880E-1   7.140623331069946E-1   5.659033656120300E-1   2.480237931013107E-1   5.655625462532044E-1   2.474762499332428E-1  -3.086616396903992E-1   7.096827626228333E-1  
 2.300000000000000E7    -3.076190352439880E-1   7.136352658271790E-1   5.665791630744934E-1   2.475760579109192E-1   5.665478110313416E-1   2.465257197618485E-1  -3.076767325401306E-1   7.097355127334595E-1  
 2.302000000000000E7    -3.063634037971497E-1   7.138455510139465E-1   5.678691267967224E-1   2.469546198844910E-1   5.673453807830811E-1   2.466808706521988E-1  -3.059283196926117E-1   7.097831964492798E-1  
 2.304000000000000E7    -3.052008748054504E-1   7.137429714202881E-1   5.687029361724854E-1   2.461583167314529E-1   5.679960846900940E-1   2.460189610719681E-1  -3.049145936965942E-1   7.094985246658325E-1  
 2.306000000000000E7    -3.040564656257629E-1   7.131596803665161E-1   5.692406892776489E-1   2.455389201641083E-1   5.691513419151306E-1   2.453373372554779E-1  -3.039386272430420E-1   7.097211480140686E-1  
 2.308000000000000E7    -3.027539849281311E-1   7.137488722801209E-1   5.702199339866638E-1   2.455630451440811E-1   5.700002908706665E-1   2.455192506313324E-1  -3.028226196765900E-1   7.094009518623352E-1  
 2.310000000000000E7    -3.019446730613709E-1   7.136178612709045E-1   5.708491206169128E-1   2.446070164442062E-1   5.709884166717529E-1   2.449034750461578E-1  -3.016952276229858E-1   7.090146541595459E-1  
 2.312000000000000E7    -3.009158670902252E-1   7.132706642150879E-1   5.718063712120056E-1   2.446138113737106E-1   5.719593763351440E-1   2.438711374998093E-1  -3.004643619060516E-1   7.088735699653626E-1  
 2.314000000000000E7    -2.994776070117950E-1   7.129343152046204E-1   5.729921460151672E-1   2.437023967504501E-1   5.728743076324463E-1   2.436138689517975E-1  -2.997511923313141E-1   7.089908123016357E-1  
 2.316000000000000E7    -2.984685003757477E-1   7.134821414947510E-1   5.740615725517273E-1   2.436207383871079E-1   5.743289589881897E-1   2.431896924972534E-1  -2.982277274131775E-1   7.088052034378052E-1  
 2.318000000000000E7    -2.969737052917481E-1   7.131937742233276E-1   5.751463770866394E-1   2.432253062725067E-1   5.748065114021301E-1   2.426564842462540E-1  -2.976040244102478E-1   7.089748382568359E-1  
 2.320000000000000E7    -2.959962785243988E-1   7.127853035926819E-1   5.759177803993225E-1   2.424893081188202E-1   5.759835839271545E-1   2.421391606330872E-1  -2.960903346538544E-1   7.086281180381775E-1  
 2.322000000000000E7    -2.953873574733734E-1   7.126026153564453E-1   5.765970349311829E-1   2.416234612464905E-1   5.764797925949097E-1   2.417934089899063E-1  -2.952588796615601E-1   7.086299657821655E-1  
 2.324000000000000E7    -2.937834858894348E-1   7.127631902694702E-1   5.779055356979370E-1   2.414878308773041E-1   5.770515203475952E-1   2.409322261810303E-1  -2.942139506340027E-1   7.086606025695801E-1  
 2.326000000000000E7    -2.925999164581299E-1   7.126043438911438E-1   5.782718658447266E-1   2.410575896501541E-1   5.781009793281555E-1   2.407814860343933E-1  -2.932311594486237E-1   7.088358402252197E-1  
 2.328000000000000E7    -2.909693419933319E-1   7.127724885940552E-1   5.792077183723450E-1   2.412063926458359E-1   5.792030692100525E-1   2.403639405965805E-1  -2.921429574489594E-1   7.084079384803772E-1  
 2.330000000000000E7    -2.904346585273743E-1   7.127306461334229E-1   5.801363587379456E-1   2.403130829334259E-1   5.800070762634277E-1   2.394682765007019E-1  -2.908809781074524E-1   7.080816626548767E-1  
 2.332000000000000E7    -2.891434729099274E-1   7.123630046844482E-1   5.810813307762146E-1   2.404717952013016E-1   5.810864567756653E-1   2.393459975719452E-1  -2.894435226917267E-1   7.080035209655762E-1  
 2.334000000000000E7    -2.879592776298523E-1   7.122620344161987E-1   5.822875499725342E-1   2.395288050174713E-1   5.816181898117065E-1   2.387306988239288E-1  -2.888714075088501E-1   7.079845070838928E-1  
 2.336000000000000E7    -2.869442105293274E-1   7.119444012641907E-1   5.830644965171814E-1   2.391533255577087E-1   5.823918581008911E-1   2.386860698461533E-1  -2.874386608600617E-1   7.082022428512573E-1  
 2.338000000000000E7    -2.859117388725281E-1   7.121267318725586E-1   5.839353799819946E-1   2.385663688182831E-1   5.836240053176880E-1   2.376861274242401E-1  -2.863846719264984E-1   7.075721621513367E-1  
 2.340000000000000E7    -2.851026952266693E-1   7.124323248863220E-1   5.847042202949524E-1   2.376695573329926E-1   5.846602320671082E-1   2.374186217784882E-1  -2.851684391498566E-1   7.075158357620239E-1  
 2.342000000000000E7    -2.841830253601074E-1   7.114197611808777E-1   5.860471129417419E-1   2.369631081819534E-1   5.853629708290100E-1   2.366531491279602E-1  -2.841162681579590E-1   7.075343728065491E-1  
 2.344000000000000E7    -2.825019955635071E-1   7.112555503845215E-1   5.870198607444763E-1   2.366103082895279E-1   5.866667032241821E-1   2.358874380588532E-1  -2.829411029815674E-1   7.075163722038269E-1  
 2.346000000000000E7    -2.815731167793274E-1   7.112991809844971E-1   5.879453420639038E-1   2.363323271274567E-1   5.868815779685974E-1   2.359846532344818E-1  -2.817106246948242E-1   7.077059149742127E-1  
 2.348000000000000E7    -2.805784940719605E-1   7.110327482223511E-1   5.882780551910400E-1   2.356875836849213E-1   5.880368947982788E-1   2.350941896438599E-1  -2.805358171463013E-1   7.073276042938232E-1  
 2.350000000000000E7    -2.795271277427673E-1   7.104293107986450E-1   5.896549224853516E-1   2.350055575370789E-1   5.888556838035584E-1   2.348082959651947E-1  -2.793949246406555E-1   7.073727250099182E-1  
 2.352000000000000E7    -2.780594229698181E-1   7.110955119132996E-1   5.902155041694641E-1   2.345421016216278E-1   5.898146629333496E-1   2.346151322126389E-1  -2.780434191226959E-1   7.069842219352722E-1  
 2.354000000000000E7    -2.767119407653809E-1   7.108430266380310E-1   5.915687084197998E-1   2.339646220207214E-1   5.907368659973145E-1   2.341442555189133E-1  -2.776944339275360E-1   7.073348164558411E-1  
 2.356000000000000E7    -2.758309543132782E-1   7.108305096626282E-1   5.921006202697754E-1   2.334916889667511E-1   5.919274687767029E-1   2.331453710794449E-1  -2.762519717216492E-1   7.067495584487915E-1  
 2.358000000000000E7    -2.748352289199829E-1   7.103024721145630E-1   5.929959416389465E-1   2.329817116260529E-1   5.927239060401917E-1   2.329369336366653E-1  -2.747698724269867E-1   7.067788243293762E-1  
 2.360000000000000E7    -2.739330530166626E-1   7.106130719184876E-1   5.941798090934753E-1   2.322136759757996E-1   5.938659906387329E-1   2.321991920471191E-1  -2.739621102809906E-1   7.064486742019653E-1  
 2.362000000000000E7    -2.728835344314575E-1   7.103280425071716E-1   5.949618816375732E-1   2.319038808345795E-1   5.953010320663452E-1   2.316820919513702E-1  -2.731460332870483E-1   7.061325907707214E-1  
 2.364000000000000E7    -2.714213728904724E-1   7.101642489433289E-1   5.958251953125000E-1   2.314006835222244E-1   5.952442288398743E-1   2.312080413103104E-1  -2.716168165206909E-1   7.061781883239746E-1  
 2.366000000000000E7    -2.704081535339356E-1   7.105987071990967E-1   5.963087081909180E-1   2.309903055429459E-1   5.963472127914429E-1   2.304895669221878E-1  -2.704637944698334E-1   7.056527733802795E-1  
 2.368000000000000E7    -2.693819105625153E-1   7.099025845527649E-1   5.978556275367737E-1   2.303110361099243E-1   5.974845290184021E-1   2.301989942789078E-1  -2.692401707172394E-1   7.056509852409363E-1  
 2.370000000000000E7    -2.682923972606659E-1   7.099698185920715E-1   5.985546112060547E-1   2.298872470855713E-1   5.983652472496033E-1   2.297971546649933E-1  -2.682353258132935E-1   7.057664990425110E-1  
 2.372000000000000E7    -2.669039964675903E-1   7.096847891807556E-1   5.996502041816711E-1   2.292956411838532E-1   5.990462303161621E-1   2.291541695594788E-1  -2.674497067928314E-1   7.054051160812378E-1  
 2.374000000000000E7    -2.654656171798706E-1   7.094787359237671E-1   6.004360318183899E-1   2.290245294570923E-1   6.003249287605286E-1   2.283550500869751E-1  -2.664892971515656E-1   7.051466703414917E-1  
 2.376000000000000E7    -2.647860348224640E-1   7.092292904853821E-1   6.014229655265808E-1   2.283911556005478E-1   6.009120941162109E-1   2.280785292387009E-1  -2.650225758552551E-1   7.051056027412415E-1  
 2.378000000000000E7    -2.634193003177643E-1   7.091520428657532E-1   6.022278666496277E-1   2.280290722846985E-1   6.019381284713745E-1   2.270851582288742E-1  -2.641164064407349E-1   7.048626542091370E-1  
 2.380000000000000E7    -2.626732587814331E-1   7.090160846710205E-1   6.034336686134338E-1   2.271233052015305E-1   6.028880476951599E-1   2.269985973834992E-1  -2.631165683269501E-1   7.050300240516663E-1  
 2.382000000000000E7    -2.614942193031311E-1   7.086966037750244E-1   6.043592095375061E-1   2.269642055034638E-1   6.042558550834656E-1   2.265342772006989E-1  -2.616600692272186E-1   7.046126127243042E-1  
 2.384000000000000E7    -2.600766718387604E-1   7.086684703826904E-1   6.048414111137390E-1   2.261949628591538E-1   6.046227812767029E-1   2.255374044179916E-1  -2.608628869056702E-1   7.047417163848877E-1  
 2.386000000000000E7    -2.592321932315826E-1   7.080250382423401E-1   6.064977645874023E-1   2.253679931163788E-1   6.059895753860474E-1   2.248888909816742E-1  -2.596691250801086E-1   7.043664455413818E-1  
 2.388000000000000E7    -2.578997015953064E-1   7.078561782836914E-1   6.067300438880920E-1   2.252008020877838E-1   6.069006323814392E-1   2.248458564281464E-1  -2.584102153778076E-1   7.039591073989868E-1  
 2.390000000000000E7    -2.568478584289551E-1   7.077441215515137E-1   6.080252528190613E-1   2.242432236671448E-1   6.077654957771301E-1   2.238499522209168E-1  -2.573285400867462E-1   7.036153078079224E-1  
 2.392000000000000E7    -2.558344602584839E-1   7.078557610511780E-1   6.089749336242676E-1   2.240012586116791E-1   6.085704565048218E-1   2.235295474529266E-1  -2.562332153320313E-1   7.036568522453308E-1  
 2.394000000000000E7    -2.549413740634918E-1   7.078051567077637E-1   6.093031764030457E-1   2.230435013771057E-1   6.092697381973267E-1   2.232026159763336E-1  -2.545973062515259E-1   7.032292485237122E-1  
 2.396000000000000E7    -2.534472346305847E-1   7.075052857398987E-1   6.106001734733582E-1   2.229860424995422E-1   6.103215813636780E-1   2.225387096405029E-1  -2.539611756801605E-1   7.033215761184692E-1  
 2.398000000000000E7    -2.525567710399628E-1   7.069450020790100E-1   6.111787557601929E-1   2.217349410057068E-1   6.111920475959778E-1   2.213437557220459E-1  -2.525247931480408E-1   7.034096717834473E-1  
 2.400000000000000E7    -2.512332797050476E-1   7.067753672599793E-1   6.122828125953674E-1   2.214753925800324E-1   6.119954586029053E-1   2.214625328779221E-1  -2.515387535095215E-1   7.032313942909241E-1  
 2.402000000000000E7    -2.503105998039246E-1   7.067538499832153E-1   6.136219501495361E-1   2.208256870508194E-1   6.130021810531616E-1   2.209030836820602E-1  -2.504277229309082E-1   7.029416561126709E-1  
 2.404000000000000E7    -2.490459382534027E-1   7.062854170799255E-1   6.143232583999634E-1   2.206658571958542E-1   6.141293644905090E-1   2.206187993288040E-1  -2.490879148244858E-1   7.026804685592651E-1  
 2.406000000000000E7    -2.476885616779327E-1   7.064259052276611E-1   6.150574684143066E-1   2.198468297719955E-1   6.149602532386780E-1   2.196397632360458E-1  -2.481890320777893E-1   7.023524641990662E-1  
 2.408000000000000E7    -2.461648732423782E-1   7.064406871795654E-1   6.158266067504883E-1   2.193923294544220E-1   6.153249740600586E-1   2.190638929605484E-1  -2.468939423561096E-1   7.021704316139221E-1  
 2.410000000000000E7    -2.454620897769928E-1   7.064209580421448E-1   6.167626976966858E-1   2.186631262302399E-1   6.169877648353577E-1   2.181366831064224E-1  -2.462359815835953E-1   7.016003131866455E-1  
 2.412000000000000E7    -2.440211921930313E-1   7.054966092109680E-1   6.180002093315125E-1   2.181548476219177E-1   6.173689365386963E-1   2.173961400985718E-1  -2.450475245714188E-1   7.018819451332092E-1  
 2.414000000000000E7    -2.430467307567596E-1   7.052781581878662E-1   6.188812255859375E-1   2.176083475351334E-1   6.187525987625122E-1   2.164357006549835E-1  -2.439335882663727E-1   7.018708586692810E-1  
 2.416000000000000E7    -2.422897815704346E-1   7.055056691169739E-1   6.202077865600586E-1   2.168444395065308E-1   6.197466850280762E-1   2.167074531316757E-1  -2.429503947496414E-1   7.017597556114197E-1  
 2.418000000000000E7    -2.412701249122620E-1   7.055237293243408E-1   6.207070946693420E-1   2.161736935377121E-1   6.205807924270630E-1   2.162778675556183E-1  -2.412623465061188E-1   7.011601924896240E-1  
 2.420000000000000E7    -2.399690896272659E-1   7.048981189727783E-1   6.217783689498901E-1   2.156384587287903E-1   6.212175488471985E-1   2.151664942502976E-1  -2.407514750957489E-1   7.015397548675537E-1  
 2.422000000000000E7    -2.387262284755707E-1   7.043584585189819E-1   6.225687861442566E-1   2.150544226169586E-1   6.223185658454895E-1   2.144630551338196E-1  -2.398211061954498E-1   7.007316946983337E-1  
 2.424000000000000E7    -2.375746220350266E-1   7.044479250907898E-1   6.235036849975586E-1   2.147015631198883E-1   6.232193112373352E-1   2.139977663755417E-1  -2.382590472698212E-1   7.004642486572266E-1  
 2.426000000000000E7    -2.366507649421692E-1   7.040673494338989E-1   6.241218447685242E-1   2.139619141817093E-1   6.234453320503235E-1   2.134298682212830E-1  -2.372165173292160E-1   7.002299427986145E-1  
 2.428000000000000E7    -2.357452213764191E-1   7.037643790245056E-1   6.250110864639282E-1   2.132127434015274E-1   6.250016689300537E-1   2.124923765659332E-1  -2.362688779830933E-1   6.998619437217712E-1  
 2.430000000000000E7    -2.344682663679123E-1   7.040097117424011E-1   6.260722875595093E-1   2.128076255321503E-1   6.254274845123291E-1   2.119921147823334E-1  -2.346142381429672E-1   6.997903585433960E-1  
 2.432000000000000E7    -2.335663884878159E-1   7.035364508628845E-1   6.269954442977905E-1   2.120967209339142E-1   6.265552639961243E-1   2.116199135780335E-1  -2.338324487209320E-1   6.993587017059326E-1  
 2.434000000000000E7    -2.321104705333710E-1   7.029951810836792E-1   6.279328465461731E-1   2.119848579168320E-1   6.269806623458862E-1   2.114843875169754E-1  -2.326052486896515E-1   6.992266178131104E-1  
 2.436000000000000E7    -2.314521074295044E-1   7.030438780784607E-1   6.288552880287170E-1   2.106038779020309E-1   6.287942528724670E-1   2.100445032119751E-1  -2.314074486494064E-1   6.989613771438599E-1  
 2.438000000000000E7    -2.299053072929382E-1   7.028805017471314E-1   6.298240423202515E-1   2.104119807481766E-1   6.292209029197693E-1   2.098638266324997E-1  -2.302549183368683E-1   6.991438865661621E-1  
 2.440000000000000E7    -2.289860248565674E-1   7.027195692062378E-1   6.308287382125855E-1   2.093378901481628E-1   6.304171681404114E-1   2.091037482023239E-1  -2.288489639759064E-1   6.982800960540772E-1  
 2.442000000000000E7    -2.280743122100830E-1   7.024717330932617E-1   6.314607262611389E-1   2.092035114765167E-1   6.311600208282471E-1   2.086618691682816E-1  -2.277417778968811E-1   6.987684369087219E-1  
 2.444000000000000E7    -2.266464978456497E-1   7.025201916694641E-1   6.323374509811401E-1   2.082462012767792E-1   6.326534152030945E-1   2.080196440219879E-1  -2.267787307500839E-1   6.978124976158142E-1  
 2.446000000000000E7    -2.255352139472961E-1   7.018577456474304E-1   6.337397098541260E-1   2.071656286716461E-1   6.333833932876587E-1   2.066847383975983E-1  -2.260572016239166E-1   6.977908015251160E-1  
 2.448000000000000E7    -2.240253388881683E-1   7.018416523933411E-1   6.347806453704834E-1   2.070806026458740E-1   6.342317461967468E-1   2.062632739543915E-1  -2.248172312974930E-1   6.975542902946472E-1  
 2.450000000000000E7    -2.230029106140137E-1   7.018648386001587E-1   6.351658701896668E-1   2.064256370067596E-1   6.350206136703491E-1   2.062266170978546E-1  -2.237452566623688E-1   6.976608633995056E-1  
 2.452000000000000E7    -2.215922325849533E-1   7.017065882682800E-1   6.360964179039002E-1   2.061302363872528E-1   6.362416744232178E-1   2.050938755273819E-1  -2.224697321653366E-1   6.970510482788086E-1  
 2.454000000000000E7    -2.210257649421692E-1   7.003054618835449E-1   6.374479532241821E-1   2.047751545906067E-1   6.370232701301575E-1   2.048664987087250E-1  -2.212166488170624E-1   6.967576742172241E-1  
 2.456000000000000E7    -2.199285775423050E-1   7.006442546844482E-1   6.382120251655579E-1   2.043860554695129E-1   6.374713182449341E-1   2.041479498147965E-1  -2.201906144618988E-1   6.965380907058716E-1  
 2.458000000000000E7    -2.185530662536621E-1   6.997867226600647E-1   6.391875147819519E-1   2.034821212291718E-1   6.385813951492310E-1   2.036088556051254E-1  -2.190660685300827E-1   6.962139606475830E-1  
 2.460000000000000E7    -2.178016752004623E-1   6.999039053916931E-1   6.399958133697510E-1   2.029250562191010E-1   6.396155953407288E-1   2.025230377912521E-1  -2.176142781972885E-1   6.955624222755432E-1  
 2.462000000000000E7    -2.162310332059860E-1   6.997914314270020E-1   6.401330232620239E-1   2.022962570190430E-1   6.398729681968689E-1   2.016083002090454E-1  -2.169928848743439E-1   6.956110596656799E-1  
 2.464000000000000E7    -2.155975401401520E-1   6.996567845344544E-1   6.413773298263550E-1   2.016637921333313E-1   6.414145827293396E-1   2.017702162265778E-1  -2.152518779039383E-1   6.954452395439148E-1  
 2.466000000000000E7    -2.139922380447388E-1   6.988962888717651E-1   6.425739526748657E-1   2.014271616935730E-1   6.419831514358521E-1   2.009642124176025E-1  -2.142602056264877E-1   6.947281956672669E-1  
 2.468000000000000E7    -2.129727900028229E-1   6.989775300025940E-1   6.433363556861877E-1   2.003536522388458E-1   6.429426670074463E-1   2.002804279327393E-1  -2.135552465915680E-1   6.949566602706909E-1  
 2.470000000000000E7    -2.120443731546402E-1   6.985589861869812E-1   6.442468166351318E-1   1.995513439178467E-1   6.435346007347107E-1   1.996256262063980E-1  -2.121258080005646E-1   6.945466399192810E-1  
 2.472000000000000E7    -2.109471410512924E-1   6.982280611991882E-1   6.451860666275024E-1   1.988731622695923E-1   6.453775763511658E-1   1.986078768968582E-1  -2.108896076679230E-1   6.938376426696777E-1  
 2.474000000000000E7    -2.096614539623261E-1   6.981148719787598E-1   6.460459828376770E-1   1.986308395862579E-1   6.454813480377197E-1   1.982870548963547E-1  -2.102070152759552E-1   6.936782002449036E-1  
 2.476000000000000E7    -2.081676721572876E-1   6.975943446159363E-1   6.468950510025024E-1   1.976747214794159E-1   6.466379761695862E-1   1.975339949131012E-1  -2.087871581315994E-1   6.933312416076660E-1  
 2.478000000000000E7    -2.074757516384125E-1   6.973752975463867E-1   6.480841636657715E-1   1.971311122179031E-1   6.475226283073425E-1   1.965926438570023E-1  -2.075279951095581E-1   6.932803988456726E-1  
 2.480000000000000E7    -2.069539129734039E-1   6.969009041786194E-1   6.490345597267151E-1   1.963487714529038E-1   6.484613418579102E-1   1.964155733585358E-1  -2.069521397352219E-1   6.935876607894898E-1  
 2.482000000000000E7    -2.053735405206680E-1   6.969785094261169E-1   6.492565870285034E-1   1.958166956901550E-1   6.492798328399658E-1   1.951959133148193E-1  -2.058578729629517E-1   6.927025914192200E-1  
 2.484000000000000E7    -2.040687501430512E-1   6.960796117782593E-1   6.507883071899414E-1   1.952833533287048E-1   6.501126885414124E-1   1.948941349983215E-1  -2.045009136199951E-1   6.929007172584534E-1  
 2.486000000000000E7    -2.033883035182953E-1   6.961639523506165E-1   6.514523029327393E-1   1.941455006599426E-1   6.513354778289795E-1   1.942971348762512E-1  -2.030843943357468E-1   6.919661164283752E-1  
 2.488000000000000E7    -2.017325758934021E-1   6.958462595939636E-1   6.525341868400574E-1   1.939023435115814E-1   6.523629426956177E-1   1.935801804065704E-1  -2.023173570632935E-1   6.918787360191345E-1  
 2.490000000000000E7    -2.004461586475372E-1   6.956310272216797E-1   6.531301736831665E-1   1.929695457220078E-1   6.529226899147034E-1   1.926715523004532E-1  -2.013441026210785E-1   6.917036175727844E-1  
 2.492000000000000E7    -1.996539384126663E-1   6.953346729278565E-1   6.543685793876648E-1   1.923946589231491E-1   6.544613838195801E-1   1.922602355480194E-1  -1.998177617788315E-1   6.911621093750000E-1  
 2.494000000000000E7    -1.982799470424652E-1   6.948338747024536E-1   6.555857062339783E-1   1.915890872478485E-1   6.550849080085754E-1   1.912057846784592E-1  -1.989295184612274E-1   6.909592151641846E-1  
 2.496000000000000E7    -1.970856189727783E-1   6.941822171211243E-1   6.562998294830322E-1   1.909614950418472E-1   6.556031107902527E-1   1.907365620136261E-1  -1.980347931385040E-1   6.906284689903259E-1  
 2.498000000000000E7    -1.961440145969391E-1   6.941624283790588E-1   6.564171314239502E-1   1.904006749391556E-1   6.563967466354370E-1   1.902353316545487E-1  -1.965420842170715E-1   6.903657913208008E-1  
 2.500000000000000E7    -1.951695829629898E-1   6.939260959625244E-1   6.575688123703003E-1   1.895264238119125E-1   6.573284268379211E-1   1.895432472229004E-1  -1.956658065319061E-1   6.898105740547180E-1  
 2.502000000000000E7    -1.940887868404388E-1   6.932531595230103E-1   6.590748429298401E-1   1.891280114650726E-1   6.583500504493713E-1   1.885803639888763E-1  -1.943852305412293E-1   6.894512772560120E-1  
 2.504000000000000E7    -1.927131116390228E-1   6.929650306701660E-1   6.593193411827087E-1   1.885290443897247E-1   6.591319441795349E-1   1.879475265741348E-1  -1.933763325214386E-1   6.889242529869080E-1  
 2.506000000000000E7    -1.920071393251419E-1   6.924805641174316E-1   6.607618331909180E-1   1.873311251401901E-1   6.597978472709656E-1   1.867986172437668E-1  -1.919903755187988E-1   6.893402934074402E-1  
 2.508000000000000E7    -1.906134188175201E-1   6.924995183944702E-1   6.616267561912537E-1   1.864538192749023E-1   6.611860394477844E-1   1.863712668418884E-1  -1.909255832433701E-1   6.884114146232605E-1  
 2.510000000000000E7    -1.893920004367828E-1   6.920027732849121E-1   6.627388596534729E-1   1.858312040567398E-1   6.622202992439270E-1   1.854837536811829E-1  -1.903635710477829E-1   6.879207491874695E-1  
 2.512000000000000E7    -1.882136911153793E-1   6.916204690933228E-1   6.634278297424316E-1   1.855290830135346E-1   6.627858281135559E-1   1.847995519638062E-1  -1.888289153575897E-1   6.879817843437195E-1  
 2.514000000000000E7    -1.873399764299393E-1   6.910644769668579E-1   6.642508506774902E-1   1.848851591348648E-1   6.640769839286804E-1   1.843430399894714E-1  -1.877146512269974E-1   6.875184774398804E-1  
 2.516000000000000E7    -1.864519268274307E-1   6.909215450286865E-1   6.653192639350891E-1   1.839560568332672E-1   6.650710105895996E-1   1.837224364280701E-1  -1.865164786577225E-1   6.870328783988953E-1  
 2.518000000000000E7    -1.850015223026276E-1   6.908017992973328E-1   6.659001708030701E-1   1.828101277351379E-1   6.651490330696106E-1   1.825246065855026E-1  -1.855970919132233E-1   6.865825057029724E-1  
 2.520000000000000E7    -1.839293837547302E-1   6.906328201293945E-1   6.666814684867859E-1   1.822875142097473E-1   6.664065718650818E-1   1.818797886371613E-1  -1.842375993728638E-1   6.864485144615173E-1  
 2.522000000000000E7    -1.831859648227692E-1   6.901982426643372E-1   6.670620441436768E-1   1.813444644212723E-1   6.672674417495728E-1   1.808883249759674E-1  -1.829725950956345E-1   6.859786510467529E-1  
 2.524000000000000E7    -1.815785765647888E-1   6.894733309745789E-1   6.688001751899719E-1   1.808692067861557E-1   6.680936217308044E-1   1.803743392229080E-1  -1.823130548000336E-1   6.859146952629089E-1  
 2.526000000000000E7    -1.803613901138306E-1   6.886122226715088E-1   6.694375872612000E-1   1.801635473966599E-1   6.690030097961426E-1   1.798309385776520E-1  -1.807847768068314E-1   6.855157017707825E-1  
 2.528000000000000E7    -1.799970567226410E-1   6.882904171943665E-1   6.704218387603760E-1   1.790123581886292E-1   6.699131131172180E-1   1.789295077323914E-1  -1.796722412109375E-1   6.850054264068604E-1  
 2.530000000000000E7    -1.783235371112824E-1   6.885074377059937E-1   6.712210774421692E-1   1.783101111650467E-1   6.707727313041687E-1   1.781737655401230E-1  -1.790667772293091E-1   6.843826174736023E-1  
 2.532000000000000E7    -1.769865155220032E-1   6.880583763122559E-1   6.721923947334290E-1   1.778467893600464E-1   6.717042922973633E-1   1.774410754442215E-1  -1.777340173721314E-1   6.841598153114319E-1  
 2.534000000000000E7    -1.757250279188156E-1   6.874707341194153E-1   6.729663014411926E-1   1.771753132343292E-1   6.726715564727783E-1   1.768809556961060E-1  -1.766022443771362E-1   6.839547157287598E-1  
 2.536000000000000E7    -1.751410663127899E-1   6.866996884346008E-1   6.738779544830322E-1   1.763312518596649E-1   6.733664870262146E-1   1.760345548391342E-1  -1.753808856010437E-1   6.834063529968262E-1  
 2.538000000000000E7    -1.739576607942581E-1   6.869420409202576E-1   6.750350594520569E-1   1.753514111042023E-1   6.740478277206421E-1   1.750332415103912E-1  -1.742542535066605E-1   6.830207109451294E-1  
 2.540000000000000E7    -1.731459796428680E-1   6.864641308784485E-1   6.758389472961426E-1   1.748466789722443E-1   6.750845313072205E-1   1.749109625816345E-1  -1.730359792709351E-1   6.828556060791016E-1  
 2.542000000000000E7    -1.718025505542755E-1   6.857113838195801E-1   6.766020655632019E-1   1.741519570350647E-1   6.763116121292114E-1   1.739030033349991E-1  -1.720603108406067E-1   6.824882030487061E-1  
 2.544000000000000E7    -1.704667806625366E-1   6.852977871894836E-1   6.774486899375916E-1   1.729571074247360E-1   6.769061684608460E-1   1.729584336280823E-1  -1.709885299205780E-1   6.817793846130371E-1  
 2.546000000000000E7    -1.694989502429962E-1   6.852805614471436E-1   6.784572005271912E-1   1.723167449235916E-1   6.779369711875916E-1   1.718577146530151E-1  -1.701397895812988E-1   6.814690232276917E-1  
 2.548000000000000E7    -1.683639138936997E-1   6.850116252899170E-1   6.792076230049133E-1   1.716871112585068E-1   6.784974336624146E-1   1.716343909502029E-1  -1.686823368072510E-1   6.815678477287293E-1  
 2.550000000000000E7    -1.671444922685623E-1   6.840540766716003E-1   6.807048916816711E-1   1.709881126880646E-1   6.796252131462097E-1   1.704981923103333E-1  -1.674229204654694E-1   6.805279254913330E-1  
 2.552000000000000E7    -1.661409586668015E-1   6.838759183883667E-1   6.810612678527832E-1   1.700135767459869E-1   6.804333925247192E-1   1.697499305009842E-1  -1.665536910295487E-1   6.803063750267029E-1  
 2.554000000000000E7    -1.646312773227692E-1   6.835071444511414E-1   6.818495392799377E-1   1.698416620492935E-1   6.812831163406372E-1   1.692895740270615E-1  -1.655361652374268E-1   6.798586249351502E-1  
 2.556000000000000E7    -1.639776527881622E-1   6.834535598754883E-1   6.828110814094544E-1   1.688387244939804E-1   6.824311614036560E-1   1.683878302574158E-1  -1.643087565898895E-1   6.792144179344177E-1  
 2.558000000000000E7    -1.626505851745606E-1   6.829324960708618E-1   6.833758950233460E-1   1.677539348602295E-1   6.829661130905151E-1   1.678158193826675E-1  -1.630603373050690E-1   6.789030432701111E-1  
 2.560000000000000E7    -1.615490615367889E-1   6.820337176322937E-1   6.848185062408447E-1   1.670866906642914E-1   6.838386654853821E-1   1.668746173381805E-1  -1.621520668268204E-1   6.787453293800354E-1  
 2.562000000000000E7    -1.606138497591019E-1   6.820397973060608E-1   6.855844259262085E-1   1.662157624959946E-1   6.847553849220276E-1   1.659898161888123E-1  -1.611679196357727E-1   6.778674125671387E-1  
 2.564000000000000E7    -1.595781743526459E-1   6.810045838356018E-1   6.862994432449341E-1   1.651166528463364E-1   6.860444545745850E-1   1.655781865119934E-1  -1.595935821533203E-1   6.780225634574890E-1  
 2.566000000000000E7    -1.582495421171188E-1   6.810616254806519E-1   6.874535679817200E-1   1.649472117424011E-1   6.871552467346191E-1   1.642257571220398E-1  -1.589763015508652E-1   6.775053739547730E-1  
 2.568000000000000E7    -1.568956971168518E-1   6.809203624725342E-1   6.877038478851318E-1   1.640900224447250E-1   6.879358291625977E-1   1.633628904819489E-1  -1.580042541027069E-1   6.766256690025330E-1  
 2.570000000000000E7    -1.560999155044556E-1   6.802825927734375E-1   6.886285543441773E-1   1.629315018653870E-1   6.880348920822144E-1   1.624156534671783E-1  -1.572178602218628E-1   6.767494678497315E-1  
 2.572000000000000E7    -1.553973704576492E-1   6.795577406883240E-1   6.898196935653687E-1   1.618778109550476E-1   6.893142461776733E-1   1.621322780847549E-1  -1.553479880094528E-1   6.764222383499146E-1  
 2.574000000000000E7    -1.537015438079834E-1   6.794158816337585E-1   6.908266544342041E-1   1.614089012145996E-1   6.901524662971497E-1   1.611734479665756E-1  -1.544320881366730E-1   6.756301522254944E-1  
 2.576000000000000E7    -1.530264914035797E-1   6.785437464714050E-1   6.915726661682129E-1   1.604670882225037E-1   6.913565397262573E-1   1.602100729942322E-1  -1.532487571239471E-1   6.753283739089966E-1  
 2.578000000000000E7    -1.515749543905258E-1   6.783853173255920E-1   6.922219991683960E-1   1.595242768526077E-1   6.919604539871216E-1   1.595840305089951E-1  -1.518989205360413E-1   6.749484539031982E-1  
 2.580000000000000E7    -1.505918949842453E-1   6.775394678115845E-1   6.933913230895996E-1   1.595807373523712E-1   6.925367116928101E-1   1.587642580270767E-1  -1.510948836803436E-1   6.744226813316345E-1  
 2.582000000000000E7    -1.493812501430512E-1   6.774903535842896E-1   6.942194104194641E-1   1.582608371973038E-1   6.939070820808411E-1   1.576138436794281E-1  -1.499767005443573E-1   6.735507249832153E-1  
 2.584000000000000E7    -1.484434604644775E-1   6.762210726737976E-1   6.954888701438904E-1   1.572596877813339E-1   6.947393417358398E-1   1.575161218643189E-1  -1.489203572273254E-1   6.738256216049194E-1  
 2.586000000000000E7    -1.472996175289154E-1   6.761386990547180E-1   6.963879466056824E-1   1.563304513692856E-1   6.958734393119812E-1   1.560427248477936E-1  -1.478019654750824E-1   6.729906797409058E-1  
 2.588000000000000E7    -1.465751528739929E-1   6.764462590217590E-1   6.966936588287354E-1   1.555763483047485E-1   6.963451504707336E-1   1.555195599794388E-1  -1.468627750873566E-1   6.723346114158630E-1  
 2.590000000000000E7    -1.448762416839600E-1   6.754602789878845E-1   6.980939507484436E-1   1.551445722579956E-1   6.975825428962708E-1   1.546992063522339E-1  -1.460735797882080E-1   6.718862056732178E-1  
 2.592000000000000E7    -1.440925300121307E-1   6.750666499137878E-1   6.987664699554443E-1   1.539035439491272E-1   6.982762813568115E-1   1.537045687437058E-1  -1.445214152336121E-1   6.716002225875855E-1  
 2.594000000000000E7    -1.431877315044403E-1   6.745537519454956E-1   6.992783546447754E-1   1.530234962701798E-1   6.989749670028687E-1   1.526817381381989E-1  -1.432428359985352E-1   6.712962388992310E-1  
 2.596000000000000E7    -1.418420225381851E-1   6.743347644805908E-1   7.005647420883179E-1   1.526588797569275E-1   6.996592879295349E-1   1.522312760353088E-1  -1.423780918121338E-1   6.708041429519653E-1  
 2.598000000000000E7    -1.408221721649170E-1   6.734625101089478E-1   7.014007568359375E-1   1.515273600816727E-1   7.010235786437988E-1   1.511853039264679E-1  -1.412792354822159E-1   6.700997948646545E-1  
 2.600000000000000E7    -1.398425847291946E-1   6.729032993316650E-1   7.022548317909241E-1   1.504233777523041E-1   7.020105123519898E-1   1.500859260559082E-1  -1.404037624597549E-1   6.698753237724304E-1  
 2.602000000000000E7    -1.385693252086639E-1   6.727638840675354E-1   7.031396627426148E-1   1.499077230691910E-1   7.028198838233948E-1   1.493295431137085E-1  -1.388069689273834E-1   6.694256663322449E-1  
 2.604000000000000E7    -1.375589668750763E-1   6.726776361465454E-1   7.038304805755615E-1   1.492443680763245E-1   7.034289836883545E-1   1.488068103790283E-1  -1.376262307167053E-1   6.688176989555359E-1  
 2.606000000000000E7    -1.365323960781097E-1   6.717184185981751E-1   7.048242092132568E-1   1.484045237302780E-1   7.046663165092468E-1   1.476331949234009E-1  -1.368998438119888E-1   6.683043241500855E-1  
 2.608000000000000E7    -1.354784369468689E-1   6.708181500434876E-1   7.058827877044678E-1   1.468647420406342E-1   7.053430676460266E-1   1.471845060586929E-1  -1.359774321317673E-1   6.676173210144043E-1  
 2.610000000000000E7    -1.342477649450302E-1   6.709987521171570E-1   7.066642642021179E-1   1.466613709926605E-1   7.058779597282410E-1   1.458086073398590E-1  -1.346113979816437E-1   6.672424674034119E-1  
 2.612000000000000E7    -1.328667998313904E-1   6.697454452514648E-1   7.076494693756104E-1   1.454711109399796E-1   7.066433429718018E-1   1.450565457344055E-1  -1.335463225841522E-1   6.669806838035584E-1  
 2.614000000000000E7    -1.319331526756287E-1   6.696391105651856E-1   7.081086039543152E-1   1.447087526321411E-1   7.081440091133118E-1   1.442124545574188E-1  -1.326765418052673E-1   6.660455465316773E-1  
 2.616000000000000E7    -1.304697990417481E-1   6.692768931388855E-1   7.090902328491211E-1   1.438780426979065E-1   7.088310122489929E-1   1.431979089975357E-1  -1.318009346723557E-1   6.652035117149353E-1  
 2.618000000000000E7    -1.298496723175049E-1   6.685165166854858E-1   7.102987170219421E-1   1.428983360528946E-1   7.094546556472778E-1   1.422066688537598E-1  -1.301663219928742E-1   6.654855608940125E-1  
 2.620000000000000E7    -1.288418471813202E-1   6.683577895164490E-1   7.106088995933533E-1   1.418749541044235E-1   7.100499868392944E-1   1.419891119003296E-1  -1.290388405323029E-1   6.646303534507752E-1  
 2.622000000000000E7    -1.280523240566254E-1   6.677435636520386E-1   7.114283442497253E-1   1.409222483634949E-1   7.110437750816345E-1   1.409123241901398E-1  -1.279698610305786E-1   6.643892526626587E-1  
 2.624000000000000E7    -1.264528334140778E-1   6.669761538505554E-1   7.125486731529236E-1   1.402391493320465E-1   7.122659087181091E-1   1.399929374456406E-1  -1.275268942117691E-1   6.635954976081848E-1  
 2.626000000000000E7    -1.257209926843643E-1   6.667425632476807E-1   7.137091159820557E-1   1.391313374042511E-1   7.129982113838196E-1   1.390152573585510E-1  -1.260203421115875E-1   6.628886461257935E-1  
 2.628000000000000E7    -1.249196678400040E-1   6.655887961387634E-1   7.144915461540222E-1   1.381088048219681E-1   7.137525081634522E-1   1.381593495607376E-1  -1.248570978641510E-1   6.631420254707336E-1  
 2.630000000000000E7    -1.236926019191742E-1   6.658628582954407E-1   7.151550650596619E-1   1.375432759523392E-1   7.145933508872986E-1   1.376571804285049E-1  -1.235900819301605E-1   6.617285013198853E-1  
 2.632000000000000E7    -1.215974092483521E-1   6.644477844238281E-1   7.161732912063599E-1   1.370927989482880E-1   7.153127193450928E-1   1.363236010074616E-1  -1.233067661523819E-1   6.615319252014160E-1  
 2.634000000000000E7    -1.212502792477608E-1   6.644521355628967E-1   7.167550921440125E-1   1.358494609594345E-1   7.164784073829651E-1   1.356799602508545E-1  -1.216253191232681E-1   6.613793373107910E-1  
 2.636000000000000E7    -1.198120415210724E-1   6.639074683189392E-1   7.180278897285461E-1   1.349669843912125E-1   7.171249389648438E-1   1.349283903837204E-1  -1.209244579076767E-1   6.607143878936768E-1  
 2.638000000000000E7    -1.191432923078537E-1   6.632795929908752E-1   7.183518409729004E-1   1.336899101734161E-1   7.180519104003906E-1   1.339298039674759E-1  -1.193244308233261E-1   6.598210334777832E-1  
 2.640000000000000E7    -1.173691600561142E-1   6.624318361282349E-1   7.194135785102844E-1   1.331354975700378E-1   7.187832593917847E-1   1.327975690364838E-1  -1.185463741421700E-1   6.596876978874207E-1  
 2.642000000000000E7    -1.167653053998947E-1   6.622321009635925E-1   7.199367284774780E-1   1.322433501482010E-1   7.198102474212647E-1   1.320246458053589E-1  -1.171397566795349E-1   6.591259837150574E-1  
 2.644000000000000E7    -1.156571954488754E-1   6.619403958320618E-1   7.209220528602600E-1   1.313564479351044E-1   7.205259799957275E-1   1.315115988254547E-1  -1.163849458098412E-1   6.584706306457520E-1  
 2.646000000000000E7    -1.143324226140976E-1   6.611835956573486E-1   7.224693298339844E-1   1.304968595504761E-1   7.214731574058533E-1   1.306046396493912E-1  -1.154328584671021E-1   6.580690741539002E-1  
 2.648000000000000E7    -1.133351251482964E-1   6.604033708572388E-1   7.229304909706116E-1   1.293202191591263E-1   7.222021818161011E-1   1.290398240089417E-1  -1.147810891270638E-1   6.572916507720947E-1  
 2.650000000000000E7    -1.122839525341988E-1   6.596167087554932E-1   7.236810326576233E-1   1.284938156604767E-1   7.226343750953674E-1   1.282428801059723E-1  -1.137633025646210E-1   6.569547057151794E-1  
 2.652000000000000E7    -1.110320687294006E-1   6.599159240722656E-1   7.243281006813049E-1   1.282088905572891E-1   7.238202095031738E-1   1.271927952766419E-1  -1.123193949460983E-1   6.561375260353088E-1  
 2.654000000000000E7    -1.107987388968468E-1   6.588766574859619E-1   7.255839109420776E-1   1.264969706535339E-1   7.248472571372986E-1   1.267789304256439E-1  -1.109005212783814E-1   6.560785770416260E-1  
 2.656000000000000E7    -1.090686023235321E-1   6.585187911987305E-1   7.258542776107788E-1   1.261592507362366E-1   7.255708575248718E-1   1.257928609848023E-1  -1.102544814348221E-1   6.552563309669495E-1  
 2.658000000000000E7    -1.082803234457970E-1   6.573332548141480E-1   7.270467281341553E-1   1.249453127384186E-1   7.264355421066284E-1   1.245882436633110E-1  -1.087520569562912E-1   6.549848914146423E-1  
 2.660000000000000E7    -1.075326278805733E-1   6.568278670310974E-1   7.278386950492859E-1   1.245078891515732E-1   7.272093296051025E-1   1.238505616784096E-1  -1.077472716569901E-1   6.541634798049927E-1  
 2.662000000000000E7    -1.062258705496788E-1   6.564384102821350E-1   7.286158204078674E-1   1.227138638496399E-1   7.278980016708374E-1   1.226468682289124E-1  -1.066656932234764E-1   6.535887122154236E-1  
 2.664000000000000E7    -1.049636155366898E-1   6.558970212936401E-1   7.296402454376221E-1   1.219337135553360E-1   7.295171022415161E-1   1.218231692910194E-1  -1.058584526181221E-1   6.525404453277588E-1  
 2.666000000000000E7    -1.038951128721237E-1   6.554318070411682E-1   7.301321029663086E-1   1.209402680397034E-1   7.295519113540649E-1   1.211020350456238E-1  -1.045321077108383E-1   6.524327397346497E-1  
 2.668000000000000E7    -1.026391983032227E-1   6.548229455947876E-1   7.309485673904419E-1   1.203289031982422E-1   7.300831079483032E-1   1.202360466122627E-1  -1.033302694559097E-1   6.519141793251038E-1  
 2.670000000000000E7    -1.015096306800842E-1   6.541829109191895E-1   7.322092652320862E-1   1.190379709005356E-1   7.312943935394287E-1   1.190395355224609E-1  -1.028588041663170E-1   6.507655978202820E-1  
 2.672000000000000E7    -1.004237458109856E-1   6.535518169403076E-1   7.330346107482910E-1   1.183591112494469E-1   7.323017716407776E-1   1.180623024702072E-1  -1.019543558359146E-1   6.502456068992615E-1  
 2.674000000000000E7    -9.976410120725632E-2   6.528452634811401E-1   7.340791821479797E-1   1.174833178520203E-1   7.331606745719910E-1   1.176831424236298E-1  -9.986832737922669E-2   6.498096585273743E-1  
 2.676000000000000E7    -9.869070351123810E-2   6.523499488830566E-1   7.344142198562622E-1   1.163872405886650E-1   7.338424921035767E-1   1.166815832257271E-1  -9.936100244522095E-2   6.494097113609314E-1  
 2.678000000000000E7    -9.806341677904129E-2   6.519147157669067E-1   7.355754971504211E-1   1.150946840643883E-1   7.346894741058350E-1   1.152670383453369E-1  -9.771671891212463E-2   6.485123634338379E-1  
 2.680000000000000E7    -9.655395895242691E-2   6.513545513153076E-1   7.359687685966492E-1   1.139307469129562E-1   7.353200912475586E-1   1.142349317669869E-1  -9.693109989166260E-2   6.480531692504883E-1  
 2.682000000000000E7    -9.511593729257584E-2   6.507096290588379E-1   7.372852563858032E-1   1.134186685085297E-1   7.361521720886231E-1   1.129892915487289E-1  -9.684614092111588E-2   6.475181579589844E-1  
 2.684000000000000E7    -9.422245621681213E-2   6.502589583396912E-1   7.383670210838318E-1   1.124470382928848E-1   7.370513081550598E-1   1.123721078038216E-1  -9.537910670042038E-2   6.470117568969727E-1  
 2.686000000000000E7    -9.309484064579010E-2   6.494185328483582E-1   7.388461828231812E-1   1.119088456034660E-1   7.377134561538696E-1   1.116413325071335E-1  -9.372878074645996E-2   6.463903188705444E-1  
 2.688000000000000E7    -9.206248819828033E-2   6.491450071334839E-1   7.394461631774902E-1   1.108383685350418E-1   7.389533519744873E-1   1.105656325817108E-1  -9.348431229591370E-2   6.453767418861389E-1  
 2.690000000000000E7    -9.114421904087067E-2   6.483069658279419E-1   7.401642203330994E-1   1.096678525209427E-1   7.395748496055603E-1   1.091188490390778E-1  -9.220149368047714E-2   6.451724171638489E-1  
 2.692000000000000E7    -9.051379561424255E-2   6.473336815834045E-1   7.410612106323242E-1   1.084998846054077E-1   7.407156825065613E-1   1.087371557950974E-1  -9.017354995012283E-2   6.442216634750366E-1  
 2.694000000000000E7    -8.925513923168182E-2   6.468295454978943E-1   7.421205639839172E-1   1.077390834689140E-1   7.411584854125977E-1   1.073921918869019E-1  -8.974483609199524E-2   6.438219547271729E-1  
 2.696000000000000E7    -8.814574778079987E-2   6.463260650634766E-1   7.427526712417603E-1   1.064664199948311E-1   7.422460913658142E-1   1.061075255274773E-1  -8.884994685649872E-2   6.430380344390869E-1  
 2.698000000000000E7    -8.707004785537720E-2   6.453751921653748E-1   7.437096834182739E-1   1.058706045150757E-1   7.426866292953491E-1   1.055310890078545E-1  -8.786498010158539E-2   6.432135701179504E-1  
 2.700000000000000E7    -8.615647256374359E-2   6.456781625747681E-1   7.437455058097839E-1   1.042751669883728E-1   7.433758974075317E-1   1.042870208621025E-1  -8.685753494501114E-2   6.420233249664307E-1  
 2.702000000000000E7    -8.471975475549698E-2   6.449592113494873E-1   7.449974417686462E-1   1.038118153810501E-1   7.449445724487305E-1   1.035254001617432E-1  -8.593712002038956E-2   6.407540440559387E-1  
 2.704000000000000E7    -8.414389193058014E-2   6.439081430435181E-1   7.462689280509949E-1   1.025330647826195E-1   7.454622983932495E-1   1.024826318025589E-1  -8.461140096187592E-2   6.406837105751038E-1  
 2.706000000000000E7    -8.331538736820221E-2   6.433081626892090E-1   7.471259832382202E-1   1.016537249088287E-1   7.465688586235046E-1   1.018453016877174E-1  -8.292329311370850E-2   6.399153470993042E-1  
 2.708000000000000E7    -8.218124508857727E-2   6.425371766090393E-1   7.478785514831543E-1   1.003181934356690E-1   7.473284006118774E-1   1.003088131546974E-1  -8.219207823276520E-2   6.393056511878967E-1  
 2.710000000000000E7    -8.091638982295990E-2   6.414817571640015E-1   7.486681342124939E-1   9.932785481214523E-2   7.477974295616150E-1   9.957893192768097E-2  -8.154502511024475E-2   6.389945149421692E-1  
 2.712000000000000E7    -7.982665300369263E-2   6.413078308105469E-1   7.499297261238098E-1   9.894622862339020E-2   7.490651011466980E-1   9.852858632802963E-2  -8.056516945362091E-2   6.382083892822266E-1  
 2.714000000000000E7    -7.854576408863068E-2   6.411442756652832E-1   7.497404813766480E-1   9.794965386390686E-2   7.493212819099426E-1   9.768237173557282E-2  -7.936775684356690E-2   6.375542283058167E-1  
 2.716000000000000E7    -7.810351252555847E-2   6.402465105056763E-1   7.509977221488953E-1   9.691037237644196E-2   7.503626346588135E-1   9.679469466209412E-2  -7.833792269229889E-2   6.365126371383667E-1  
 2.718000000000000E7    -7.640554010868073E-2   6.391945481300354E-1   7.515587210655212E-1   9.619863331317902E-2   7.513759136199951E-1   9.560438990592957E-2  -7.721698284149170E-2   6.358760595321655E-1  
 2.720000000000000E7    -7.547818124294281E-2   6.384928226470947E-1   7.526929974555969E-1   9.464723616838455E-2   7.520300149917603E-1   9.472531080245972E-2  -7.630802690982819E-2   6.355828642845154E-1  
 2.722000000000000E7    -7.482811808586121E-2   6.381847262382507E-1   7.530707120895386E-1   9.382759034633637E-2   7.526679635047913E-1   9.426023066043854E-2  -7.456637173891068E-2   6.348669528961182E-1  
 2.724000000000000E7    -7.332692295312882E-2   6.370554566383362E-1   7.541152238845825E-1   9.290464222431183E-2   7.538342475891113E-1   9.256151318550110E-2  -7.450057566165924E-2   6.340056061744690E-1  
 2.726000000000000E7    -7.292476296424866E-2   6.364209055900574E-1   7.553656101226807E-1   9.152486175298691E-2   7.540575265884399E-1   9.172871708869934E-2  -7.335471361875534E-2   6.333402991294861E-1  
 2.728000000000000E7    -7.184568047523499E-2   6.357070803642273E-1   7.557340264320374E-1   9.041072428226471E-2   7.552981376647949E-1   9.063453227281570E-2  -7.188843190670013E-2   6.329119801521301E-1  
 2.730000000000000E7    -7.029907405376434E-2   6.354044675827026E-1   7.565387487411499E-1   8.964719623327255E-2   7.559644579887390E-1   8.964572846889496E-2  -7.086588442325592E-2   6.319938898086548E-1  
 2.732000000000000E7    -6.952425092458725E-2   6.350602507591248E-1   7.571100592613220E-1   8.816731721162796E-2   7.572803497314453E-1   8.811908215284348E-2  -7.046921551227570E-2   6.308491230010986E-1  
 2.734000000000000E7    -6.898601353168488E-2   6.343694329261780E-1   7.579374313354492E-1   8.737863600254059E-2   7.570530176162720E-1   8.737333863973618E-2  -6.906527280807495E-2   6.308118700981140E-1  
 2.736000000000000E7    -6.721873581409454E-2   6.332743167877197E-1   7.584385871887207E-1   8.622476458549500E-2   7.579478025436401E-1   8.605797588825226E-2  -6.818321347236633E-2   6.306723356246948E-1  
 2.738000000000000E7    -6.633953750133514E-2   6.320384144783020E-1   7.595231533050537E-1   8.516565710306168E-2   7.590010166168213E-1   8.511327207088471E-2  -6.727664917707443E-2   6.294206380844116E-1  
 2.740000000000000E7    -6.493149697780609E-2   6.314519643783569E-1   7.608759403228760E-1   8.456439524888992E-2   7.598331570625305E-1   8.426354080438614E-2  -6.605705618858337E-2   6.285194754600525E-1  
 2.742000000000000E7    -6.445591151714325E-2   6.314859390258789E-1   7.609683275222778E-1   8.321918547153473E-2   7.605506777763367E-1   8.280366659164429E-2  -6.555888056755066E-2   6.277443170547485E-1  
 2.744000000000000E7    -6.323580443859100E-2   6.302779912948608E-1   7.624281644821167E-1   8.222666382789612E-2   7.612419724464417E-1   8.189577609300613E-2  -6.414867192506790E-2   6.274200677871704E-1  
 2.746000000000000E7    -6.249081343412399E-2   6.294432878494263E-1   7.626860141754150E-1   8.085314929485321E-2   7.621027231216431E-1   8.076538145542145E-2  -6.331943720579147E-2   6.269437074661255E-1  
 2.748000000000000E7    -6.174300611019135E-2   6.287333965301514E-1   7.638406157493591E-1   7.970780879259110E-2   7.633195519447327E-1   7.988570630550385E-2  -6.212068349123001E-2   6.254377365112305E-1  
 2.750000000000000E7    -6.048582494258881E-2   6.280563473701477E-1   7.648943066596985E-1   7.865729182958603E-2   7.641430497169495E-1   7.821936905384064E-2  -6.108203157782555E-2   6.246984004974365E-1  
 2.752000000000000E7    -5.883147940039635E-2   6.276068687438965E-1   7.652840018272400E-1   7.798346877098084E-2   7.649920582771301E-1   7.746451348066330E-2  -5.990925431251526E-2   6.237931847572327E-1  
 2.754000000000000E7    -5.801523476839066E-2   6.268154382705689E-1   7.656852006912231E-1   7.648789137601852E-2   7.652806639671326E-1   7.649433612823486E-2  -5.893424153327942E-2   6.236192584037781E-1  
 2.756000000000000E7    -5.713747069239616E-2   6.264929771423340E-1   7.665067911148071E-1   7.532124966382980E-2   7.661642432212830E-1   7.561738789081574E-2  -5.781585723161697E-2   6.229445338249207E-1  
 2.758000000000000E7    -5.605003610253334E-2   6.255879402160645E-1   7.674039006233215E-1   7.411076128482819E-2   7.669182419776917E-1   7.391685247421265E-2  -5.783968046307564E-2   6.225960254669190E-1  
 2.760000000000000E7    -5.552841722965241E-2   6.244630813598633E-1   7.684370279312134E-1   7.314449548721314E-2   7.674402594566345E-1   7.347512990236282E-2  -5.603373795747757E-2   6.217619776725769E-1  
 2.762000000000000E7    -5.431218072772026E-2   6.240227222442627E-1   7.686100006103516E-1   7.250854372978210E-2   7.679270505905151E-1   7.216288149356842E-2  -5.472016334533691E-2   6.216090917587280E-1  
 2.764000000000000E7    -5.332728102803230E-2   6.231345534324646E-1   7.700104713439941E-1   7.109099626541138E-2   7.692994475364685E-1   7.125873863697052E-2  -5.394776910543442E-2   6.202778816223145E-1  
 2.766000000000000E7    -5.201626569032669E-2   6.224274635314941E-1   7.706479430198669E-1   7.013490796089172E-2   7.700099349021912E-1   7.022055983543396E-2  -5.337771773338318E-2   6.194459199905396E-1  
 2.768000000000000E7    -5.197796970605850E-2   6.218543052673340E-1   7.709872722625732E-1   6.867834925651550E-2   7.712803483009338E-1   6.905718892812729E-2  -5.178475379943848E-2   6.184347271919251E-1  
 2.770000000000000E7    -5.002400651574135E-2   6.206533908843994E-1   7.719363570213318E-1   6.818620115518570E-2   7.713109254837036E-1   6.770664453506470E-2  -5.125116929411888E-2   6.185307502746582E-1  
 2.772000000000000E7    -4.944225400686264E-2   6.201822757720947E-1   7.725428342819214E-1   6.690751016139984E-2   7.723637819290161E-1   6.696045398712158E-2  -5.008484050631523E-2   6.175329685211182E-1  
 2.774000000000000E7    -4.873188957571983E-2   6.200657486915588E-1   7.737417817115784E-1   6.577673554420471E-2   7.728129029273987E-1   6.581597030162811E-2  -4.864445701241493E-2   6.158463954925537E-1  
 2.776000000000000E7    -4.729408025741577E-2   6.187245845794678E-1   7.742830514907837E-1   6.498204171657562E-2   7.738142609596252E-1   6.465956568717957E-2  -4.816165566444397E-2   6.149859428405762E-1  
 2.778000000000000E7    -4.636490345001221E-2   6.179782152175903E-1   7.751618623733521E-1   6.383037567138672E-2   7.747727036476135E-1   6.378738582134247E-2  -4.667835310101509E-2   6.145036816596985E-1  
 2.780000000000000E7    -4.563388600945473E-2   6.167817115783691E-1   7.765082120895386E-1   6.240125745534897E-2   7.752441763877869E-1   6.213250383734703E-2  -4.612331092357636E-2   6.143314838409424E-1  
 2.782000000000000E7    -4.406391084194183E-2   6.166395545005798E-1   7.766547203063965E-1   6.160461902618408E-2   7.757417559623718E-1   6.141890212893486E-2  -4.461137205362320E-2   6.136826276779175E-1  
 2.784000000000000E7    -4.374247789382935E-2   6.153711676597595E-1   7.778224945068359E-1   6.048105657100678E-2   7.766582965850830E-1   6.062701717019081E-2  -4.348702728748322E-2   6.130556464195252E-1  
 2.786000000000000E7    -4.210983961820602E-2   6.143895387649536E-1   7.785804867744446E-1   5.934890359640122E-2   7.773449420928955E-1   5.869633704423904E-2  -4.319393634796143E-2   6.119415760040283E-1  
 2.788000000000000E7    -4.122312366962433E-2   6.141106486320496E-1   7.790049314498901E-1   5.823565274477005E-2   7.783898115158081E-1   5.789879336953163E-2  -4.208943247795105E-2   6.116204261779785E-1  
 2.790000000000000E7    -4.071444272994995E-2   6.130753159523010E-1   7.798143625259399E-1   5.706647783517838E-2   7.788940668106079E-1   5.752762034535408E-2  -4.072879254817963E-2   6.105486154556274E-1  
 2.792000000000000E7    -3.924314677715302E-2   6.123788952827454E-1   7.807965278625488E-1   5.588359385728836E-2   7.804121375083923E-1   5.596095696091652E-2  -3.989859670400620E-2   6.096019148826599E-1  
 2.794000000000000E7    -3.877801820635796E-2   6.114472150802612E-1   7.814214825630188E-1   5.422000586986542E-2   7.805352807044983E-1   5.468942224979401E-2  -3.930280730128288E-2   6.092778444290161E-1  
 2.796000000000000E7    -3.718097880482674E-2   6.113611459732056E-1   7.821711897850037E-1   5.349491164088249E-2   7.811095118522644E-1   5.324845388531685E-2  -3.824106603860855E-2   6.077319383621216E-1  
 2.798000000000000E7    -3.660721331834793E-2   6.104456782341003E-1   7.826294302940369E-1   5.232955142855644E-2   7.822514176368713E-1   5.258158221840859E-2  -3.713969141244888E-2   6.068211197853088E-1  
 2.800000000000000E7    -3.541903942823410E-2   6.090510487556458E-1   7.835248708724976E-1   5.098460987210274E-2   7.825131416320801E-1   5.091436952352524E-2  -3.673675656318665E-2   6.071940064430237E-1  
 2.802000000000000E7    -3.445443511009216E-2   6.085775494575501E-1   7.843476533889771E-1   5.031148344278336E-2   7.833824753761292E-1   5.050311982631683E-2  -3.517264872789383E-2   6.052308082580566E-1  
 2.804000000000000E7    -3.334777802228928E-2   6.079236268997192E-1   7.850548028945923E-1   4.897250235080719E-2   7.842882871627808E-1   4.883931204676628E-2  -3.447932377457619E-2   6.052233576774597E-1  
 2.806000000000000E7    -3.253234550356865E-2   6.075144410133362E-1   7.853673696517944E-1   4.761989414691925E-2   7.846593856811523E-1   4.730444028973579E-2  -3.353501111268997E-2   6.038997173309326E-1  
 2.808000000000000E7    -3.180345892906189E-2   6.065224409103394E-1   7.863814830780029E-1   4.606751352548599E-2   7.855556011199951E-1   4.607835039496422E-2  -3.278471902012825E-2   6.034994125366211E-1  
 2.810000000000000E7    -3.045362420380116E-2   6.053292751312256E-1   7.873329520225525E-1   4.539297148585320E-2   7.865242958068848E-1   4.565390199422836E-2  -3.128775954246521E-2   6.026690006256104E-1  
 2.812000000000000E7    -2.940200641751289E-2   6.049190759658814E-1   7.872427105903626E-1   4.451378434896469E-2   7.872728109359741E-1   4.451801255345345E-2  -3.064785525202751E-2   6.020672917366028E-1  
 2.814000000000000E7    -2.889520302414894E-2   6.039265990257263E-1   7.884130477905273E-1   4.341049492359161E-2   7.881557345390320E-1   4.334380850195885E-2  -2.953241951763630E-2   6.007910966873169E-1  
 2.816000000000000E7    -2.794862352311611E-2   6.033259034156799E-1   7.887844443321228E-1   4.206733033061028E-2   7.883416414260864E-1   4.219788312911987E-2  -2.816662564873695E-2   6.005046963691711E-1  
 2.818000000000000E7    -2.681147120893002E-2   6.018294095993042E-1   7.901714444160461E-1   4.104351997375488E-2   7.892031669616699E-1   4.106093570590019E-2  -2.738008089363575E-2   5.998910665512085E-1  
 2.820000000000000E7    -2.532085031270981E-2   6.012316942214966E-1   7.910413742065430E-1   3.974390402436256E-2   7.899329662322998E-1   3.945877403020859E-2  -2.718143723905087E-2   5.985240936279297E-1  
 2.822000000000000E7    -2.443856000900269E-2   6.005908846855164E-1   7.917050123214722E-1   3.840260952711105E-2   7.908084988594055E-1   3.789726644754410E-2  -2.575755491852760E-2   5.977791547775269E-1  
 2.824000000000000E7    -2.358247712254524E-2   5.997813940048218E-1   7.919231653213501E-1   3.718973696231842E-2   7.912887930870056E-1   3.704816848039627E-2  -2.501929178833962E-2   5.975236892700195E-1  
 2.826000000000000E7    -2.321823500096798E-2   5.989087224006653E-1   7.926987409591675E-1   3.623159974813461E-2   7.917531728744507E-1   3.573454171419144E-2  -2.439828775823116E-2   5.963703393936157E-1  
 2.828000000000000E7    -2.186070010066032E-2   5.977280735969544E-1   7.938671708106995E-1   3.505124896764755E-2   7.932030558586121E-1   3.490018844604492E-2  -2.262242510914803E-2   5.952377319335938E-1  
 2.830000000000000E7    -2.116257138550282E-2   5.972924232482910E-1   7.938726544380188E-1   3.357117995619774E-2   7.934462428092957E-1   3.366679698228836E-2  -2.186328358948231E-2   5.946012735366821E-1  
 2.832000000000000E7    -1.999948546290398E-2   5.967037081718445E-1   7.946394085884094E-1   3.277904540300369E-2   7.944490909576416E-1   3.281900659203529E-2  -2.069531939923763E-2   5.934262275695801E-1  
 2.834000000000000E7    -1.897456683218479E-2   5.954892039299011E-1   7.957036495208740E-1   3.133264929056168E-2   7.953162789344788E-1   3.114330582320690E-2  -2.045029960572720E-2   5.928545594215393E-1  
 2.836000000000000E7    -1.884854584932327E-2   5.955276489257813E-1   7.959192991256714E-1   2.980027534067631E-2   7.960230112075806E-1   3.031219914555550E-2  -1.857371628284454E-2   5.912125110626221E-1  
 2.838000000000000E7    -1.718064025044441E-2   5.934973359107971E-1   7.972775101661682E-1   2.895442023873329E-2   7.965937852859497E-1   2.877645567059517E-2  -1.837706565856934E-2   5.906710624694824E-1  
 2.840000000000000E7    -1.610314473509789E-2   5.929827094078064E-1   7.977651357650757E-1   2.753879874944687E-2   7.971078753471375E-1   2.741424925625324E-2  -1.737570203840733E-2   5.899196267127991E-1  
 2.842000000000000E7    -1.622962951660156E-2   5.920910239219666E-1   7.986915707588196E-1   2.645596116781235E-2   7.979848384857178E-1   2.629680372774601E-2  -1.595651358366013E-2   5.889104008674622E-1  
 2.844000000000000E7    -1.466432772576809E-2   5.909652709960938E-1   7.991826534271240E-1   2.531175501644611E-2   7.982250452041626E-1   2.519946917891502E-2  -1.547450758516789E-2   5.892689824104309E-1  
 2.846000000000000E7    -1.402743160724640E-2   5.905935168266296E-1   7.996432185173035E-1   2.396473474800587E-2   7.990469932556152E-1   2.417899854481220E-2  -1.406577136367559E-2   5.876367092132568E-1  
 2.848000000000000E7    -1.277712825685740E-2   5.892127156257629E-1   8.011515736579895E-1   2.277632988989353E-2   7.999671697616577E-1   2.284708060324192E-2  -1.319058798253536E-2   5.870146751403809E-1  
 2.850000000000000E7    -1.136932615190744E-2   5.884376764297485E-1   8.016456961631775E-1   2.180049754679203E-2   8.006997108459473E-1   2.147965319454670E-2  -1.268293708562851E-2   5.857502222061157E-1  
 2.852000000000000E7    -1.109300926327705E-2   5.877752900123596E-1   8.020254373550415E-1   2.025974914431572E-2   8.014409542083740E-1   2.040915377438068E-2  -1.116708852350712E-2   5.852196216583252E-1  
 2.854000000000000E7    -9.919648990035057E-3   5.868220329284668E-1   8.025214672088623E-1   1.897125877439976E-2   8.018805980682373E-1   1.926081068813801E-2  -1.067491807043552E-2   5.843340158462524E-1  
 2.856000000000000E7    -9.037437848746777E-3   5.861094594001770E-1   8.030983805656433E-1   1.769796386361122E-2   8.028051853179932E-1   1.746400818228722E-2  -1.002237200737000E-2   5.835772752761841E-1  
 2.858000000000000E7    -7.647831924259663E-3   5.847902297973633E-1   8.042417168617249E-1   1.701784320175648E-2   8.030699491500855E-1   1.684012822806835E-2  -8.774785324931145E-3   5.830802917480469E-1  
 2.860000000000000E7    -7.228744216263294E-3   5.837996602058411E-1   8.047954440116882E-1   1.524343714118004E-2   8.041740059852600E-1   1.524146459996700E-2  -7.765222806483507E-3   5.821499824523926E-1  
 2.862000000000000E7    -6.329918280243874E-3   5.834492444992065E-1   8.052222728729248E-1   1.415609568357468E-2   8.043898344039917E-1   1.451362669467926E-2  -6.580290384590626E-3   5.809186697006226E-1  
 2.864000000000000E7    -4.907010588794947E-3   5.822423696517944E-1   8.062762022018433E-1   1.300446130335331E-2   8.053591251373291E-1   1.345676183700562E-2  -5.705007351934910E-3   5.801309347152710E-1  
 2.866000000000000E7    -4.647918976843357E-3   5.811222195625305E-1   8.066356778144836E-1   1.121949404478073E-2   8.057743906974793E-1   1.129552163183689E-2  -5.513451062142849E-3   5.794712901115418E-1  
 2.868000000000000E7    -3.306663129478693E-3   5.808870792388916E-1   8.072252273559570E-1   1.062426716089249E-2   8.067783117294312E-1   1.072878669947386E-2  -4.552857019007206E-3   5.780965089797974E-1  
 2.870000000000000E7    -2.656355965882540E-3   5.801269412040710E-1   8.077802658081055E-1   9.000522084534168E-3   8.074255585670471E-1   9.184219874441624E-3  -3.815780859440565E-3   5.768616795539856E-1  
 2.872000000000000E7    -1.617845613509417E-3   5.793666839599609E-1   8.086186647415161E-1   7.776108570396900E-3   8.082184195518494E-1   8.014760911464691E-3  -2.692429581657052E-3   5.761080384254456E-1  
 2.874000000000000E7    -8.473475463688374E-4   5.777642130851746E-1   8.095089197158814E-1   6.193225737661123E-3   8.083480000495911E-1   6.589378695935011E-3  -1.443278277292848E-3   5.755967497825623E-1  
 2.876000000000000E7     3.204003442078829E-4   5.772699713706970E-1   8.098947405815125E-1   5.618294700980187E-3   8.093464970588684E-1   5.379341542720795E-3  -5.080257542431355E-4   5.746473073959351E-1  
 2.878000000000000E7     6.902231834828854E-4   5.763079524040222E-1   8.110416531562805E-1   3.917957656085491E-3   8.102503418922424E-1   4.134547896683216E-3   2.654108684509993E-4   5.729019045829773E-1  
 2.880000000000000E7     1.972473226487637E-3   5.753725767135620E-1   8.110601902008057E-1   3.000701311975718E-3   8.103114366531372E-1   2.814689185470343E-3   1.013096887618303E-3   5.723865032196045E-1  
 2.882000000000000E7     3.290255554020405E-3   5.744134783744812E-1   8.118869066238403E-1   1.852920744568110E-3   8.112632036209106E-1   1.915603294037283E-3   1.616777852177620E-3   5.716778039932251E-1  
 2.884000000000000E7     3.990171477198601E-3   5.732129812240601E-1   8.127107620239258E-1   4.703323647845537E-4   8.121627569198608E-1   7.438489701598883E-4   2.852809848263860E-3   5.708914995193481E-1  
 2.886000000000000E7     4.454869776964188E-3   5.727680325508118E-1   8.131902813911438E-1  -9.976066648960114E-4   8.126131892204285E-1  -6.469988729804754E-4   4.044038243591785E-3   5.701249837875366E-1  
 2.888000000000000E7     5.643350072205067E-3   5.715878009796143E-1   8.140346407890320E-1  -1.969537464901805E-3   8.128882646560669E-1  -1.965728122740984E-3   4.788592457771301E-3   5.695085525512695E-1  
 2.890000000000000E7     6.045105867087841E-3   5.705977678298950E-1   8.145972490310669E-1  -3.393989987671375E-3   8.141081333160400E-1  -2.965060994029045E-3   5.698896478861570E-3   5.685345530509949E-1  
 2.892000000000000E7     6.824119947850704E-3   5.694620013237000E-1   8.153764009475708E-1  -4.649251233786345E-3   8.146277666091919E-1  -4.929241724312306E-3   6.270830053836107E-3   5.668988227844238E-1  
 2.894000000000000E7     8.252106606960297E-3   5.682520270347595E-1   8.161053061485291E-1  -6.185336038470268E-3   8.149632215499878E-1  -5.853381007909775E-3   7.287307642400265E-3   5.663610100746155E-1  
 2.896000000000000E7     9.126848541200161E-3   5.677115917205811E-1   8.167673945426941E-1  -7.658493705093861E-3   8.156843781471252E-1  -7.233500480651856E-3   7.818777114152908E-3   5.654628872871399E-1  
 2.898000000000000E7     1.018325798213482E-2   5.672649741172791E-1   8.170558810234070E-1  -8.863872848451138E-3   8.166717290878296E-1  -8.622271008789539E-3   8.983845822513104E-3   5.643223524093628E-1  
 2.900000000000000E7     1.100705284625292E-2   5.662152171134949E-1   8.175001144409180E-1  -9.537166915833950E-3   8.169631361961365E-1  -9.720364585518837E-3   9.739877656102181E-3   5.636029839515686E-1  
 2.902000000000000E7     1.209253724664450E-2   5.652127265930176E-1   8.185362219810486E-1  -1.115074567496777E-2   8.177616000175476E-1  -1.121660508215427E-2   1.081818342208862E-2   5.625333786010742E-1  
 2.904000000000000E7     1.186240650713444E-2   5.646573305130005E-1   8.186237812042236E-1  -1.268825400620699E-2   8.187316656112671E-1  -1.249472238123417E-2   1.216978859156370E-2   5.613294839859009E-1  
 2.906000000000000E7     1.363990735262632E-2   5.632021427154541E-1   8.198908567428589E-1  -1.327760145068169E-2   8.190851211547852E-1  -1.368542015552521E-2   1.230621524155140E-2   5.603049397468567E-1  
 2.908000000000000E7     1.408184971660376E-2   5.620191693305969E-1   8.205400109291077E-1  -1.529471576213837E-2   8.193390965461731E-1  -1.519635226577520E-2   1.342462375760078E-2   5.595204830169678E-1  
 2.910000000000000E7     1.491000875830650E-2   5.609372854232788E-1   8.209699392318726E-1  -1.657916232943535E-2   8.197810649871826E-1  -1.663797348737717E-2   1.422685571014881E-2   5.592944622039795E-1  
 2.912000000000000E7     1.585581526160240E-2   5.600202083587647E-1   8.216426968574524E-1  -1.768460124731064E-2   8.206238150596619E-1  -1.810973323881626E-2   1.492476556450129E-2   5.579838156700134E-1  
 2.914000000000000E7     1.687423139810562E-2   5.597547888755798E-1   8.221204280853272E-1  -1.933330297470093E-2   8.216481208801270E-1  -1.929684169590473E-2   1.582272909581661E-2   5.564070343971252E-1  
 2.916000000000000E7     1.793951168656349E-2   5.585346221923828E-1   8.229707479476929E-1  -2.065261267125607E-2   8.222601413726807E-1  -2.056844346225262E-2   1.606880873441696E-2   5.552330017089844E-1  
 2.918000000000000E7     1.793145202100277E-2   5.580191016197205E-1   8.226934671401978E-1  -2.197984047234058E-2   8.230029344558716E-1  -2.177691459655762E-2   1.756938733160496E-2   5.546191334724426E-1  
 2.920000000000000E7     1.981840282678604E-2   5.564932823181152E-1   8.239847421646118E-1  -2.280471101403236E-2   8.231290578842163E-1  -2.285556495189667E-2   1.840699091553688E-2   5.540047883987427E-1  
 2.922000000000000E7     2.027097344398499E-2   5.551793575286865E-1   8.246728777885437E-1  -2.419572137296200E-2   8.244167566299439E-1  -2.415774762630463E-2   1.925493404269218E-2   5.527778863906860E-1  
 2.924000000000000E7     2.102206274867058E-2   5.543396472930908E-1   8.248888254165649E-1  -2.588368952274323E-2   8.245661854743958E-1  -2.538584917783737E-2   2.027274668216705E-2   5.516598224639893E-1  
 2.926000000000000E7     2.135299704968929E-2   5.529535412788391E-1   8.261107206344605E-1  -2.752680703997612E-2   8.249405622482300E-1  -2.711036987602711E-2   2.097719721496105E-2   5.511009097099304E-1  
 2.928000000000000E7     2.236564643681049E-2   5.522708892822266E-1   8.265233635902405E-1  -2.848744392395020E-2   8.257405161857605E-1  -2.816098183393478E-2   2.192151173949242E-2   5.499283075332642E-1  
 2.930000000000000E7     2.352743223309517E-2   5.515811443328857E-1   8.266539573669434E-1  -3.015173226594925E-2   8.259978294372559E-1  -2.967025339603424E-2   2.255010977387428E-2   5.495534539222717E-1  
 2.932000000000000E7     2.375052869319916E-2   5.507541894912720E-1   8.273780941963196E-1  -3.127113357186317E-2   8.268551230430603E-1  -3.102704137563705E-2   2.358195558190346E-2   5.481510162353516E-1  
 2.934000000000000E7     2.511375024914742E-2   5.493331551551819E-1   8.279597759246826E-1  -3.249103575944901E-2   8.271518945693970E-1  -3.208129107952118E-2   2.433392405509949E-2   5.476910471916199E-1  
 2.936000000000000E7     2.642081305384636E-2   5.476917624473572E-1   8.292183876037598E-1  -3.362058475613594E-2   8.282402753829956E-1  -3.330230340361595E-2   2.527304738759995E-2   5.461749434471130E-1  
 2.938000000000000E7     2.689950540661812E-2   5.480234622955322E-1   8.292385935783386E-1  -3.513725847005844E-2   8.289454579353333E-1  -3.497805073857307E-2   2.578265592455864E-2   5.445528030395508E-1  
 2.940000000000000E7     2.743136137723923E-2   5.461325645446777E-1   8.302435278892517E-1  -3.686351329088211E-2   8.290357589721680E-1  -3.667943924665451E-2   2.652247995138168E-2   5.441604852676392E-1  
 2.942000000000000E7     2.872995659708977E-2   5.455522537231445E-1   8.303605318069458E-1  -3.782460838556290E-2   8.302620053291321E-1  -3.781506791710854E-2   2.776726149022579E-2   5.427177548408508E-1  
 2.944000000000000E7     2.938302978873253E-2   5.440993905067444E-1   8.313488960266113E-1  -3.897702321410179E-2   8.304440975189209E-1  -3.918236494064331E-2   2.830687910318375E-2   5.425649881362915E-1  
 2.946000000000000E7     3.088338114321232E-2   5.430764555931091E-1   8.318598866462708E-1  -4.016966372728348E-2   8.308636546134949E-1  -4.006269574165344E-2   2.887415140867233E-2   5.414288043975830E-1  
 2.948000000000000E7     3.097093105316162E-2   5.425884723663330E-1   8.318758010864258E-1  -4.199727624654770E-2   8.311972618103027E-1  -4.186743497848511E-2   2.983816340565682E-2   5.399786233901978E-1  
 2.950000000000000E7     3.224154561758041E-2   5.413173437118530E-1   8.329558968544006E-1  -4.323140159249306E-2   8.322761058807373E-1  -4.324429482221603E-2   3.071906417608261E-2   5.388498306274414E-1  
 2.952000000000000E7     3.298829495906830E-2   5.407043695449829E-1   8.331966996192932E-1  -4.468091577291489E-2   8.328446745872498E-1  -4.440488293766975E-2   3.142632544040680E-2   5.380730628967285E-1  
 2.954000000000000E7     3.358548134565353E-2   5.394309759140015E-1   8.337844610214233E-1  -4.609407484531403E-2   8.336108922958374E-1  -4.593779519200325E-2   3.225049749016762E-2   5.367501378059387E-1  
 2.956000000000000E7     3.450082615017891E-2   5.383685231208801E-1   8.346439599990845E-1  -4.731949418783188E-2   8.339371681213379E-1  -4.690724983811379E-2   3.344958648085594E-2   5.361891984939575E-1  
 2.958000000000000E7     3.492251411080360E-2   5.375450849533081E-1   8.349427580833435E-1  -4.852564632892609E-2   8.337420225143433E-1  -4.896383732557297E-2   3.374935314059258E-2   5.355950593948364E-1  
 2.960000000000000E7     3.569580987095833E-2   5.358253121376038E-1   8.357560634613037E-1  -5.034351348876953E-2   8.347177505493164E-1  -5.036811530590057E-2   3.434686362743378E-2   5.346538424491882E-1  
 2.962000000000000E7     3.689155727624893E-2   5.354105830192566E-1   8.360996842384338E-1  -5.147572606801987E-2   8.355135321617127E-1  -5.107976496219635E-2   3.565174713730812E-2   5.328927636146545E-1  
 2.964000000000000E7     3.701538592576981E-2   5.339854955673218E-1   8.365315794944763E-1  -5.322421342134476E-2   8.357853889465332E-1  -5.252038687467575E-2   3.635681793093681E-2   5.323814153671265E-1  
 2.966000000000000E7     3.768514096736908E-2   5.336757898330689E-1   8.366970419883728E-1  -5.428070574998856E-2   8.363848328590393E-1  -5.397061258554459E-2   3.777360171079636E-2   5.308698415756226E-1  
 2.968000000000000E7     3.873344883322716E-2   5.320631265640259E-1   8.380451202392578E-1  -5.568411573767662E-2   8.370962738990784E-1  -5.526930093765259E-2   3.844399377703667E-2   5.297536849975586E-1  
 2.970000000000000E7     3.951200470328331E-2   5.312983393669128E-1   8.378547430038452E-1  -5.725643038749695E-2   8.373119831085205E-1  -5.736365914344788E-2   3.884074836969376E-2   5.294374227523804E-1  
 2.972000000000000E7     4.068116471171379E-2   5.300776362419128E-1   8.382137417793274E-1  -5.888586491346359E-2   8.383834362030029E-1  -5.824260413646698E-2   3.926561027765274E-2   5.279685854911804E-1  
 2.974000000000000E7     4.141494631767273E-2   5.286201238632202E-1   8.396459817886353E-1  -5.967183411121368E-2   8.385754823684692E-1  -5.979949608445168E-2   3.995204716920853E-2   5.265922546386719E-1  
 2.976000000000000E7     4.193659126758575E-2   5.281559228897095E-1   8.397221565246582E-1  -6.157016009092331E-2   8.394169807434082E-1  -6.133905798196793E-2   4.104960709810257E-2   5.254795551300049E-1  
 2.978000000000000E7     4.332813620567322E-2   5.269342064857483E-1   8.404542803764343E-1  -6.268794089555740E-2   8.397549390792847E-1  -6.248930096626282E-2   4.157558828592300E-2   5.244991183280945E-1  
 2.980000000000000E7     4.369308426976204E-2   5.256553292274475E-1   8.408128619194031E-1  -6.391389667987824E-2   8.399085998535156E-1  -6.416651606559753E-2   4.242474958300591E-2   5.241044759750366E-1  
 2.982000000000000E7     4.460949078202248E-2   5.243179798126221E-1   8.415938019752502E-1  -6.561209261417389E-2   8.406928181648254E-1  -6.573274731636047E-2   4.311959445476532E-2   5.222617983818054E-1  
 2.984000000000000E7     4.534715414047241E-2   5.234490036964417E-1   8.419497609138489E-1  -6.709459424018860E-2   8.411687612533569E-1  -6.686861813068390E-2   4.425911605358124E-2   5.218082666397095E-1  
 2.986000000000000E7     4.562514275312424E-2   5.227663516998291E-1   8.420030474662781E-1  -6.851678341627121E-2   8.421261906623840E-1  -6.851229071617127E-2   4.489670321345329E-2   5.201990008354187E-1  
 2.988000000000000E7     4.671150818467140E-2   5.217646360397339E-1   8.427846431732178E-1  -6.966707110404968E-2   8.425090909004211E-1  -6.976416707038879E-2   4.588378220796585E-2   5.191701054573059E-1  
 2.990000000000000E7     4.769041761755943E-2   5.198866128921509E-1   8.436401486396790E-1  -7.159910351037979E-2   8.425700068473816E-1  -7.125625014305115E-2   4.598803818225861E-2   5.191032886505127E-1  
 2.992000000000000E7     4.803705960512161E-2   5.191279053688049E-1   8.441610932350159E-1  -7.279795408248901E-2   8.433499932289124E-1  -7.276628911495209E-2   4.712858051061630E-2   5.168807506561279E-1  
 2.994000000000000E7     4.933397844433785E-2   5.186517238616943E-1   8.443274497985840E-1  -7.422770559787750E-2   8.436736464500427E-1  -7.396961748600006E-2   4.778898507356644E-2   5.161262154579163E-1  
 2.996000000000000E7     4.952729865908623E-2   5.166649222373962E-1   8.450394272804260E-1  -7.562956959009171E-2   8.443071842193604E-1  -7.544284313917160E-2   4.904718697071075E-2   5.152549147605896E-1  
 2.998000000000000E7     4.995659738779068E-2   5.161021351814270E-1   8.452790975570679E-1  -7.747124135494232E-2   8.445665240287781E-1  -7.665262371301651E-2   4.963419958949089E-2   5.139068365097046E-1  
 3.000000000000000E7     5.147857964038849E-2   5.149500966072083E-1   8.455370664596558E-1  -7.839674502611160E-2   8.454300165176392E-1  -7.869384437799454E-2   4.979523271322250E-2   5.129272937774658E-1  
 3.002000000000000E7     5.176089704036713E-2   5.139174461364746E-1   8.462342023849487E-1  -7.991760969161987E-2   8.456009030342102E-1  -8.002351224422455E-2   5.057896673679352E-2   5.117877721786499E-1  
 3.004000000000000E7     5.275518819689751E-2   5.130870342254639E-1   8.466191887855530E-1  -8.128984272480011E-2   8.460584878921509E-1  -8.094262331724167E-2   5.162294581532478E-2   5.110285282135010E-1  
 3.006000000000000E7     5.374569073319435E-2   5.108907222747803E-1   8.474625349044800E-1  -8.261310309171677E-2   8.464559912681580E-1  -8.273684978485107E-2   5.240147933363915E-2   5.099618434906006E-1  
 3.008000000000000E7     5.388170108199120E-2   5.107971429824829E-1   8.475457429885864E-1  -8.419481664896011E-2   8.469282388687134E-1  -8.363710343837738E-2   5.348862335085869E-2   5.088610649108887E-1  
 3.010000000000000E7     5.407470837235451E-2   5.091304779052734E-1   8.484333157539368E-1  -8.572362363338471E-2   8.473856449127197E-1  -8.527276664972305E-2   5.449475347995758E-2   5.080621242523193E-1  
 3.012000000000000E7     5.518677830696106E-2   5.086999535560608E-1   8.486222624778748E-1  -8.741348236799240E-2   8.482502698898315E-1  -8.680416643619537E-2   5.477973818778992E-2   5.061988234519959E-1  
 3.014000000000000E7     5.615579709410667E-2   5.073361396789551E-1   8.491918444633484E-1  -8.811209350824356E-2   8.488308787345886E-1  -8.839637041091919E-2   5.580294877290726E-2   5.050064325332642E-1  
 3.016000000000000E7     5.745861306786537E-2   5.067006349563599E-1   8.496699929237366E-1  -8.999031782150269E-2   8.490270376205444E-1  -8.996580541133881E-2   5.571785569190979E-2   5.037671923637390E-1  
 3.018000000000000E7     5.751753225922585E-2   5.052106976509094E-1   8.502165079116821E-1  -9.178145229816437E-2   8.497433066368103E-1  -9.146927297115326E-2   5.648916587233543E-2   5.029586553573608E-1  
 3.020000000000000E7     5.874113366007805E-2   5.043821334838867E-1   8.508322238922119E-1  -9.278632700443268E-2   8.498756885528565E-1  -9.257353842258453E-2   5.766973644495010E-2   5.018898248672485E-1  
 3.022000000000000E7     5.921930447220802E-2   5.029423236846924E-1   8.510209321975708E-1  -9.451802819967270E-2   8.502477407455444E-1  -9.393595159053803E-2   5.812114849686623E-2   5.012404322624207E-1  
 3.024000000000000E7     5.941773951053619E-2   5.017486810684204E-1   8.514372110366821E-1  -9.625230729579926E-2   8.505524396896362E-1  -9.550912678241730E-2   5.904060602188110E-2   5.000042319297791E-1  
 3.026000000000000E7     6.072853133082390E-2   5.006554126739502E-1   8.521047830581665E-1  -9.725765138864517E-2   8.512637615203857E-1  -9.708846360445023E-2   5.969006568193436E-2   4.981579184532166E-1  
 3.028000000000000E7     6.122107803821564E-2   4.997437596321106E-1   8.522455692291260E-1  -9.892733395099640E-2   8.516375422477722E-1  -9.903379529714584E-2   5.985631793737412E-2   4.975666999816895E-1  
 3.030000000000000E7     6.175059825181961E-2   4.979087114334106E-1   8.531350493431091E-1  -1.003277599811554E-1   8.523971438407898E-1  -1.001187413930893E-1   6.082366034388542E-2   4.962553083896637E-1  
 3.032000000000000E7     6.305827200412750E-2   4.966220557689667E-1   8.531758785247803E-1  -1.018199250102043E-1   8.530505895614624E-1  -1.016296148300171E-1   6.113971024751663E-2   4.950221776962280E-1  
 3.034000000000000E7     6.379170715808868E-2   4.964033961296082E-1   8.533555269241333E-1  -1.032719463109970E-1   8.530882596969605E-1  -1.028724312782288E-1   6.236350908875465E-2   4.941958785057068E-1  
 3.036000000000000E7     6.388598680496216E-2   4.944612383842468E-1   8.543030619621277E-1  -1.045469343662262E-1   8.533772230148315E-1  -1.045041084289551E-1   6.316918879747391E-2   4.929859936237335E-1  
 3.038000000000000E7     6.452701985836029E-2   4.937289357185364E-1   8.544728755950928E-1  -1.066315770149231E-1   8.542397618293762E-1  -1.062860414385796E-1   6.353133171796799E-2   4.915866553783417E-1  
 3.040000000000000E7     6.608309596776962E-2   4.922749102115631E-1   8.552271723747253E-1  -1.076269224286079E-1   8.543546199798584E-1  -1.076943054795265E-1   6.374540925025940E-2   4.906737208366394E-1  
 3.042000000000000E7     6.554822623729706E-2   4.908622503280640E-1   8.555696606636047E-1  -1.093497052788734E-1   8.548957109451294E-1  -1.092148199677467E-1   6.497479230165482E-2   4.893811345100403E-1  
 3.044000000000000E7     6.571359932422638E-2   4.898600280284882E-1   8.561096787452698E-1  -1.113489791750908E-1   8.548600673675537E-1  -1.105945557355881E-1   6.592003256082535E-2   4.888224899768829E-1  
 3.046000000000000E7     6.712258607149124E-2   4.890899062156677E-1   8.561704158782959E-1  -1.128081530332565E-1   8.557925224304199E-1  -1.123242899775505E-1   6.632565706968308E-2   4.869140088558197E-1  
 3.048000000000000E7     6.815922260284424E-2   4.882349967956543E-1   8.565285205841065E-1  -1.140041127800942E-1   8.557744622230530E-1  -1.133069470524788E-1   6.722148507833481E-2   4.861388504505158E-1  
 3.050000000000000E7     6.819106638431549E-2   4.868611693382263E-1   8.573160171508789E-1  -1.157202124595642E-1   8.560442328453064E-1  -1.148798689246178E-1   6.811910122632980E-2   4.851215183734894E-1  
 3.052000000000000E7     6.920573860406876E-2   4.854389131069183E-1   8.575431108474731E-1  -1.169868484139442E-1   8.566155433654785E-1  -1.168447807431221E-1   6.802868098020554E-2   4.840845465660095E-1  
 3.054000000000000E7     7.002097368240356E-2   4.836043417453766E-1   8.582961559295654E-1  -1.183468103408814E-1   8.572881817817688E-1  -1.181770414113998E-1   6.910692155361176E-2   4.827458262443543E-1  
 3.056000000000000E7     7.042126357555389E-2   4.832636117935181E-1   8.583620190620422E-1  -1.199367642402649E-1   8.575413823127747E-1  -1.195775419473648E-1   6.952714174985886E-2   4.813097119331360E-1  
 3.058000000000000E7     7.090172171592712E-2   4.819539785385132E-1   8.584522008895874E-1  -1.214723959565163E-1   8.577530384063721E-1  -1.213347911834717E-1   7.039558142423630E-2   4.812983274459839E-1  
 3.060000000000000E7     7.179645448923111E-2   4.810076951980591E-1   8.592016696929932E-1  -1.229874044656754E-1   8.583409786224365E-1  -1.228895559906960E-1   7.051482796669006E-2   4.792367517948151E-1  
 3.062000000000000E7     7.206974923610687E-2   4.798521995544434E-1   8.597028255462647E-1  -1.244105547666550E-1   8.591775298118591E-1  -1.240958347916603E-1   7.231621444225311E-2   4.777077436447144E-1  
 3.064000000000000E7     7.293602079153061E-2   4.781031608581543E-1   8.601189255714417E-1  -1.263394951820374E-1   8.594694733619690E-1  -1.260334551334381E-1   7.172650098800659E-2   4.762434065341950E-1  
 3.066000000000000E7     7.395863533020020E-2   4.770738780498505E-1   8.605898618698120E-1  -1.275253593921661E-1   8.594431877136231E-1  -1.274835169315338E-1   7.271312177181244E-2   4.755609035491943E-1  
 3.068000000000000E7     7.430135458707809E-2   4.763562083244324E-1   8.606225848197937E-1  -1.293224543333054E-1   8.601361513137817E-1  -1.287349462509155E-1   7.339117676019669E-2   4.744609296321869E-1  
 3.070000000000000E7     7.501120865345001E-2   4.752962589263916E-1   8.607749938964844E-1  -1.305215656757355E-1   8.603986501693726E-1  -1.305439174175263E-1   7.416974753141403E-2   4.731948673725128E-1  
 3.072000000000000E7     7.574894279241562E-2   4.742459654808044E-1   8.613537549972534E-1  -1.318078637123108E-1   8.604772090911865E-1  -1.320580691099167E-1   7.481382042169571E-2   4.723997116088867E-1  
 3.074000000000000E7     7.590658217668533E-2   4.725498557090759E-1   8.616941571235657E-1  -1.336798965930939E-1   8.610718250274658E-1  -1.335744261741638E-1   7.567340135574341E-2   4.708350896835327E-1  
 3.076000000000000E7     7.668460905551910E-2   4.716204404830933E-1   8.620029687881470E-1  -1.355323195457459E-1   8.616965413093567E-1  -1.348687857389450E-1   7.542875409126282E-2   4.694184660911560E-1  
 3.078000000000000E7     7.733760029077530E-2   4.705209136009216E-1   8.622327446937561E-1  -1.372943967580795E-1   8.615511059761047E-1  -1.365558803081513E-1   7.629552483558655E-2   4.685504436492920E-1  
 3.080000000000000E7     7.766629755496979E-2   4.690981805324554E-1   8.625909090042114E-1  -1.382290720939636E-1   8.625456094741821E-1  -1.381205022335053E-1   7.734222710132599E-2   4.666206240653992E-1  
 3.082000000000000E7     7.909876108169556E-2   4.677112102508545E-1   8.630077242851257E-1  -1.397233903408051E-1   8.628090620040894E-1  -1.396329402923584E-1   7.707446068525314E-2   4.657356441020966E-1  
 3.084000000000000E7     7.960377633571625E-2   4.669778347015381E-1   8.636803627014160E-1  -1.412392407655716E-1   8.626226186752319E-1  -1.410603672266007E-1   7.831969857215881E-2   4.645542502403259E-1  
 3.086000000000000E7     7.973471283912659E-2   4.652625918388367E-1   8.639061450958252E-1  -1.434816420078278E-1   8.628453016281128E-1  -1.429879665374756E-1   7.860312610864639E-2   4.642256498336792E-1  
 3.088000000000000E7     8.058105409145355E-2   4.643907546997070E-1   8.639069795608521E-1  -1.446808576583862E-1   8.638358116149902E-1  -1.441143155097961E-1   7.927514612674713E-2   4.621685147285461E-1  
 3.090000000000000E7     8.068796247243881E-2   4.633202552795410E-1   8.644844889640808E-1  -1.464710086584091E-1   8.640753626823425E-1  -1.458935439586639E-1   8.023502677679062E-2   4.609996676445007E-1  
 3.092000000000000E7     8.186632394790649E-2   4.610919654369354E-1   8.653375506401062E-1  -1.477318257093430E-1   8.640996813774109E-1  -1.476109921932221E-1   8.076104521751404E-2   4.604134857654572E-1  
 3.094000000000000E7     8.194151520729065E-2   4.609150290489197E-1   8.649317622184753E-1  -1.496687531471252E-1   8.643647432327271E-1  -1.490675956010819E-1   8.119058609008789E-2   4.586634039878845E-1  
 3.096000000000000E7     8.285193145275116E-2   4.592100977897644E-1   8.653825521469116E-1  -1.509620100259781E-1   8.644508123397827E-1  -1.507543027400971E-1   8.178796619176865E-2   4.581524431705475E-1  
 3.098000000000000E7     8.360971510410309E-2   4.580586254596710E-1   8.655247092247009E-1  -1.523380279541016E-1   8.654426932334900E-1  -1.517970263957977E-1   8.287119120359421E-2   4.568342268466950E-1  
 3.100000000000000E7     8.413445204496384E-2   4.567780196666718E-1   8.662769198417664E-1  -1.541087627410889E-1   8.656444549560547E-1  -1.538721919059753E-1   8.267211914062500E-2   4.555927515029907E-1  
 3.102000000000000E7     8.494511991739273E-2   4.546933472156525E-1   8.670830130577087E-1  -1.553823798894882E-1   8.659376502037048E-1  -1.551641821861267E-1   8.370512723922730E-2   4.543123245239258E-1  
 3.104000000000000E7     8.416936546564102E-2   4.541157484054565E-1   8.671532273292542E-1  -1.578198224306107E-1   8.661499619483948E-1  -1.567321270704269E-1   8.470489084720612E-2   4.524900019168854E-1  
 3.106000000000000E7     8.604021370410919E-2   4.527574777603149E-1   8.673343062400818E-1  -1.582454741001129E-1   8.664795160293579E-1  -1.581823527812958E-1   8.480077981948853E-2   4.517925977706909E-1  
 3.108000000000000E7     8.579219877719879E-2   4.517661333084106E-1   8.674070239067078E-1  -1.603173315525055E-1   8.668359518051148E-1  -1.596744656562805E-1   8.547174930572510E-2   4.504914283752441E-1  
 3.110000000000000E7     8.661577850580216E-2   4.510733783245087E-1   8.675346970558167E-1  -1.620609015226364E-1   8.670989274978638E-1  -1.617603898048401E-1   8.550245314836502E-2   4.489889144897461E-1  
 3.112000000000000E7     8.713099360466003E-2   4.498403072357178E-1   8.678472042083740E-1  -1.636588722467423E-1   8.675795793533325E-1  -1.629918515682221E-1   8.658173680305481E-2   4.478971064090729E-1  
 3.114000000000000E7     8.824630826711655E-2   4.482781291007996E-1   8.684034347534180E-1  -1.650500297546387E-1   8.676784038543701E-1  -1.648199856281281E-1   8.675885200500488E-2   4.465492367744446E-1  
 3.116000000000000E7     8.845299482345581E-2   4.473246037960053E-1   8.683169484138489E-1  -1.666023582220078E-1   8.680408000946045E-1  -1.662616431713104E-1   8.740954101085663E-2   4.452008903026581E-1  
 3.118000000000000E7     8.872181922197342E-2   4.455362558364868E-1   8.690003156661987E-1  -1.682979166507721E-1   8.680284023284912E-1  -1.679452657699585E-1   8.775708824396133E-2   4.446788132190704E-1  
 3.120000000000000E7     8.975787460803986E-2   4.439162015914917E-1   8.693846464157105E-1  -1.695017218589783E-1   8.684548139572144E-1  -1.692823767662048E-1   8.885139226913452E-2   4.427871406078339E-1  
 3.122000000000000E7     8.979336917400360E-2   4.434231221675873E-1   8.689018487930298E-1  -1.715293675661087E-1   8.685055375099182E-1  -1.712736785411835E-1   8.881050348281860E-2   4.418532252311707E-1  
 3.124000000000000E7     9.083285927772522E-2   4.417188465595245E-1   8.697885870933533E-1  -1.730080097913742E-1   8.686566948890686E-1  -1.726286411285400E-1   8.969374001026154E-2   4.405550658702850E-1  
 3.126000000000000E7     9.111367911100388E-2   4.408048689365387E-1   8.696919083595276E-1  -1.748903691768646E-1   8.693479895591736E-1  -1.743858456611633E-1   9.005711972713471E-2   4.388737678527832E-1  
 3.128000000000000E7     9.131200611591339E-2   4.392588436603546E-1   8.702594041824341E-1  -1.761178523302078E-1   8.696702122688294E-1  -1.754581481218338E-1   9.137909114360809E-2   4.380980730056763E-1  
 3.130000000000000E7     9.208443015813828E-2   4.379583001136780E-1   8.703930377960205E-1  -1.777576506137848E-1   8.698334693908691E-1  -1.771727800369263E-1   9.146996587514877E-2   4.364634156227112E-1  
 3.132000000000000E7     9.217531234025955E-2   4.362905323505402E-1   8.708803057670593E-1  -1.797962039709091E-1   8.699119687080383E-1  -1.790259927511215E-1   9.172365069389343E-2   4.355402290821075E-1  
 3.134000000000000E7     9.301815927028656E-2   4.360896646976471E-1   8.705892562866211E-1  -1.811334639787674E-1   8.699930310249329E-1  -1.806201189756393E-1   9.238126873970032E-2   4.344169497489929E-1  
 3.136000000000000E7     9.384966641664505E-2   4.342785179615021E-1   8.716163039207459E-1  -1.826994419097900E-1   8.703419566154480E-1  -1.820665299892426E-1   9.288237988948822E-2   4.326864778995514E-1  
 3.138000000000000E7     9.460323303937912E-2   4.324763715267181E-1   8.717401623725891E-1  -1.842264980077744E-1   8.700703978538513E-1  -1.838826239109039E-1   9.330818802118301E-2   4.325174689292908E-1  
 3.140000000000000E7     9.415883570909500E-2   4.315946698188782E-1   8.717057108879089E-1  -1.861444115638733E-1   8.707646727561951E-1  -1.853179335594177E-1   9.401157498359680E-2   4.306143522262573E-1  
 3.142000000000000E7     9.453433752059937E-2   4.303301870822907E-1   8.719233274459839E-1  -1.876283437013626E-1   8.713260293006897E-1  -1.873754262924194E-1   9.416221082210541E-2   4.293989837169647E-1  
 3.144000000000000E7     9.553853422403336E-2   4.292411506175995E-1   8.719483017921448E-1  -1.893280595541000E-1   8.715544939041138E-1  -1.891624331474304E-1   9.428660571575165E-2   4.277690351009369E-1  
 3.146000000000000E7     9.655961394309998E-2   4.278218746185303E-1   8.720077276229858E-1  -1.908811777830124E-1   8.714978694915772E-1  -1.904058158397675E-1   9.474640339612961E-2   4.271830022335053E-1  
 3.148000000000000E7     9.631115198135376E-2   4.257472753524780E-1   8.729273080825806E-1  -1.926489174365997E-1   8.719736933708191E-1  -1.920447647571564E-1   9.577725082635880E-2   4.258235394954681E-1  
 3.150000000000000E7     9.691438078880310E-2   4.248872995376587E-1   8.726410865783691E-1  -1.942273080348969E-1   8.721944689750671E-1  -1.937540471553803E-1   9.591135382652283E-2   4.242324829101563E-1  
 3.152000000000000E7     9.687463939189911E-2   4.240958690643311E-1   8.728436827659607E-1  -1.958147436380386E-1   8.726515173912048E-1  -1.956576704978943E-1   9.667180478572846E-2   4.225237369537354E-1  
 3.154000000000000E7     9.832163155078888E-2   4.229826033115387E-1   8.730315566062927E-1  -1.972902715206146E-1   8.726798892021179E-1  -1.968994587659836E-1   9.647715836763382E-2   4.213333725929260E-1  
 3.156000000000000E7     9.789960086345673E-2   4.214612543582916E-1   8.732651472091675E-1  -1.994751989841461E-1   8.728295564651489E-1  -1.988538056612015E-1   9.733383357524872E-2   4.201725423336029E-1  
 3.158000000000000E7     9.897200763225555E-2   4.198238551616669E-1   8.737525343894959E-1  -2.007673233747482E-1   8.730899095535278E-1  -1.997817158699036E-1   9.831500053405762E-2   4.191698729991913E-1  
 3.160000000000000E7     9.969497472047806E-2   4.190864264965057E-1   8.736124634742737E-1  -2.023822367191315E-1   8.732534050941467E-1  -2.017383873462677E-1   9.806396067142487E-2   4.177103638648987E-1  
 3.162000000000000E7     9.969113022089005E-2   4.171647429466248E-1   8.739963173866272E-1  -2.036240845918655E-1   8.735508322715759E-1  -2.035986632108688E-1   9.910108149051666E-2   4.162551760673523E-1  
 3.164000000000000E7     9.996365010738373E-2   4.156454205513001E-1   8.741998076438904E-1  -2.057020217180252E-1   8.731994032859802E-1  -2.051794379949570E-1   9.928641468286514E-2   4.159666299819946E-1  
 3.166000000000000E7     1.007170826196671E-1   4.144718050956726E-1   8.744709491729736E-1  -2.074670493602753E-1   8.738926649093628E-1  -2.066019475460053E-1   1.001770347356796E-1   4.137801826000214E-1  
 3.168000000000000E7     1.014986336231232E-1   4.136801660060883E-1   8.742959499359131E-1  -2.088135480880737E-1   8.738188147544861E-1  -2.087691575288773E-1   9.975539147853851E-2   4.125064611434937E-1  
 3.170000000000000E7     1.015331372618675E-1   4.119052290916443E-1   8.747228980064392E-1  -2.104674726724625E-1   8.738074302673340E-1  -2.100944966077805E-1   1.007893979549408E-1   4.116640090942383E-1  
 3.172000000000000E7     1.017812564969063E-1   4.110309481620789E-1   8.745726943016052E-1  -2.124127596616745E-1   8.740812540054321E-1  -2.116633653640747E-1   1.013962551951408E-1   4.102457165718079E-1  
 3.174000000000000E7     1.023097485303879E-1   4.097738862037659E-1   8.751496076583862E-1  -2.140776216983795E-1   8.744897246360779E-1  -2.132408320903778E-1   1.013450771570206E-1   4.081308543682098E-1  
 3.176000000000000E7     1.029624417424202E-1   4.085069000720978E-1   8.750274181365967E-1  -2.153776735067368E-1   8.747689723968506E-1  -2.146812975406647E-1   1.024782508611679E-1   4.069414734840393E-1  
 3.178000000000000E7     1.033539175987244E-1   4.068540334701538E-1   8.752704858779907E-1  -2.171125113964081E-1   8.746662735939026E-1  -2.168595641851425E-1   1.022022441029549E-1   4.061774313449860E-1  
 3.180000000000000E7     1.035402566194534E-1   4.061188399791718E-1   8.753481507301331E-1  -2.191814780235291E-1   8.749427199363709E-1  -2.185207307338715E-1   1.025333479046822E-1   4.043695628643036E-1  
 3.182000000000000E7     1.045711115002632E-1   4.043155312538147E-1   8.754699826240540E-1  -2.201570570468903E-1   8.747497797012329E-1  -2.202794998884201E-1   1.029356122016907E-1   4.037835001945496E-1  
 3.184000000000000E7     1.039066761732101E-1   4.026957452297211E-1   8.755999803543091E-1  -2.221301943063736E-1   8.752813339233398E-1  -2.219274342060089E-1   1.034744605422020E-1   4.025201201438904E-1  
 3.186000000000000E7     1.054051443934441E-1   4.022604227066040E-1   8.757571578025818E-1  -2.235332280397415E-1   8.756440877914429E-1  -2.235596626996994E-1   1.034323498606682E-1   4.005107283592224E-1  
 3.188000000000000E7     1.048002839088440E-1   3.998678326606751E-1   8.762717247009277E-1  -2.254055589437485E-1   8.753962516784668E-1  -2.252842038869858E-1   1.045617908239365E-1   3.993932604789734E-1  
 3.190000000000000E7     1.058316677808762E-1   3.989756703376770E-1   8.760074973106384E-1  -2.271319329738617E-1   8.751912713050842E-1  -2.268613278865814E-1   1.042620837688446E-1   3.983201980590820E-1  
 3.192000000000000E7     1.063868924975395E-1   3.975595831871033E-1   8.765711784362793E-1  -2.288010567426682E-1   8.758516311645508E-1  -2.281485497951508E-1   1.054968610405922E-1   3.964422941207886E-1  
 3.194000000000000E7     1.069750934839249E-1   3.962600827217102E-1   8.764237761497498E-1  -2.300867140293121E-1   8.753912448883057E-1  -2.301383018493652E-1   1.057996526360512E-1   3.960595130920410E-1  
 3.196000000000000E7     1.069858670234680E-1   3.952486515045166E-1   8.762043118476868E-1  -2.322191596031189E-1   8.759429454803467E-1  -2.318162620067596E-1   1.052695810794830E-1   3.942682147026062E-1  
 3.198000000000000E7     1.073377057909966E-1   3.933836221694946E-1   8.763883113861084E-1  -2.342483103275299E-1   8.761239647865295E-1  -2.340194880962372E-1   1.054434627294540E-1   3.928386569023132E-1  
 3.200000000000000E7     1.076667234301567E-1   3.922249376773834E-1   8.765628933906555E-1  -2.356146275997162E-1   8.760504126548767E-1  -2.349806129932404E-1   1.064421087503433E-1   3.912948071956635E-1  
 3.202000000000000E7     1.077212169766426E-1   3.912718892097473E-1   8.764562010765076E-1  -2.377846091985703E-1   8.761658668518066E-1  -2.370056807994843E-1   1.065437793731690E-1   3.900116086006165E-1  
 3.204000000000000E7     1.079965978860855E-1   3.890948295593262E-1   8.769143223762512E-1  -2.390588670969009E-1   8.763746619224548E-1  -2.387757003307343E-1   1.069480404257774E-1   3.890388607978821E-1  
 3.206000000000000E7     1.085638850927353E-1   3.879585862159729E-1   8.769352436065674E-1  -2.405912727117539E-1   8.763575553894043E-1  -2.404654920101166E-1   1.070541441440582E-1   3.878846764564514E-1  
 3.208000000000000E7     1.089096069335938E-1   3.865361511707306E-1   8.769884109497070E-1  -2.425026595592499E-1   8.765169978141785E-1  -2.420363128185272E-1   1.073417514562607E-1   3.865613937377930E-1  
 3.210000000000000E7     1.096036732196808E-1   3.851480782032013E-1   8.772354125976563E-1  -2.439825683832169E-1   8.763577938079834E-1  -2.435744106769562E-1   1.081181615591049E-1   3.849425613880158E-1  
 3.212000000000000E7     1.094979792833328E-1   3.843342959880829E-1   8.766596317291260E-1  -2.457989454269409E-1   8.769292831420898E-1  -2.451334148645401E-1   1.091770529747009E-1   3.835682570934296E-1  
 3.214000000000000E7     1.104687303304672E-1   3.835537731647492E-1   8.772627115249634E-1  -2.470502257347107E-1   8.765358328819275E-1  -2.464209645986557E-1   1.098221987485886E-1   3.817883729934692E-1  
 3.216000000000000E7     1.106303483247757E-1   3.812213540077210E-1   8.771592378616333E-1  -2.491356283426285E-1   8.768751025199890E-1  -2.486289441585541E-1   1.091391220688820E-1   3.812085986137390E-1  
 3.218000000000000E7     1.102758273482323E-1   3.807986080646515E-1   8.769550323486328E-1  -2.509506940841675E-1   8.765978813171387E-1  -2.503854930400848E-1   1.096494197845459E-1   3.798465132713318E-1  
 3.220000000000000E7     1.107048168778420E-1   3.798322379589081E-1   8.770292997360230E-1  -2.525799572467804E-1   8.769179582595825E-1  -2.518613934516907E-1   1.100981459021568E-1   3.777950406074524E-1  
 3.222000000000000E7     1.114901229739189E-1   3.779194056987763E-1   8.771475553512573E-1  -2.539601624011993E-1   8.766608238220215E-1  -2.535497248172760E-1   1.105472892522812E-1   3.771651387214661E-1  
 3.224000000000000E7     1.113896593451500E-1   3.761565685272217E-1   8.775033354759216E-1  -2.559563517570496E-1   8.767963647842407E-1  -2.556844353675842E-1   1.101028770208359E-1   3.754889667034149E-1  
 3.226000000000000E7     1.117872446775436E-1   3.741381764411926E-1   8.780458569526672E-1  -2.574655711650848E-1   8.768298625946045E-1  -2.574058473110199E-1   1.109690517187119E-1   3.737695515155792E-1  
 3.228000000000000E7     1.120666563510895E-1   3.732969164848328E-1   8.776022195816040E-1  -2.593402564525604E-1   8.772240877151489E-1  -2.589067220687866E-1   1.111614853143692E-1   3.728436231613159E-1  
 3.230000000000000E7     1.116812676191330E-1   3.719587326049805E-1   8.777390122413635E-1  -2.613729834556580E-1   8.775243163108826E-1  -2.606881856918335E-1   1.115223765373230E-1   3.708952665328980E-1  
 3.232000000000000E7     1.127557381987572E-1   3.704003393650055E-1   8.774823546409607E-1  -2.628638446331024E-1   8.771519660949707E-1  -2.628617286682129E-1   1.109484359622002E-1   3.700584471225739E-1  
 3.234000000000000E7     1.134798228740692E-1   3.691564500331879E-1   8.779606819152832E-1  -2.641224563121796E-1   8.772592544555664E-1  -2.634092569351196E-1   1.129661202430725E-1   3.686483800411224E-1  
 3.236000000000000E7     1.136267185211182E-1   3.676258325576782E-1   8.778716325759888E-1  -2.662208378314972E-1   8.777080774307251E-1  -2.656192779541016E-1   1.123721599578857E-1   3.669704794883728E-1  
 3.238000000000000E7     1.136818453669548E-1   3.664703667163849E-1   8.778397440910339E-1  -2.678395509719849E-1   8.773460388183594E-1  -2.670405805110931E-1   1.132618784904480E-1   3.656548559665680E-1  
 3.240000000000000E7     1.138734817504883E-1   3.652096390724182E-1   8.779842853546143E-1  -2.697940468788147E-1   8.773199915885925E-1  -2.688984572887421E-1   1.131348758935928E-1   3.644662499427795E-1  
 3.242000000000000E7     1.146097779273987E-1   3.634289801120758E-1   8.780924677848816E-1  -2.709925472736359E-1   8.772384524345398E-1  -2.712535858154297E-1   1.132125183939934E-1   3.632005751132965E-1  
 3.244000000000000E7     1.145141422748566E-1   3.622508645057678E-1   8.778731822967529E-1  -2.730118930339813E-1   8.776524066925049E-1  -2.727711796760559E-1   1.134404540061951E-1   3.613114356994629E-1  
 3.246000000000000E7     1.153570264577866E-1   3.605192899703980E-1   8.779118657112122E-1  -2.744863033294678E-1   8.777436614036560E-1  -2.742328047752380E-1   1.134161651134491E-1   3.599142730236054E-1  
 3.248000000000000E7     1.145745366811752E-1   3.596936464309692E-1   8.774744868278503E-1  -2.768611013889313E-1   8.775743246078491E-1  -2.757255136966705E-1   1.141791120171547E-1   3.589320480823517E-1  
 3.250000000000000E7     1.157309487462044E-1   3.577861189842224E-1   8.778293728828430E-1  -2.778845429420471E-1   8.776212334632874E-1  -2.775810360908508E-1   1.146724298596382E-1   3.576339185237885E-1  
 3.252000000000000E7     1.157914698123932E-1   3.569894433021545E-1   8.778094053268433E-1  -2.797918617725372E-1   8.771819472312927E-1  -2.793356478214264E-1   1.144863963127136E-1   3.565020263195038E-1  
 3.254000000000000E7     1.156602799892426E-1   3.552963435649872E-1   8.777562379837036E-1  -2.819582819938660E-1   8.771362304687500E-1  -2.813008427619934E-1   1.150686666369438E-1   3.552469611167908E-1  
 3.256000000000000E7     1.160395145416260E-1   3.536544740200043E-1   8.779039382934570E-1  -2.832987904548645E-1   8.771411180496216E-1  -2.829146385192871E-1   1.151382103562355E-1   3.535555601119995E-1  
 3.258000000000000E7     1.161303073167801E-1   3.525094985961914E-1   8.777521252632141E-1  -2.851315438747406E-1   8.773044347763062E-1  -2.842841744422913E-1   1.151525750756264E-1   3.520158231258392E-1  
 3.260000000000000E7     1.169238835573196E-1   3.513043224811554E-1   8.776721954345703E-1  -2.866844534873962E-1   8.775601983070374E-1  -2.864726185798645E-1   1.151066645979881E-1   3.499753475189209E-1  
 3.262000000000000E7     1.172019690275192E-1   3.504438698291779E-1   8.771941661834717E-1  -2.883585095405579E-1   8.776222467422485E-1  -2.881965637207031E-1   1.153974831104279E-1   3.489079773426056E-1  
 3.264000000000000E7     1.166148781776428E-1   3.487472534179688E-1   8.779292106628418E-1  -2.905918657779694E-1   8.771233558654785E-1  -2.897416949272156E-1   1.160957440733910E-1   3.479577600955963E-1  
 3.266000000000000E7     1.176131963729858E-1   3.474883735179901E-1   8.774644136428833E-1  -2.917489707469940E-1   8.773260712623596E-1  -2.912480533123016E-1   1.168379336595535E-1   3.463404476642609E-1  
 3.268000000000000E7     1.176533997058868E-1   3.454646766185761E-1   8.773406147956848E-1  -2.934074401855469E-1   8.773471117019653E-1  -2.933301329612732E-1   1.164598315954208E-1   3.452655076980591E-1  
 3.270000000000000E7     1.178396567702293E-1   3.440847396850586E-1   8.773794174194336E-1  -2.952255308628082E-1   8.770421743392944E-1  -2.950136959552765E-1   1.170723736286163E-1   3.440703451633453E-1  
 3.272000000000000E7     1.175902485847473E-1   3.430456221103668E-1   8.773031830787659E-1  -2.973603904247284E-1   8.766462206840515E-1  -2.963386476039887E-1   1.173669621348381E-1   3.428424894809723E-1  
 3.274000000000000E7     1.180697679519653E-1   3.413567543029785E-1   8.773190975189209E-1  -2.990398108959198E-1   8.766793608665466E-1  -2.983663976192474E-1   1.170547753572464E-1   3.411394655704498E-1  
 3.276000000000000E7     1.181946545839310E-1   3.401957750320435E-1   8.772133588790894E-1  -3.007608652114868E-1   8.766611218452454E-1  -3.005978167057037E-1   1.164969950914383E-1   3.396250903606415E-1  
 3.278000000000000E7     1.181817054748535E-1   3.385107517242432E-1   8.773021101951599E-1  -3.024977445602417E-1   8.763762712478638E-1  -3.019126355648041E-1   1.173979789018631E-1   3.380777239799500E-1  
 3.280000000000000E7     1.187686398625374E-1   3.373932540416718E-1   8.766897916793823E-1  -3.041343688964844E-1   8.763804435729981E-1  -3.037220835685730E-1   1.175718158483505E-1   3.368679881095886E-1  
 3.282000000000000E7     1.189424097537994E-1   3.351984918117523E-1   8.771082162857056E-1  -3.056115806102753E-1   8.765657544136047E-1  -3.053752779960632E-1   1.179321482777596E-1   3.353589475154877E-1  
 3.284000000000000E7     1.180600300431252E-1   3.350953757762909E-1   8.764296174049377E-1  -3.079763352870941E-1   8.765500783920288E-1  -3.075703084468842E-1   1.177805140614510E-1   3.339037895202637E-1  
 3.286000000000000E7     1.190224438905716E-1   3.331645429134369E-1   8.764725327491760E-1  -3.096807599067688E-1   8.761451840400696E-1  -3.089638054370880E-1   1.175889298319817E-1   3.330008089542389E-1  
 3.288000000000000E7     1.191387847065926E-1   3.315387666225433E-1   8.764377236366272E-1  -3.109925985336304E-1   8.761495947837830E-1  -3.105985522270203E-1   1.185729801654816E-1   3.312775492668152E-1  
 3.290000000000000E7     1.198021247982979E-1   3.305891752243042E-1   8.763134479522705E-1  -3.127223849296570E-1   8.760594129562378E-1  -3.122991621494293E-1   1.186754330992699E-1   3.296311497688294E-1  
 3.292000000000000E7     1.200046762824059E-1   3.285745978355408E-1   8.762889504432678E-1  -3.146897852420807E-1   8.763381242752075E-1  -3.142517507076263E-1   1.182592809200287E-1   3.281536400318146E-1  
 3.294000000000000E7     1.200628131628037E-1   3.264631032943726E-1   8.763911128044128E-1  -3.162977397441864E-1   8.757231235504150E-1  -3.159654736518860E-1   1.187520548701286E-1   3.272547721862793E-1  
 3.296000000000000E7     1.198754012584686E-1   3.264453113079071E-1   8.760448694229126E-1  -3.184925615787506E-1   8.756192922592163E-1  -3.177829980850220E-1   1.188819706439972E-1   3.254677653312683E-1  
 3.298000000000000E7     1.195600777864456E-1   3.244121074676514E-1   8.761109709739685E-1  -3.202185034751892E-1   8.757201433181763E-1  -3.196211159229279E-1   1.189298182725906E-1   3.237305283546448E-1  
 3.300000000000000E7     1.197445765137672E-1   3.229850530624390E-1   8.760340809822083E-1  -3.219206631183624E-1   8.758129477500916E-1  -3.211018145084381E-1   1.196015626192093E-1   3.222148120403290E-1  
 3.302000000000000E7     1.206775009632111E-1   3.215934336185455E-1   8.758626580238342E-1  -3.233910202980042E-1   8.755750060081482E-1  -3.229074180126190E-1   1.189098060131073E-1   3.204823434352875E-1  
 3.304000000000000E7     1.205100268125534E-1   3.205666244029999E-1   8.752907514572144E-1  -3.250073194503784E-1   8.751466274261475E-1  -3.248334228992462E-1   1.194035261869431E-1   3.202096819877625E-1  
 3.306000000000000E7     1.206407845020294E-1   3.187799453735352E-1   8.755177855491638E-1  -3.269778192043304E-1   8.748351335525513E-1  -3.264581263065338E-1   1.192382127046585E-1   3.182570040225983E-1  
 3.308000000000000E7     1.206716150045395E-1   3.168404698371887E-1   8.751782774925232E-1  -3.286952078342438E-1   8.751237988471985E-1  -3.279325366020203E-1   1.201024204492569E-1   3.167438507080078E-1  
 3.310000000000000E7     1.208424866199493E-1   3.153246939182282E-1   8.750905394554138E-1  -3.304795026779175E-1   8.746730685234070E-1  -3.300540447235107E-1   1.198761314153671E-1   3.158164918422699E-1  
 3.312000000000000E7     1.211572736501694E-1   3.147054016590118E-1   8.750475645065308E-1  -3.321333527565002E-1   8.744715452194214E-1  -3.315640687942505E-1   1.199798211455345E-1   3.145613968372345E-1  
 3.314000000000000E7     1.206614226102829E-1   3.130918145179749E-1   8.742917776107788E-1  -3.341729640960693E-1   8.742654323577881E-1  -3.336547613143921E-1   1.198364049196243E-1   3.134524822235107E-1  
 3.316000000000000E7     1.214030832052231E-1   3.112015724182129E-1   8.743886351585388E-1  -3.359805643558502E-1   8.741864562034607E-1  -3.353134691715241E-1   1.203575506806374E-1   3.111394643783569E-1  
 3.318000000000000E7     1.217925995588303E-1   3.097805082798004E-1   8.744932413101196E-1  -3.372697234153748E-1   8.738622665405273E-1  -3.371602892875671E-1   1.201220899820328E-1   3.101532161235809E-1  
 3.320000000000000E7     1.209362447261810E-1   3.081087172031403E-1   8.741684556007385E-1  -3.396240174770355E-1   8.735496997833252E-1  -3.386810421943665E-1   1.203302890062332E-1   3.087076842784882E-1  
 3.322000000000000E7     1.212221384048462E-1   3.068212270736694E-1   8.742338418960571E-1  -3.411342501640320E-1   8.736930489540100E-1  -3.405713737010956E-1   1.204336509108543E-1   3.071627914905548E-1  
 3.324000000000000E7     1.210515201091766E-1   3.063253760337830E-1   8.733572363853455E-1  -3.428964912891388E-1   8.732090592384338E-1  -3.422799408435822E-1   1.205129772424698E-1   3.060217201709747E-1  
 3.326000000000000E7     1.220473796129227E-1   3.038002252578735E-1   8.736252784729004E-1  -3.442067503929138E-1   8.731405138969421E-1  -3.445991873741150E-1   1.199753582477570E-1   3.047665059566498E-1  
 3.328000000000000E7     1.212759464979172E-1   3.033719360828400E-1   8.731508255004883E-1  -3.463568389415741E-1   8.732216358184815E-1  -3.460363149642944E-1   1.208476200699806E-1   3.031098842620850E-1  
 3.330000000000000E7     1.213408783078194E-1   3.016840815544128E-1   8.730998039245606E-1  -3.482366502285004E-1   8.729221224784851E-1  -3.476160168647766E-1   1.204567626118660E-1   3.017720580101013E-1  
 3.332000000000000E7     1.212809234857559E-1   2.997486591339111E-1   8.729730248451233E-1  -3.499166071414948E-1   8.724334239959717E-1  -3.496372997760773E-1   1.211125999689102E-1   3.002816140651703E-1  
 3.334000000000000E7     1.222511231899262E-1   2.985155880451202E-1   8.726841211318970E-1  -3.516147136688232E-1   8.725570440292358E-1  -3.512604236602783E-1   1.201080381870270E-1   2.982240021228790E-1  
 3.336000000000000E7     1.212916374206543E-1   2.971953153610230E-1   8.724980950355530E-1  -3.537957668304443E-1   8.717820048332214E-1  -3.532468378543854E-1   1.204796507954598E-1   2.974086999893189E-1  
 3.338000000000000E7     1.218721047043800E-1   2.952014207839966E-1   8.723071813583374E-1  -3.553442955017090E-1   8.719990253448486E-1  -3.549370467662811E-1   1.207112744450569E-1   2.961338162422180E-1  
 3.340000000000000E7     1.219862923026085E-1   2.942193150520325E-1   8.721647858619690E-1  -3.569823503494263E-1   8.717379570007324E-1  -3.565229773521423E-1   1.208988279104233E-1   2.939955294132233E-1  
 3.342000000000000E7     1.215578466653824E-1   2.932594120502472E-1   8.714211583137512E-1  -3.589101135730743E-1   8.709675669670105E-1  -3.585476577281952E-1   1.208223178982735E-1   2.933632433414459E-1  
 3.344000000000000E7     1.217539310455322E-1   2.913774251937866E-1   8.713883757591248E-1  -3.605448901653290E-1   8.713091015815735E-1  -3.603015840053558E-1   1.207680925726891E-1   2.913239002227783E-1  
 3.346000000000000E7     1.223604902625084E-1   2.898039817810059E-1   8.710211515426636E-1  -3.623147904872894E-1   8.709908127784729E-1  -3.619561791419983E-1   1.200992092490196E-1   2.902626395225525E-1  
 3.348000000000000E7     1.219836622476578E-1   2.885970473289490E-1   8.709521293640137E-1  -3.640689253807068E-1   8.704131841659546E-1  -3.635096251964569E-1   1.209835708141327E-1   2.888151109218597E-1  
 3.350000000000000E7     1.224404722452164E-1   2.873266339302063E-1   8.701587915420532E-1  -3.657906651496887E-1   8.703500628471375E-1  -3.654702305793762E-1   1.205158755183220E-1   2.872880697250366E-1  
 3.352000000000000E7     1.220231652259827E-1   2.861212491989136E-1   8.703149557113648E-1  -3.675080835819244E-1   8.700107336044312E-1  -3.668701052665710E-1   1.213496476411820E-1   2.853822112083435E-1  
 3.354000000000000E7     1.223246976733208E-1   2.831922769546509E-1   8.706034421920776E-1  -3.692281544208527E-1   8.698140978813171E-1  -3.691827058792114E-1   1.208196729421616E-1   2.844809889793396E-1  
 3.356000000000000E7     1.215310543775559E-1   2.829075157642365E-1   8.697129487991333E-1  -3.712980151176453E-1   8.695508837699890E-1  -3.711021244525909E-1   1.210064888000488E-1   2.822741866111755E-1  
 3.358000000000000E7     1.218544468283653E-1   2.814355790615082E-1   8.694181442260742E-1  -3.732773959636688E-1   8.692127466201782E-1  -3.724746108055115E-1   1.209298297762871E-1   2.812014222145081E-1  
 3.360000000000000E7     1.214349716901779E-1   2.799239158630371E-1   8.690558075904846E-1  -3.749394118785858E-1   8.686467409133911E-1  -3.745628297328949E-1   1.206707730889320E-1   2.803435325622559E-1  
 3.362000000000000E7     1.216612979769707E-1   2.786614000797272E-1   8.685237765312195E-1  -3.766008615493774E-1   8.686094880104065E-1  -3.758939504623413E-1   1.212401241064072E-1   2.789264619350433E-1  
 3.364000000000000E7     1.215081959962845E-1   2.775246798992157E-1   8.683486580848694E-1  -3.782114982604981E-1   8.682399988174439E-1  -3.777518868446350E-1   1.211542934179306E-1   2.773282527923584E-1  
 3.366000000000000E7     1.220401823520660E-1   2.757373452186585E-1   8.680341243743897E-1  -3.805747628211975E-1   8.677703738212585E-1  -3.793506622314453E-1   1.209667921066284E-1   2.758426964282990E-1  
 3.368000000000000E7     1.207933202385902E-1   2.745469212532044E-1   8.679586648941040E-1  -3.820922076702118E-1   8.675866127014160E-1  -3.813543021678925E-1   1.207582801580429E-1   2.739794552326202E-1  
 3.370000000000000E7     1.219204515218735E-1   2.727874219417572E-1   8.675449490547180E-1  -3.839550912380219E-1   8.671939969062805E-1  -3.830739557743073E-1   1.207573413848877E-1   2.734991908073425E-1  
 3.372000000000000E7     1.218731403350830E-1   2.705653905868530E-1   8.676925301551819E-1  -3.856681585311890E-1   8.673074841499329E-1  -3.849667608737946E-1   1.209049820899963E-1   2.707766294479370E-1  
 3.374000000000000E7     1.219038367271423E-1   2.695060670375824E-1   8.673225641250610E-1  -3.873049020767212E-1   8.663481473922730E-1  -3.863579630851746E-1   1.214806437492371E-1   2.701337039470673E-1  
 3.376000000000000E7     1.208268851041794E-1   2.681385576725006E-1   8.662934303283691E-1  -3.894285559654236E-1   8.662418723106384E-1  -3.888150751590729E-1   1.205988377332687E-1   2.688219547271729E-1  
 3.378000000000000E7     1.221057027578354E-1   2.670755982398987E-1   8.663968443870544E-1  -3.906085193157196E-1   8.657375574111939E-1  -3.902707993984222E-1   1.208553314208984E-1   2.672294378280640E-1  
 3.380000000000000E7     1.212531849741936E-1   2.648587822914124E-1   8.663443922996521E-1  -3.927780985832214E-1   8.651155829429627E-1  -3.922099769115448E-1   1.203676685690880E-1   2.659728527069092E-1  
 3.382000000000000E7     1.213854849338532E-1   2.634003758430481E-1   8.655078411102295E-1  -3.944205641746521E-1   8.651179671287537E-1  -3.936955332756043E-1   1.206326782703400E-1   2.642187178134918E-1  
 3.384000000000000E7     1.211076080799103E-1   2.621274590492249E-1   8.653655052185059E-1  -3.962087035179138E-1   8.647881746292114E-1  -3.957309126853943E-1   1.205623224377632E-1   2.625099718570709E-1  
 3.386000000000000E7     1.212070509791374E-1   2.612158656120300E-1   8.644977807998657E-1  -3.981827199459076E-1   8.646189570426941E-1  -3.974775671958923E-1   1.199226826429367E-1   2.607705593109131E-1  
 3.388000000000000E7     1.209977269172669E-1   2.597773671150208E-1   8.641997575759888E-1  -3.998782336711884E-1   8.637038469314575E-1  -3.994733393192291E-1   1.194001436233521E-1   2.601123452186585E-1  
 3.390000000000000E7     1.207118630409241E-1   2.575646638870239E-1   8.639605045318604E-1  -4.015959799289703E-1   8.639711141586304E-1  -4.016453027725220E-1   1.194119006395340E-1   2.577626109123230E-1  
 3.392000000000000E7     1.208981052041054E-1   2.570518851280212E-1   8.634141683578491E-1  -4.034043252468109E-1   8.633258342742920E-1  -4.027269780635834E-1   1.194175034761429E-1   2.568067312240601E-1  
 3.394000000000000E7     1.207558363676071E-1   2.550635933876038E-1   8.631168007850647E-1  -4.051422178745270E-1   8.630160689353943E-1  -4.045760631561279E-1   1.199042946100235E-1   2.555130720138550E-1  
 3.396000000000000E7     1.204287186264992E-1   2.534565925598145E-1   8.627380728721619E-1  -4.067646265029907E-1   8.626092076301575E-1  -4.065244793891907E-1   1.197873353958130E-1   2.537131309509277E-1  
 3.398000000000000E7     1.205342188477516E-1   2.523899674415588E-1   8.625199198722839E-1  -4.084295034408569E-1   8.621572256088257E-1  -4.082508087158203E-1   1.200370341539383E-1   2.523498833179474E-1  
 3.400000000000000E7     1.203689724206924E-1   2.507182657718658E-1   8.617934584617615E-1  -4.103128015995026E-1   8.617528080940247E-1  -4.100131094455719E-1   1.190122663974762E-1   2.512075006961823E-1  
 3.402000000000000E7     1.210658773779869E-1   2.487519085407257E-1   8.614476323127747E-1  -4.121906757354736E-1   8.613197207450867E-1  -4.118855297565460E-1   1.193042621016502E-1   2.493502646684647E-1  
 3.404000000000000E7     1.202761083841324E-1   2.479572743177414E-1   8.606569766998291E-1  -4.138829112052918E-1   8.607316017150879E-1  -4.135692715644836E-1   1.193810626864433E-1   2.481927275657654E-1  
 3.406000000000000E7     1.204062104225159E-1   2.466211467981339E-1   8.603906631469727E-1  -4.153572022914887E-1   8.601533770561218E-1  -4.153435826301575E-1   1.192347779870033E-1   2.471718937158585E-1  
 3.408000000000000E7     1.192997246980667E-1   2.447756230831146E-1   8.602489829063416E-1  -4.175692796707153E-1   8.598918914794922E-1  -4.172791838645935E-1   1.195826679468155E-1   2.451496720314026E-1  
 3.410000000000000E7     1.192345842719078E-1   2.431631386280060E-1   8.596720695495606E-1  -4.197335541248322E-1   8.593221902847290E-1  -4.187755882740021E-1   1.195552870631218E-1   2.439278364181519E-1  
 3.412000000000000E7     1.196501255035400E-1   2.414684146642685E-1   8.592954874038696E-1  -4.210864603519440E-1   8.588897585868835E-1  -4.208130836486816E-1   1.182831749320030E-1   2.432956248521805E-1  
 3.414000000000000E7     1.188515424728394E-1   2.401773184537888E-1   8.588031530380249E-1  -4.231376051902771E-1   8.583689332008362E-1  -4.223140180110931E-1   1.187836825847626E-1   2.412882894277573E-1  
 3.416000000000000E7     1.190021932125092E-1   2.393856644630432E-1   8.580567240715027E-1  -4.244676828384399E-1   8.578384518623352E-1  -4.245122671127319E-1   1.193303465843201E-1   2.395691871643066E-1  
 3.418000000000000E7     1.193484961986542E-1   2.373021841049194E-1   8.576924204826355E-1  -4.265808761119843E-1   8.573631048202515E-1  -4.263015091419220E-1   1.179520338773727E-1   2.383198738098145E-1  
 3.420000000000000E7     1.182982176542282E-1   2.366008758544922E-1   8.569633960723877E-1  -4.282026588916779E-1   8.572680950164795E-1  -4.279880821704865E-1   1.183230131864548E-1   2.363815307617188E-1  
 3.422000000000000E7     1.180592477321625E-1   2.346046268939972E-1   8.565639257431030E-1  -4.299871027469635E-1   8.563538789749146E-1  -4.295758605003357E-1   1.177701652050018E-1   2.356626242399216E-1  
 3.424000000000000E7     1.183703169226646E-1   2.332111597061157E-1   8.560073375701904E-1  -4.315798580646515E-1   8.563256859779358E-1  -4.317548274993897E-1   1.174708679318428E-1   2.337789833545685E-1  
 3.426000000000000E7     1.184958517551422E-1   2.323067188262940E-1   8.556469082832336E-1  -4.336347281932831E-1   8.556724190711975E-1  -4.333707988262177E-1   1.169094368815422E-1   2.324142158031464E-1  
 3.428000000000000E7     1.173933446407318E-1   2.300893962383270E-1   8.550768494606018E-1  -4.355204999446869E-1   8.548980355262756E-1  -4.353461265563965E-1   1.170606538653374E-1   2.316503524780273E-1  
 3.430000000000000E7     1.181029528379440E-1   2.278048247098923E-1   8.549552559852600E-1  -4.370466470718384E-1   8.546828627586365E-1  -4.369595944881439E-1   1.164231449365616E-1   2.292732298374176E-1  
 3.432000000000000E7     1.176248490810394E-1   2.269206941127777E-1   8.542927503585815E-1  -4.391636550426483E-1   8.542000055313110E-1  -4.388188719749451E-1   1.165227144956589E-1   2.277220785617828E-1  
 3.434000000000000E7     1.175473928451538E-1   2.261162102222443E-1   8.536431193351746E-1  -4.407744705677033E-1   8.537364006042481E-1  -4.404901862144470E-1   1.166567131876946E-1   2.264563590288162E-1  
 3.436000000000000E7     1.173010393977165E-1   2.248575240373612E-1   8.530318737030029E-1  -4.420128166675568E-1   8.533994555473328E-1  -4.421994686126709E-1   1.171153634786606E-1   2.247507870197296E-1  
 3.438000000000000E7     1.164248585700989E-1   2.230619490146637E-1   8.529600501060486E-1  -4.446827769279480E-1   8.523433208465576E-1  -4.444127976894379E-1   1.161154359579086E-1   2.238271236419678E-1  
 3.440000000000000E7     1.172191500663757E-1   2.221454232931137E-1   8.520773053169251E-1  -4.459246098995209E-1   8.523681163787842E-1  -4.456884562969208E-1   1.160153672099114E-1   2.211950272321701E-1  
 3.442000000000000E7     1.163554862141609E-1   2.203497290611267E-1   8.515231609344482E-1  -4.480421841144562E-1   8.515736460685730E-1  -4.476327300071716E-1   1.163459271192551E-1   2.206182628870010E-1  
 3.444000000000000E7     1.157372817397118E-1   2.184979766607285E-1   8.512501120567322E-1  -4.500186145305634E-1   8.509527444839478E-1  -4.492980241775513E-1   1.157021224498749E-1   2.193662822246552E-1  
 3.446000000000000E7     1.160193085670471E-1   2.168631404638290E-1   8.510283827781677E-1  -4.515284895896912E-1   8.506602048873901E-1  -4.513357877731323E-1   1.151230931282044E-1   2.171194553375244E-1  
 3.448000000000000E7     1.155274808406830E-1   2.153027951717377E-1   8.501089811325073E-1  -4.534517526626587E-1   8.498404026031494E-1  -4.526619613170624E-1   1.153034567832947E-1   2.165425717830658E-1  
 3.450000000000000E7     1.163143292069435E-1   2.140970379114151E-1   8.496345877647400E-1  -4.550692737102509E-1   8.494480252265930E-1  -4.542726278305054E-1   1.147906482219696E-1   2.157838940620422E-1  
 3.452000000000000E7     1.150584965944290E-1   2.125849425792694E-1   8.489490151405335E-1  -4.562977850437164E-1   8.488625884056091E-1  -4.568730890750885E-1   1.139317601919174E-1   2.138891071081162E-1  
 3.454000000000000E7     1.152633205056191E-1   2.112081050872803E-1   8.486236333847046E-1  -4.585945010185242E-1   8.483712077140808E-1  -4.585420787334442E-1   1.135353595018387E-1   2.119451314210892E-1  
 3.456000000000000E7     1.141537725925446E-1   2.094831019639969E-1   8.479383587837219E-1  -4.603351056575775E-1   8.476703763008118E-1  -4.597980678081513E-1   1.143688708543778E-1   2.109103053808212E-1  
 3.458000000000000E7     1.141944676637650E-1   2.084569036960602E-1   8.472239375114441E-1  -4.618707001209259E-1   8.471072912216187E-1  -4.617464840412140E-1   1.139417588710785E-1   2.091348767280579E-1  
 3.460000000000000E7     1.138070821762085E-1   2.065531015396118E-1   8.465436100959778E-1  -4.640665352344513E-1   8.463642001152039E-1  -4.635532200336456E-1   1.138962879776955E-1   2.081901282072067E-1  
 3.462000000000000E7     1.136267706751823E-1   2.052456438541412E-1   8.460396528244019E-1  -4.658638238906860E-1   8.464058041572571E-1  -4.655364155769348E-1   1.138224005699158E-1   2.059782594442368E-1  
 3.464000000000000E7     1.138454377651215E-1   2.038459032773972E-1   8.456575870513916E-1  -4.672716259956360E-1   8.454070091247559E-1  -4.671774804592133E-1   1.131063401699066E-1   2.044838517904282E-1  
 3.466000000000000E7     1.131068617105484E-1   2.024480104446411E-1   8.451650738716126E-1  -4.694786965847015E-1   8.445055484771729E-1  -4.685535728931427E-1   1.130401939153671E-1   2.036758363246918E-1  
 3.468000000000000E7     1.120079755783081E-1   2.010882049798966E-1   8.438742756843567E-1  -4.713551700115204E-1   8.444650173187256E-1  -4.707206785678864E-1   1.115918233990669E-1   2.021077871322632E-1  
 3.470000000000000E7     1.122635453939438E-1   1.999537497758865E-1   8.435020446777344E-1  -4.730346202850342E-1   8.440247178077698E-1  -4.723989367485046E-1   1.115757524967194E-1   2.000440657138825E-1  
 3.472000000000000E7     1.122265309095383E-1   1.978737711906433E-1   8.431825637817383E-1  -4.744292795658112E-1   8.429954051971436E-1  -4.744113087654114E-1   1.114237457513809E-1   1.991862803697586E-1  
 3.474000000000000E7     1.121781617403030E-1   1.963037401437759E-1   8.425516486167908E-1  -4.764203131198883E-1   8.423596024513245E-1  -4.758855700492859E-1   1.106760650873184E-1   1.974701434373856E-1  
 3.476000000000000E7     1.110312938690186E-1   1.954817622900009E-1   8.418027758598328E-1  -4.780794978141785E-1   8.418117761611939E-1  -4.776336848735809E-1   1.109549328684807E-1   1.963738501071930E-1  
 3.478000000000000E7     1.108726412057877E-1   1.945969313383102E-1   8.412890434265137E-1  -4.800733029842377E-1   8.409082889556885E-1  -4.790815711021423E-1   1.103190481662750E-1   1.952227503061295E-1  
 3.480000000000000E7     1.102292984724045E-1   1.923007369041443E-1   8.405085206031799E-1  -4.817374646663666E-1   8.403975367546082E-1  -4.811352491378784E-1   1.102643683552742E-1   1.936340183019638E-1  
 3.482000000000000E7     1.099292188882828E-1   1.909195184707642E-1   8.397381901741028E-1  -4.836899340152741E-1   8.398787975311279E-1  -4.828197062015533E-1   1.098186299204826E-1   1.915189623832703E-1  
 3.484000000000000E7     1.098560690879822E-1   1.894578337669373E-1   8.393141031265259E-1  -4.851146042346954E-1   8.391578197479248E-1  -4.849424362182617E-1   1.086426451802254E-1   1.899048686027527E-1  
 3.486000000000000E7     1.091562435030937E-1   1.868055760860443E-1   8.387053012847900E-1  -4.874258637428284E-1   8.383575081825256E-1  -4.866589307785034E-1   1.089432314038277E-1   1.892486512660980E-1  
 3.488000000000000E7     1.090226992964745E-1   1.867289245128632E-1   8.376881480216980E-1  -4.890798926353455E-1   8.378592729568481E-1  -4.883511960506439E-1   1.081967428326607E-1   1.879274100065231E-1  
 3.490000000000000E7     1.094539389014244E-1   1.841748058795929E-1   8.373590707778931E-1  -4.901326298713684E-1   8.371385931968689E-1  -4.899617731571198E-1   1.086590364575386E-1   1.868259310722351E-1  
 3.492000000000000E7     1.082803606987000E-1   1.832922399044037E-1   8.366899490356445E-1  -4.925782978534699E-1   8.365870118141174E-1  -4.919474124908447E-1   1.074230298399925E-1   1.845224052667618E-1  
 3.494000000000000E7     1.081616282463074E-1   1.830809414386749E-1   8.355166912078857E-1  -4.942166805267334E-1   8.362451791763306E-1  -4.933969080448151E-1   1.077477186918259E-1   1.826381385326386E-1  
 3.496000000000000E7     1.076945066452026E-1   1.806223690509796E-1   8.352056145668030E-1  -4.960008263587952E-1   8.350609540939331E-1  -4.956606328487396E-1   1.061962991952896E-1   1.819816976785660E-1  
 3.498000000000000E7     1.071189120411873E-1   1.793713867664337E-1   8.344093561172485E-1  -4.976829290390015E-1   8.346635103225708E-1  -4.972734153270721E-1   1.071540862321854E-1   1.798956096172333E-1  
 3.500000000000000E7     1.069734469056130E-1   1.780132651329041E-1   8.338257670402527E-1  -4.992694854736328E-1   8.334957957267761E-1  -4.993185997009277E-1   1.059323102235794E-1   1.793062090873718E-1  
 3.502000000000000E7     1.065018922090530E-1   1.767613589763641E-1   8.333564996719360E-1  -5.011644363403320E-1   8.328542709350586E-1  -5.010676980018616E-1   1.055908650159836E-1   1.776364147663117E-1  
 3.504000000000000E7     1.059599742293358E-1   1.750500500202179E-1   8.322444558143616E-1  -5.029761791229248E-1   8.320632576942444E-1  -5.024007558822632E-1   1.051454991102219E-1   1.760091483592987E-1  
 3.506000000000000E7     1.057045161724091E-1   1.736063361167908E-1   8.316735029220581E-1  -5.046268701553345E-1   8.315470814704895E-1  -5.042978525161743E-1   1.048705875873566E-1   1.756264418363571E-1  
 3.508000000000000E7     1.059458330273628E-1   1.711772978305817E-1   8.310952782630920E-1  -5.064702033996582E-1   8.308959603309631E-1  -5.060401558876038E-1   1.049214005470276E-1   1.731942594051361E-1  
 3.510000000000000E7     1.045568138360977E-1   1.701711714267731E-1   8.302506208419800E-1  -5.081263184547424E-1   8.304401636123657E-1  -5.079015493392944E-1   1.045712381601334E-1   1.716224849224091E-1  
 3.512000000000000E7     1.041529774665833E-1   1.695601344108582E-1   8.292316794395447E-1  -5.098369717597961E-1   8.295100927352905E-1  -5.097079277038574E-1   1.037996858358383E-1   1.701035201549530E-1  
 3.514000000000000E7     1.033017188310623E-1   1.674242913722992E-1   8.286772966384888E-1  -5.118185281753540E-1   8.287426829338074E-1  -5.115518569946289E-1   1.033489629626274E-1   1.686031669378281E-1  
 3.516000000000000E7     1.037312746047974E-1   1.664621829986572E-1   8.281707167625427E-1  -5.134077072143555E-1   8.281587362289429E-1  -5.130745172500610E-1   1.029669940471649E-1   1.672269999980927E-1  
 3.518000000000000E7     1.021617203950882E-1   1.652835756540299E-1   8.273254036903381E-1  -5.151240825653076E-1   8.272319436073303E-1  -5.150527358055115E-1   1.021369770169258E-1   1.654118448495865E-1  
 3.520000000000000E7     1.032095998525620E-1   1.636933982372284E-1   8.265010714530945E-1  -5.166889429092407E-1   8.267125487327576E-1  -5.163528919219971E-1   1.021111011505127E-1   1.640543639659882E-1  
 3.522000000000000E7     1.015220284461975E-1   1.623214185237885E-1   8.257468938827515E-1  -5.185049772262573E-1   8.255849480628967E-1  -5.187336802482605E-1   1.014050170779228E-1   1.633282452821732E-1  
 3.524000000000000E7     1.018418073654175E-1   1.607464551925659E-1   8.250513672828674E-1  -5.202322602272034E-1   8.249635696411133E-1  -5.201678872108460E-1   1.009778082370758E-1   1.617069244384766E-1  
 3.526000000000000E7     1.012198626995087E-1   1.586761921644211E-1   8.241202235221863E-1  -5.220341682434082E-1   8.243378996849060E-1  -5.218802094459534E-1   1.006492376327515E-1   1.605190336704254E-1  
 3.528000000000000E7     1.002033129334450E-1   1.580844074487686E-1   8.235647082328796E-1  -5.238011479377747E-1   8.234261274337769E-1  -5.234014987945557E-1   1.002095714211464E-1   1.590357720851898E-1  
 3.530000000000000E7     1.005851700901985E-1   1.557129025459290E-1   8.229970335960388E-1  -5.254720449447632E-1   8.224572539329529E-1  -5.253729820251465E-1   9.916912019252777E-2   1.567377895116806E-1  
 3.532000000000000E7     1.000948920845985E-1   1.550985872745514E-1   8.216910958290100E-1  -5.276654362678528E-1   8.219167590141296E-1  -5.268275737762451E-1   9.882527589797974E-2   1.565104275941849E-1  
 3.534000000000000E7     9.968581795692444E-2   1.530527621507645E-1   8.209576606750488E-1  -5.290554761886597E-1   8.211116790771484E-1  -5.289851427078247E-1   9.824235737323761E-2   1.542815864086151E-1  
 3.536000000000000E7     9.859185665845871E-2   1.527726948261261E-1   8.202428817749023E-1  -5.313826799392700E-1   8.202162384986877E-1  -5.301586985588074E-1   9.845261275768280E-2   1.532392054796219E-1  
 3.538000000000000E7     9.859946370124817E-2   1.501524746417999E-1   8.198414444923401E-1  -5.323707461357117E-1   8.192504644393921E-1  -5.325503945350647E-1   9.758111834526062E-2   1.516110897064209E-1  
 3.540000000000000E7     9.768948704004288E-2   1.495900154113770E-1   8.183909654617310E-1  -5.341558456420898E-1   8.186084032058716E-1  -5.342082381248474E-1   9.692344069480896E-2   1.511666178703308E-1  
 3.542000000000000E7     9.669885039329529E-2   1.481332778930664E-1   8.178710341453552E-1  -5.362255573272705E-1   8.173944354057312E-1  -5.355932712554932E-1   9.654282778501511E-2   1.490146219730377E-1  
 3.544000000000000E7     9.671460092067719E-2   1.468152254819870E-1   8.167237043380737E-1  -5.377230644226074E-1   8.169627189636231E-1  -5.374978184700012E-1   9.641910344362259E-2   1.475051343441010E-1  
 3.546000000000000E7     9.587001800537109E-2   1.446872353553772E-1   8.161886334419251E-1  -5.395119190216065E-1   8.163254261016846E-1  -5.392367243766785E-1   9.588957577943802E-2   1.459935903549194E-1  
 3.548000000000000E7     9.535783529281616E-2   1.431453526020050E-1   8.154435753822327E-1  -5.414016246795654E-1   8.153879642486572E-1  -5.410307049751282E-1   9.524600207805634E-2   1.451399773359299E-1  
 3.550000000000000E7     9.436896443367004E-2   1.420237720012665E-1   8.146752715110779E-1  -5.429078340530396E-1   8.142253756523132E-1  -5.425912141799927E-1   9.457797557115555E-2   1.438171565532684E-1  
 3.552000000000000E7     9.544889628887177E-2   1.406692862510681E-1   8.137192130088806E-1  -5.443544387817383E-1   8.135688900947571E-1  -5.446512103080750E-1   9.398692846298218E-2   1.421908438205719E-1  
 3.554000000000000E7     9.347523003816605E-2   1.391678154468536E-1   8.128587007522583E-1  -5.463901758193970E-1   8.127276897430420E-1  -5.462340712547302E-1   9.329370409250259E-2   1.404384076595306E-1  
 3.556000000000000E7     9.270188212394714E-2   1.384862661361694E-1   8.117111325263977E-1  -5.485533475875855E-1   8.119162917137146E-1  -5.476772189140320E-1   9.283418208360672E-2   1.393360495567322E-1  
 3.558000000000000E7     9.247529506683350E-2   1.367807686328888E-1   8.111001253128052E-1  -5.498403906822205E-1   8.110710978507996E-1  -5.496590733528137E-1   9.218387305736542E-2   1.379326432943344E-1  
 3.560000000000000E7     9.248101711273193E-2   1.345904767513275E-1   8.102025985717773E-1  -5.512441992759705E-1   8.100081682205200E-1  -5.513408780097961E-1   9.199376404285431E-2   1.368851065635681E-1  
 3.562000000000000E7     9.215924143791199E-2   1.339751034975052E-1   8.092594742774963E-1  -5.534939765930176E-1   8.093386292457581E-1  -5.530587434768677E-1   9.101454913616180E-2   1.355053782463074E-1  
 3.564000000000000E7     9.054119139909744E-2   1.323543190956116E-1   8.084717988967896E-1  -5.552853941917419E-1   8.081365823745728E-1  -5.545330643653870E-1   9.027609229087830E-2   1.337908804416657E-1  
 3.566000000000000E7     9.041238576173782E-2   1.310690194368362E-1   8.073745965957642E-1  -5.568792223930359E-1   8.074567317962647E-1  -5.565437078475952E-1   8.968096971511841E-2   1.319260299205780E-1  
 3.568000000000000E7     9.036284685134888E-2   1.300779730081558E-1   8.064795732498169E-1  -5.583407282829285E-1   8.068119287490845E-1  -5.582106709480286E-1   8.954091370105743E-2   1.301579177379608E-1  
 3.570000000000000E7     8.995579183101654E-2   1.282070875167847E-1   8.056194186210632E-1  -5.601706504821777E-1   8.058826327323914E-1  -5.595508217811585E-1   8.915108442306519E-2   1.296758353710175E-1  
 3.572000000000000E7     8.871696889400482E-2   1.269387304782867E-1   8.047075271606445E-1  -5.619167089462280E-1   8.049942851066589E-1  -5.614854693412781E-1   8.805183321237564E-2   1.279392242431641E-1  
 3.574000000000000E7     8.675836026668549E-2   1.249928474426270E-1   8.038879036903381E-1  -5.637235045433044E-1   8.040317893028259E-1  -5.634008049964905E-1   8.716204762458801E-2   1.262152493000031E-1  
 3.576000000000000E7     8.767785131931305E-2   1.242874860763550E-1   8.028226494789124E-1  -5.650072097778320E-1   8.032630681991577E-1  -5.651386380195618E-1   8.676933497190476E-2   1.242290735244751E-1  
 3.578000000000000E7     8.597677946090698E-2   1.225856319069862E-1   8.019344806671143E-1  -5.671228766441345E-1   8.018280267715454E-1  -5.668327808380127E-1   8.667580783367157E-2   1.235802769660950E-1  
 3.580000000000000E7     8.615475893020630E-2   1.208220720291138E-1   8.011737465858460E-1  -5.686675310134888E-1   8.011311292648315E-1  -5.683513283729553E-1   8.550830930471420E-2   1.223193109035492E-1  
 3.582000000000000E7     8.561160415410996E-2   1.200674772262573E-1   8.000612258911133E-1  -5.704557895660400E-1   8.002054095268250E-1  -5.699108242988586E-1   8.537296950817108E-2   1.214315146207809E-1  
 3.584000000000000E7     8.491135388612747E-2   1.188959926366806E-1   7.988581657409668E-1  -5.718394517898560E-1   7.995000481605530E-1  -5.720899105072022E-1   8.445946872234345E-2   1.202782467007637E-1  
 3.586000000000000E7     8.416693657636643E-2   1.172476559877396E-1   7.982947230339050E-1  -5.736389160156250E-1   7.983647584915161E-1  -5.734863877296448E-1   8.373423665761948E-2   1.184317991137505E-1  
 3.588000000000000E7     8.375027775764465E-2   1.148873418569565E-1   7.974127531051636E-1  -5.752239823341370E-1   7.975267171859741E-1  -5.754856467247009E-1   8.327643573284149E-2   1.174647361040115E-1  
 3.590000000000000E7     8.282987773418427E-2   1.139287501573563E-1   7.964006066322327E-1  -5.771834850311279E-1   7.963557839393616E-1  -5.770092010498047E-1   8.217316865921021E-2   1.149689108133316E-1  
 3.592000000000000E7     8.190629631280899E-2   1.129432097077370E-1   7.954331636428833E-1  -5.788352489471436E-1   7.951663732528687E-1  -5.785794854164124E-1   8.254668861627579E-2   1.146112829446793E-1  
 3.594000000000000E7     8.089690655469894E-2   1.112712174654007E-1   7.946612238883972E-1  -5.809822082519531E-1   7.943248748779297E-1  -5.801568627357483E-1   8.049497753381729E-2   1.129828542470932E-1  
 3.596000000000000E7     8.081766963005066E-2   1.096698492765427E-1   7.934340238571167E-1  -5.822815299034119E-1   7.935941815376282E-1  -5.821378827095032E-1   7.987175881862640E-2   1.114608198404312E-1  
 3.598000000000000E7     8.032976090908051E-2   1.087816134095192E-1   7.923282980918884E-1  -5.837652087211609E-1   7.927902936935425E-1  -5.839029550552368E-1   7.963217794895172E-2   1.097459644079208E-1  
 3.600000000000000E7     7.948586344718933E-2   1.070782616734505E-1   7.913109064102173E-1  -5.857143998146057E-1   7.915968894958496E-1  -5.855166316032410E-1   7.859268784523010E-2   1.087948232889175E-1  
 3.602000000000000E7     7.810629159212112E-2   1.057308614253998E-1   7.907782196998596E-1  -5.874980688095093E-1   7.909025549888611E-1  -5.872304439544678E-1   7.773123681545258E-2   1.076657697558403E-1  
 3.604000000000000E7     7.819218188524246E-2   1.046896725893021E-1   7.900283336639404E-1  -5.891288518905640E-1   7.897529602050781E-1  -5.888517498970032E-1   7.744147628545761E-2   1.061316579580307E-1  
 3.606000000000000E7     7.697392255067825E-2   1.028592735528946E-1   7.890241146087647E-1  -5.909390449523926E-1   7.886094450950623E-1  -5.902618765830994E-1   7.733324170112610E-2   1.055152192711830E-1  
 3.608000000000000E7     7.653354853391647E-2   1.015518456697464E-1   7.875949144363403E-1  -5.925393700599670E-1   7.880185246467590E-1  -5.920350551605225E-1   7.593154162168503E-2   1.033397242426872E-1  
 3.610000000000000E7     7.620881497859955E-2   9.990666061639786E-2   7.868349552154541E-1  -5.939293503761292E-1   7.867616415023804E-1  -5.935605764389038E-1   7.515697181224823E-2   1.025882363319397E-1  
 3.612000000000000E7     7.562161982059479E-2   9.883917868137360E-2   7.858121395111084E-1  -5.957403182983398E-1   7.857660651206970E-1  -5.954794883728027E-1   7.522550225257874E-2   1.006392464041710E-1  
 3.614000000000000E7     7.428042590618134E-2   9.717393666505814E-2   7.847571372985840E-1  -5.974674224853516E-1   7.845315337181091E-1  -5.970467329025269E-1   7.362011075019836E-2   9.998907893896103E-2  
 3.616000000000000E7     7.360289990901947E-2   9.606775641441345E-2   7.838683724403381E-1  -5.991608500480652E-1   7.834600806236267E-1  -5.988957881927490E-1   7.354579120874405E-2   9.905919432640076E-2  
 3.618000000000000E7     7.290133833885193E-2   9.507723152637482E-2   7.829160690307617E-1  -6.006560325622559E-1   7.825696468353272E-1  -6.005278229713440E-1   7.167731225490570E-2   9.626169502735138E-2  
 3.620000000000000E7     7.197260111570358E-2   9.357890486717224E-2   7.817611694335938E-1  -6.023879647254944E-1   7.816722989082336E-1  -6.023042798042297E-1   7.147159427404404E-2   9.623561799526215E-2  
 3.622000000000000E7     7.131669670343399E-2   9.259656071662903E-2   7.807193398475647E-1  -6.041183471679688E-1   7.803778052330017E-1  -6.039381623268127E-1   7.106339186429977E-2   9.422659873962402E-2  
 3.624000000000000E7     7.029271125793457E-2   9.140014648437500E-2   7.796428203582764E-1  -6.056603789329529E-1   7.793748378753662E-1  -6.054353117942810E-1   6.983666867017746E-2   9.308797121047974E-2  
 3.626000000000000E7     7.017272710800171E-2   8.954806625843048E-2   7.787004113197327E-1  -6.072362661361694E-1   7.782808542251587E-1  -6.070134043693543E-1   6.929640471935272E-2   9.185922145843506E-2  
 3.628000000000000E7     6.929505616426468E-2   8.818550407886505E-2   7.773400545120239E-1  -6.089538931846619E-1   7.774027585983276E-1  -6.087567806243897E-1   6.888346374034882E-2   8.999370038509369E-2  
 3.630000000000000E7     6.817086040973663E-2   8.695493638515472E-2   7.766655087471008E-1  -6.107120513916016E-1   7.761884927749634E-1  -6.101018786430359E-1   6.868325173854828E-2   8.868293464183807E-2  
 3.632000000000000E7     6.685972958803177E-2   8.512540161609650E-2   7.752780318260193E-1  -6.127061247825623E-1   7.749872803688049E-1  -6.115329265594482E-1   6.741338968276978E-2   8.741790056228638E-2  
 3.634000000000000E7     6.662554293870926E-2   8.422040939331055E-2   7.744845747947693E-1  -6.138731837272644E-1   7.739117145538330E-1  -6.134239435195923E-1   6.706769764423370E-2   8.680703490972519E-2  
 3.636000000000000E7     6.547665596008301E-2   8.319301903247833E-2   7.730768918991089E-1  -6.156141757965088E-1   7.729715108871460E-1  -6.150571107864380E-1   6.614140421152115E-2   8.477802574634552E-2  
 3.638000000000000E7     6.574130058288574E-2   8.119720220565796E-2   7.721666693687439E-1  -6.173633933067322E-1   7.721087336540222E-1  -6.167584657669067E-1   6.467370688915253E-2   8.417596668004990E-2  
 3.640000000000000E7     6.413719803094864E-2   8.022083342075348E-2   7.713693380355835E-1  -6.190324425697327E-1   7.707014083862305E-1  -6.182242631912231E-1   6.444125622510910E-2   8.216207474470139E-2  
 3.642000000000000E7     6.447678059339523E-2   7.919155061244965E-2   7.703250050544739E-1  -6.204094886779785E-1   7.695829272270203E-1  -6.200346350669861E-1   6.285689771175385E-2   8.065648376941681E-2  
 3.644000000000000E7     6.275395303964615E-2   7.748010754585266E-2   7.690183520317078E-1  -6.224571466445923E-1   7.687262296676636E-1  -6.213101148605347E-1   6.271162629127502E-2   7.928100228309631E-2  
 3.646000000000000E7     6.240815669298172E-2   7.645209133625031E-2   7.679134607315064E-1  -6.237779259681702E-1   7.674864530563355E-1  -6.232168078422546E-1   6.205201894044876E-2   7.876975089311600E-2  
 3.648000000000000E7     6.086710467934609E-2   7.539890706539154E-2   7.666310071945190E-1  -6.252511739730835E-1   7.662598490715027E-1  -6.249682903289795E-1   6.084805727005005E-2   7.704447209835053E-2  
 3.650000000000000E7     5.997929349541664E-2   7.411104440689087E-2   7.654818892478943E-1  -6.271265149116516E-1   7.650412321090698E-1  -6.263158321380615E-1   6.046572700142860E-2   7.536745816469193E-2  
 3.652000000000000E7     5.988644436001778E-2   7.259459048509598E-2   7.643229365348816E-1  -6.285799145698547E-1   7.642190456390381E-1  -6.282060146331787E-1   5.970635265111923E-2   7.390043139457703E-2  
 3.654000000000000E7     5.897087231278420E-2   7.145579159259796E-2   7.630336880683899E-1  -6.299960613250732E-1   7.630617618560791E-1  -6.299200654029846E-1   5.927057564258575E-2   7.292158901691437E-2  
 3.656000000000000E7     5.815924331545830E-2   7.015345990657806E-2   7.617722153663635E-1  -6.316969990730286E-1   7.619451284408569E-1  -6.315944194793701E-1   5.691851675510407E-2   7.110886275768280E-2  
 3.658000000000000E7     5.735914036631584E-2   6.881733983755112E-2   7.609165310859680E-1  -6.332280635833740E-1   7.603501081466675E-1  -6.329565644264221E-1   5.635075271129608E-2   7.048635184764862E-2  
 3.660000000000000E7     5.630696564912796E-2   6.642529368400574E-2   7.597079873085022E-1  -6.349874138832092E-1   7.594039440155029E-1  -6.346334815025330E-1   5.570298805832863E-2   6.975521147251129E-2  
 3.662000000000000E7     5.510120466351509E-2   6.589040160179138E-2   7.586923241615295E-1  -6.366328597068787E-1   7.580530047416687E-1  -6.362752318382263E-1   5.532319098711014E-2   6.790128350257874E-2  
 3.664000000000000E7     5.431549251079559E-2   6.461465358734131E-2   7.575014233589172E-1  -6.381530761718750E-1   7.569812536239624E-1  -6.377630233764648E-1   5.418107658624649E-2   6.693504750728607E-2  
 3.666000000000000E7     5.311675369739533E-2   6.345530599355698E-2   7.561743855476379E-1  -6.399564743041992E-1   7.560601830482483E-1  -6.391107439994812E-1   5.356875061988831E-2   6.486722826957703E-2  
 3.668000000000000E7     5.264713242650032E-2   6.236626952886581E-2   7.548915743827820E-1  -6.416631340980530E-1   7.549825906753540E-1  -6.407151818275452E-1   5.246092006564140E-2   6.406235694885254E-2  
 3.670000000000000E7     5.249975621700287E-2   6.076343357563019E-2   7.534627318382263E-1  -6.429041028022766E-1   7.538602352142334E-1  -6.425182223320007E-1   5.040086060762405E-2   6.250263750553131E-2  
 3.672000000000000E7     5.123712494969368E-2   5.926467478275299E-2   7.526887059211731E-1  -6.445280313491821E-1   7.525168657302856E-1  -6.440705657005310E-1   5.045883357524872E-2   6.160153448581696E-2  
 3.674000000000000E7     5.008929222822189E-2   5.817347764968872E-2   7.512577772140503E-1  -6.461787223815918E-1   7.511834502220154E-1  -6.453840732574463E-1   4.994121193885803E-2   6.065957993268967E-2  
 3.676000000000000E7     4.934026300907135E-2   5.745320022106171E-2   7.498581409454346E-1  -6.473145484924316E-1   7.500815987586975E-1  -6.472732424736023E-1   4.867484793066979E-2   5.944882333278656E-2  
 3.678000000000000E7     4.782205075025559E-2   5.584871768951416E-2   7.488295435905457E-1  -6.494745612144470E-1   7.489595413208008E-1  -6.486728787422180E-1   4.767854511737824E-2   5.816340446472168E-2  
 3.680000000000000E7     4.718123376369476E-2   5.416679382324219E-2   7.476745247840881E-1  -6.507433652877808E-1   7.476564645767212E-1  -6.503308415412903E-1   4.781334847211838E-2   5.701185762882233E-2  
 3.682000000000000E7     4.684022068977356E-2   5.344894528388977E-2   7.465572357177734E-1  -6.523023843765259E-1   7.464044690132141E-1  -6.519519090652466E-1   4.497168585658073E-2   5.552254617214203E-2  
 3.684000000000000E7     4.566679149866104E-2   5.214583873748779E-2   7.453780770301819E-1  -6.539968252182007E-1   7.450060844421387E-1  -6.534045934677124E-1   4.495353996753693E-2   5.401992797851563E-2  
 3.686000000000000E7     4.498376697301865E-2   5.071233212947846E-2   7.439391016960144E-1  -6.556239128112793E-1   7.439940571784973E-1  -6.551298499107361E-1   4.489309340715408E-2   5.333493649959564E-2  
 3.688000000000000E7     4.419443756341934E-2   4.979810118675232E-2   7.430295348167419E-1  -6.571191549301148E-1   7.424464821815491E-1  -6.569734811782837E-1   4.329509660601616E-2   5.137930810451508E-2  
 3.690000000000000E7     4.297692701220512E-2   4.794132709503174E-2   7.415370941162109E-1  -6.585037708282471E-1   7.413186430931091E-1  -6.582555174827576E-1   4.281486570835114E-2   5.034924298524857E-2  
 3.692000000000000E7     4.169590026140213E-2   4.725827276706696E-2   7.404248714447022E-1  -6.602123975753784E-1   7.401184439659119E-1  -6.597435474395752E-1   4.213968664407730E-2   4.921360313892365E-2  
 3.694000000000000E7     4.073687642812729E-2   4.589331895112991E-2   7.390906810760498E-1  -6.617557406425476E-1   7.391939759254456E-1  -6.612066030502319E-1   4.098667949438095E-2   4.762995243072510E-2  
 3.696000000000000E7     4.008713737130165E-2   4.452191293239594E-2   7.376820445060730E-1  -6.633110046386719E-1   7.379044890403748E-1  -6.629603505134583E-1   3.995625674724579E-2   4.645064473152161E-2  
 3.698000000000000E7     3.932689130306244E-2   4.261122643947601E-2   7.366468906402588E-1  -6.648633480072022E-1   7.364521622657776E-1  -6.644155979156494E-1   3.873914480209351E-2   4.610435664653778E-2  
 3.700000000000000E7     3.833634406328201E-2   4.220984876155853E-2   7.351902127265930E-1  -6.661824584007263E-1   7.349335551261902E-1  -6.661342978477478E-1   3.757129609584808E-2   4.475595802068710E-2  
 3.702000000000000E7     3.700688481330872E-2   4.085665196180344E-2   7.340259552001953E-1  -6.680483818054199E-1   7.340034246444702E-1  -6.673554778099060E-1   3.718105703592300E-2   4.290481656789780E-2  
 3.704000000000000E7     3.541273251175880E-2   4.010263085365295E-2   7.327748537063599E-1  -6.695894598960877E-1   7.326071858406067E-1  -6.688968539237976E-1   3.643143177032471E-2   4.228132963180542E-2  
 3.706000000000000E7     3.522164374589920E-2   3.843410313129425E-2   7.315093278884888E-1  -6.707457900047302E-1   7.315422296524048E-1  -6.706224083900452E-1   3.503620624542236E-2   4.096997529268265E-2  
 3.708000000000000E7     3.459847345948219E-2   3.733067959547043E-2   7.303223013877869E-1  -6.722269058227539E-1   7.298027276992798E-1  -6.723830699920654E-1   3.405966609716415E-2   3.921073675155640E-2  
 3.710000000000000E7     3.238995000720024E-2   3.572669625282288E-2   7.289288043975830E-1  -6.742127537727356E-1   7.287079095840454E-1  -6.734578609466553E-1   3.309019654989243E-2   3.819237649440765E-2  
 3.712000000000000E7     3.202574327588081E-2   3.540238738059998E-2   7.275072932243347E-1  -6.755973100662231E-1   7.273988127708435E-1  -6.749913692474365E-1   3.181125968694687E-2   3.704322874546051E-2  
 3.714000000000000E7     3.055717796087265E-2   3.355696052312851E-2   7.263699769973755E-1  -6.772100925445557E-1   7.260670065879822E-1  -6.762740612030029E-1   3.145035728812218E-2   3.624061495065689E-2  
 3.716000000000000E7     3.002059645950794E-2   3.195197135210037E-2   7.250012159347534E-1  -6.788104772567749E-1   7.248391509056091E-1  -6.779503822326660E-1   2.998535707592964E-2   3.522944450378418E-2  
 3.718000000000000E7     2.932193316519260E-2   3.210135549306870E-2   7.234041690826416E-1  -6.800368428230286E-1   7.235150933265686E-1  -6.797420978546143E-1   2.946643158793449E-2   3.301592171192169E-2  
 3.720000000000000E7     2.823157235980034E-2   2.992452681064606E-2   7.225133776664734E-1  -6.815245747566223E-1   7.218953371047974E-1  -6.812882423400879E-1   2.805487439036369E-2   3.225526213645935E-2  
 3.722000000000000E7     2.759988419711590E-2   2.834515273571014E-2   7.210883498191834E-1  -6.831793785095215E-1   7.207955121994019E-1  -6.824005842208862E-1   2.679554745554924E-2   3.142885863780975E-2  
 3.724000000000000E7     2.563817612826824E-2   2.744293212890625E-2   7.194774746894836E-1  -6.845581531524658E-1   7.193807959556580E-1  -6.840233206748962E-1   2.621783688664436E-2   2.986091375350952E-2  
 3.726000000000000E7     2.532907575368881E-2   2.604768425226212E-2   7.183886766433716E-1  -6.860383152961731E-1   7.179800868034363E-1  -6.855684518814087E-1   2.524230070412159E-2   2.942120283842087E-2  
 3.728000000000000E7     2.450637146830559E-2   2.603955566883087E-2   7.166946530342102E-1  -6.874108910560608E-1   7.171081304550171E-1  -6.870582699775696E-1   2.437127754092217E-2   2.785979211330414E-2  
 3.730000000000000E7     2.286903560161591E-2   2.510281652212143E-2   7.155477404594421E-1  -6.890066862106323E-1   7.157031893730164E-1  -6.883263587951660E-1   2.318293228745461E-2   2.646090835332871E-2  
 3.732000000000000E7     2.186779119074345E-2   2.350746095180512E-2   7.140849232673645E-1  -6.903291344642639E-1   7.146117687225342E-1  -6.902372241020203E-1   2.203256636857987E-2   2.533098310232163E-2  
 3.734000000000000E7     2.087488956749439E-2   2.216959744691849E-2   7.127044796943665E-1  -6.918292641639710E-1   7.130050659179688E-1  -6.915059089660645E-1   1.986616477370262E-2   2.427165210247040E-2  
 3.736000000000000E7     1.970990002155304E-2   2.106896787881851E-2   7.117142081260681E-1  -6.937930583953857E-1   7.113232612609863E-1  -6.926899552345276E-1   2.067355811595917E-2   2.408081293106079E-2  
 3.738000000000000E7     1.866687834262848E-2   1.924656331539154E-2   7.103770971298218E-1  -6.947186589241028E-1   7.102901935577393E-1  -6.942601799964905E-1   1.869265735149384E-2   2.195078134536743E-2  
 3.740000000000000E7     1.724972017109394E-2   1.798637956380844E-2   7.089582681655884E-1  -6.962486505508423E-1   7.085710167884827E-1  -6.958485245704651E-1   1.849917508661747E-2   2.146636694669724E-2  
 3.742000000000000E7     1.739130727946758E-2   1.705949753522873E-2   7.076490521430969E-1  -6.976180076599121E-1   7.072204351425171E-1  -6.973912715911865E-1   1.705167442560196E-2   2.001135051250458E-2  
 3.744000000000000E7     1.513968408107758E-2   1.620929688215256E-2   7.058207392692566E-1  -6.990049481391907E-1   7.058839201927185E-1  -6.986707448959351E-1   1.604647003114224E-2   1.888667792081833E-2  
 3.746000000000000E7     1.440139673650265E-2   1.519379019737244E-2   7.047084569931030E-1  -7.006821632385254E-1   7.045755982398987E-1  -7.000938653945923E-1   1.413525827229023E-2   1.765669882297516E-2  
 3.748000000000000E7     1.316310837864876E-2   1.385711878538132E-2   7.031643986701965E-1  -7.018781304359436E-1   7.032586932182312E-1  -7.014102935791016E-1   1.378415152430534E-2   1.621291041374207E-2  
 3.750000000000000E7     1.212869584560394E-2   1.271655410528183E-2   7.018181085586548E-1  -7.032440900802612E-1   7.019208073616028E-1  -7.034448981285095E-1   1.332719065248966E-2   1.480901986360550E-2  
 3.752000000000000E7     1.158128120005131E-2   1.157205551862717E-2   7.003750205039978E-1  -7.048824429512024E-1   7.003743648529053E-1  -7.047238349914551E-1   1.161354035139084E-2   1.378905773162842E-2  
 3.754000000000000E7     1.023375429213047E-2   1.051509380340576E-2   6.990030407905579E-1  -7.064326405525208E-1   6.988922357559204E-1  -7.058728933334351E-1   1.014892011880875E-2   1.233775913715363E-2  
 3.756000000000000E7     9.301641955971718E-3   9.269855916500092E-3   6.974484920501709E-1  -7.076987624168396E-1   6.975119113922119E-1  -7.071906924247742E-1   9.596575051546097E-3   1.117189228534699E-2  
 3.758000000000000E7     8.099839091300964E-3   7.736302912235260E-3   6.962127685546875E-1  -7.091922760009766E-1   6.960040926933289E-1  -7.089070677757263E-1   8.359957486391068E-3   1.090970635414124E-2  
 3.760000000000000E7     7.153037935495377E-3   7.370673120021820E-3   6.946700811386108E-1  -7.105266451835632E-1   6.948153972625732E-1  -7.102448940277100E-1   7.002446800470352E-3   9.386077523231506E-3  
 3.762000000000000E7     5.823345854878426E-3   5.997844040393829E-3   6.930494904518127E-1  -7.120143175125122E-1   6.930190920829773E-1  -7.117663621902466E-1   6.187867373228073E-3   8.491076529026032E-3  
 3.764000000000000E7     4.849977791309357E-3   4.998542368412018E-3   6.917954683303833E-1  -7.132731080055237E-1   6.918234229087830E-1  -7.129809856414795E-1   4.780979827046394E-3   7.591113448143005E-3  
 3.766000000000000E7     3.248609602451325E-3   3.275401890277863E-3   6.905757188796997E-1  -7.148373126983643E-1   6.903805136680603E-1  -7.143860459327698E-1   4.001391120254993E-3   6.510995328426361E-3  
 3.768000000000000E7     2.246901392936707E-3   2.188920974731445E-3   6.891486048698425E-1  -7.164087891578674E-1   6.887747645378113E-1  -7.155327796936035E-1   3.438580781221390E-3   4.655048251152039E-3  
 3.770000000000000E7     1.019420102238655E-3   1.424826681613922E-3   6.875022053718567E-1  -7.176177501678467E-1   6.875364184379578E-1  -7.171555161476135E-1   8.910633623600006E-4   3.497064113616943E-3  
 3.772000000000000E7     1.194439973914996E-4  -8.173276000889018E-6   6.862618327140808E-1  -7.191783189773560E-1   6.862515211105347E-1  -7.185397744178772E-1   3.943517804145813E-4   3.373667597770691E-3  
 3.774000000000000E7    -1.482401043176651E-3  -6.716325879096985E-4   6.846880316734314E-1  -7.205619812011719E-1   6.847139000892639E-1  -7.199041247367859E-1  -8.857659995555878E-4   1.425109803676605E-3  
 3.776000000000000E7    -1.605466008186340E-3  -1.611851155757904E-3   6.833398938179016E-1  -7.217335104942322E-1   6.832784414291382E-1  -7.214127182960510E-1  -1.365038566291332E-3   9.570568799972534E-4  
 3.778000000000000E7    -3.535153344273567E-3  -2.801738679409027E-3   6.815894842147827E-1  -7.232735157012940E-1   6.815873384475708E-1  -7.228240370750427E-1  -3.282631747424603E-3  -1.782923209248111E-5  
 3.780000000000000E7    -4.379352554678917E-3  -4.226468503475189E-3   6.803262233734131E-1  -7.247132062911987E-1   6.801586151123047E-1  -7.241038084030151E-1  -3.671699203550816E-3  -2.123415470123291E-3  
 3.782000000000000E7    -5.635906010866165E-3  -5.267016589641571E-3   6.789399385452271E-1  -7.259257435798645E-1   6.788325905799866E-1  -7.254047393798828E-1  -5.817791447043419E-3  -2.601779997348785E-3  
 3.784000000000000E7    -7.295174524188042E-3  -6.657116115093231E-3   6.772781610488892E-1  -7.271245121955872E-1   6.770098209381104E-1  -7.269544005393982E-1  -6.567681208252907E-3  -3.910362720489502E-3  
 3.786000000000000E7    -7.914771325886250E-3  -7.114849984645844E-3   6.759074926376343E-1  -7.288164496421814E-1   6.755654811859131E-1  -7.282248139381409E-1  -7.409682497382164E-3  -4.721686244010925E-3  
 3.788000000000000E7    -9.659420698881149E-3  -8.985772728919983E-3   6.745859384536743E-1  -7.299883365631104E-1   6.740757822990418E-1  -7.294456362724304E-1  -8.656462654471397E-3  -5.616866052150726E-3  
 3.790000000000000E7    -1.039294619113207E-2  -9.653344750404358E-3   6.725777387619019E-1  -7.313799262046814E-1   6.727582216262817E-1  -7.310807108879089E-1  -9.945735335350037E-3  -7.124915719032288E-3  
 3.792000000000000E7    -1.112520601600409E-2  -1.016543060541153E-2   6.711844205856323E-1  -7.324818968772888E-1   6.714012026786804E-1  -7.322452664375305E-1  -1.170594058930874E-2  -7.747076451778412E-3  
 3.794000000000000E7    -1.250676065683365E-2  -1.190584897994995E-2   6.696969270706177E-1  -7.338235378265381E-1   6.696989536285400E-1  -7.338958978652954E-1  -1.293681096285582E-2  -8.970052003860474E-3  
 3.796000000000000E7    -1.417998131364584E-2  -1.212001591920853E-2   6.684415936470032E-1  -7.355402112007141E-1   6.682960391044617E-1  -7.348235249519348E-1  -1.381432544440031E-2  -8.532501757144928E-3  
 3.798000000000000E7    -1.533854473382235E-2  -1.402989029884338E-2   6.670169234275818E-1  -7.368147373199463E-1   6.667100191116333E-1  -7.363107204437256E-1  -1.475815661251545E-2  -9.685628116130829E-3  
 3.800000000000000E7    -1.672036200761795E-2  -1.508813351392746E-2   6.651961803436279E-1  -7.377582192420960E-1   6.651826500892639E-1  -7.377431988716126E-1  -1.564143411815167E-2  -1.134543120861054E-2  
 3.802000000000000E7    -1.781493052840233E-2  -1.521741598844528E-2   6.637588739395142E-1  -7.396123409271240E-1   6.636977195739746E-1  -7.386855483055115E-1  -1.737932488322258E-2  -1.214479655027390E-2  
 3.804000000000000E7    -1.853086426854134E-2  -1.655855029821396E-2   6.620692014694214E-1  -7.406155467033386E-1   6.622272729873657E-1  -7.401655912399292E-1  -1.724067330360413E-2  -1.337619125843048E-2  
 3.806000000000000E7    -2.014584094285965E-2  -1.792270690202713E-2   6.608351469039917E-1  -7.417693734169006E-1   6.605798006057739E-1  -7.415587902069092E-1  -1.931476779282093E-2  -1.439692825078964E-2  
 3.808000000000000E7    -2.127351239323616E-2  -1.825723797082901E-2   6.591237783432007E-1  -7.432197332382202E-1   6.591942906379700E-1  -7.428567409515381E-1  -2.100447379052639E-2  -1.599176228046417E-2  
 3.810000000000000E7    -2.310781739652157E-2  -1.905383169651032E-2   6.576122045516968E-1  -7.443348169326782E-1   6.575585603713989E-1  -7.440866827964783E-1  -2.248346246778965E-2  -1.733273267745972E-2  
 3.812000000000000E7    -2.456427924335003E-2  -2.009627223014832E-2   6.560366153717041E-1  -7.458255887031555E-1   6.561508774757385E-1  -7.451672554016113E-1  -2.352738380432129E-2  -1.819267123937607E-2  
 3.814000000000000E7    -2.527578547596932E-2  -2.132229506969452E-2   6.545875072479248E-1  -7.473055720329285E-1   6.544985175132752E-1  -7.467052936553955E-1  -2.437152341008186E-2  -1.823277771472931E-2  
 3.816000000000000E7    -2.630493231117725E-2  -2.313966304063797E-2   6.531078219413757E-1  -7.483296394348145E-1   6.526690721511841E-1  -7.478240728378296E-1  -2.612095698714256E-2  -1.925213634967804E-2  
 3.818000000000000E7    -2.764577232301235E-2  -2.360790222883225E-2   6.513129472732544E-1  -7.498559355735779E-1   6.512926816940308E-1  -7.488691210746765E-1  -2.739852853119373E-2  -2.106328308582306E-2  
 3.820000000000000E7    -2.892747521400452E-2  -2.498955279588699E-2   6.500142812728882E-1  -7.510838508605957E-1   6.495636105537415E-1  -7.502051591873169E-1  -2.913950383663178E-2  -2.210623770952225E-2  
 3.822000000000000E7    -2.959164232015610E-2  -2.513074874877930E-2   6.482374668121338E-1  -7.522669434547424E-1   6.479315161705017E-1  -7.518348693847656E-1  -2.925231307744980E-2  -2.287821471691132E-2  
 3.824000000000000E7    -3.151556104421616E-2  -2.699369192123413E-2   6.467097401618958E-1  -7.537378668785095E-1   6.465169191360474E-1  -7.531006932258606E-1  -3.069081157445908E-2  -2.372325956821442E-2  
 3.826000000000000E7    -3.245583921670914E-2  -2.721223235130310E-2   6.449778079986572E-1  -7.548326849937439E-1   6.450853943824768E-1  -7.542529702186585E-1  -3.157837688922882E-2  -2.475326508283615E-2  
 3.828000000000000E7    -3.415857627987862E-2  -2.810019999742508E-2   6.437087655067444E-1  -7.557912468910217E-1   6.433264017105103E-1  -7.559250593185425E-1  -3.314839303493500E-2  -2.515973895788193E-2  
 3.830000000000000E7    -3.503607958555222E-2  -2.994028478860855E-2   6.415661573410034E-1  -7.572732567787170E-1   6.418230533599854E-1  -7.569011449813843E-1  -3.489693254232407E-2  -2.675310894846916E-2  
 3.832000000000000E7    -3.620798140764237E-2  -3.022262081503868E-2   6.402822136878967E-1  -7.587810754776001E-1   6.400895714759827E-1  -7.577958703041077E-1  -3.573657944798470E-2  -2.717686071991921E-2  
 3.834000000000000E7    -3.860359638929367E-2  -3.130320459604263E-2   6.386402249336243E-1  -7.596230506896973E-1   6.387736797332764E-1  -7.597079873085022E-1  -3.759031742811203E-2  -2.856130152940750E-2  
 3.836000000000000E7    -3.861998766660690E-2  -3.212330862879753E-2   6.373610496520996E-1  -7.610741257667542E-1   6.368005275726318E-1  -7.607376575469971E-1  -3.810098022222519E-2  -2.965417504310608E-2  
 3.838000000000000E7    -4.011013731360436E-2  -3.270528465509415E-2   6.355624198913574E-1  -7.621015906333923E-1   6.354017257690430E-1  -7.617735862731934E-1  -3.945057839155197E-2  -3.022985532879829E-2  
 3.840000000000000E7    -4.163056984543800E-2  -3.413128107786179E-2   6.342540383338928E-1  -7.633633613586426E-1   6.337824463844299E-1  -7.631052136421204E-1  -4.085868969559670E-2  -3.108698502182961E-2  
 3.842000000000000E7    -4.347573593258858E-2  -3.550046682357788E-2   6.322475075721741E-1  -7.646760940551758E-1   6.324087381362915E-1  -7.642086148262024E-1  -4.222737625241280E-2  -3.202469274401665E-2  
 3.844000000000000E7    -4.407331347465515E-2  -3.524574637413025E-2   6.307614445686340E-1  -7.659752368927002E-1   6.306994557380676E-1  -7.653450369834900E-1  -4.398953914642334E-2  -3.283077478408814E-2  
 3.846000000000000E7    -4.516435787081718E-2  -3.730089962482452E-2   6.293516159057617E-1  -7.669069766998291E-1   6.291456818580627E-1  -7.669129967689514E-1  -4.442540928721428E-2  -3.393755480647087E-2  
 3.848000000000000E7    -4.690639302134514E-2  -3.774808719754219E-2   6.278674006462097E-1  -7.683329582214356E-1   6.274498701095581E-1  -7.678907513618469E-1  -4.642523825168610E-2  -3.449277579784393E-2  
 3.850000000000000E7    -4.789951443672180E-2  -3.874193504452705E-2   6.262345910072327E-1  -7.694547772407532E-1   6.253691911697388E-1  -7.694262266159058E-1  -4.689246788620949E-2  -3.499043732881546E-2  
 3.852000000000000E7    -4.936310648918152E-2  -3.945903480052948E-2   6.238406300544739E-1  -7.708224654197693E-1   6.245356202125549E-1  -7.699048519134522E-1  -4.892000928521156E-2  -3.632609918713570E-2  
 3.854000000000000E7    -5.099426209926605E-2  -4.065636172890663E-2   6.225393414497376E-1  -7.720084786415100E-1   6.223925948143005E-1  -7.715976238250732E-1  -4.990939050912857E-2  -3.746718540787697E-2  
 3.856000000000000E7    -5.197565630078316E-2  -4.173913225531578E-2   6.210206747055054E-1  -7.729182243347168E-1   6.208664774894714E-1  -7.729149460792542E-1  -5.118759721517563E-2  -3.824576735496521E-2  
 3.858000000000000E7    -5.294558033347130E-2  -4.241918027400971E-2   6.194109916687012E-1  -7.743588089942932E-1   6.190539598464966E-1  -7.740904092788696E-1  -5.309421941637993E-2  -3.970331698656082E-2  
 3.860000000000000E7    -5.443642288446426E-2  -4.321352019906044E-2   6.174237132072449E-1  -7.755575776100159E-1   6.177748441696167E-1  -7.752721905708313E-1  -5.352646484971046E-2  -3.967838734388351E-2  
 3.862000000000000E7    -5.563591048121452E-2  -4.463275521993637E-2   6.160822510719299E-1  -7.764404416084290E-1   6.158106923103333E-1  -7.762631773948669E-1  -5.480627343058586E-2  -4.060778021812439E-2  
 3.864000000000000E7    -5.693955719470978E-2  -4.531623795628548E-2   6.144940257072449E-1  -7.775970697402954E-1   6.141592264175415E-1  -7.775658369064331E-1  -5.636384338140488E-2  -4.193639382719994E-2  
 3.866000000000000E7    -5.843313038349152E-2  -4.551472142338753E-2   6.127486824989319E-1  -7.790259718894959E-1   6.125096082687378E-1  -7.783145904541016E-1  -5.790305510163307E-2  -4.252244159579277E-2  
 3.868000000000000E7    -5.953906103968620E-2  -4.701748490333557E-2   6.111260056495667E-1  -7.800234556198120E-1   6.106861829757690E-1  -7.795046567916870E-1  -5.962761119008064E-2  -4.360092431306839E-2  
 3.870000000000000E7    -6.108091771602631E-2  -4.732341691851616E-2   6.093767285346985E-1  -7.812834978103638E-1   6.092515587806702E-1  -7.809587717056274E-1  -5.981120094656944E-2  -4.427848011255264E-2  
 3.872000000000000E7    -6.299989670515060E-2  -4.820195585489273E-2   6.074662208557129E-1  -7.823529839515686E-1   6.077343225479126E-1  -7.820842266082764E-1  -6.160650774836540E-2  -4.529950395226479E-2  
 3.874000000000000E7    -6.405372917652130E-2  -4.944423213601112E-2   6.056946516036987E-1  -7.835409045219421E-1   6.059794425964356E-1  -7.829099297523499E-1  -6.339201331138611E-2  -4.606293514370918E-2  
 3.876000000000000E7    -6.543906033039093E-2  -5.004080384969711E-2   6.041375398635864E-1  -7.848359942436218E-1   6.040692329406738E-1  -7.843391895294190E-1  -6.425596028566361E-2  -4.688719660043716E-2  
 3.878000000000000E7    -6.612425297498703E-2  -5.118508636951447E-2   6.026132702827454E-1  -7.860098481178284E-1   6.023193597793579E-1  -7.855639457702637E-1  -6.540954113006592E-2  -4.775762557983398E-2  
 3.880000000000000E7    -6.788164377212524E-2  -5.126983672380447E-2   6.008135080337524E-1  -7.868785858154297E-1   6.008822321891785E-1  -7.865536212921143E-1  -6.686389446258545E-2  -4.829518869519234E-2  
 3.882000000000000E7    -7.003706693649292E-2  -5.265814810991287E-2   5.991525650024414E-1  -7.880902290344238E-1   5.989482998847961E-1  -7.878536581993103E-1  -6.865008175373077E-2  -4.939706623554230E-2  
 3.884000000000000E7    -7.065790146589279E-2  -5.350371450185776E-2   5.975398421287537E-1  -7.889550328254700E-1   5.974098443984985E-1  -7.887342572212219E-1  -7.062126696109772E-2  -5.063316598534584E-2  
 3.886000000000000E7    -7.254266738891602E-2  -5.389069020748138E-2   5.957409739494324E-1  -7.901620864868164E-1   5.959182977676392E-1  -7.898094654083252E-1  -7.128832489252091E-2  -5.092133209109306E-2  
 3.888000000000000E7    -7.365705072879791E-2  -5.474587902426720E-2   5.940592885017395E-1  -7.911165356636047E-1   5.942373871803284E-1  -7.909440994262695E-1  -7.289224863052368E-2  -5.168027803301811E-2  
 3.890000000000000E7    -7.454920560121536E-2  -5.646288394927979E-2   5.922667384147644E-1  -7.921087741851807E-1   5.921075940132141E-1  -7.922622561454773E-1  -7.433414459228516E-2  -5.302902311086655E-2  
 3.892000000000000E7    -7.649736106395721E-2  -5.673365294933319E-2   5.906789302825928E-1  -7.933176755905151E-1   5.906061530113220E-1  -7.933228015899658E-1  -7.522167265415192E-2  -5.343216285109520E-2  
 3.894000000000000E7    -7.767978310585022E-2  -5.720656737685204E-2   5.890662670135498E-1  -7.946430444717407E-1   5.889297127723694E-1  -7.940433621406555E-1  -7.676718384027481E-2  -5.396767705678940E-2  
 3.896000000000000E7    -7.910709828138351E-2  -5.842525511980057E-2   5.873417258262634E-1  -7.954046130180359E-1   5.869261622428894E-1  -7.955064177513123E-1  -7.838594913482666E-2  -5.489197745919228E-2  
 3.898000000000000E7    -8.016391843557358E-2  -5.910436064004898E-2   5.854964852333069E-1  -7.967513799667358E-1   5.857514142990112E-1  -7.965509295463562E-1  -7.931777834892273E-2  -5.523023009300232E-2  
 3.900000000000000E7    -8.269736170768738E-2  -5.954401195049286E-2   5.840208530426025E-1  -7.979382872581482E-1   5.838416814804077E-1  -7.973161339759827E-1  -8.118309080600739E-2  -5.615860223770142E-2  
 3.902000000000000E7    -8.380542695522308E-2  -6.032606959342957E-2   5.821301937103272E-1  -7.986856102943420E-1   5.820036530494690E-1  -7.983620762825012E-1  -8.233800530433655E-2  -5.735111981630325E-2  
 3.904000000000000E7    -8.480920642614365E-2  -6.200996786355972E-2   5.801552534103394E-1  -7.997675538063049E-1   5.804533362388611E-1  -7.995746731758118E-1  -8.434120565652847E-2  -5.777659267187119E-2  
 3.906000000000000E7    -8.646433055400848E-2  -6.151170656085014E-2   5.786812305450440E-1  -8.007245063781738E-1   5.785726308822632E-1  -8.007087707519531E-1  -8.576596528291702E-2  -5.806770175695419E-2  
 3.908000000000000E7    -8.779215812683106E-2  -6.228788942098618E-2   5.767870545387268E-1  -8.019760251045227E-1   5.769465565681458E-1  -8.015140295028687E-1  -8.646422624588013E-2  -5.996436625719070E-2  
 3.910000000000000E7    -8.817265927791596E-2  -6.325184553861618E-2   5.752039551734924E-1  -8.032467961311340E-1   5.750249028205872E-1  -8.027446269989014E-1  -8.846873044967651E-2  -5.978954210877419E-2  
 3.912000000000000E7    -9.047807008028030E-2  -6.379827857017517E-2   5.735133886337280E-1  -8.039935827255249E-1   5.731959342956543E-1  -8.036032915115356E-1  -8.966647833585739E-2  -6.163755059242249E-2  
 3.914000000000000E7    -9.163442999124527E-2  -6.572411954402924E-2   5.715402364730835E-1  -8.051887750625610E-1   5.715296268463135E-1  -8.046761751174927E-1  -9.109310060739517E-2  -6.162699311971664E-2  
 3.916000000000000E7    -9.323869645595551E-2  -6.650082021951675E-2   5.697812438011169E-1  -8.060016036033630E-1   5.697177052497864E-1  -8.056796193122864E-1  -9.251865744590759E-2  -6.221936270594597E-2  
 3.918000000000000E7    -9.513459354639053E-2  -6.585587561130524E-2   5.681318044662476E-1  -8.069527745246887E-1   5.679915547370911E-1  -8.065565228462219E-1  -9.392074495553970E-2  -6.340709328651428E-2  
 3.920000000000000E7    -9.508258104324341E-2  -6.726972013711929E-2   5.663028359413147E-1  -8.083387613296509E-1   5.663890838623047E-1  -8.078516125679016E-1  -9.462273120880127E-2  -6.388196349143982E-2  
 3.922000000000000E7    -9.781017899513245E-2  -6.734745949506760E-2   5.645077824592590E-1  -8.089971542358398E-1   5.645976066589356E-1  -8.086277842521668E-1  -9.669560194015503E-2  -6.492336094379425E-2  
 3.924000000000000E7    -9.920900315046310E-2  -6.755121797323227E-2   5.628874897956848E-1  -8.101280927658081E-1   5.629090070724487E-1  -8.096129894256592E-1  -9.824424982070923E-2  -6.492051482200623E-2  
 3.926000000000000E7    -1.005732938647270E-1  -6.951125711202622E-2   5.610091090202332E-1  -8.108569979667664E-1   5.608636736869812E-1  -8.105622529983521E-1  -9.950019419193268E-2  -6.633526086807251E-2  
 3.928000000000000E7    -1.015917956829071E-1  -7.002732157707214E-2   5.592374205589294E-1  -8.118895292282105E-1   5.591210722923279E-1  -8.117349147796631E-1  -1.008460819721222E-1  -6.644938141107559E-2  
 3.930000000000000E7    -1.031250506639481E-1  -7.079349458217621E-2   5.574396252632141E-1  -8.126920461654663E-1   5.574440956115723E-1  -8.125457167625427E-1  -1.029784604907036E-1  -6.734152138233185E-2  
 3.932000000000000E7    -1.040116995573044E-1  -7.108204066753388E-2   5.560625791549683E-1  -8.139353990554810E-1   5.557372570037842E-1  -8.137119412422180E-1  -1.037721112370491E-1  -6.780583411455154E-2  
 3.934000000000000E7    -1.064160093665123E-1  -7.260063290596008E-2   5.537657141685486E-1  -8.149087429046631E-1   5.537747144699097E-1  -8.147475123405457E-1  -1.047303527593613E-1  -6.881519407033920E-2  
 3.936000000000000E7    -1.077825874090195E-1  -7.218632102012634E-2   5.524384975433350E-1  -8.160211443901062E-1   5.521466135978699E-1  -8.155167102813721E-1  -1.064535602927208E-1  -6.859935820102692E-2  
 3.938000000000000E7    -1.096247881650925E-1  -7.276391983032227E-2   5.504974126815796E-1  -8.167236447334290E-1   5.499815344810486E-1  -8.166579008102417E-1  -1.077451854944229E-1  -7.081523537635803E-2  
 3.940000000000000E7    -1.101233661174774E-1  -7.358716428279877E-2   5.488349199295044E-1  -8.176869153976440E-1   5.483367443084717E-1  -8.177845478057861E-1  -1.091425269842148E-1  -7.088804244995117E-2  
 3.942000000000000E7    -1.118587106466293E-1  -7.439579814672470E-2   5.468092560768127E-1  -8.189321160316467E-1   5.470976233482361E-1  -8.184608817100525E-1  -1.108273863792419E-1  -7.145384699106216E-2  
 3.944000000000000E7    -1.137320101261139E-1  -7.491823285818100E-2   5.450243353843689E-1  -8.199972510337830E-1   5.451868176460266E-1  -8.192422389984131E-1  -1.121076568961144E-1  -7.212470471858978E-2  
 3.946000000000000E7    -1.152334362268448E-1  -7.575650513172150E-2   5.430434942245483E-1  -8.206686377525330E-1   5.430603027343750E-1  -8.201309442520142E-1  -1.135139465332031E-1  -7.304301112890244E-2  
 3.948000000000000E7    -1.162453442811966E-1  -7.626729458570480E-2   5.413380861282349E-1  -8.217369914054871E-1   5.414113402366638E-1  -8.213908076286316E-1  -1.154527142643929E-1  -7.281341403722763E-2  
 3.950000000000000E7    -1.178216412663460E-1  -7.675745338201523E-2   5.395610332489014E-1  -8.226436972618103E-1   5.394997000694275E-1  -8.221433758735657E-1  -1.170235872268677E-1  -7.371180504560471E-2  
 3.952000000000000E7    -1.191693991422653E-1  -7.726670056581497E-2   5.378578305244446E-1  -8.238260746002197E-1   5.379686951637268E-1  -8.228071331977844E-1  -1.185748279094696E-1  -7.418432831764221E-2  
 3.954000000000000E7    -1.206849068403244E-1  -7.798226177692413E-2   5.362032055854797E-1  -8.241733908653259E-1   5.359356999397278E-1  -8.238716721534729E-1  -1.203800886869431E-1  -7.460732012987137E-2  
 3.956000000000000E7    -1.220885813236237E-1  -7.914555817842484E-2   5.343130826950073E-1  -8.255225419998169E-1   5.340167880058289E-1  -8.247237801551819E-1  -1.211690083146095E-1  -7.629258185625076E-2  
 3.958000000000000E7    -1.244961619377136E-1  -7.952187955379486E-2   5.326597094535828E-1  -8.261935114860535E-1   5.323430299758911E-1  -8.257071375846863E-1  -1.225862652063370E-1  -7.634288817644119E-2  
 3.960000000000000E7    -1.252926439046860E-1  -7.967641204595566E-2   5.306094288825989E-1  -8.270429372787476E-1   5.304811596870422E-1  -8.263028264045715E-1  -1.246342137455940E-1  -7.690341770648956E-2  
 3.962000000000000E7    -1.276075243949890E-1  -8.118333667516708E-2   5.289138555526733E-1  -8.278260827064514E-1   5.284489393234253E-1  -8.276187777519226E-1  -1.259224712848663E-1  -7.715329527854919E-2  
 3.964000000000000E7    -1.280525624752045E-1  -8.147443085908890E-2   5.269727706909180E-1  -8.286912441253662E-1   5.268810987472534E-1  -8.282397985458374E-1  -1.272829920053482E-1  -7.761597633361816E-2  
 3.966000000000000E7    -1.292281746864319E-1  -8.197581768035889E-2   5.251569151878357E-1  -8.296746015548706E-1   5.250794887542725E-1  -8.293620347976685E-1  -1.284074336290360E-1  -7.787241041660309E-2  
 3.968000000000000E7    -1.314684152603149E-1  -8.276497572660446E-2   5.232895016670227E-1  -8.304582834243774E-1   5.231329202651978E-1  -8.298865556716919E-1  -1.301151514053345E-1  -7.990104705095291E-2  
 3.970000000000000E7    -1.328858733177185E-1  -8.290957659482956E-2   5.213347673416138E-1  -8.313323259353638E-1   5.215389728546143E-1  -8.311110138893127E-1  -1.313415169715881E-1  -7.936170697212219E-2  
 3.972000000000000E7    -1.344292014837265E-1  -8.379915356636047E-2   5.193656682968140E-1  -8.320279717445374E-1   5.195274353027344E-1  -8.315716981887817E-1  -1.336157619953156E-1  -8.015398681163788E-2  
 3.974000000000000E7    -1.358018219470978E-1  -8.466991782188416E-2   5.176223516464233E-1  -8.330302834510803E-1   5.173799991607666E-1  -8.326273560523987E-1  -1.347183138132095E-1  -8.108703792095184E-2  
 3.976000000000000E7    -1.374290734529495E-1  -8.452950417995453E-2   5.158283114433289E-1  -8.339045643806458E-1   5.159469842910767E-1  -8.336433768272400E-1  -1.357177346944809E-1  -8.158807456493378E-2  
 3.978000000000000E7    -1.389014422893524E-1  -8.550710976123810E-2   5.138775706291199E-1  -8.346102237701416E-1   5.141875147819519E-1  -8.341328501701355E-1  -1.376646161079407E-1  -8.139261603355408E-2  
 3.980000000000000E7    -1.406292617321014E-1  -8.584835380315781E-2   5.122570395469666E-1  -8.353837728500366E-1   5.122059583663940E-1  -8.351843357086182E-1  -1.395570933818817E-1  -8.248856663703919E-2  
 3.982000000000000E7    -1.425201147794724E-1  -8.621811866760254E-2   5.101981163024902E-1  -8.363726735115051E-1   5.106852650642395E-1  -8.358966112136841E-1  -1.406866759061813E-1  -8.261738717556000E-2  
 3.984000000000000E7    -1.431565582752228E-1  -8.645694702863693E-2   5.086622834205627E-1  -8.373420238494873E-1   5.082467794418335E-1  -8.368059992790222E-1  -1.419776678085327E-1  -8.406899124383926E-2  
 3.986000000000000E7    -1.444823592901230E-1  -8.713711798191071E-2   5.065512061119080E-1  -8.378899693489075E-1   5.067464709281921E-1  -8.377464413642883E-1  -1.431865990161896E-1  -8.383139967918396E-2  
 3.988000000000000E7    -1.463027298450470E-1  -8.785020560026169E-2   5.052653551101685E-1  -8.384544849395752E-1   5.046055912971497E-1  -8.383210897445679E-1  -1.456161439418793E-1  -8.409062772989273E-2  
 3.990000000000000E7    -1.479800343513489E-1  -8.857156336307526E-2   5.028665065765381E-1  -8.397681117057800E-1   5.027640461921692E-1  -8.393437862396240E-1  -1.461214423179627E-1  -8.528755605220795E-2  
 3.992000000000000E7    -1.492049247026444E-1  -8.889558911323547E-2   5.010868906974793E-1  -8.404197692871094E-1   5.008301138877869E-1  -8.400239944458008E-1  -1.479881703853607E-1  -8.574042469263077E-2  
 3.994000000000000E7    -1.507511436939240E-1  -8.966558426618576E-2   4.991694688796997E-1  -8.412541151046753E-1   4.990313947200775E-1  -8.409788608551025E-1  -1.492070853710175E-1  -8.657857775688171E-2  
 3.996000000000000E7    -1.531197130680084E-1  -8.995930850505829E-2   4.972291886806488E-1  -8.417687416076660E-1   4.972206056118012E-1  -8.414368033409119E-1  -1.516236662864685E-1  -8.627743273973465E-2  
 3.998000000000000E7    -1.538095027208328E-1  -9.099708497524262E-2   4.951079487800598E-1  -8.425714969635010E-1   4.956184029579163E-1  -8.423800468444824E-1  -1.522857099771500E-1  -8.718426525592804E-2  
 4.000000000000000E7    -1.556522846221924E-1  -9.069582819938660E-2   4.934671521186829E-1  -8.433035016059876E-1   4.933864772319794E-1  -8.434319496154785E-1  -1.535461843013763E-1  -8.771781623363495E-2  
 4.002000000000000E7    -1.576877385377884E-1  -9.150391817092896E-2   4.914750754833221E-1  -8.441945314407349E-1   4.918586015701294E-1  -8.438225984573364E-1  -1.553859710693359E-1  -8.851148188114166E-2  
 4.004000000000000E7    -1.586106121540070E-1  -9.205804765224457E-2   4.897658824920654E-1  -8.449110984802246E-1   4.896585941314697E-1  -8.448772430419922E-1  -1.571316123008728E-1  -8.832044154405594E-2  
 4.006000000000000E7    -1.604836881160736E-1  -9.172144532203674E-2   4.882041513919830E-1  -8.457654714584351E-1   4.878609776496887E-1  -8.453912138938904E-1  -1.587762981653214E-1  -8.906589448451996E-2  
 4.008000000000000E7    -1.614652276039124E-1  -9.209226816892624E-2   4.863341152667999E-1  -8.465549945831299E-1   4.862562716007233E-1  -8.459198474884033E-1  -1.606976240873337E-1  -8.899607509374619E-2  
 4.010000000000000E7    -1.633932292461395E-1  -9.277066588401794E-2   4.842465519905090E-1  -8.471937775611877E-1   4.842866361141205E-1  -8.467941284179688E-1  -1.618169546127319E-1  -8.998240530490875E-2  
 4.012000000000000E7    -1.650523692369461E-1  -9.434862434864044E-2   4.822760522365570E-1  -8.481484651565552E-1   4.821039736270905E-1  -8.474826216697693E-1  -1.631860136985779E-1  -9.015231579542160E-2  
 4.014000000000000E7    -1.666214466094971E-1  -9.443598985671997E-2   4.803936183452606E-1  -8.483567833900452E-1   4.802295267581940E-1  -8.484067916870117E-1  -1.646966338157654E-1  -9.074579179286957E-2  
 4.016000000000000E7    -1.679604649543762E-1  -9.485414624214172E-2   4.785993993282318E-1  -8.492230772972107E-1   4.784190356731415E-1  -8.490521907806397E-1  -1.657720804214478E-1  -9.116837382316589E-2  
 4.018000000000000E7    -1.696388125419617E-1  -9.516619145870209E-2   4.769387245178223E-1  -8.499236702919006E-1   4.761617779731751E-1  -8.496580719947815E-1  -1.676163971424103E-1  -9.143193066120148E-2  
 4.020000000000000E7    -1.715243309736252E-1  -9.508018195629120E-2   4.750134944915772E-1  -8.508169054985046E-1   4.747029244899750E-1  -8.503937721252441E-1  -1.698522716760635E-1  -9.147080779075623E-2  
 4.022000000000000E7    -1.725587695837021E-1  -9.581658989191055E-2   4.726332724094391E-1  -8.512263298034668E-1   4.732193946838379E-1  -8.510933518409729E-1  -1.717125028371811E-1  -9.197796881198883E-2  
 4.024000000000000E7    -1.741886734962463E-1  -9.603686630725861E-2   4.710747599601746E-1  -8.520678281784058E-1   4.706948101520538E-1  -8.521724939346314E-1  -1.726005524396896E-1  -9.333853423595429E-2  
 4.026000000000000E7    -1.748942136764526E-1  -9.668643772602081E-2   4.691470861434937E-1  -8.528556823730469E-1   4.690336287021637E-1  -8.524478673934937E-1  -1.742818206548691E-1  -9.294374287128449E-2  
 4.028000000000000E7    -1.776491254568100E-1  -9.695579111576080E-2   4.674799144268036E-1  -8.534147739410400E-1   4.671946465969086E-1  -8.530532121658325E-1  -1.756748855113983E-1  -9.351349622011185E-2  
 4.030000000000000E7    -1.798309832811356E-1  -9.757351875305176E-2   4.650900959968567E-1  -8.538845181465149E-1   4.652098119258881E-1  -8.536143302917481E-1  -1.772423386573792E-1  -9.401770681142807E-2  
 4.032000000000000E7    -1.802851855754852E-1  -9.729284048080444E-2   4.633510410785675E-1  -8.547844886779785E-1   4.632251858711243E-1  -8.539966940879822E-1  -1.796081960201263E-1  -9.454699605703354E-2  
 4.034000000000000E7    -1.821427941322327E-1  -9.855410456657410E-2   4.615432918071747E-1  -8.550501465797424E-1   4.612882435321808E-1  -8.552221059799194E-1  -1.806952208280563E-1  -9.428755193948746E-2  
 4.036000000000000E7    -1.827881932258606E-1  -9.859728068113327E-2   4.595520794391632E-1  -8.565514683723450E-1   4.594650864601135E-1  -8.554520010948181E-1  -1.825882196426392E-1  -9.454878419637680E-2  
 4.038000000000000E7    -1.850466430187225E-1  -9.894388914108276E-2   4.575408995151520E-1  -8.564138412475586E-1   4.574513435363770E-1  -8.562347888946533E-1  -1.834536492824554E-1  -9.551088511943817E-2  
 4.040000000000000E7    -1.866074353456497E-1  -9.862244874238968E-2   4.559523165225983E-1  -8.573700785636902E-1   4.556193351745606E-1  -8.570594191551209E-1  -1.845601201057434E-1  -9.581356495618820E-2  
 4.042000000000000E7    -1.885496079921722E-1  -9.907326847314835E-2   4.538195431232452E-1  -8.582662343978882E-1   4.537954926490784E-1  -8.574008941650391E-1  -1.866969317197800E-1  -9.637759625911713E-2  
 4.044000000000000E7    -1.898492425680161E-1  -1.004189550876617E-1   4.518960118293762E-1  -8.586479425430298E-1   4.518969953060150E-1  -8.584057092666626E-1  -1.883315443992615E-1  -9.612497687339783E-2  
 4.046000000000000E7    -1.917107403278351E-1  -1.006166189908981E-1   4.498099684715271E-1  -8.591740131378174E-1   4.500836431980133E-1  -8.587271571159363E-1  -1.902475059032440E-1  -9.722915291786194E-2  
 4.048000000000000E7    -1.924304217100143E-1  -1.007365509867668E-1   4.482506811618805E-1  -8.598041534423828E-1   4.478785395622253E-1  -8.595432639122009E-1  -1.923594623804092E-1  -9.682796895503998E-2  
 4.050000000000000E7    -1.942533105611801E-1  -1.009558737277985E-1   4.462117552757263E-1  -8.604832291603088E-1   4.458173811435700E-1  -8.601098656654358E-1  -1.930853426456451E-1  -9.791052341461182E-2  
 4.052000000000000E7    -1.964187026023865E-1  -1.006763428449631E-1   4.447080790996552E-1  -8.612579703330994E-1   4.442595541477203E-1  -8.605653643608093E-1  -1.943022310733795E-1  -9.756109118461609E-2  
 4.054000000000000E7    -1.975241899490356E-1  -1.012890934944153E-1   4.426147639751434E-1  -8.616176843643189E-1   4.422237873077393E-1  -8.611495494842529E-1  -1.967313885688782E-1  -9.766286611557007E-2  
 4.056000000000000E7    -1.999787092208862E-1  -1.025074198842049E-1   4.404459595680237E-1  -8.619049191474915E-1   4.400609433650971E-1  -8.617201447486877E-1  -1.977274417877197E-1  -9.839686751365662E-2  
 4.058000000000000E7    -2.012714892625809E-1  -1.021769195795059E-1   4.385884404182434E-1  -8.628045916557312E-1   4.383945763111115E-1  -8.622024655342102E-1  -1.996566355228424E-1  -9.898654371500015E-2  
 4.060000000000000E7    -2.029529809951782E-1  -1.028313711285591E-1   4.362369775772095E-1  -8.633980154991150E-1   4.366006851196289E-1  -8.628252744674683E-1  -2.008084952831268E-1  -9.896354377269745E-2  
 4.062000000000000E7    -2.041283845901489E-1  -1.023002192378044E-1   4.346458613872528E-1  -8.638030290603638E-1   4.345279335975647E-1  -8.636034727096558E-1  -2.022178471088409E-1  -9.950752556324005E-2  
 4.064000000000000E7    -2.057622075080872E-1  -1.035038679838181E-1   4.323986172676086E-1  -8.643618822097778E-1   4.328072369098663E-1  -8.639661669731140E-1  -2.042679190635681E-1  -9.942131489515305E-2  
 4.066000000000000E7    -2.076567113399506E-1  -1.033506393432617E-1   4.307603538036346E-1  -8.646901249885559E-1   4.305018782615662E-1  -8.644908070564270E-1  -2.055512368679047E-1  -9.973217546939850E-2  
 4.068000000000000E7    -2.088565826416016E-1  -1.037160754203796E-1   4.288560748100281E-1  -8.654729723930359E-1   4.287064671516419E-1  -8.652080297470093E-1  -2.069379091262817E-1  -1.003467142581940E-1  
 4.070000000000000E7    -2.109661996364594E-1  -1.035111844539642E-1   4.271512031555176E-1  -8.656005263328552E-1   4.269030690193176E-1  -8.656597733497620E-1  -2.093767821788788E-1  -1.005663499236107E-1  
 4.072000000000000E7    -2.127031087875366E-1  -1.042367219924927E-1   4.250679910182953E-1  -8.662684559822083E-1   4.248596131801605E-1  -8.663399815559387E-1  -2.105583548545837E-1  -1.007265821099281E-1  
 4.074000000000000E7    -2.138071656227112E-1  -1.045254021883011E-1   4.232152700424194E-1  -8.670021295547485E-1   4.229461252689362E-1  -8.667405247688294E-1  -2.126434743404388E-1  -1.005832850933075E-1  
 4.076000000000000E7    -2.157357782125473E-1  -1.049889326095581E-1   4.213561415672302E-1  -8.674305081367493E-1   4.207792282104492E-1  -8.672814369201660E-1  -2.136323750019074E-1  -1.009250134229660E-1  
 4.078000000000000E7    -2.164833843708038E-1  -1.040575504302979E-1   4.195022284984589E-1  -8.681142926216126E-1   4.190101027488709E-1  -8.677593469619751E-1  -2.152847945690155E-1  -1.011453494429588E-1  
 4.080000000000000E7    -2.185896486043930E-1  -1.051388978958130E-1   4.170851707458496E-1  -8.689697980880737E-1   4.172116816043854E-1  -8.680772185325623E-1  -2.165441811084747E-1  -1.019610613584518E-1  
 4.082000000000000E7    -2.205646783113480E-1  -1.052402257919312E-1   4.154676795005798E-1  -8.690308928489685E-1   4.152975380420685E-1  -8.683726191520691E-1  -2.188247442245483E-1  -1.018999218940735E-1  
 4.084000000000000E7    -2.213809192180634E-1  -1.060193479061127E-1   4.133539199829102E-1  -8.695181012153626E-1   4.132424592971802E-1  -8.692902922630310E-1  -2.202115803956986E-1  -1.018921285867691E-1  
 4.086000000000000E7    -2.230814397335053E-1  -1.060095727443695E-1   4.114268720149994E-1  -8.699804544448853E-1   4.112381637096405E-1  -8.697242140769959E-1  -2.216269373893738E-1  -1.017943769693375E-1  
 4.088000000000000E7    -2.250897884368897E-1  -1.059606820344925E-1   4.097224771976471E-1  -8.709142804145813E-1   4.092862010002136E-1  -8.699174523353577E-1  -2.231730371713638E-1  -1.023778319358826E-1  
 4.090000000000000E7    -2.265456616878510E-1  -1.060399562120438E-1   4.078318178653717E-1  -8.709352016448975E-1   4.073490798473358E-1  -8.703255653381348E-1  -2.250825464725494E-1  -1.025952622294426E-1  
 4.092000000000000E7    -2.279342710971832E-1  -1.063278764486313E-1   4.056729376316071E-1  -8.714645504951477E-1   4.053169488906860E-1  -8.715234398841858E-1  -2.260706424713135E-1  -1.028559058904648E-1  
 4.094000000000000E7    -2.296009063720703E-1  -1.061900407075882E-1   4.037156701087952E-1  -8.720805048942566E-1   4.036079049110413E-1  -8.715568780899048E-1  -2.275999635457993E-1  -1.028238981962204E-1  
 4.096000000000000E7    -2.317043840885162E-1  -1.065948009490967E-1   4.016823768615723E-1  -8.721608519554138E-1   4.015107154846191E-1  -8.723188042640686E-1  -2.290055304765701E-1  -1.033803820610046E-1  
 4.098000000000000E7    -2.327404022216797E-1  -1.069240793585777E-1   3.995713889598846E-1  -8.730387687683106E-1   3.998824059963226E-1  -8.724904656410217E-1  -2.311605066061020E-1  -1.029856652021408E-1  
 4.100000000000000E7    -2.344383001327515E-1  -1.072524935007095E-1   3.982141017913818E-1  -8.732708692550659E-1   3.973125815391541E-1  -8.729598522186279E-1  -2.329134494066238E-1  -1.032419651746750E-1  
 4.102000000000000E7    -2.357077002525330E-1  -1.069021597504616E-1   3.959511816501617E-1  -8.738278746604919E-1   3.957388699054718E-1  -8.737043738365173E-1  -2.340269386768341E-1  -1.032498106360436E-1  
 4.104000000000000E7    -2.376129478216171E-1  -1.076035127043724E-1   3.939210772514343E-1  -8.742414712905884E-1   3.936412334442139E-1  -8.738260865211487E-1  -2.363349050283432E-1  -1.040806695818901E-1  
 4.106000000000000E7    -2.393795847892761E-1  -1.068431138992310E-1   3.921431005001068E-1  -8.745691776275635E-1   3.920334875583649E-1  -8.744307756423950E-1  -2.368382811546326E-1  -1.038290336728096E-1  
 4.108000000000000E7    -2.417096793651581E-1  -1.075543835759163E-1   3.898792266845703E-1  -8.746289014816284E-1   3.898216187953949E-1  -8.746002912521362E-1  -2.390113174915314E-1  -1.043301746249199E-1  
 4.110000000000000E7    -2.422543764114380E-1  -1.073318421840668E-1   3.883776366710663E-1  -8.754441738128662E-1   3.877380490303040E-1  -8.751172423362732E-1  -2.407770156860352E-1  -1.043184027075768E-1  
 4.112000000000000E7    -2.437420189380646E-1  -1.074156761169434E-1   3.860229551792145E-1  -8.761820793151856E-1   3.862245082855225E-1  -8.755048513412476E-1  -2.422721982002258E-1  -1.046310216188431E-1  
 4.114000000000000E7    -2.454652190208435E-1  -1.084822565317154E-1   3.841616511344910E-1  -8.765112161636353E-1   3.838964700698853E-1  -8.757020235061646E-1  -2.438652515411377E-1  -1.047920808196068E-1  
 4.116000000000000E7    -2.469080090522766E-1  -1.079855412244797E-1   3.827010989189148E-1  -8.767262101173401E-1   3.819398283958435E-1  -8.760752081871033E-1  -2.458342015743256E-1  -1.045610532164574E-1  
 4.118000000000000E7    -2.490745484828949E-1  -1.077450662851334E-1   3.801828026771545E-1  -8.771409392356873E-1   3.800377845764160E-1  -8.769692778587341E-1  -2.469393908977509E-1  -1.049327626824379E-1  
 4.120000000000000E7    -2.508782446384430E-1  -1.086668074131012E-1   3.781809210777283E-1  -8.773187398910523E-1   3.780193328857422E-1  -8.767336010932922E-1  -2.490246444940567E-1  -1.051696091890335E-1  
 4.122000000000000E7    -2.524531185626984E-1  -1.079526692628861E-1   3.762857913970947E-1  -8.775032758712769E-1   3.764760792255402E-1  -8.770993947982788E-1  -2.509685158729553E-1  -1.049701645970345E-1  
 4.124000000000000E7    -2.544144392013550E-1  -1.088019981980324E-1   3.744099438190460E-1  -8.781738877296448E-1   3.744102120399475E-1  -8.773882985115051E-1  -2.516880929470062E-1  -1.043118983507156E-1  
 4.126000000000000E7    -2.559181451797485E-1  -1.085463017225266E-1   3.726335167884827E-1  -8.782069683074951E-1   3.722405433654785E-1  -8.776677846908569E-1  -2.539579272270203E-1  -1.051930263638496E-1  
 4.128000000000000E7    -2.572847008705139E-1  -1.084356009960175E-1   3.705951571464539E-1  -8.786361813545227E-1   3.704158365726471E-1  -8.785914182662964E-1  -2.545098960399628E-1  -1.054501011967659E-1  
 4.130000000000000E7    -2.582416534423828E-1  -1.090905815362930E-1   3.684140741825104E-1  -8.792943358421326E-1   3.682420849800110E-1  -8.789224624633789E-1  -2.569304406642914E-1  -1.056191697716713E-1  
 4.132000000000000E7    -2.605494856834412E-1  -1.086136400699616E-1   3.666849732398987E-1  -8.792761564254761E-1   3.665401637554169E-1  -8.791344761848450E-1  -2.574045062065125E-1  -1.054252013564110E-1  
 4.134000000000000E7    -2.622284293174744E-1  -1.086420416831970E-1   3.647469878196716E-1  -8.796578645706177E-1   3.643836081027985E-1  -8.794753551483154E-1  -2.595591843128204E-1  -1.053502559661865E-1  
 4.136000000000000E7    -2.639086842536926E-1  -1.090342029929161E-1   3.624176084995270E-1  -8.797571063041687E-1   3.625907599925995E-1  -8.797270655632019E-1  -2.610939145088196E-1  -1.055062264204025E-1  
 4.138000000000000E7    -2.646569609642029E-1  -1.093280315399170E-1   3.608143329620361E-1  -8.806600570678711E-1   3.606531023979187E-1  -8.799906373023987E-1  -2.632146775722504E-1  -1.045375764369965E-1  
 4.140000000000000E7    -2.671041488647461E-1  -1.090750545263290E-1   3.586848676204681E-1  -8.806535601615906E-1   3.585308194160461E-1  -8.800933957099915E-1  -2.648522257804871E-1  -1.054957881569862E-1  
 4.142000000000000E7    -2.681425213813782E-1  -1.090660393238068E-1   3.563816249370575E-1  -8.809006810188294E-1   3.566954135894775E-1  -8.807607889175415E-1  -2.660966217517853E-1  -1.052129119634628E-1  
 4.144000000000000E7    -2.695813179016113E-1  -1.094121634960175E-1   3.544209897518158E-1  -8.814920783042908E-1   3.546698987483978E-1  -8.809252381324768E-1  -2.678817212581635E-1  -1.057022362947464E-1  
 4.146000000000000E7    -2.716521024703980E-1  -1.091970428824425E-1   3.529544770717621E-1  -8.813357949256897E-1   3.527338206768036E-1  -8.813787698745728E-1  -2.692331671714783E-1  -1.059321165084839E-1  
 4.148000000000000E7    -2.733953595161438E-1  -1.089908182621002E-1   3.513000011444092E-1  -8.815472722053528E-1   3.506689965724945E-1  -8.816463947296143E-1  -2.708546519279480E-1  -1.057458668947220E-1  
 4.150000000000000E7    -2.747813463211060E-1  -1.086423695087433E-1   3.491827249526978E-1  -8.820746541023254E-1   3.488864302635193E-1  -8.814166784286499E-1  -2.735151946544647E-1  -1.054940447211266E-1  
 4.152000000000000E7    -2.762947678565979E-1  -1.091708317399025E-1   3.467473089694977E-1  -8.824677467346191E-1   3.468600213527679E-1  -8.817312121391296E-1  -2.742724418640137E-1  -1.057534441351891E-1  
 4.154000000000000E7    -2.781003415584564E-1  -1.089603900909424E-1   3.452053368091583E-1  -8.823810219764710E-1   3.450003266334534E-1  -8.823826313018799E-1  -2.757962048053742E-1  -1.055805832147598E-1  
 4.156000000000000E7    -2.796598970890045E-1  -1.095980554819107E-1   3.430509567260742E-1  -8.826609253883362E-1   3.431084752082825E-1  -8.825776576995850E-1  -2.775466144084930E-1  -1.051841825246811E-1  
 4.158000000000000E7    -2.814354896545410E-1  -1.089470684528351E-1   3.412991166114807E-1  -8.829751014709473E-1   3.409660160541534E-1  -8.827865123748779E-1  -2.789029479026794E-1  -1.052767485380173E-1  
 4.160000000000000E7    -2.830905914306641E-1  -1.089412868022919E-1   3.391295075416565E-1  -8.831958174705505E-1   3.393188118934631E-1  -8.829501867294312E-1  -2.809427380561829E-1  -1.053977459669113E-1  
 4.162000000000000E7    -2.847940921783447E-1  -1.089809089899063E-1   3.372965157032013E-1  -8.836143612861633E-1   3.367835879325867E-1  -8.833692073822022E-1  -2.821847200393677E-1  -1.058758422732353E-1  
 4.164000000000000E7    -2.868518829345703E-1  -1.083148568868637E-1   3.356149494647980E-1  -8.834762573242188E-1   3.349476158618927E-1  -8.836876749992371E-1  -2.837328612804413E-1  -1.059465184807777E-1  
 4.166000000000000E7    -2.868038117885590E-1  -1.090178191661835E-1   3.332605659961700E-1  -8.843058943748474E-1   3.329942822456360E-1  -8.836612701416016E-1  -2.855434715747833E-1  -1.055312380194664E-1  
 4.168000000000000E7    -2.890620827674866E-1  -1.088900491595268E-1   3.316245377063751E-1  -8.844506740570068E-1   3.312623500823975E-1  -8.839154839515686E-1  -2.874902486801148E-1  -1.053510829806328E-1  
 4.170000000000000E7    -2.909792661666870E-1  -1.087122559547424E-1   3.294039070606232E-1  -8.846045136451721E-1   3.294907212257385E-1  -8.840125203132629E-1  -2.886559963226318E-1  -1.050951778888702E-1  
 4.172000000000000E7    -2.926318943500519E-1  -1.092669442296028E-1   3.271694779396057E-1  -8.849220871925354E-1   3.272877037525177E-1  -8.843216300010681E-1  -2.898434698581696E-1  -1.053263247013092E-1  
 4.174000000000000E7    -2.944103479385376E-1  -1.086667627096176E-1   3.253513872623444E-1  -8.844073414802551E-1   3.253556787967682E-1  -8.841306567192078E-1  -2.924467027187347E-1  -1.055587604641914E-1  
 4.176000000000000E7    -2.959323227405548E-1  -1.085064262151718E-1   3.234615027904511E-1  -8.851022720336914E-1   3.236121237277985E-1  -8.847222328186035E-1  -2.934346795082092E-1  -1.050052791833878E-1  
 4.178000000000000E7    -2.977156639099121E-1  -1.092319786548615E-1   3.212701380252838E-1  -8.848423957824707E-1   3.213226497173309E-1  -8.850682973861694E-1  -2.950746417045593E-1  -1.048035025596619E-1  
 4.180000000000000E7    -2.994489073753357E-1  -1.089653074741364E-1   3.191542923450470E-1  -8.851978182792664E-1   3.195530474185944E-1  -8.847401738166809E-1  -2.968604266643524E-1  -1.052593737840653E-1  
 4.182000000000000E7    -3.004056811332703E-1  -1.082833036780357E-1   3.179300725460053E-1  -8.857407569885254E-1   3.174540698528290E-1  -8.851277828216553E-1  -2.981213033199310E-1  -1.049552261829376E-1  
 4.184000000000000E7    -3.023729026317596E-1  -1.081544682383537E-1   3.157503604888916E-1  -8.855385780334473E-1   3.153057396411896E-1  -8.856442570686340E-1  -2.990992665290833E-1  -1.056776046752930E-1  
 4.186000000000000E7    -3.032192587852478E-1  -1.084397435188294E-1   3.138571977615356E-1  -8.860924839973450E-1   3.134244084358215E-1  -8.856232166290283E-1  -3.013147711753845E-1  -1.044639796018601E-1  
 4.188000000000000E7    -3.056549429893494E-1  -1.082072630524635E-1   3.115991652011871E-1  -8.859409093856812E-1   3.115289509296417E-1  -8.852805495262146E-1  -3.031762242317200E-1  -1.048060953617096E-1  
 4.190000000000000E7    -3.074093759059906E-1  -1.082058027386665E-1   3.096119761466980E-1  -8.859651684761047E-1   3.100734353065491E-1  -8.858628869056702E-1  -3.047533631324768E-1  -1.041170805692673E-1  
 4.192000000000000E7    -3.088609874248505E-1  -1.083731800317764E-1   3.077442049980164E-1  -8.864347338676453E-1   3.076634109020233E-1  -8.861547708511353E-1  -3.057324588298798E-1  -1.044844165444374E-1  
 4.194000000000000E7    -3.104382753372192E-1  -1.073817163705826E-1   3.058123290538788E-1  -8.862240910530090E-1   3.059130012989044E-1  -8.860333561897278E-1  -3.077730834484100E-1  -1.045440584421158E-1  
 4.196000000000000E7    -3.119435906410217E-1  -1.075108945369721E-1   3.037967383861542E-1  -8.864007592201233E-1   3.042723834514618E-1  -8.861168622970581E-1  -3.095052838325501E-1  -1.041185706853867E-1  
 4.198000000000000E7    -3.140732049942017E-1  -1.069541946053505E-1   3.023983538150787E-1  -8.863583207130432E-1   3.019272089004517E-1  -8.859384059906006E-1  -3.111186027526856E-1  -1.038952171802521E-1  
 4.200000000000000E7    -3.154407739639282E-1  -1.069191098213196E-1   3.001163005828857E-1  -8.863601684570313E-1   3.003599345684052E-1  -8.866235613822937E-1  -3.125440478324890E-1  -1.039792224764824E-1  
 4.202000000000000E7    -3.167426586151123E-1  -1.064987853169441E-1   2.982499301433563E-1  -8.866978287696838E-1   2.983372211456299E-1  -8.866711258888245E-1  -3.140919208526611E-1  -1.026817336678505E-1  
 4.204000000000000E7    -3.184736371040344E-1  -1.066100746393204E-1   2.964104712009430E-1  -8.866245746612549E-1   2.961077690124512E-1  -8.864336013793945E-1  -3.159481287002564E-1  -1.033358350396156E-1  
 4.206000000000000E7    -3.197318613529205E-1  -1.066340953111649E-1   2.941013276576996E-1  -8.869760632514954E-1   2.938370406627655E-1  -8.866773247718811E-1  -3.175181150436401E-1  -1.037728041410446E-1  
 4.208000000000000E7    -3.219506740570068E-1  -1.072629243135452E-1   2.921111285686493E-1  -8.867666125297546E-1   2.921996414661408E-1  -8.868610262870789E-1  -3.187160193920136E-1  -1.031101793050766E-1  
 4.210000000000000E7    -3.232027590274811E-1  -1.061793118715286E-1   2.904746532440186E-1  -8.872359395027161E-1   2.903579771518707E-1  -8.869231343269348E-1  -3.206408619880676E-1  -1.029569581151009E-1  
 4.212000000000000E7    -3.251353800296783E-1  -1.065795570611954E-1   2.883923351764679E-1  -8.871157765388489E-1   2.884176075458527E-1  -8.866652846336365E-1  -3.224439620971680E-1  -1.020559221506119E-1  
 4.214000000000000E7    -3.259100317955017E-1  -1.058048009872437E-1   2.864995002746582E-1  -8.873999714851379E-1   2.861117124557495E-1  -8.871179819107056E-1  -3.236543536186218E-1  -1.028541699051857E-1  
 4.216000000000000E7    -3.286329507827759E-1  -1.052624434232712E-1   2.848196029663086E-1  -8.871539831161499E-1   2.842154800891876E-1  -8.870164155960083E-1  -3.250776529312134E-1  -1.027948334813118E-1  
 4.218000000000000E7    -3.294313549995422E-1  -1.054934412240982E-1   2.824696004390717E-1  -8.875674009323120E-1   2.822528481483460E-1  -8.872764110565186E-1  -3.268611431121826E-1  -1.023508235812187E-1  
 4.220000000000000E7    -3.313476443290710E-1  -1.054581478238106E-1   2.805185616016388E-1  -8.874110579490662E-1   2.802206277847290E-1  -8.871335983276367E-1  -3.281945288181305E-1  -1.019961312413216E-1  
 4.222000000000000E7    -3.325074613094330E-1  -1.053746566176415E-1   2.784264087677002E-1  -8.875927925109863E-1   2.784061431884766E-1  -8.874750137329102E-1  -3.293880224227905E-1  -1.014573276042938E-1  
 4.224000000000000E7    -3.341708779335022E-1  -1.050698310136795E-1   2.765440046787262E-1  -8.876656889915466E-1   2.768266201019287E-1  -8.871333599090576E-1  -3.316546082496643E-1  -1.012526378035545E-1  
 4.226000000000000E7    -3.361336886882782E-1  -1.045345589518547E-1   2.749221622943878E-1  -8.875201344490051E-1   2.745527625083923E-1  -8.870608806610107E-1  -3.333933055400848E-1  -1.014216467738152E-1  
 4.228000000000000E7    -3.378861546516419E-1  -1.047688275575638E-1   2.729797959327698E-1  -8.875960111618042E-1   2.726627588272095E-1  -8.869434595108032E-1  -3.351984620094299E-1  -1.008884981274605E-1  
 4.230000000000000E7    -3.389738500118256E-1  -1.039383932948113E-1   2.710030078887940E-1  -8.876006007194519E-1   2.711810767650604E-1  -8.874413967132568E-1  -3.360718786716461E-1  -1.003488153219223E-1  
 4.232000000000000E7    -3.408630788326263E-1  -1.037672534584999E-1   2.689279615879059E-1  -8.874814510345459E-1   2.686026096343994E-1  -8.869989514350891E-1  -3.383104205131531E-1  -1.007208824157715E-1  
 4.234000000000000E7    -3.426901996135712E-1  -1.034670472145081E-1   2.670411765575409E-1  -8.874533772468567E-1   2.668894529342651E-1  -8.871595263481140E-1  -3.391107320785523E-1  -1.003554761409760E-1  
 4.236000000000000E7    -3.439398705959320E-1  -1.033787503838539E-1   2.651160359382629E-1  -8.876237273216248E-1   2.646507620811462E-1  -8.873303532600403E-1  -3.409612774848938E-1  -1.002733483910561E-1  
 4.238000000000000E7    -3.451274037361145E-1  -1.030867993831635E-1   2.631540298461914E-1  -8.875784277915955E-1   2.629786729812622E-1  -8.870114088058472E-1  -3.431358039379120E-1  -9.958113729953766E-2  
 4.240000000000000E7    -3.472902178764343E-1  -1.020011305809021E-1   2.617012262344360E-1  -8.874915838241577E-1   2.610620856285095E-1  -8.870300054550171E-1  -3.440753221511841E-1  -9.951614588499069E-2  
 4.242000000000000E7    -3.488114476203919E-1  -1.020566523075104E-1   2.593579590320587E-1  -8.871116638183594E-1   2.590899169445038E-1  -8.870769143104553E-1  -3.461695909500122E-1  -9.997795522212982E-2  
 4.244000000000000E7    -3.507241010665894E-1  -1.020475924015045E-1   2.575824856758118E-1  -8.872037529945374E-1   2.573102116584778E-1  -8.868657946586609E-1  -3.478821814060211E-1  -9.869157522916794E-2  
 4.246000000000000E7    -3.519814014434815E-1  -1.018088757991791E-1   2.554006576538086E-1  -8.873267173767090E-1   2.555339932441711E-1  -8.872557282447815E-1  -3.482659459114075E-1  -9.842102229595184E-2  
 4.248000000000000E7    -3.537420034408569E-1  -1.015939116477966E-1   2.535632252693176E-1  -8.870058059692383E-1   2.531682848930359E-1  -8.869840502738953E-1  -3.505054116249085E-1  -9.846495091915131E-2  
 4.250000000000000E7    -3.544078171253204E-1  -1.015229448676109E-1   2.517389059066773E-1  -8.873298168182373E-1   2.515645325183868E-1  -8.867715001106262E-1  -3.523223102092743E-1  -9.726549685001373E-2  
 4.252000000000000E7    -3.564858138561249E-1  -1.010818630456924E-1   2.497824430465698E-1  -8.876879215240479E-1   2.498098164796829E-1  -8.867983818054199E-1  -3.536764979362488E-1  -9.693929553031921E-2  
 4.254000000000000E7    -3.575083613395691E-1  -1.014109849929810E-1   2.473594844341278E-1  -8.871755003929138E-1   2.475435882806778E-1  -8.871940970420837E-1  -3.551118373870850E-1  -9.724658727645874E-2  
 4.256000000000000E7    -3.597827851772308E-1  -1.006337925791740E-1   2.455936968326569E-1  -8.870844841003418E-1   2.454765737056732E-1  -8.867388963699341E-1  -3.564755320549011E-1  -9.702852368354797E-2  
 4.258000000000000E7    -3.613345026969910E-1  -1.005548536777496E-1   2.436098903417587E-1  -8.870642781257629E-1   2.435734719038010E-1  -8.862874507904053E-1  -3.585742413997650E-1  -9.709919244050980E-2  
 4.260000000000000E7    -3.627722263336182E-1  -9.962932765483856E-2   2.420067191123962E-1  -8.868001699447632E-1   2.417690753936768E-1  -8.865738511085510E-1  -3.600737154483795E-1  -9.673964977264404E-2  
 4.262000000000000E7    -3.645547628402710E-1  -9.933759272098541E-2   2.401718497276306E-1  -8.868367671966553E-1   2.399672865867615E-1  -8.865072727203369E-1  -3.616229593753815E-1  -9.610293060541153E-2  
 4.264000000000000E7    -3.663701117038727E-1  -9.905682504177094E-2   2.381582856178284E-1  -8.865758180618286E-1   2.377708852291107E-1  -8.862665295600891E-1  -3.632380366325378E-1  -9.642079472541809E-2  
 4.266000000000000E7    -3.672242760658264E-1  -9.845421463251114E-2   2.364610731601715E-1  -8.867834806442261E-1   2.363902479410172E-1  -8.863381743431091E-1  -3.645749390125275E-1  -9.474074840545654E-2  
 4.268000000000000E7    -3.694413006305695E-1  -9.818699210882187E-2   2.342794388532639E-1  -8.864721059799194E-1   2.339814454317093E-1  -8.861495852470398E-1  -3.660918772220612E-1  -9.559036046266556E-2  
 4.270000000000000E7    -3.704170882701874E-1  -9.783679246902466E-2   2.323046773672104E-1  -8.863907456398010E-1   2.322302907705307E-1  -8.857386112213135E-1  -3.679151237010956E-1  -9.528944641351700E-2  
 4.272000000000000E7    -3.724268376827240E-1  -9.700372815132141E-2   2.307301610708237E-1  -8.863343000411987E-1   2.300828695297241E-1  -8.858672380447388E-1  -3.693151473999023E-1  -9.502248466014862E-2  
 4.274000000000000E7    -3.734092712402344E-1  -9.727565944194794E-2   2.287745475769043E-1  -8.862176537513733E-1   2.284282892942429E-1  -8.858581781387329E-1  -3.710321187973023E-1  -9.364688396453857E-2  
 4.276000000000000E7    -3.750054240226746E-1  -9.667138755321503E-2   2.269593775272369E-1  -8.859266042709351E-1   2.260475605726242E-1  -8.860049843788147E-1  -3.727177083492279E-1  -9.442003071308136E-2  
 4.278000000000000E7    -3.769452273845673E-1  -9.637871384620667E-2   2.248662561178207E-1  -8.858783841133118E-1   2.246814072132111E-1  -8.861984610557556E-1  -3.733232319355011E-1  -9.314615279436112E-2  
 4.280000000000000E7    -3.783956468105316E-1  -9.583096206188202E-2   2.227350622415543E-1  -8.859308958053589E-1   2.227277457714081E-1  -8.854568004608154E-1  -3.754311203956604E-1  -9.302271902561188E-2  
 4.282000000000000E7    -3.798028826713562E-1  -9.593914449214935E-2   2.210905402898789E-1  -8.854411244392395E-1   2.204549610614777E-1  -8.852360248565674E-1  -3.772591650485992E-1  -9.261122345924377E-2  
 4.284000000000000E7    -3.820821642875671E-1  -9.477623552083969E-2   2.189808636903763E-1  -8.854976892471314E-1   2.191886454820633E-1  -8.848735094070435E-1  -3.784589171409607E-1  -9.189237654209137E-2  
 4.286000000000000E7    -3.833870887756348E-1  -9.489861130714417E-2   2.173718810081482E-1  -8.851327896118164E-1   2.169581055641174E-1  -8.847225308418274E-1  -3.802094459533691E-1  -9.154054522514343E-2  
 4.288000000000000E7    -3.850644230842590E-1  -9.410519897937775E-2   2.154493331909180E-1  -8.848416209220886E-1   2.151728123426437E-1  -8.848128318786621E-1  -3.817593455314636E-1  -9.075020998716354E-2  
 4.290000000000000E7    -3.860326111316681E-1  -9.408008307218552E-2   2.132473737001419E-1  -8.850952982902527E-1   2.133878469467163E-1  -8.849394917488098E-1  -3.825291693210602E-1  -9.038726240396500E-2  
 4.292000000000000E7    -3.878781497478485E-1  -9.395487606525421E-2   2.111271172761917E-1  -8.847833871841431E-1   2.116241306066513E-1  -8.848510384559631E-1  -3.840717375278473E-1  -9.011775255203247E-2  
 4.294000000000000E7    -3.897753655910492E-1  -9.298866987228394E-2   2.100907862186432E-1  -8.844274282455444E-1   2.095020413398743E-1  -8.839305639266968E-1  -3.865800201892853E-1  -8.971928060054779E-2  
 4.296000000000000E7    -3.904711306095123E-1  -9.253793954849243E-2   2.078986018896103E-1  -8.843961954116821E-1   2.071975767612457E-1  -8.841918706893921E-1  -3.878591060638428E-1  -9.005424380302429E-2  
 4.298000000000000E7    -3.927287757396698E-1  -9.241531044244766E-2   2.057151496410370E-1  -8.838258981704712E-1   2.058510631322861E-1  -8.838642835617065E-1  -3.894521594047546E-1  -8.917246758937836E-2  
 4.300000000000000E7    -3.936433792114258E-1  -9.127607941627502E-2   2.041096240282059E-1  -8.839616179466248E-1   2.035005688667297E-1  -8.835541009902954E-1  -3.908654749393463E-1  -8.867359906435013E-2  
 4.302000000000000E7    -3.948302268981934E-1  -9.149925410747528E-2   2.019006907939911E-1  -8.841654658317566E-1   2.023011445999146E-1  -8.833721876144409E-1  -3.925020694732666E-1  -8.764615654945374E-2  
 4.304000000000000E7    -3.972345590591431E-1  -9.087385237216950E-2   2.002340704202652E-1  -8.833427429199219E-1   1.999424695968628E-1  -8.830528855323792E-1  -3.940485715866089E-1  -8.756729960441589E-2  
 4.306000000000000E7    -3.988012373447418E-1  -9.082651883363724E-2   1.982709616422653E-1  -8.833063244819641E-1   1.977670341730118E-1  -8.830485939979553E-1  -3.950470387935638E-1  -8.761912584304810E-2  
 4.308000000000000E7    -4.000630974769592E-1  -9.028506278991699E-2   1.964356452226639E-1  -8.832027912139893E-1   1.962365210056305E-1  -8.829454779624939E-1  -3.966032862663269E-1  -8.677169680595398E-2  
 4.310000000000000E7    -4.016826748847961E-1  -8.919708430767059E-2   1.946543455123901E-1  -8.828616142272949E-1   1.943135559558868E-1  -8.831114768981934E-1  -3.977707028388977E-1  -8.632534742355347E-2  
 4.312000000000000E7    -4.028138816356659E-1  -8.954657614231110E-2   1.924514770507813E-1  -8.829214572906494E-1   1.922266036272049E-1  -8.822879791259766E-1  -3.998670578002930E-1  -8.571226894855499E-2  
 4.314000000000000E7    -4.047563374042511E-1  -8.847780525684357E-2   1.908534914255142E-1  -8.822587728500366E-1   1.906851679086685E-1  -8.816745877265930E-1  -4.015411138534546E-1  -8.535601943731308E-2  
 4.316000000000000E7    -4.063709378242493E-1  -8.855788409709930E-2   1.888726502656937E-1  -8.818143606185913E-1   1.884425878524780E-1  -8.817335367202759E-1  -4.027181267738342E-1  -8.517152070999146E-2  
 4.318000000000000E7    -4.073880314826965E-1  -8.757078647613525E-2   1.868667602539063E-1  -8.819692134857178E-1   1.869412958621979E-1  -8.815391659736633E-1  -4.045248627662659E-1  -8.416069298982620E-2  
 4.320000000000000E7    -4.091652929782867E-1  -8.693832159042358E-2   1.852649748325348E-1  -8.817052841186523E-1   1.853023022413254E-1  -8.814580440521240E-1  -4.056292772293091E-1  -8.372610807418823E-2  
 4.322000000000000E7    -4.110954999923706E-1  -8.689914643764496E-2   1.831048578023911E-1  -8.812131881713867E-1   1.832444965839386E-1  -8.807244896888733E-1  -4.074271917343140E-1  -8.348807692527771E-2  
 4.324000000000000E7    -4.119363129138947E-1  -8.589581400156021E-2   1.815085560083389E-1  -8.815158009529114E-1   1.814674437046051E-1  -8.806165456771851E-1  -4.087498188018799E-1  -8.273011445999146E-2  
 4.326000000000000E7    -4.135821163654327E-1  -8.541484922170639E-2   1.794629693031311E-1  -8.808513879776001E-1   1.794889867305756E-1  -8.806770443916321E-1  -4.100582301616669E-1  -8.230854570865631E-2  
 4.328000000000000E7    -4.147505760192871E-1  -8.523871749639511E-2   1.773954033851624E-1  -8.806263804435730E-1   1.772073656320572E-1  -8.799543976783752E-1  -4.118217825889587E-1  -8.184941858053207E-2  
 4.330000000000000E7    -4.164843559265137E-1  -8.445950597524643E-2   1.761251240968704E-1  -8.801178336143494E-1   1.755125969648361E-1  -8.797045350074768E-1  -4.135637283325195E-1  -8.120433986186981E-2  
 4.332000000000000E7    -4.182485044002533E-1  -8.331678062677383E-2   1.743465065956116E-1  -8.799303770065308E-1   1.741349846124649E-1  -8.791920542716980E-1  -4.149206280708313E-1  -8.051039278507233E-2  
 4.334000000000000E7    -4.193848669528961E-1  -8.315411210060120E-2   1.724875271320343E-1  -8.795803189277649E-1   1.720542311668396E-1  -8.789236545562744E-1  -4.171496331691742E-1  -8.025620877742767E-2  
 4.336000000000000E7    -4.208714365959168E-1  -8.312358707189560E-2   1.699518561363220E-1  -8.793233036994934E-1   1.699009239673615E-1  -8.789024949073792E-1  -4.181122183799744E-1  -7.958025485277176E-2  
 4.338000000000000E7    -4.225234985351563E-1  -8.171296864748001E-2   1.684217303991318E-1  -8.790296912193298E-1   1.681943088769913E-1  -8.791049122810364E-1  -4.185076653957367E-1  -7.903657853603363E-2  
 4.340000000000000E7    -4.240743219852448E-1  -8.164855092763901E-2   1.666466593742371E-1  -8.786801695823669E-1   1.662518233060837E-1  -8.785561919212341E-1  -4.204429686069489E-1  -7.884539663791657E-2  
 4.342000000000000E7    -4.255242943763733E-1  -8.147659897804260E-2   1.647124886512756E-1  -8.783864974975586E-1   1.646197289228439E-1  -8.777223825454712E-1  -4.229540824890137E-1  -7.756748050451279E-2  
 4.344000000000000E7    -4.268776774406433E-1  -8.033895492553711E-2   1.633772253990173E-1  -8.784111142158508E-1   1.628638058900833E-1  -8.776547908782959E-1  -4.241743683815002E-1  -7.683590054512024E-2  
 4.346000000000000E7    -4.286342263221741E-1  -7.971958070993424E-2   1.611926257610321E-1  -8.778608441352844E-1   1.608173102140427E-1  -8.771600723266602E-1  -4.250514209270477E-1  -7.698944211006165E-2  
 4.348000000000000E7    -4.303345978260040E-1  -7.947029173374176E-2   1.592881232500076E-1  -8.771458864212036E-1   1.588674038648605E-1  -8.770900368690491E-1  -4.269850254058838E-1  -7.645058631896973E-2  
 4.350000000000000E7    -4.320974051952362E-1  -7.912892103195190E-2   1.573129743337631E-1  -8.769720792770386E-1   1.574800908565521E-1  -8.762616515159607E-1  -4.284982383251190E-1  -7.538208365440369E-2  
 4.352000000000000E7    -4.329269230365753E-1  -7.807580381631851E-2   1.560699045658112E-1  -8.768875598907471E-1   1.554892510175705E-1  -8.762936592102051E-1  -4.299432039260864E-1  -7.460954040288925E-2  
 4.354000000000000E7    -4.341917932033539E-1  -7.736665755510330E-2   1.537981778383255E-1  -8.765038847923279E-1   1.537215411663055E-1  -8.758819103240967E-1  -4.312010407447815E-1  -7.422314584255219E-2  
 4.356000000000000E7    -4.360782802104950E-1  -7.672487199306488E-2   1.521713584661484E-1  -8.761995434761047E-1   1.520652174949646E-1  -8.758863806724548E-1  -4.321238994598389E-1  -7.359237968921661E-2  
 4.358000000000000E7    -4.375163912773132E-1  -7.608520984649658E-2   1.505017727613449E-1  -8.752958774566650E-1   1.503495723009110E-1  -8.747008442878723E-1  -4.339852035045624E-1  -7.288578152656555E-2  
 4.360000000000000E7    -4.393851757049561E-1  -7.547450810670853E-2   1.481636911630631E-1  -8.744475841522217E-1   1.481784880161285E-1  -8.748464584350586E-1  -4.355512559413910E-1  -7.259115576744080E-2  
 4.362000000000000E7    -4.407087266445160E-1  -7.503002136945725E-2   1.466212570667267E-1  -8.748345375061035E-1   1.462112367153168E-1  -8.744935393333435E-1  -4.367249608039856E-1  -7.212577760219574E-2  
 4.364000000000000E7    -4.419767260551453E-1  -7.426501065492630E-2   1.447318792343140E-1  -8.741861581802368E-1   1.446345746517181E-1  -8.739936351776123E-1  -4.386022388935089E-1  -7.118734717369080E-2  
 4.366000000000000E7    -4.433709979057312E-1  -7.317232340574265E-2   1.432227790355682E-1  -8.739638328552246E-1   1.429276466369629E-1  -8.734039068222046E-1  -4.402565956115723E-1  -7.068755477666855E-2  
 4.368000000000000E7    -4.450496435165405E-1  -7.343498617410660E-2   1.409008502960205E-1  -8.734943866729736E-1   1.410370469093323E-1  -8.730702996253967E-1  -4.415589272975922E-1  -6.999659538269043E-2  
 4.370000000000000E7    -4.462204575538635E-1  -7.209452986717224E-2   1.389415562152863E-1  -8.729707002639771E-1   1.390878260135651E-1  -8.728238344192505E-1  -4.423446953296661E-1  -6.970986723899841E-2  
 4.372000000000000E7    -4.483847022056580E-1  -7.188076525926590E-2   1.374947130680084E-1  -8.725868463516235E-1   1.368559747934341E-1  -8.719288110733032E-1  -4.445042014122009E-1  -6.917813420295715E-2  
 4.374000000000000E7    -4.491502940654755E-1  -7.087665051221848E-2   1.356923580169678E-1  -8.726671338081360E-1   1.357734799385071E-1  -8.717637062072754E-1  -4.455736279487610E-1  -6.778500974178314E-2  
 4.376000000000000E7    -4.503689706325531E-1  -7.042623311281204E-2   1.342366039752960E-1  -8.720143437385559E-1   1.336117535829544E-1  -8.717406988143921E-1  -4.469882249832153E-1  -6.769274175167084E-2  
 4.378000000000000E7    -4.521983563899994E-1  -6.978668272495270E-2   1.320012062788010E-1  -8.713361620903015E-1   1.317707598209381E-1  -8.711799979209900E-1  -4.485273659229279E-1  -6.714102625846863E-2  
 4.380000000000000E7    -4.533700048923492E-1  -6.896102428436279E-2   1.305205672979355E-1  -8.711580634117127E-1   1.300053298473358E-1  -8.706440925598145E-1  -4.503321945667267E-1  -6.614068895578384E-2  
 4.382000000000000E7    -4.552580416202545E-1  -6.805538386106491E-2   1.289513856172562E-1  -8.705577850341797E-1   1.286627799272537E-1  -8.700627088546753E-1  -4.513276219367981E-1  -6.537102907896042E-2  
 4.384000000000000E7    -4.564959704875946E-1  -6.737422198057175E-2   1.270916908979416E-1  -8.700636029243469E-1   1.264483630657196E-1  -8.695508837699890E-1  -4.533037543296814E-1  -6.513352692127228E-2  
 4.386000000000000E7    -4.581727385520935E-1  -6.709688901901245E-2   1.250247657299042E-1  -8.693726658821106E-1   1.246104314923286E-1  -8.690606355667114E-1  -4.544872343540192E-1  -6.420559436082840E-2  
 4.388000000000000E7    -4.594477713108063E-1  -6.595408171415329E-2   1.234481632709503E-1  -8.690345287322998E-1   1.228931471705437E-1  -8.687993884086609E-1  -4.556050896644592E-1  -6.360500305891037E-2  
 4.390000000000000E7    -4.605296254158020E-1  -6.561332195997238E-2   1.212349906563759E-1  -8.690840005874634E-1   1.212889850139618E-1  -8.686418533325195E-1  -4.568092823028565E-1  -6.282693147659302E-2  
 4.392000000000000E7    -4.625275731086731E-1  -6.515650451183319E-2   1.198562681674957E-1  -8.681606054306030E-1   1.195680126547813E-1  -8.677294254302979E-1  -4.585646390914917E-1  -6.166122108697891E-2  
 4.394000000000000E7    -4.631549417972565E-1  -6.408008933067322E-2   1.179080605506897E-1  -8.679375052452087E-1   1.177192330360413E-1  -8.676158189773560E-1  -4.596786797046661E-1  -6.114882230758667E-2  
 4.396000000000000E7    -4.654834866523743E-1  -6.358500570058823E-2   1.159450709819794E-1  -8.670852184295654E-1   1.156557872891426E-1  -8.670953512191773E-1  -4.611073136329651E-1  -6.060838699340820E-2  
 4.398000000000000E7    -4.663018286228180E-1  -6.305408477783203E-2   1.141698434948921E-1  -8.668875694274902E-1   1.142850667238236E-1  -8.668330907821655E-1  -4.626502990722656E-1  -5.970855057239533E-2  
 4.400000000000000E7    -4.676396548748016E-1  -6.219355762004852E-2   1.122512370347977E-1  -8.664578795433044E-1   1.123017668724060E-1  -8.661991953849793E-1  -4.639282524585724E-1  -5.963521450757980E-2  
 4.402000000000000E7    -4.691561162471771E-1  -6.111875921487808E-2   1.108226478099823E-1  -8.658091425895691E-1   1.108638346195221E-1  -8.656873703002930E-1  -4.654337465763092E-1  -5.823764950037003E-2  
 4.404000000000000E7    -4.706349372863770E-1  -6.083882600069046E-2   1.092172414064407E-1  -8.657662868499756E-1   1.092106476426125E-1  -8.651337623596191E-1  -4.669918417930603E-1  -5.740600079298019E-2  
 4.406000000000000E7    -4.725108742713928E-1  -5.976001173257828E-2   1.074201911687851E-1  -8.647224903106690E-1   1.072463989257813E-1  -8.644694685935974E-1  -4.681372046470642E-1  -5.707676708698273E-2  
 4.408000000000000E7    -4.734131693840027E-1  -5.898171663284302E-2   1.058186739683151E-1  -8.645614385604858E-1   1.057157441973686E-1  -8.640090227127075E-1  -4.694760739803314E-1  -5.577068030834198E-2  
 4.410000000000000E7    -4.749092459678650E-1  -5.864215642213821E-2   1.039520204067230E-1  -8.641048669815064E-1   1.040026918053627E-1  -8.636129498481751E-1  -4.712486863136292E-1  -5.535025894641876E-2  
 4.412000000000000E7    -4.761453270912170E-1  -5.737486481666565E-2   1.023768782615662E-1  -8.636330366134644E-1   1.023635491728783E-1  -8.631456494331360E-1  -4.723526537418366E-1  -5.426914244890213E-2  
 4.414000000000000E7    -4.778082072734833E-1  -5.742256343364716E-2   1.002105399966240E-1  -8.627687692642212E-1   1.001836210489273E-1  -8.626400232315064E-1  -4.738079607486725E-1  -5.398986488580704E-2  
 4.416000000000000E7    -4.792110621929169E-1  -5.612396448850632E-2   9.827297925949097E-2  -8.621238470077515E-1   9.796178340911865E-2  -8.615606427192688E-1  -4.755461513996124E-1  -5.410376191139221E-2  
 4.418000000000000E7    -4.803280830383301E-1  -5.559863895177841E-2   9.690114855766296E-2  -8.616396784782410E-1   9.647265076637268E-2  -8.611893057823181E-1  -4.768204092979431E-1  -5.251535773277283E-2  
 4.420000000000000E7    -4.816006422042847E-1  -5.474891513586044E-2   9.495969116687775E-2  -8.613045811653137E-1   9.459899365901947E-2  -8.604028820991516E-1  -4.786087572574616E-1  -5.181560665369034E-2  
 4.422000000000000E7    -4.832931458950043E-1  -5.352355539798737E-2   9.363387525081635E-2  -8.607146739959717E-1   9.348157793283463E-2  -8.604214191436768E-1  -4.794107675552368E-1  -5.072532594203949E-2  
 4.424000000000000E7    -4.847680628299713E-1  -5.305290967226028E-2   9.182660281658173E-2  -8.600379228591919E-1   9.187309443950653E-2  -8.597930669784546E-1  -4.811055064201355E-1  -5.010788887739182E-2  
 4.426000000000000E7    -4.861159324645996E-1  -5.235587805509567E-2   8.989274501800537E-2  -8.595542311668396E-1   8.965818583965302E-2  -8.592728972434998E-1  -4.820633232593536E-1  -4.990787059068680E-2  
 4.428000000000000E7    -4.874361455440521E-1  -5.170610547065735E-2   8.834283798933029E-2  -8.592870235443115E-1   8.802585303783417E-2  -8.583917021751404E-1  -4.837469756603241E-1  -4.822427779436112E-2  
 4.430000000000000E7    -4.894154667854309E-1  -5.019988864660263E-2   8.705762028694153E-2  -8.578206300735474E-1   8.608692139387131E-2  -8.580428957939148E-1  -4.851239919662476E-1  -4.820918291807175E-2  
 4.432000000000000E7    -4.897296726703644E-1  -5.000971257686615E-2   8.480302989482880E-2  -8.582539558410645E-1   8.435596525669098E-2  -8.580061793327332E-1  -4.855094850063324E-1  -4.713154584169388E-2  
 4.434000000000000E7    -4.912377595901489E-1  -4.864501208066940E-2   8.321724832057953E-2  -8.574635982513428E-1   8.317787945270538E-2  -8.570826649665833E-1  -4.874694049358368E-1  -4.616799950599670E-2  
 4.436000000000000E7    -4.922924935817719E-1  -4.880744963884354E-2   8.134619891643524E-2  -8.570813536643982E-1   8.105106651782990E-2  -8.565191626548767E-1  -4.888071417808533E-1  -4.525832831859589E-2  
 4.438000000000000E7    -4.944501519203186E-1  -4.721222072839737E-2   7.979048043489456E-2  -8.561843037605286E-1   7.970164716243744E-2  -8.556315302848816E-1  -4.903566837310791E-1  -4.446244984865189E-2  
 4.440000000000000E7    -4.955424964427948E-1  -4.665070772171021E-2   7.821650803089142E-2  -8.554942607879639E-1   7.795624434947968E-2  -8.549042940139771E-1  -4.913479089736939E-1  -4.370599240064621E-2  
 4.442000000000000E7    -4.965918362140656E-1  -4.553354531526566E-2   7.617759704589844E-2  -8.551293611526489E-1   7.590014487504959E-2  -8.548955321311951E-1  -4.925681352615356E-1  -4.365793615579605E-2  
 4.444000000000000E7    -4.982043802738190E-1  -4.454793035984039E-2   7.475732266902924E-2  -8.543142676353455E-1   7.457873225212097E-2  -8.538693189620972E-1  -4.942043423652649E-1  -4.222053289413452E-2  
 4.446000000000000E7    -4.998339414596558E-1  -4.466294497251511E-2   7.266986370086670E-2  -8.537410497665405E-1   7.298104465007782E-2  -8.534260392189026E-1  -4.951590895652771E-1  -4.140412062406540E-2  
 4.448000000000000E7    -5.004341006278992E-1  -4.324737936258316E-2   7.164489477872849E-2  -8.535285592079163E-1   7.077687978744507E-2  -8.530912399291992E-1  -4.970965385437012E-1  -4.093775898218155E-2  
 4.450000000000000E7    -5.023075938224793E-1  -4.223736375570297E-2   6.981625407934189E-2  -8.526358604431152E-1   6.963343173265457E-2  -8.524919748306274E-1  -4.980028271675110E-1  -3.957578539848328E-2  
 4.452000000000000E7    -5.033246278762817E-1  -4.188679158687592E-2   6.797047704458237E-2  -8.520966172218323E-1   6.742210686206818E-2  -8.515930771827698E-1  -4.998944997787476E-1  -3.892850130796433E-2  
 4.454000000000000E7    -5.043848156929016E-1  -4.036050289869309E-2   6.661462038755417E-2  -8.516160249710083E-1   6.628255546092987E-2  -8.512502312660217E-1  -5.008507370948792E-1  -3.778033703565598E-2  
 4.456000000000000E7    -5.058571696281433E-1  -4.007168114185333E-2   6.417656689882278E-2  -8.509081602096558E-1   6.402216106653214E-2  -8.503824472427368E-1  -5.021801590919495E-1  -3.748161345720291E-2  
 4.458000000000000E7    -5.074748992919922E-1  -3.915811330080032E-2   6.300404667854309E-2  -8.502345681190491E-1   6.255225092172623E-2  -8.500849604606628E-1  -5.037193298339844E-1  -3.640214353799820E-2  
 4.460000000000000E7    -5.089099407196045E-1  -3.784523904323578E-2   6.163837388157845E-2  -8.495119214057922E-1   6.144271418452263E-2  -8.490602970123291E-1  -5.048227310180664E-1  -3.496259450912476E-2  
 4.462000000000000E7    -5.100755691528320E-1  -3.730323910713196E-2   5.957166850566864E-2  -8.493082523345947E-1   5.949600413441658E-2  -8.486285209655762E-1  -5.057297945022583E-1  -3.457137197256088E-2  
 4.464000000000000E7    -5.113835334777832E-1  -3.635555505752564E-2   5.795904994010925E-2  -8.484308123588562E-1   5.765999853610992E-2  -8.478670120239258E-1  -5.072557926177979E-1  -3.366389125585556E-2  
 4.466000000000000E7    -5.130459666252136E-1  -3.528202325105667E-2   5.649054422974587E-2  -8.470571637153626E-1   5.590323731303215E-2  -8.474343419075012E-1  -5.089202523231506E-1  -3.292758017778397E-2  
 4.468000000000000E7    -5.136394500732422E-1  -3.460802882909775E-2   5.481646955013275E-2  -8.474965691566467E-1   5.394608154892921E-2  -8.468542098999023E-1  -5.100552439689636E-1  -3.216232359409332E-2  
 4.470000000000000E7    -5.154631137847900E-1  -3.358947485685349E-2   5.301199853420258E-2  -8.463077545166016E-1   5.277075991034508E-2  -8.457186222076416E-1  -5.114014744758606E-1  -3.098200261592865E-2  
 4.472000000000000E7    -5.165754556655884E-1  -3.271595388650894E-2   5.136087536811829E-2  -8.456407189369202E-1   5.098406970500946E-2  -8.456982374191284E-1  -5.122085213661194E-1  -3.029765188694000E-2  
 4.474000000000000E7    -5.175759196281433E-1  -3.203439712524414E-2   4.970781505107880E-2  -8.453031182289124E-1   4.958671331405640E-2  -8.446276187896729E-1  -5.141620635986328E-1  -2.908614277839661E-2  
 4.476000000000000E7    -5.194332599639893E-1  -3.088341653347015E-2   4.821842908859253E-2  -8.441947698593140E-1   4.734318703413010E-2  -8.439552783966065E-1  -5.149313807487488E-1  -2.874375134706497E-2  
 4.478000000000000E7    -5.208496451377869E-1  -3.080215305089951E-2   4.637518152594566E-2  -8.434846401214600E-1   4.615253210067749E-2  -8.435289859771729E-1  -5.159840583801270E-1  -2.772670984268189E-2  
 4.480000000000000E7    -5.219836235046387E-1  -2.878269553184509E-2   4.497752338647842E-2  -8.428688049316406E-1   4.453442245721817E-2  -8.429776430130005E-1  -5.176712870597839E-1  -2.716597169637680E-2  
 4.482000000000000E7    -5.232812762260437E-1  -2.837915718555450E-2   4.320441186428070E-2  -8.424610495567322E-1   4.312170669436455E-2  -8.421911001205444E-1  -5.188346505165100E-1  -2.525163441896439E-2  
 4.484000000000000E7    -5.241735577583313E-1  -2.724380046129227E-2   4.154084622859955E-2  -8.420768380165100E-1   4.128164052963257E-2  -8.413793444633484E-1  -5.199733972549439E-1  -2.511413395404816E-2  
 4.486000000000000E7    -5.252346396446228E-1  -2.636032551527023E-2   3.989058732986450E-2  -8.413116335868835E-1   3.994562476873398E-2  -8.407284021377564E-1  -5.213742852210999E-1  -2.357656508684158E-2  
 4.488000000000000E7    -5.271456241607666E-1  -2.541124075651169E-2   3.860390558838844E-2  -8.401944637298584E-1   3.793370723724365E-2  -8.399492502212524E-1  -5.226295590400696E-1  -2.344475686550140E-2  
 4.490000000000000E7    -5.279300212860107E-1  -2.441994845867157E-2   3.702590987086296E-2  -8.397845625877380E-1   3.659124672412872E-2  -8.390764594078064E-1  -5.238295197486877E-1  -2.200760692358017E-2  
 4.492000000000000E7    -5.296587347984314E-1  -2.401641011238098E-2   3.503418341279030E-2  -8.385710120201111E-1   3.475828096270561E-2  -8.387078642845154E-1  -5.248247981071472E-1  -2.117492258548737E-2  
 4.494000000000000E7    -5.307856798171997E-1  -2.259109169244766E-2   3.365026041865349E-2  -8.383359909057617E-1   3.341099247336388E-2  -8.378732204437256E-1  -5.267408490180969E-1  -1.989500969648361E-2  
 4.496000000000000E7    -5.322185754776001E-1  -2.224622666835785E-2   3.179107978940010E-2  -8.372501134872437E-1   3.178738430142403E-2  -8.370991945266724E-1  -5.275050997734070E-1  -1.907776296138763E-2  
 4.498000000000000E7    -5.333685874938965E-1  -2.048665285110474E-2   3.056965395808220E-2  -8.365549445152283E-1   3.036160022020340E-2  -8.359481096267700E-1  -5.292842984199524E-1  -1.812013983726502E-2  
 4.500000000000000E7    -5.342465639114380E-1  -1.997073739767075E-2   2.856853976845741E-2  -8.360977768898010E-1   2.841494232416153E-2  -8.358821868896484E-1  -5.299239754676819E-1  -1.732370257377625E-2  
 4.502000000000000E7    -5.352372527122498E-1  -1.878184825181961E-2   2.743855491280556E-2  -8.353580236434937E-1   2.667820081114769E-2  -8.352019190788269E-1  -5.313782691955566E-1  -1.634392887353897E-2  
 4.504000000000000E7    -5.367791056632996E-1  -1.754049956798554E-2   2.572503313422203E-2  -8.347898125648499E-1   2.509330213069916E-2  -8.337957859039307E-1  -5.328867435455322E-1  -1.591031998395920E-2  
 4.506000000000000E7    -5.378279089927673E-1  -1.677610725164414E-2   2.421263977885246E-2  -8.340710401535034E-1   2.364272251725197E-2  -8.335895538330078E-1  -5.337997078895569E-1  -1.461941003799439E-2  
 4.508000000000000E7    -5.392022728919983E-1  -1.649378240108490E-2   2.214476093649864E-2  -8.334084749221802E-1   2.225181460380554E-2  -8.325211405754089E-1  -5.354534983634949E-1  -1.323679834604263E-2  
 4.510000000000000E7    -5.403745174407959E-1  -1.487279683351517E-2   2.096457406878471E-2  -8.327097892761231E-1   2.026690542697907E-2  -8.317398428916931E-1  -5.363597273826599E-1  -1.280458271503449E-2  
 4.512000000000000E7    -5.415197610855103E-1  -1.389384269714356E-2   1.933418959379196E-2  -8.318603038787842E-1   1.899799704551697E-2  -8.313449621200562E-1  -5.378411412239075E-1  -1.158112287521362E-2  
 4.514000000000000E7    -5.431228280067444E-1  -1.309255510568619E-2   1.795973628759384E-2  -8.310246467590332E-1   1.781419664621353E-2  -8.306427001953125E-1  -5.383498072624207E-1  -9.927861392498016E-3  
 4.516000000000000E7    -5.442557334899902E-1  -1.200071722269058E-2   1.588179916143417E-2  -8.303900957107544E-1   1.549569889903069E-2  -8.299418091773987E-1  -5.398545861244202E-1  -9.936720132827759E-3  
 4.518000000000000E7    -5.447800159454346E-1  -1.110378652811050E-2   1.457685232162476E-2  -8.301310539245606E-1   1.425300166010857E-2  -8.290341496467590E-1  -5.408704280853272E-1  -9.048469364643097E-3  
 4.520000000000000E7    -5.468269586563110E-1  -1.030335575342178E-2   1.284179836511612E-2  -8.287813067436218E-1   1.296991854906082E-2  -8.282666802406311E-1  -5.421275496482849E-1  -7.452569901943207E-3  
 4.522000000000000E7    -5.479130744934082E-1  -9.618975222110748E-3   1.115794479846954E-2  -8.280461430549622E-1   1.140287145972252E-2  -8.274839520454407E-1  -5.432567596435547E-1  -6.295442581176758E-3  
 4.524000000000000E7    -5.490416884422302E-1  -7.936589419841766E-3   1.014426723122597E-2  -8.271928429603577E-1   9.845495223999023E-3  -8.269096016883850E-1  -5.445068478584290E-1  -5.697637796401978E-3  
 4.526000000000000E7    -5.505486130714417E-1  -6.842665374279022E-3   8.470322936773300E-3  -8.262814879417419E-1   8.393011987209320E-3  -8.263523578643799E-1  -5.453392267227173E-1  -4.435688257217407E-3  
 4.528000000000000E7    -5.515258312225342E-1  -6.115064024925232E-3   6.656728684902191E-3  -8.256998658180237E-1   6.532676517963409E-3  -8.250536918640137E-1  -5.470208525657654E-1  -3.769166767597199E-3  
 4.530000000000000E7    -5.528818964958191E-1  -4.635341465473175E-3   5.725838243961334E-3  -8.248095512390137E-1   4.979144781827927E-3  -8.245419263839722E-1  -5.479499697685242E-1  -2.844385802745819E-3  
 4.532000000000000E7    -5.538158416748047E-1  -3.807000815868378E-3   3.875009715557098E-3  -8.241393566131592E-1   3.580015152692795E-3  -8.242416381835938E-1  -5.486639142036438E-1  -1.486614346504211E-3  
 4.534000000000000E7    -5.550177097320557E-1  -3.266833722591400E-3   2.022042870521545E-3  -8.234045505523682E-1   2.115938812494278E-3  -8.231235146522522E-1  -5.501142144203186E-1  -5.441457033157349E-4  
 4.536000000000000E7    -5.564766526222229E-1  -2.047292888164520E-3   4.700832068920136E-4  -8.226676583290100E-1   3.528408706188202E-4  -8.220862746238709E-1  -5.513235926628113E-1  -7.075072062434629E-5  
 4.538000000000000E7    -5.574124455451965E-1  -9.203255176544190E-4  -9.908899664878845E-4  -8.216154575347900E-1  -8.657500147819519E-4  -8.211069107055664E-1  -5.528576970100403E-1   1.516275107860565E-3  
 4.540000000000000E7    -5.583932995796204E-1   9.290872185374610E-6  -2.241462469100952E-3  -8.208846449851990E-1  -2.303391695022583E-3  -8.205328583717346E-1  -5.540882349014282E-1   2.456165850162506E-3  
 4.542000000000000E7    -5.596536397933960E-1   1.405209302902222E-3  -3.557007759809494E-3  -8.199468851089478E-1  -4.050169140100479E-3  -8.193736076354981E-1  -5.555289983749390E-1   3.269083797931671E-3  
 4.544000000000000E7    -5.606416463851929E-1   1.941561698913574E-3  -5.586117506027222E-3  -8.192819952964783E-1  -5.682278424501419E-3  -8.187402486801148E-1  -5.563279390335083E-1   4.103135317564011E-3  
 4.546000000000000E7    -5.618361830711365E-1   3.164120018482208E-3  -6.812978535890579E-3  -8.188373446464539E-1  -7.072806358337402E-3  -8.182872533798218E-1  -5.572199821472168E-1   5.556985735893250E-3  
 4.548000000000000E7    -5.629004836082459E-1   4.515282809734345E-3  -8.169833570718765E-3  -8.179149031639099E-1  -8.383095264434815E-3  -8.172138333320618E-1  -5.584828257560730E-1   6.884604692459106E-3  
 4.550000000000000E7    -5.642499923706055E-1   5.020186305046082E-3  -9.911034256219864E-3  -8.167861700057983E-1  -9.941272437572479E-3  -8.167011737823486E-1  -5.594091415405273E-1   7.918655872344971E-3  
 4.552000000000000E7    -5.651577711105347E-1   6.703671067953110E-3  -1.109791547060013E-2  -8.162380456924439E-1  -1.131395250558853E-2  -8.157522678375244E-1  -5.606774091720581E-1   8.989848196506500E-3  
 4.554000000000000E7    -5.661820769309998E-1   7.247444242238998E-3  -1.268660649657250E-2  -8.154875040054321E-1  -1.341851055622101E-2  -8.146304488182068E-1  -5.620716810226440E-1   9.911570698022842E-3  
 4.556000000000000E7    -5.674993395805359E-1   8.567977696657181E-3  -1.431057229638100E-2  -8.146005272865295E-1  -1.462053880095482E-2  -8.136936426162720E-1  -5.630540847778320E-1   1.082852855324745E-2  
 4.558000000000000E7    -5.683903694152832E-1   9.453866630792618E-3  -1.557791233062744E-2  -8.137991428375244E-1  -1.596449315547943E-2  -8.128306269645691E-1  -5.643497109413147E-1   1.207809150218964E-2  
 4.560000000000000E7    -5.698267221450806E-1   1.071089133620262E-2  -1.702957227826119E-2  -8.129394054412842E-1  -1.766356080770493E-2  -8.120452761650085E-1  -5.654181838035584E-1   1.289617270231247E-2  
 4.562000000000000E7    -5.714585781097412E-1   1.149217784404755E-2  -1.863623037934303E-2  -8.119479417800903E-1  -1.850738003849983E-2  -8.114306330680847E-1  -5.661605000495911E-1   1.396423578262329E-2  
 4.564000000000000E7    -5.720775127410889E-1   1.273678988218308E-2  -2.031185477972031E-2  -8.112252354621887E-1  -2.046015486121178E-2  -8.103845119476318E-1  -5.675653815269470E-1   1.486293226480484E-2  
 4.566000000000000E7    -5.733015537261963E-1   1.356070488691330E-2  -2.183274179697037E-2  -8.102290630340576E-1  -2.178985625505447E-2  -8.094130754470825E-1  -5.692098736763001E-1   1.636713370680809E-2  
 4.568000000000000E7    -5.744693875312805E-1   1.480882614850998E-2  -2.339132130146027E-2  -8.097054362297058E-1  -2.357438951730728E-2  -8.093006014823914E-1  -5.693810582160950E-1   1.683646440505981E-2  
 4.570000000000000E7    -5.760983228683472E-1   1.609923690557480E-2  -2.431216090917587E-2  -8.084800839424133E-1  -2.475218474864960E-2  -8.081750273704529E-1  -5.708036422729492E-1   1.822884380817413E-2  
 4.572000000000000E7    -5.765208601951599E-1   1.697810366749764E-2  -2.573702484369278E-2  -8.075855374336243E-1  -2.634299919009209E-2  -8.074766397476196E-1  -5.719832181930542E-1   1.927140355110169E-2  
 4.574000000000000E7    -5.782344937324524E-1   1.802998781204224E-2  -2.750271186232567E-2  -8.063592910766602E-1  -2.798573672771454E-2  -8.064792156219482E-1  -5.727259516716003E-1   2.009080722928047E-2  
 4.576000000000000E7    -5.791255831718445E-1   1.936857402324677E-2  -2.866910770535469E-2  -8.062955737113953E-1  -2.921945229172707E-2  -8.059170246124268E-1  -5.737965106964111E-1   2.160010859370232E-2  
 4.578000000000000E7    -5.797153115272522E-1   2.015062421560288E-2  -3.036060184240341E-2  -8.046811819076538E-1  -3.048565611243248E-2  -8.045549392700195E-1  -5.756028294563294E-1   2.234518900513649E-2  
 4.580000000000000E7    -5.805603861808777E-1   2.108218520879746E-2  -3.184496611356735E-2  -8.043195605278015E-1  -3.187349066138268E-2  -8.034320473670960E-1  -5.764670968055725E-1   2.385788038372994E-2  
 4.582000000000000E7    -5.818684101104736E-1   2.179358899593353E-2  -3.358698263764381E-2  -8.031908869743347E-1  -3.353928402066231E-2  -8.031094074249268E-1  -5.770445466041565E-1   2.496216818690300E-2  
 4.584000000000000E7    -5.833759903907776E-1   2.349944040179253E-2  -3.456619009375572E-2  -8.021053075790405E-1  -3.514081984758377E-2  -8.019526004791260E-1  -5.783607363700867E-1   2.565780654549599E-2  
 4.586000000000000E7    -5.841320753097534E-1   2.477467805147171E-2  -3.629384562373161E-2  -8.016665577888489E-1  -3.638739138841629E-2  -8.010463714599609E-1  -5.797410607337952E-1   2.667039260268211E-2  
 4.588000000000000E7    -5.851752161979675E-1   2.578853443264961E-2  -3.752818331122398E-2  -8.007663488388062E-1  -3.751119598746300E-2  -8.002181649208069E-1  -5.806201100349426E-1   2.813933417201042E-2  
 4.590000000000000E7    -5.864859223365784E-1   2.706290781497955E-2  -3.911137208342552E-2  -7.999120950698853E-1  -3.900671750307083E-2  -7.993164062500000E-1  -5.812627077102661E-1   2.908812277019024E-2  
 4.592000000000000E7    -5.875366330146790E-1   2.825312316417694E-2  -4.051998257637024E-2  -7.987658381462097E-1  -4.036233574151993E-2  -7.987391352653503E-1  -5.826754570007324E-1   3.025687858462334E-2  
 4.594000000000000E7    -5.884200930595398E-1   2.964558079838753E-2  -4.138283804059029E-2  -7.983473539352417E-1  -4.166959226131439E-2  -7.976421117782593E-1  -5.836902856826782E-1   3.122738748788834E-2  
 4.596000000000000E7    -5.894618034362793E-1   3.014064393937588E-2  -4.337398335337639E-2  -7.975885272026062E-1  -4.325542226433754E-2  -7.965834140777588E-1  -5.849921703338623E-1   3.248783573508263E-2  
 4.598000000000000E7    -5.909669995307922E-1   3.136906400322914E-2  -4.478633031249046E-2  -7.960768938064575E-1  -4.465858265757561E-2  -7.959545850753784E-1  -5.854550004005432E-1   3.388487547636032E-2  
 4.600000000000000E7    -5.915551185607910E-1   3.266178816556931E-2  -4.588600620627403E-2  -7.951369881629944E-1  -4.571197926998138E-2  -7.947225570678711E-1  -5.869004726409912E-1   3.487519547343254E-2  
 4.602000000000000E7    -5.926545858383179E-1   3.383265435695648E-2  -4.733014851808548E-2  -7.942210435867310E-1  -4.734427109360695E-2  -7.938184142112732E-1  -5.878703594207764E-1   3.574185818433762E-2  
 4.604000000000000E7    -5.938013195991516E-1   3.501254320144653E-2  -4.863230139017105E-2  -7.933257222175598E-1  -4.885789006948471E-2  -7.930495142936707E-1  -5.891255736351013E-1   3.671539947390556E-2  
 4.606000000000000E7    -5.950277447700501E-1   3.587042540311813E-2  -5.028131976723671E-2  -7.925360202789307E-1  -5.023915693163872E-2  -7.918412089347839E-1  -5.898995995521545E-1   3.843929991126061E-2  
 4.608000000000000E7    -5.955345630645752E-1   3.723517060279846E-2  -5.136590451002121E-2  -7.917453646659851E-1  -5.167458578944206E-2  -7.914320826530457E-1  -5.907972455024719E-1   3.892492130398750E-2  
 4.610000000000000E7    -5.969177484512329E-1   3.843757510185242E-2  -5.292316526174545E-2  -7.906807065010071E-1  -5.299115553498268E-2  -7.901914119720459E-1  -5.921178460121155E-1   4.015643894672394E-2  
 4.612000000000000E7    -5.977056622505188E-1   3.955104202032089E-2  -5.417231470346451E-2  -7.899357080459595E-1  -5.434982478618622E-2  -7.894099354743958E-1  -5.931308865547180E-1   4.160925745964050E-2  
 4.614000000000000E7    -5.991222858428955E-1   4.100395739078522E-2  -5.560559034347534E-2  -7.888116836547852E-1  -5.584036931395531E-2  -7.889829874038696E-1  -5.933037996292114E-1   4.258073121309280E-2  
 4.616000000000000E7    -6.000671982765198E-1   4.170995578169823E-2  -5.715154111385346E-2  -7.880681157112122E-1  -5.712977424263954E-2  -7.873831987380981E-1  -5.949124097824097E-1   4.382141306996346E-2  
 4.618000000000000E7    -6.002787351608276E-1   4.319132119417191E-2  -5.850358679890633E-2  -7.872179150581360E-1  -5.873164907097817E-2  -7.862217426300049E-1  -5.962639451026917E-1   4.449310526251793E-2  
 4.620000000000000E7    -6.017915010452271E-1   4.438492655754089E-2  -5.954562500119209E-2  -7.862989902496338E-1  -5.991426110267639E-2  -7.858977317810059E-1  -5.967490077018738E-1   4.593181237578392E-2  
 4.622000000000000E7    -6.029216051101685E-1   4.583226144313812E-2  -6.069295108318329E-2  -7.852979302406311E-1  -6.118814274668694E-2  -7.850094437599182E-1  -5.976693034172058E-1   4.701807349920273E-2  
 4.624000000000000E7    -6.038642525672913E-1   4.621727764606476E-2  -6.295076757669449E-2  -7.842152714729309E-1  -6.239699572324753E-2  -7.836856842041016E-1  -5.988873243331909E-1   4.855728894472122E-2  
 4.626000000000000E7    -6.053887605667114E-1   4.802463203668594E-2  -6.345286965370178E-2  -7.831545472145081E-1  -6.344704329967499E-2  -7.828406691551209E-1  -5.999059081077576E-1   4.973802715539932E-2  
 4.628000000000000E7    -6.059343218803406E-1   4.911784455180168E-2  -6.495893746614456E-2  -7.821160554885864E-1  -6.518590450286865E-2  -7.818669080734253E-1  -6.008669734001160E-1   5.069352313876152E-2  
 4.630000000000000E7    -6.067655086517334E-1   5.003062263131142E-2  -6.673341989517212E-2  -7.812193632125855E-1  -6.675243377685547E-2  -7.810744047164917E-1  -6.019200682640076E-1   5.161355808377266E-2  
 4.632000000000000E7    -6.079292297363281E-1   5.127421766519547E-2  -6.785327196121216E-2  -7.803757190704346E-1  -6.791327893733978E-2  -7.801949381828308E-1  -6.024286746978760E-1   5.300987884402275E-2  
 4.634000000000000E7    -6.090030670166016E-1   5.252116918563843E-2  -6.883233785629273E-2  -7.794674634933472E-1  -6.903028488159180E-2  -7.790653109550476E-1  -6.036457419395447E-1   5.426929146051407E-2  
 4.636000000000000E7    -6.096107959747315E-1   5.394217744469643E-2  -7.006433606147766E-2  -7.784613370895386E-1  -7.055062055587769E-2  -7.781780958175659E-1  -6.045261621475220E-1   5.548753589391708E-2  
 4.638000000000000E7    -6.105371713638306E-1   5.451156198978424E-2  -7.173180580139160E-2  -7.777810096740723E-1  -7.190994918346405E-2  -7.767353057861328E-1  -6.063345670700073E-1   5.661536380648613E-2  
 4.640000000000000E7    -6.116284728050232E-1   5.572110787034035E-2  -7.316009700298309E-2  -7.765654325485230E-1  -7.331895083189011E-2  -7.759896516799927E-1  -6.069579720497131E-1   5.784348770976067E-2  
 4.642000000000000E7    -6.123602986335754E-1   5.708253756165505E-2  -7.425124198198319E-2  -7.759166359901428E-1  -7.442539930343628E-2  -7.753415107727051E-1  -6.074596643447876E-1   5.923877283930779E-2  
 4.644000000000000E7    -6.136240959167481E-1   5.852259695529938E-2  -7.550530135631561E-2  -7.743734121322632E-1  -7.526481151580811E-2  -7.744944095611572E-1  -6.081489324569702E-1   6.053562462329865E-2  
 4.646000000000000E7    -6.144961118698120E-1   5.947826430201531E-2  -7.689917087554932E-2  -7.737165689468384E-1  -7.685784995555878E-2  -7.730195522308350E-1  -6.094577908515930E-1   6.137030199170113E-2  
 4.648000000000000E7    -6.154536604881287E-1   6.116004288196564E-2  -7.807187736034393E-2  -7.727859616279602E-1  -7.856523245573044E-2  -7.723703384399414E-1  -6.102554798126221E-1   6.240764632821083E-2  
 4.650000000000000E7    -6.163717508316040E-1   6.201506033539772E-2  -7.939115166664124E-2  -7.720799446105957E-1  -7.951670885086060E-2  -7.715502381324768E-1  -6.110093593597412E-1   6.376188993453980E-2  
 4.652000000000000E7    -6.171947717666626E-1   6.345877051353455E-2  -8.085020631551743E-2  -7.709096074104309E-1  -8.111184835433960E-2  -7.704076170921326E-1  -6.117448210716248E-1   6.467089056968689E-2  
 4.654000000000000E7    -6.180263757705689E-1   6.427799165248871E-2  -8.224052190780640E-2  -7.701111435890198E-1  -8.251893520355225E-2  -7.695620059967041E-1  -6.127363443374634E-1   6.598701328039169E-2  
 4.656000000000000E7    -6.191145777702332E-1   6.580726802349091E-2  -8.353537321090698E-2  -7.686936259269714E-1  -8.298036456108093E-2  -7.684212327003479E-1  -6.138880252838135E-1   6.747457385063171E-2  
 4.658000000000000E7    -6.196922659873962E-1   6.697618961334229E-2  -8.466234803199768E-2  -7.678090929985046E-1  -8.469083905220032E-2  -7.675974369049072E-1  -6.148987412452698E-1   6.842122226953507E-2  
 4.660000000000000E7    -6.207188963890076E-1   6.782059371471405E-2  -8.626646548509598E-2  -7.672657370567322E-1  -8.632272481918335E-2  -7.663093209266663E-1  -6.154706478118897E-1   6.967614591121674E-2  
 4.662000000000000E7    -6.217972040176392E-1   6.942993402481079E-2  -8.699634671211243E-2  -7.661511898040772E-1  -8.730785548686981E-2  -7.654950618743897E-1  -6.170025467872620E-1   7.084801048040390E-2  
 4.664000000000000E7    -6.227868795394898E-1   7.030808925628662E-2  -8.881674706935883E-2  -7.650668621063232E-1  -8.861394226551056E-2  -7.645512223243713E-1  -6.173611283302307E-1   7.207405567169190E-2  
 4.666000000000000E7    -6.235550045967102E-1   7.153926789760590E-2  -9.003474563360214E-2  -7.636511325836182E-1  -9.009543061256409E-2  -7.635371088981628E-1  -6.184937953948975E-1   7.315698266029358E-2  
 4.668000000000000E7    -6.244983673095703E-1   7.323340326547623E-2  -9.073825180530548E-2  -7.630192637443543E-1  -9.069760888814926E-2  -7.623590826988220E-1  -6.194353103637695E-1   7.521513104438782E-2  
 4.670000000000000E7    -6.251553893089294E-1   7.408863306045532E-2  -9.249691665172577E-2  -7.622534036636353E-1  -9.214544296264648E-2  -7.613767385482788E-1  -6.200652718544006E-1   7.597764581441879E-2  
 4.672000000000000E7    -6.261743307113648E-1   7.582129538059235E-2  -9.325782954692841E-2  -7.607252001762390E-1  -9.350050985813141E-2  -7.602337002754211E-1  -6.213871240615845E-1   7.709616422653198E-2  
 4.674000000000000E7    -6.267541646957398E-1   7.695225626230240E-2  -9.437605738639832E-2  -7.600597739219666E-1  -9.470894932746887E-2  -7.594611644744873E-1  -6.219805479049683E-1   7.841685414314270E-2  
 4.676000000000000E7    -6.280303597450256E-1   7.812155783176422E-2  -9.580139815807343E-2  -7.588665485382080E-1  -9.594255685806274E-2  -7.585154175758362E-1  -6.227968931198120E-1   7.953090965747833E-2  
 4.678000000000000E7    -6.285148859024048E-1   7.932493835687637E-2  -9.697143733501434E-2  -7.580915689468384E-1  -9.714066982269287E-2  -7.574990391731262E-1  -6.239910125732422E-1   8.113952726125717E-2  
 4.680000000000000E7    -6.295659542083740E-1   8.037622272968292E-2  -9.832368046045303E-2  -7.571792602539063E-1  -9.866023063659668E-2  -7.564160823822022E-1  -6.248966455459595E-1   8.159661293029785E-2  
 4.682000000000000E7    -6.305371522903442E-1   8.164651691913605E-2  -9.984090924263001E-2  -7.559996247291565E-1  -9.980016946792603E-2  -7.557615041732788E-1  -6.251079440116882E-1   8.331083506345749E-2  
 4.684000000000000E7    -6.314104199409485E-1   8.320251107215881E-2  -1.006078273057938E-1  -7.551720142364502E-1  -1.010510027408600E-1  -7.543714046478272E-1  -6.265552043914795E-1   8.445651829242706E-2  
 4.686000000000000E7    -6.323038339614868E-1   8.432750403881073E-2  -1.017603278160095E-1  -7.544810771942139E-1  -1.021991521120071E-1  -7.532109618186951E-1  -6.270647644996643E-1   8.565030992031097E-2  
 4.688000000000000E7    -6.336855888366699E-1   8.576484024524689E-2  -1.032554954290390E-1  -7.524379491806030E-1  -1.032584831118584E-1  -7.519424557685852E-1  -6.280971765518189E-1   8.687291294336319E-2  
 4.690000000000000E7    -6.343960762023926E-1   8.632472157478333E-2  -1.047803610563278E-1  -7.515481710433960E-1  -1.045094802975655E-1  -7.512462735176086E-1  -6.289094090461731E-1   8.859662711620331E-2  
 4.692000000000000E7    -6.349590420722961E-1   8.853136003017426E-2  -1.053451746702194E-1  -7.505842447280884E-1  -1.057567745447159E-1  -7.499077916145325E-1  -6.299872398376465E-1   8.946878463029862E-2  
 4.694000000000000E7    -6.356931924819946E-1   8.952493965625763E-2  -1.063169687986374E-1  -7.499832510948181E-1  -1.070943698287010E-1  -7.494819760322571E-1  -6.304987072944641E-1   9.030084311962128E-2  
 4.696000000000000E7    -6.365181803703308E-1   9.056133031845093E-2  -1.080495268106461E-1  -7.487396597862244E-1  -1.077562868595123E-1  -7.482326626777649E-1  -6.310519576072693E-1   9.212997555732727E-2  
 4.698000000000000E7    -6.373039484024048E-1   9.178137779235840E-2  -1.089338213205338E-1  -7.473809123039246E-1  -1.092912852764130E-1  -7.467529773712158E-1  -6.322875618934631E-1   9.326989948749542E-2  
 4.700000000000000E7    -6.381608843803406E-1   9.312483668327332E-2  -1.107044517993927E-1  -7.466706037521362E-1  -1.106594204902649E-1  -7.460755109786987E-1  -6.331827640533447E-1   9.454897791147232E-2  
 4.702000000000000E7    -6.387739181518555E-1   9.429287910461426E-2  -1.118081957101822E-1  -7.456042766571045E-1  -1.114978939294815E-1  -7.446084022521973E-1  -6.341089010238648E-1   9.603174775838852E-2  
 4.704000000000000E7    -6.398598551750183E-1   9.592296183109283E-2  -1.125477552413940E-1  -7.446551322937012E-1  -1.123866811394692E-1  -7.437608838081360E-1  -6.346848011016846E-1   9.756772965192795E-2  
 4.706000000000000E7    -6.410177350044251E-1   9.704726934432983E-2  -1.139165833592415E-1  -7.433000802993774E-1  -1.137733832001686E-1  -7.426752448081970E-1  -6.355009078979492E-1   9.832255542278290E-2  
 4.708000000000000E7    -6.416276097297669E-1   9.834728389978409E-2  -1.148573160171509E-1  -7.423646450042725E-1  -1.154132783412933E-1  -7.419984340667725E-1  -6.363262534141541E-1   9.936439990997315E-2  
 4.710000000000000E7    -6.426283717155457E-1   9.938238561153412E-2  -1.166112199425697E-1  -7.413584589958191E-1  -1.162003055214882E-1  -7.411982417106628E-1  -6.368411779403687E-1   1.008418649435043E-1  
 4.712000000000000E7    -6.433711051940918E-1   1.004758328199387E-1  -1.175352185964584E-1  -7.403295040130615E-1  -1.173256039619446E-1  -7.395282983779907E-1  -6.379084587097168E-1   1.019919663667679E-1  
 4.714000000000000E7    -6.437112689018250E-1   1.020319610834122E-1  -1.185881197452545E-1  -7.392451763153076E-1  -1.185101270675659E-1  -7.386849522590637E-1  -6.389275193214417E-1   1.034975796937943E-1  
 4.716000000000000E7    -6.447108983993530E-1   1.037689894437790E-1  -1.195254772901535E-1  -7.381201386451721E-1  -1.194467544555664E-1  -7.374005913734436E-1  -6.394246220588684E-1   1.048792302608490E-1  
 4.718000000000000E7    -6.454969644546509E-1   1.045340523123741E-1  -1.209370046854019E-1  -7.373675704002380E-1  -1.210169941186905E-1  -7.364147901535034E-1  -6.402906775474548E-1   1.058718040585518E-1  
 4.720000000000000E7    -6.461842656135559E-1   1.057370901107788E-1  -1.221797838807106E-1  -7.361001968383789E-1  -1.217932775616646E-1  -7.352013587951660E-1  -6.414591073989868E-1   1.069160103797913E-1  
 4.722000000000000E7    -6.471073627471924E-1   1.074270084500313E-1  -1.229137480258942E-1  -7.348971962928772E-1  -1.234983876347542E-1  -7.344393134117127E-1  -6.417181491851807E-1   1.081411615014076E-1  
 4.724000000000000E7    -6.476248502731323E-1   1.086720600724220E-1  -1.241579577326775E-1  -7.340002059936523E-1  -1.243579685688019E-1  -7.330901026725769E-1  -6.428824067115784E-1   1.093321293592453E-1  
 4.726000000000000E7    -6.490917801856995E-1   1.095482781529427E-1  -1.253216564655304E-1  -7.328544855117798E-1  -1.257420778274536E-1  -7.323929667472839E-1  -6.429433822631836E-1   1.109999045729637E-1  
 4.728000000000000E7    -6.491330265998840E-1   1.113343685865402E-1  -1.264496296644211E-1  -7.318052053451538E-1  -1.264313161373138E-1  -7.310647964477539E-1  -6.440654993057251E-1   1.124178171157837E-1  
 4.730000000000000E7    -6.500412821769714E-1   1.122973859310150E-1  -1.273800432682037E-1  -7.307508587837219E-1  -1.276943683624268E-1  -7.298877239227295E-1  -6.448843479156494E-1   1.138743162155151E-1  
 4.732000000000000E7    -6.511917710304260E-1   1.138229370117188E-1  -1.288139671087265E-1  -7.290263772010803E-1  -1.289499849081039E-1  -7.287324070930481E-1  -6.459090709686279E-1   1.145753711462021E-1  
 4.734000000000000E7    -6.514001488685608E-1   1.147387474775314E-1  -1.300478428602219E-1  -7.286961078643799E-1  -1.296918094158173E-1  -7.280484437942505E-1  -6.465087532997131E-1   1.161469370126724E-1  
 4.736000000000000E7    -6.523110866546631E-1   1.161888539791107E-1  -1.311885416507721E-1  -7.274706363677979E-1  -1.307975053787231E-1  -7.268438935279846E-1  -6.470525860786438E-1   1.174147725105286E-1  
 4.738000000000000E7    -6.528943181037903E-1   1.173877716064453E-1  -1.320322901010513E-1  -7.266883850097656E-1  -1.323310285806656E-1  -7.258789539337158E-1  -6.478538513183594E-1   1.185235977172852E-1  
 4.740000000000000E7    -6.538500189781189E-1   1.195818036794663E-1  -1.328137516975403E-1  -7.254850864410400E-1  -1.335510462522507E-1  -7.252419590950012E-1  -6.482872366905212E-1   1.198262572288513E-1  
 4.742000000000000E7    -6.545162796974182E-1   1.201428994536400E-1  -1.343705952167511E-1  -7.242457270622253E-1  -1.342726945877075E-1  -7.236591577529907E-1  -6.494321227073669E-1   1.211709827184677E-1  
 4.744000000000000E7    -6.552143096923828E-1   1.217354387044907E-1  -1.354538500308991E-1  -7.234120965003967E-1  -1.350956112146378E-1  -7.229086756706238E-1  -6.498258709907532E-1   1.225120276212692E-1  
 4.746000000000000E7    -6.563782095909119E-1   1.227403506636620E-1  -1.363187432289124E-1  -7.220552563667297E-1  -1.361895799636841E-1  -7.211110591888428E-1  -6.511119604110718E-1   1.240716874599457E-1  
 4.748000000000000E7    -6.563985943794251E-1   1.243567392230034E-1  -1.374067366123200E-1  -7.212865948677063E-1  -1.375995278358460E-1  -7.201628088951111E-1  -6.516457200050354E-1   1.249200776219368E-1  
 4.750000000000000E7    -6.570981740951538E-1   1.252430975437164E-1  -1.387771070003510E-1  -7.204584479331970E-1  -1.385478675365448E-1  -7.195770144462585E-1  -6.518415808677673E-1   1.266562044620514E-1  
 4.752000000000000E7    -6.579329371452332E-1   1.266911625862122E-1  -1.397230774164200E-1  -7.189221382141113E-1  -1.395624876022339E-1  -7.181972265243530E-1  -6.533316969871521E-1   1.278343945741653E-1  
 4.754000000000000E7    -6.587259769439697E-1   1.284147500991821E-1  -1.408686190843582E-1  -7.177428007125855E-1  -1.410694271326065E-1  -7.172918319702148E-1  -6.537904739379883E-1   1.289359331130981E-1  
 4.756000000000000E7    -6.601059436798096E-1   1.291168332099915E-1  -1.418929696083069E-1  -7.163068652153015E-1  -1.417749971151352E-1  -7.163424491882324E-1  -6.538069248199463E-1   1.303077042102814E-1  
 4.758000000000000E7    -6.598328351974487E-1   1.307116895914078E-1  -1.430311650037766E-1  -7.154382467269898E-1  -1.428415179252625E-1  -7.149721980094910E-1  -6.550966501235962E-1   1.317855566740036E-1  
 4.760000000000000E7    -6.606613397598267E-1   1.323334872722626E-1  -1.438683867454529E-1  -7.146119475364685E-1  -1.439155638217926E-1  -7.137454748153687E-1  -6.556090712547302E-1   1.331533491611481E-1  
 4.762000000000000E7    -6.617909669876099E-1   1.332479119300842E-1  -1.446597576141357E-1  -7.134229540824890E-1  -1.449753940105438E-1  -7.130019068717957E-1  -6.557508707046509E-1   1.341991275548935E-1  
 4.764000000000000E7    -6.622276902198792E-1   1.345998644828796E-1  -1.461109220981598E-1  -7.122040390968323E-1  -1.460920572280884E-1  -7.116126418113709E-1  -6.568234562873840E-1   1.356356292963028E-1  
 4.766000000000000E7    -6.627031564712524E-1   1.360252648591995E-1  -1.472195237874985E-1  -7.117570638656616E-1  -1.471665650606155E-1  -7.107739448547363E-1  -6.577017903327942E-1   1.370148509740830E-1  
 4.768000000000000E7    -6.632751226425171E-1   1.374067664146423E-1  -1.481120139360428E-1  -7.104364037513733E-1  -1.479241400957108E-1  -7.095619440078735E-1  -6.582872271537781E-1   1.382660120725632E-1  
 4.770000000000000E7    -6.642817258834839E-1   1.386645436286926E-1  -1.490724235773087E-1  -7.090936899185181E-1  -1.491662710905075E-1  -7.084636688232422E-1  -6.590433716773987E-1   1.392531394958496E-1  
 4.772000000000000E7    -6.649971604347229E-1   1.397506892681122E-1  -1.503745019435883E-1  -7.074924111366272E-1  -1.502604484558106E-1  -7.072606682777405E-1  -6.594563126564026E-1   1.407671272754669E-1  
 4.774000000000000E7    -6.652693152427673E-1   1.416225880384445E-1  -1.511174142360687E-1  -7.069321870803833E-1  -1.511250287294388E-1  -7.062340378761292E-1  -6.602018475532532E-1   1.420816630125046E-1  
 4.776000000000000E7    -6.664107441902161E-1   1.427291482686997E-1  -1.522814780473709E-1  -7.055503726005554E-1  -1.524081528186798E-1  -7.049771547317505E-1  -6.609356403350830E-1   1.434262692928314E-1  
 4.778000000000000E7    -6.668976545333862E-1   1.444188654422760E-1  -1.531383544206619E-1  -7.044807076454163E-1  -1.533718109130859E-1  -7.041792869567871E-1  -6.614482402801514E-1   1.447944492101669E-1  
 4.780000000000000E7    -6.673251986503601E-1   1.457635909318924E-1  -1.540817320346832E-1  -7.036648988723755E-1  -1.542350947856903E-1  -7.027214765548706E-1  -6.621638536453247E-1   1.459780037403107E-1  
 4.782000000000000E7    -6.678792834281921E-1   1.469267457723618E-1  -1.552345603704453E-1  -7.025384902954102E-1  -1.551730483770371E-1  -7.014013528823853E-1  -6.630748510360718E-1   1.470633447170258E-1  
 4.784000000000000E7    -6.685515046119690E-1   1.480746865272522E-1  -1.561787575483322E-1  -7.014375329017639E-1  -1.562701165676117E-1  -7.006557583808899E-1  -6.634034514427185E-1   1.488074809312820E-1  
 4.786000000000000E7    -6.697450280189514E-1   1.491900980472565E-1  -1.571899354457855E-1  -7.000588178634644E-1  -1.571235209703445E-1  -6.995413303375244E-1  -6.643583178520203E-1   1.500182449817658E-1  
 4.788000000000000E7    -6.697572469711304E-1   1.508326381444931E-1  -1.583211719989777E-1  -6.990607380867004E-1  -1.583815664052963E-1  -6.985879540443420E-1  -6.645782589912415E-1   1.515232324600220E-1  
 4.790000000000000E7    -6.704785823822022E-1   1.522611826658249E-1  -1.592822372913361E-1  -6.981496810913086E-1  -1.595754176378250E-1  -6.971639394760132E-1  -6.653916835784912E-1   1.529681086540222E-1  
 4.792000000000000E7    -6.715218424797058E-1   1.536461263895035E-1  -1.600425541400909E-1  -6.967599987983704E-1  -1.598218381404877E-1  -6.963767409324646E-1  -6.661691069602966E-1   1.542812883853912E-1  
 4.794000000000000E7    -6.715503931045532E-1   1.545612215995789E-1  -1.613803505897522E-1  -6.959591507911682E-1  -1.613016724586487E-1  -6.955957412719727E-1  -6.662470698356628E-1   1.552923917770386E-1  
 4.796000000000000E7    -6.723665595054627E-1   1.563120037317276E-1  -1.621740758419037E-1  -6.945784687995911E-1  -1.621042937040329E-1  -6.939144134521484E-1  -6.673152446746826E-1   1.568038612604141E-1  
 4.798000000000000E7    -6.730984449386597E-1   1.576007902622223E-1  -1.629675924777985E-1  -6.935936808586121E-1  -1.632176339626312E-1  -6.926680803298950E-1  -6.678544878959656E-1   1.579220145940781E-1  
 4.800000000000000E7    -6.736480593681335E-1   1.588674038648605E-1  -1.640160530805588E-1  -6.923481225967407E-1  -1.638251692056656E-1  -6.918281316757202E-1  -6.684588193893433E-1   1.595614254474640E-1  
 4.802000000000000E7    -6.744427680969238E-1   1.604240089654923E-1  -1.647993475198746E-1  -6.913824677467346E-1  -1.650434583425522E-1  -6.908612847328186E-1  -6.687636971473694E-1   1.607119888067246E-1  
 4.804000000000000E7    -6.743845343589783E-1   1.615451574325562E-1  -1.659606099128723E-1  -6.902192234992981E-1  -1.659940630197525E-1  -6.896544694900513E-1  -6.694646477699280E-1   1.620632261037827E-1  
 4.806000000000000E7    -6.756710410118103E-1   1.629004031419754E-1  -1.671333461999893E-1  -6.889812946319580E-1  -1.668195724487305E-1  -6.883429288864136E-1  -6.699947714805603E-1   1.635955274105072E-1  
 4.808000000000000E7    -6.756418943405151E-1   1.643418520689011E-1  -1.681211590766907E-1  -6.879456639289856E-1  -1.680496335029602E-1  -6.873686313629150E-1  -6.708543896675110E-1   1.646783500909805E-1  
 4.810000000000000E7    -6.763125658035278E-1   1.655519455671310E-1  -1.687376350164414E-1  -6.867864727973938E-1  -1.688868999481201E-1  -6.860553026199341E-1  -6.713279485702515E-1   1.663888394832611E-1  
 4.812000000000000E7    -6.769792437553406E-1   1.669547706842423E-1  -1.697201132774353E-1  -6.859122514724731E-1  -1.698582321405411E-1  -6.851813197135925E-1  -6.719769239425659E-1   1.674945205450058E-1  
 4.814000000000000E7    -6.780217885971069E-1   1.682761609554291E-1  -1.706701070070267E-1  -6.840028762817383E-1  -1.706505417823792E-1  -6.841033697128296E-1  -6.720340847969055E-1   1.688799560070038E-1  
 4.816000000000000E7    -6.780177354812622E-1   1.697587072849274E-1  -1.716663539409638E-1  -6.832424998283386E-1  -1.714540123939514E-1  -6.831558346748352E-1  -6.726008057594299E-1   1.701511442661285E-1  
 4.818000000000000E7    -6.792597174644470E-1   1.712837368249893E-1  -1.723328679800034E-1  -6.817580461502075E-1  -1.724803596735001E-1  -6.815406680107117E-1  -6.736145615577698E-1   1.713766157627106E-1  
 4.820000000000000E7    -6.791306734085083E-1   1.722071170806885E-1  -1.734409332275391E-1  -6.810085773468018E-1  -1.731532812118530E-1  -6.802033782005310E-1  -6.740418672561646E-1   1.732422262430191E-1  
 4.822000000000000E7    -6.800956130027771E-1   1.739974468946457E-1  -1.742196679115295E-1  -6.795936226844788E-1  -1.744330525398254E-1  -6.793307065963745E-1  -6.745868921279907E-1   1.740734428167343E-1  
 4.824000000000000E7    -6.802040934562683E-1   1.752079129219055E-1  -1.753153055906296E-1  -6.789265871047974E-1  -1.754189133644104E-1  -6.778118014335632E-1  -6.756217479705811E-1   1.755182743072510E-1  
 4.826000000000000E7    -6.809653043746948E-1   1.763915866613388E-1  -1.763584017753601E-1  -6.768863797187805E-1  -1.764190793037415E-1  -6.764758825302124E-1  -6.760737299919128E-1   1.771135777235031E-1  
 4.828000000000000E7    -6.814445257186890E-1   1.777335554361343E-1  -1.773182302713394E-1  -6.763215065002441E-1  -1.770734786987305E-1  -6.759402155876160E-1  -6.763734817504883E-1   1.784239709377289E-1  
 4.830000000000000E7    -6.820490360260010E-1   1.793402582406998E-1  -1.784045398235321E-1  -6.752757430076599E-1  -1.784303933382034E-1  -6.749716401100159E-1  -6.767414212226868E-1   1.798114180564880E-1  
 4.832000000000000E7    -6.825027465820313E-1   1.805425137281418E-1  -1.791474968194962E-1  -6.738078594207764E-1  -1.789749711751938E-1  -6.735104322433472E-1  -6.771180629730225E-1   1.807006299495697E-1  
 4.834000000000000E7    -6.832889914512634E-1   1.820304989814758E-1  -1.796181052923203E-1  -6.729369759559631E-1  -1.797366440296173E-1  -6.723769307136536E-1  -6.779178380966187E-1   1.827219128608704E-1  
 4.836000000000000E7    -6.837635040283203E-1   1.835175454616547E-1  -1.810026019811630E-1  -6.718969345092773E-1  -1.807379424571991E-1  -6.713177561759949E-1  -6.781763434410095E-1   1.836510747671127E-1  
 4.838000000000000E7    -6.838814020156860E-1   1.850235462188721E-1  -1.816057115793228E-1  -6.708304882049561E-1  -1.814589202404022E-1  -6.700782179832459E-1  -6.790043115615845E-1   1.849536746740341E-1  
 4.840000000000000E7    -6.844925880432129E-1   1.857449114322662E-1  -1.825377494096756E-1  -6.695789098739624E-1  -1.822382807731628E-1  -6.688550114631653E-1  -6.796208024024963E-1   1.869375705718994E-1  
 4.842000000000000E7    -6.848762035369873E-1   1.875494718551636E-1  -1.837026476860046E-1  -6.688966751098633E-1  -1.837888062000275E-1  -6.676511168479919E-1  -6.800020933151245E-1   1.875440478324890E-1  
 4.844000000000000E7    -6.856313943862915E-1   1.887186616659164E-1  -1.842776238918304E-1  -6.671543717384338E-1  -1.845402121543884E-1  -6.665380001068115E-1  -6.804070472717285E-1   1.892298758029938E-1  
 4.846000000000000E7    -6.859343647956848E-1   1.903147995471954E-1  -1.852151155471802E-1  -6.658825278282166E-1  -1.850939542055130E-1  -6.653774380683899E-1  -6.808215379714966E-1   1.905171722173691E-1  
 4.848000000000000E7    -6.866667866706848E-1   1.912313103675842E-1  -1.862371861934662E-1  -6.649343967437744E-1  -1.860177367925644E-1  -6.643235087394714E-1  -6.815322041511536E-1   1.921607404947281E-1  
 4.850000000000000E7    -6.870124936103821E-1   1.929783970117569E-1  -1.866809874773026E-1  -6.640027165412903E-1  -1.872900128364563E-1  -6.636184453964233E-1  -6.818323135375977E-1   1.930818855762482E-1  
 4.852000000000000E7    -6.877531409263611E-1   1.941393017768860E-1  -1.879569292068481E-1  -6.626643538475037E-1  -1.879078894853592E-1  -6.620371341705322E-1  -6.824419498443604E-1   1.946174949407578E-1  
 4.854000000000000E7    -6.885048151016235E-1   1.955662220716476E-1  -1.889307945966721E-1  -6.614476442337036E-1  -1.884326487779617E-1  -6.610372066497803E-1  -6.827397942543030E-1   1.961997598409653E-1  
 4.856000000000000E7    -6.884256601333618E-1   1.970400661230087E-1  -1.892456859350205E-1  -6.603546738624573E-1  -1.894220113754273E-1  -6.598851084709168E-1  -6.834478378295898E-1   1.976339071989059E-1  
 4.858000000000000E7    -6.886739730834961E-1   1.985577046871185E-1  -1.899461597204208E-1  -6.594475507736206E-1  -1.899484694004059E-1  -6.588221788406372E-1  -6.839718818664551E-1   1.989040374755859E-1  
 4.860000000000000E7    -6.895636320114136E-1   1.997567415237427E-1  -1.911917626857758E-1  -6.583343148231506E-1  -1.910001188516617E-1  -6.573448181152344E-1  -6.844767928123474E-1   2.001879960298538E-1  
 4.862000000000000E7    -6.898922324180603E-1   2.012269645929337E-1  -1.919392794370651E-1  -6.570507287979126E-1  -1.915529370307922E-1  -6.560747623443604E-1  -6.848652958869934E-1   2.013819217681885E-1  
 4.864000000000000E7    -6.905933022499085E-1   2.025886476039887E-1  -1.928564012050629E-1  -6.556330919265747E-1  -1.930422335863113E-1  -6.553367376327515E-1  -6.852020621299744E-1   2.026868909597397E-1  
 4.866000000000000E7    -6.911907792091370E-1   2.040108740329742E-1  -1.934668570756912E-1  -6.545978784561157E-1  -1.934792399406433E-1  -6.540416479110718E-1  -6.857057809829712E-1   2.040793895721436E-1  
 4.868000000000000E7    -6.914790868759155E-1   2.052930444478989E-1  -1.943068504333496E-1  -6.533403396606445E-1  -1.943896263837814E-1  -6.528426408767700E-1  -6.863400340080261E-1   2.056471258401871E-1  
 4.870000000000000E7    -6.918798685073853E-1   2.066963613033295E-1  -1.953206658363342E-1  -6.520258784294128E-1  -1.953620463609695E-1  -6.514925956726074E-1  -6.866624951362610E-1   2.068070769309998E-1  
 4.872000000000000E7    -6.925964951515198E-1   2.078973650932312E-1  -1.963197588920593E-1  -6.508241295814514E-1  -1.958875656127930E-1  -6.504170894622803E-1  -6.871849894523621E-1   2.082518041133881E-1  
 4.874000000000000E7    -6.926583051681519E-1   2.090809494256973E-1  -1.970748603343964E-1  -6.497130393981934E-1  -1.967284083366394E-1  -6.489335298538208E-1  -6.875665783882141E-1   2.098211497068405E-1  
 4.876000000000000E7    -6.932466030120850E-1   2.112511694431305E-1  -1.976816058158875E-1  -6.486359834671021E-1  -1.974334418773651E-1  -6.478596329689026E-1  -6.879807710647583E-1   2.110115438699722E-1  
 4.878000000000000E7    -6.935589909553528E-1   2.127378731966019E-1  -1.981319636106491E-1  -6.476484537124634E-1  -1.988145411014557E-1  -6.471950411796570E-1  -6.883580088615418E-1   2.118966132402420E-1  
 4.880000000000000E7    -6.937083601951599E-1   2.135266661643982E-1  -1.994586884975433E-1  -6.460947990417481E-1  -1.990620940923691E-1  -6.459177732467651E-1  -6.886958479881287E-1   2.138207107782364E-1  
 4.882000000000000E7    -6.944116353988648E-1   2.149849236011505E-1  -2.002795785665512E-1  -6.450076103210449E-1  -2.000819742679596E-1  -6.442751288414002E-1  -6.894003748893738E-1   2.150563746690750E-1  
 4.884000000000000E7    -6.946304440498352E-1   2.163758575916290E-1  -2.006726115942001E-1  -6.440738439559937E-1  -2.002579718828201E-1  -6.433664560317993E-1  -6.897208094596863E-1   2.167390882968903E-1  
 4.886000000000000E7    -6.949909925460815E-1   2.175869196653366E-1  -2.016881853342056E-1  -6.427420973777771E-1  -2.019078284502029E-1  -6.420956850051880E-1  -6.901314258575440E-1   2.176088988780975E-1  
 4.888000000000000E7    -6.959943771362305E-1   2.191519588232040E-1  -2.025397419929504E-1  -6.415181756019592E-1  -2.022097855806351E-1  -6.414293050765991E-1  -6.902890205383301E-1   2.194330543279648E-1  
 4.890000000000000E7    -6.958392858505249E-1   2.207385152578354E-1  -2.032184898853302E-1  -6.406354904174805E-1  -2.031146883964539E-1  -6.400282979011536E-1  -6.910088658332825E-1   2.206794023513794E-1  
 4.892000000000000E7    -6.963763833045960E-1   2.221407145261765E-1  -2.044065445661545E-1  -6.397912502288818E-1  -2.041688263416290E-1  -6.389093399047852E-1  -6.911000013351440E-1   2.217014878988266E-1  
 4.894000000000000E7    -6.966026425361633E-1   2.233976274728775E-1  -2.047409117221832E-1  -6.384169459342957E-1  -2.046632468700409E-1  -6.374908089637756E-1  -6.918410062789917E-1   2.233792394399643E-1  
 4.896000000000000E7    -6.970134377479553E-1   2.247054427862167E-1  -2.058447450399399E-1  -6.369048357009888E-1  -2.058264911174774E-1  -6.368637681007385E-1  -6.920981407165527E-1   2.248338162899017E-1  
 4.898000000000000E7    -6.974968910217285E-1   2.262101322412491E-1  -2.062958031892777E-1  -6.356124877929688E-1  -2.061303257942200E-1  -6.352593302726746E-1  -6.923326253890991E-1   2.260647416114807E-1  
 4.900000000000000E7    -6.983653903007507E-1   2.271860986948013E-1  -2.071083635091782E-1  -6.343227028846741E-1  -2.069168835878372E-1  -6.338166594505310E-1  -6.925812363624573E-1   2.276198863983154E-1  
 4.902000000000000E7    -6.979657411575317E-1   2.290791124105454E-1  -2.075137645006180E-1  -6.336015462875366E-1  -2.076026052236557E-1  -6.328169703483582E-1  -6.933156251907349E-1   2.286212593317032E-1  
 4.904000000000000E7    -6.985148787498474E-1   2.303933501243591E-1  -2.084498703479767E-1  -6.320606470108032E-1  -2.083804607391357E-1  -6.316790580749512E-1  -6.934670805931091E-1   2.303145229816437E-1  
 4.906000000000000E7    -6.989566087722778E-1   2.318863421678543E-1  -2.096985131502152E-1  -6.313367486000061E-1  -2.093255817890167E-1  -6.308990120887756E-1  -6.938140392303467E-1   2.316528707742691E-1  
 4.908000000000000E7    -6.997738480567932E-1   2.330601811408997E-1  -2.102659046649933E-1  -6.299239993095398E-1  -2.101474851369858E-1  -6.294845938682556E-1  -6.942703723907471E-1   2.330079078674316E-1  
 4.910000000000000E7    -6.995172500610352E-1   2.346788197755814E-1  -2.109409272670746E-1  -6.287065148353577E-1  -2.111557126045227E-1  -6.282358169555664E-1  -6.948234438896179E-1   2.343811839818955E-1  
 4.912000000000000E7    -6.999026536941528E-1   2.360042482614517E-1  -2.114489674568176E-1  -6.281239390373230E-1  -2.116336673498154E-1  -6.270692348480225E-1  -6.952977180480957E-1   2.354611307382584E-1  
 4.914000000000000E7    -7.003700733184815E-1   2.373584955930710E-1  -2.124192267656326E-1  -6.262214183807373E-1  -2.124555259943008E-1  -6.254096627235413E-1  -6.955425739288330E-1   2.372613102197647E-1  
 4.916000000000000E7    -7.008200883865356E-1   2.387324869632721E-1  -2.132655531167984E-1  -6.253260970115662E-1  -2.130281478166580E-1  -6.249417662620544E-1  -6.958070397377014E-1   2.385733276605606E-1  
 4.918000000000000E7    -7.007516622543335E-1   2.399781197309494E-1  -2.138111889362335E-1  -6.244164109230042E-1  -2.133462429046631E-1  -6.237615942955017E-1  -6.959104537963867E-1   2.401926666498184E-1  
 4.920000000000000E7    -7.016403079032898E-1   2.411614358425140E-1  -2.148798108100891E-1  -6.228633522987366E-1  -2.145300209522247E-1  -6.223018169403076E-1  -6.964199542999268E-1   2.412940859794617E-1  
 4.922000000000000E7    -7.017705440521240E-1   2.430372238159180E-1  -2.150595933198929E-1  -6.216148734092712E-1  -2.154374569654465E-1  -6.213248968124390E-1  -6.967605352401733E-1   2.426351606845856E-1  
 4.924000000000000E7    -7.026408910751343E-1   2.441924959421158E-1  -2.160380333662033E-1  -6.204653382301331E-1  -2.161759734153748E-1  -6.200664639472961E-1  -6.970701813697815E-1   2.440490424633026E-1  
 4.926000000000000E7    -7.026927471160889E-1   2.456038892269135E-1  -2.165083885192871E-1  -6.190015673637390E-1  -2.167296707630158E-1  -6.192138195037842E-1  -6.974828243255615E-1   2.455973476171494E-1  
 4.928000000000000E7    -7.026893496513367E-1   2.471392154693604E-1  -2.173755317926407E-1  -6.183860301971436E-1  -2.173426747322083E-1  -6.175028681755066E-1  -6.980697512626648E-1   2.466567158699036E-1  
 4.930000000000000E7    -7.030941843986511E-1   2.485919743776321E-1  -2.178923785686493E-1  -6.167269945144653E-1  -2.179096043109894E-1  -6.165294647216797E-1  -6.979259252548218E-1   2.482850551605225E-1  
 4.932000000000000E7    -7.033814191818237E-1   2.497135549783707E-1  -2.184404879808426E-1  -6.161075234413147E-1  -2.186433523893356E-1  -6.152987480163574E-1  -6.985857486724854E-1   2.496719211339951E-1  
 4.934000000000000E7    -7.037848830223084E-1   2.510950863361359E-1  -2.194971889257431E-1  -6.143956780433655E-1  -2.192662507295609E-1  -6.140837073326111E-1  -6.988610029220581E-1   2.509262859821320E-1  
 4.936000000000000E7    -7.042255401611328E-1   2.524676620960236E-1  -2.204815000295639E-1  -6.135739088058472E-1  -2.199164777994156E-1  -6.133977770805359E-1  -6.988405585289002E-1   2.523504197597504E-1  
 4.938000000000000E7    -7.046637535095215E-1   2.538151741027832E-1  -2.211575955152512E-1  -6.125608086585999E-1  -2.208383232355118E-1  -6.114535927772522E-1  -6.995606422424316E-1   2.535407841205597E-1  
 4.940000000000000E7    -7.046840190887451E-1   2.554233670234680E-1  -2.212552726268768E-1  -6.112827062606812E-1  -2.216706573963165E-1  -6.105784773826599E-1  -6.999935507774353E-1   2.548296749591827E-1  
 4.942000000000000E7    -7.052698135375977E-1   2.565943002700806E-1  -2.220923900604248E-1  -6.098010540008545E-1  -2.222062647342682E-1  -6.094660162925720E-1  -6.999830007553101E-1   2.566195130348206E-1  
 4.944000000000000E7    -7.050660252571106E-1   2.578480243682861E-1  -2.228996902704239E-1  -6.087681055068970E-1  -2.226163595914841E-1  -6.086042523384094E-1  -6.999223828315735E-1   2.576768398284912E-1  
 4.946000000000000E7    -7.054019570350647E-1   2.594305276870728E-1  -2.236027419567108E-1  -6.075410842895508E-1  -2.233098596334457E-1  -6.068538427352905E-1  -7.006155252456665E-1   2.592395246028900E-1  
 4.948000000000000E7    -7.056025266647339E-1   2.608760595321655E-1  -2.242654263973236E-1  -6.066436767578125E-1  -2.238056808710098E-1  -6.058702468872070E-1  -7.008873820304871E-1   2.607654929161072E-1  
 4.950000000000000E7    -7.059832811355591E-1   2.622397840023041E-1  -2.247256189584732E-1  -6.051439642906189E-1  -2.245222032070160E-1  -6.043800711631775E-1  -7.012157440185547E-1   2.622721791267395E-1  
 4.952000000000000E7    -7.062144875526428E-1   2.637784183025360E-1  -2.256115078926086E-1  -6.040033698081970E-1  -2.254338860511780E-1  -6.037386059761047E-1  -7.015044093132019E-1   2.635098695755005E-1  
 4.954000000000000E7    -7.065957188606262E-1   2.650482356548309E-1  -2.264494001865387E-1  -6.029958724975586E-1  -2.261848151683807E-1  -6.023435592651367E-1  -7.016194462776184E-1   2.649280428886414E-1  
 4.956000000000000E7    -7.070146203041077E-1   2.665278315544128E-1  -2.266906499862671E-1  -6.016513705253601E-1  -2.266113460063934E-1  -6.012372374534607E-1  -7.017408013343811E-1   2.658236324787140E-1  
 4.958000000000000E7    -7.070356011390686E-1   2.680825591087341E-1  -2.272063791751862E-1  -6.005948781967163E-1  -2.276150882244110E-1  -5.996202230453491E-1  -7.023118138313294E-1   2.676215469837189E-1  
 4.960000000000000E7    -7.074490785598755E-1   2.694188058376312E-1  -2.280360311269760E-1  -5.988985300064087E-1  -2.281163930892944E-1  -5.984412431716919E-1  -7.023862600326538E-1   2.686428725719452E-1  
 4.962000000000000E7    -7.079550623893738E-1   2.706401348114014E-1  -2.284025400876999E-1  -5.977619886398315E-1  -2.284181863069534E-1  -5.976192951202393E-1  -7.024295330047607E-1   2.706448435783386E-1  
 4.964000000000000E7    -7.079703807830811E-1   2.716996371746063E-1  -2.296695709228516E-1  -5.966358780860901E-1  -2.292442172765732E-1  -5.962806940078735E-1  -7.029673457145691E-1   2.716875076293945E-1  
 4.966000000000000E7    -7.081849575042725E-1   2.734009325504303E-1  -2.300588488578796E-1  -5.958293676376343E-1  -2.299340516328812E-1  -5.950453281402588E-1  -7.032909393310547E-1   2.732661962509155E-1  
 4.968000000000000E7    -7.083239555358887E-1   2.744870483875275E-1  -2.306837290525436E-1  -5.944334268569946E-1  -2.303910255432129E-1  -5.939782857894898E-1  -7.035943865776062E-1   2.747506499290466E-1  
 4.970000000000000E7    -7.086833119392395E-1   2.758817076683044E-1  -2.313320189714432E-1  -5.932653546333313E-1  -2.310368865728378E-1  -5.927570462226868E-1  -7.035259008407593E-1   2.759903967380524E-1  
 4.972000000000000E7    -7.089715600013733E-1   2.775991559028626E-1  -2.318976074457169E-1  -5.920177698135376E-1  -2.317767441272736E-1  -5.915613770484924E-1  -7.037785053253174E-1   2.772121429443359E-1  
 4.974000000000000E7    -7.093044519424439E-1   2.789841294288635E-1  -2.325706481933594E-1  -5.908107161521912E-1  -2.321885824203491E-1  -5.906282663345337E-1  -7.042236328125000E-1   2.788969576358795E-1  
 4.976000000000000E7    -7.093928456306458E-1   2.803061008453369E-1  -2.330473214387894E-1  -5.898399353027344E-1  -2.325824946165085E-1  -5.891584157943726E-1  -7.045917510986328E-1   2.803478240966797E-1  
 4.978000000000000E7    -7.097370028495789E-1   2.816316783428192E-1  -2.336103767156601E-1  -5.887559652328491E-1  -2.334755361080170E-1  -5.883172154426575E-1  -7.046986222267151E-1   2.815305888652802E-1  
 4.980000000000000E7    -7.100660204887390E-1   2.832517623901367E-1  -2.346421033143997E-1  -5.870727300643921E-1  -2.341675609350205E-1  -5.864559412002564E-1  -7.051720619201660E-1   2.831228077411652E-1  
 4.982000000000000E7    -7.097274065017700E-1   2.846683561801910E-1  -2.348918020725250E-1  -5.860924720764160E-1  -2.347600907087326E-1  -5.857625007629395E-1  -7.048692703247070E-1   2.843502461910248E-1  
 4.984000000000000E7    -7.103731632232666E-1   2.859216332435608E-1  -2.354482263326645E-1  -5.848306417465210E-1  -2.349681109189987E-1  -5.846126675605774E-1  -7.050526142120361E-1   2.857411503791809E-1  
 4.986000000000000E7    -7.102930545806885E-1   2.873153090476990E-1  -2.356969118118286E-1  -5.840817689895630E-1  -2.356081008911133E-1  -5.832130908966065E-1  -7.056195139884949E-1   2.868993580341339E-1  
 4.988000000000000E7    -7.105789780616760E-1   2.889429330825806E-1  -2.365290075540543E-1  -5.826458334922791E-1  -2.363264113664627E-1  -5.821878314018250E-1  -7.055246233940125E-1   2.880618572235107E-1  
 4.990000000000000E7    -7.109910249710083E-1   2.903883159160614E-1  -2.373041361570358E-1  -5.812140107154846E-1  -2.369152158498764E-1  -5.808829069137573E-1  -7.056921720504761E-1   2.897031009197235E-1  
 4.992000000000000E7    -7.108600735664368E-1   2.915713191032410E-1  -2.379338592290878E-1  -5.806277990341187E-1  -2.377216219902039E-1  -5.798653960227966E-1  -7.061792612075806E-1   2.908075153827667E-1  
 4.994000000000000E7    -7.114126682281494E-1   2.929114997386932E-1  -2.381515353918076E-1  -5.792363882064819E-1  -2.383595854043961E-1  -5.786313414573669E-1  -7.061942219734192E-1   2.924343347549439E-1  
 4.996000000000000E7    -7.112695574760437E-1   2.942074537277222E-1  -2.394606173038483E-1  -5.780116915702820E-1  -2.387683689594269E-1  -5.774863362312317E-1  -7.063800096511841E-1   2.939091324806213E-1  
 4.998000000000000E7    -7.116308212280273E-1   2.958763539791107E-1  -2.394031435251236E-1  -5.763828754425049E-1  -2.389698624610901E-1  -5.759273767471314E-1  -7.067027688026428E-1   2.954602837562561E-1  
 5.000000000000000E7    -7.115808725357056E-1   2.970572113990784E-1  -2.397542893886566E-1  -5.753924250602722E-1  -2.401665002107620E-1  -5.751079320907593E-1  -7.066634893417358E-1   2.966549694538117E-1  
 5.002000000000000E7    -7.119646668434143E-1   2.986259162425995E-1  -2.406643033027649E-1  -5.743827223777771E-1  -2.404182404279709E-1  -5.740243792533875E-1  -7.068967223167419E-1   2.982215583324432E-1  
 5.004000000000000E7    -7.124552130699158E-1   2.998898625373840E-1  -2.412563711404800E-1  -5.730484127998352E-1  -2.407819181680679E-1  -5.727311968803406E-1  -7.072004079818726E-1   2.993361055850983E-1  
 5.006000000000000E7    -7.123619318008423E-1   3.014470934867859E-1  -2.420578747987747E-1  -5.721511244773865E-1  -2.417204678058624E-1  -5.715250968933106E-1  -7.076404690742493E-1   3.010553419589996E-1  
 5.008000000000000E7    -7.125633955001831E-1   3.026187121868134E-1  -2.425736933946610E-1  -5.707035064697266E-1  -2.420573830604553E-1  -5.704222917556763E-1  -7.072950601577759E-1   3.022529780864716E-1  
 5.010000000000000E7    -7.124953269958496E-1   3.041385114192963E-1  -2.427014857530594E-1  -5.698623061180115E-1  -2.425509393215179E-1  -5.694373846054077E-1  -7.076035737991333E-1   3.035687804222107E-1  
 5.012000000000000E7    -7.129583954811096E-1   3.050844967365265E-1  -2.434455454349518E-1  -5.683300495147705E-1  -2.427751272916794E-1  -5.676318407058716E-1  -7.078286409378052E-1   3.054052889347076E-1  
 5.014000000000000E7    -7.130963206291199E-1   3.068330883979797E-1  -2.440316826105118E-1  -5.667929649353027E-1  -2.434107214212418E-1  -5.664995312690735E-1  -7.080615758895874E-1   3.062466382980347E-1  
 5.016000000000000E7    -7.133915424346924E-1   3.081553578376770E-1  -2.445402443408966E-1  -5.657913088798523E-1  -2.444192469120026E-1  -5.655513405799866E-1  -7.079249620437622E-1   3.077724575996399E-1  
 5.018000000000000E7    -7.133664488792419E-1   3.098704516887665E-1  -2.450005263090134E-1  -5.649321675300598E-1  -2.449095398187637E-1  -5.640913248062134E-1  -7.085598111152649E-1   3.092134892940521E-1  
 5.020000000000000E7    -7.134173512458801E-1   3.108270168304443E-1  -2.456581741571426E-1  -5.636607408523560E-1  -2.452979981899262E-1  -5.633466243743897E-1  -7.083728313446045E-1   3.106289803981781E-1  
 5.022000000000000E7    -7.135692834854126E-1   3.127604722976685E-1  -2.459499686956406E-1  -5.623964071273804E-1  -2.460018098354340E-1  -5.617214441299439E-1  -7.090342640876770E-1   3.119028806686401E-1  
 5.024000000000000E7    -7.139157652854919E-1   3.140552043914795E-1  -2.465287148952484E-1  -5.611645579338074E-1  -2.464952617883682E-1  -5.606591105461121E-1  -7.086058855056763E-1   3.130179941654205E-1  
 5.026000000000000E7    -7.139362096786499E-1   3.155862390995026E-1  -2.472105920314789E-1  -5.600262284278870E-1  -2.465901523828507E-1  -5.596417188644409E-1  -7.089821100234985E-1   3.147275149822235E-1  
 5.028000000000000E7    -7.137396335601807E-1   3.165287971496582E-1  -2.475370019674301E-1  -5.590838789939880E-1  -2.471525520086289E-1  -5.585118532180786E-1  -7.090513110160828E-1   3.163527548313141E-1  
 5.030000000000000E7    -7.140558362007141E-1   3.184075057506561E-1  -2.478493750095367E-1  -5.578233003616333E-1  -2.478151917457581E-1  -5.571916699409485E-1  -7.093416452407837E-1   3.173333108425140E-1  
 5.032000000000000E7    -7.139421105384827E-1   3.194569647312164E-1  -2.486689388751984E-1  -5.566410422325134E-1  -2.484236657619476E-1  -5.562138557434082E-1  -7.095343470573425E-1   3.186296522617340E-1  
 5.034000000000000E7    -7.141022682189941E-1   3.208065032958984E-1  -2.492479681968689E-1  -5.554217100143433E-1  -2.488068342208862E-1  -5.548968911170960E-1  -7.097067832946777E-1   3.203591704368591E-1  
 5.036000000000000E7    -7.143695354461670E-1   3.225091397762299E-1  -2.494910210371018E-1  -5.538997054100037E-1  -2.492277622222900E-1  -5.536195635795593E-1  -7.094579339027405E-1   3.214051723480225E-1  
 5.038000000000000E7    -7.145593166351318E-1   3.235222697257996E-1  -2.499341666698456E-1  -5.529818534851074E-1  -2.497997432947159E-1  -5.523476600646973E-1  -7.095095515251160E-1   3.229220211505890E-1  
 5.040000000000000E7    -7.145375609397888E-1   3.249829113483429E-1  -2.506626546382904E-1  -5.517348051071167E-1  -2.504415512084961E-1  -5.512697100639343E-1  -7.096334695816040E-1   3.246339261531830E-1  
 5.042000000000000E7    -7.148236036300659E-1   3.258697986602783E-1  -2.514692842960358E-1  -5.506564378738403E-1  -2.507225573062897E-1  -5.499950051307678E-1  -7.099004387855530E-1   3.256459534168243E-1  
 5.044000000000000E7    -7.146388292312622E-1   3.278256058692932E-1  -2.516606748104096E-1  -5.493991374969482E-1  -2.518194317817688E-1  -5.488819479942322E-1  -7.099450826644898E-1   3.269248902797699E-1  
 5.046000000000000E7    -7.146843075752258E-1   3.288588523864746E-1  -2.520122230052948E-1  -5.483383536338806E-1  -2.517604827880859E-1  -5.481964945793152E-1  -7.099819779396057E-1   3.282284140586853E-1  
 5.048000000000000E7    -7.148618102073669E-1   3.302807211875916E-1  -2.526345252990723E-1  -5.472173690795898E-1  -2.528142035007477E-1  -5.469461679458618E-1  -7.099728584289551E-1   3.295235931873322E-1  
 5.050000000000000E7    -7.148150801658630E-1   3.316473960876465E-1  -2.532288134098053E-1  -5.459995865821838E-1  -2.528339624404907E-1  -5.451224446296692E-1  -7.103541493415833E-1   3.308707177639008E-1  
 5.052000000000000E7    -7.153032422065735E-1   3.333395421504974E-1  -2.536122500896454E-1  -5.442656874656677E-1  -2.528475821018219E-1  -5.442572832107544E-1  -7.098262310028076E-1   3.325105011463165E-1  
 5.054000000000000E7    -7.153413295745850E-1   3.346916437149048E-1  -2.541449368000031E-1  -5.435889959335327E-1  -2.539317309856415E-1  -5.431590080261231E-1  -7.104669809341431E-1   3.336532711982727E-1  
 5.056000000000000E7    -7.151007056236267E-1   3.360689580440521E-1  -2.543883919715881E-1  -5.425552129745483E-1  -2.543339431285858E-1  -5.415237545967102E-1  -7.105886340141296E-1   3.352076411247253E-1  
 5.058000000000000E7    -7.153163552284241E-1   3.372360467910767E-1  -2.546494901180267E-1  -5.410948395729065E-1  -2.543077468872070E-1  -5.405498147010803E-1  -7.104952335357666E-1   3.366934955120087E-1  
 5.060000000000000E7    -7.153896093368530E-1   3.387769460678101E-1  -2.553629279136658E-1  -5.400452017784119E-1  -2.552499473094940E-1  -5.396176576614380E-1  -7.105511426925659E-1   3.382086753845215E-1  
 5.062000000000000E7    -7.155463695526123E-1   3.398905396461487E-1  -2.557449638843536E-1  -5.389241576194763E-1  -2.552402913570404E-1  -5.383675694465637E-1  -7.105597257614136E-1   3.395880162715912E-1  
 5.064000000000000E7    -7.153594493865967E-1   3.416436314582825E-1  -2.561120390892029E-1  -5.375118255615234E-1  -2.558858096599579E-1  -5.369753241539002E-1  -7.104862332344055E-1   3.408147990703583E-1  
 5.066000000000000E7    -7.154245972633362E-1   3.429194390773773E-1  -2.567419111728668E-1  -5.366333127021790E-1  -2.565578222274780E-1  -5.361109375953674E-1  -7.106704115867615E-1   3.421786725521088E-1  
 5.068000000000000E7    -7.154804468154907E-1   3.441959321498871E-1  -2.568558156490326E-1  -5.354108214378357E-1  -2.567401826381683E-1  -5.350014567375183E-1  -7.106882333755493E-1   3.435227572917938E-1  
 5.070000000000000E7    -7.154757380485535E-1   3.457083702087402E-1  -2.572944164276123E-1  -5.340115427970886E-1  -2.574118375778198E-1  -5.334046483039856E-1  -7.108612656593323E-1   3.448006510734558E-1  
 5.072000000000000E7    -7.158209681510925E-1   3.474091589450836E-1  -2.577807903289795E-1  -5.330358147621155E-1  -2.577056586742401E-1  -5.325254201889038E-1  -7.110041379928589E-1   3.462171852588654E-1  
 5.074000000000000E7    -7.158554792404175E-1   3.484340608119965E-1  -2.584756910800934E-1  -5.317849516868591E-1  -2.580764293670654E-1  -5.313133597373962E-1  -7.107421159744263E-1   3.473432362079620E-1  
 5.076000000000000E7    -7.156271934509277E-1   3.499612808227539E-1  -2.584510445594788E-1  -5.309206247329712E-1  -2.587580680847168E-1  -5.304074287414551E-1  -7.110494971275330E-1   3.487636148929596E-1  
 5.078000000000000E7    -7.159061431884766E-1   3.510282039642334E-1  -2.589299082756043E-1  -5.292524099349976E-1  -2.585424780845642E-1  -5.290868878364563E-1  -7.110863924026489E-1   3.506587445735931E-1  
 5.080000000000000E7    -7.158111333847046E-1   3.526536226272583E-1  -2.592737078666687E-1  -5.281312465667725E-1  -2.589254975318909E-1  -5.275627970695496E-1  -7.110052108764648E-1   3.518869876861572E-1  
 5.082000000000000E7    -7.158177495002747E-1   3.541102409362793E-1  -2.598194479942322E-1  -5.269404053688049E-1  -2.599368095397949E-1  -5.266849994659424E-1  -7.110773324966431E-1   3.528001606464386E-1  
 5.084000000000000E7    -7.157779335975647E-1   3.554513454437256E-1  -2.605800926685333E-1  -5.260601043701172E-1  -2.602075338363648E-1  -5.256190299987793E-1  -7.113180756568909E-1   3.541465103626251E-1  
 5.086000000000000E7    -7.160007357597351E-1   3.566634356975555E-1  -2.608699500560761E-1  -5.245249867439270E-1  -2.608215808868408E-1  -5.241897106170654E-1  -7.114299535751343E-1   3.557890951633453E-1  
 5.088000000000000E7    -7.159840464591980E-1   3.580109179019928E-1  -2.612303495407105E-1  -5.234302878379822E-1  -2.609974145889282E-1  -5.231162905693054E-1  -7.111896276473999E-1   3.569295704364777E-1  
 5.090000000000000E7    -7.159821391105652E-1   3.589615523815155E-1  -2.616205811500549E-1  -5.223366618156433E-1  -2.614124715328217E-1  -5.217875242233276E-1  -7.111463546752930E-1   3.585678637027741E-1  
 5.092000000000000E7    -7.156338095664978E-1   3.607790768146515E-1  -2.621482610702515E-1  -5.213087201118469E-1  -2.614766955375671E-1  -5.207599401473999E-1  -7.112478613853455E-1   3.600228428840637E-1  
 5.094000000000000E7    -7.159942984580994E-1   3.620291650295258E-1  -2.624145150184631E-1  -5.201846957206726E-1  -2.621508538722992E-1  -5.198602676391602E-1  -7.115592360496521E-1   3.613184690475464E-1  
 5.096000000000000E7    -7.158076763153076E-1   3.635018467903137E-1  -2.624629735946655E-1  -5.187449455261231E-1  -2.625915408134460E-1  -5.184609293937683E-1  -7.113833427429199E-1   3.627145290374756E-1  
 5.098000000000000E7    -7.159718871116638E-1   3.647583425045013E-1  -2.632228434085846E-1  -5.177891850471497E-1  -2.627505064010620E-1  -5.175905823707581E-1  -7.111355066299439E-1   3.641884922981262E-1  
 5.100000000000000E7    -7.157348394393921E-1   3.664538562297821E-1  -2.637004554271698E-1  -5.163720846176148E-1  -2.633907198905945E-1  -5.161844491958618E-1  -7.111518979072571E-1   3.652776181697846E-1  
 5.102000000000000E7    -7.157799601554871E-1   3.677441775798798E-1  -2.637510001659393E-1  -5.152224898338318E-1  -2.635959982872009E-1  -5.144577026367188E-1  -7.113220095634460E-1   3.667259216308594E-1  
 5.104000000000000E7    -7.160893082618713E-1   3.690570294857025E-1  -2.642313539981842E-1  -5.140360593795776E-1  -2.639772891998291E-1  -5.139054059982300E-1  -7.109499573707581E-1   3.681059479713440E-1  
 5.106000000000000E7    -7.156662344932556E-1   3.704565167427063E-1  -2.650808393955231E-1  -5.131672620773315E-1  -2.650945186614990E-1  -5.125026106834412E-1  -7.110924720764160E-1   3.694042861461639E-1  
 5.108000000000000E7    -7.157957553863525E-1   3.716878294944763E-1  -2.652750015258789E-1  -5.118228197097778E-1  -2.649701237678528E-1  -5.114160180091858E-1  -7.112228274345398E-1   3.707742691040039E-1  
 5.110000000000000E7    -7.157569527626038E-1   3.729042112827301E-1  -2.660112380981445E-1  -5.108590126037598E-1  -2.651582360267639E-1  -5.104255080223084E-1  -7.110468745231628E-1   3.723854124546051E-1  
 5.112000000000000E7    -7.158235907554627E-1   3.742375969886780E-1  -2.658391892910004E-1  -5.093114376068115E-1  -2.656184732913971E-1  -5.092049837112427E-1  -7.110326886177063E-1   3.734820485115051E-1  
 5.114000000000000E7    -7.158905863761902E-1   3.757975697517395E-1  -2.661264240741730E-1  -5.085345506668091E-1  -2.657902836799622E-1  -5.079963207244873E-1  -7.110384106636047E-1   3.749924302101135E-1  
 5.116000000000000E7    -7.156764864921570E-1   3.770779371261597E-1  -2.667168378829956E-1  -5.073289871215820E-1  -2.661391496658325E-1  -5.068021416664124E-1  -7.112143039703369E-1   3.761519789695740E-1  
 5.118000000000000E7    -7.155342698097229E-1   3.782344162464142E-1  -2.668063342571259E-1  -5.059458613395691E-1  -2.666952908039093E-1  -5.054687261581421E-1  -7.112771868705750E-1   3.775884807109833E-1  
 5.120000000000000E7    -7.155237793922424E-1   3.798638880252838E-1  -2.673718333244324E-1  -5.051107406616211E-1  -2.671306133270264E-1  -5.044494867324829E-1  -7.107663750648499E-1   3.786339461803436E-1  
 5.122000000000000E7    -7.156831622123718E-1   3.812612593173981E-1  -2.674896419048309E-1  -5.037215948104858E-1  -2.670793831348419E-1  -5.031131505966187E-1  -7.107203006744385E-1   3.801446259021759E-1  
 5.124000000000000E7    -7.152010202407837E-1   3.825909197330475E-1  -2.680621743202210E-1  -5.023714303970337E-1  -2.677367627620697E-1  -5.022220611572266E-1  -7.109162211418152E-1   3.816822469234467E-1  
 5.126000000000000E7    -7.154202461242676E-1   3.840751349925995E-1  -2.686449289321899E-1  -5.013715624809265E-1  -2.682788372039795E-1  -5.007566213607788E-1  -7.108697891235352E-1   3.828200697898865E-1  
 5.128000000000000E7    -7.154859304428101E-1   3.849066197872162E-1  -2.686397135257721E-1  -5.003637075424194E-1  -2.681444287300110E-1  -4.999372661113739E-1  -7.108512520790100E-1   3.843099772930145E-1  
 5.130000000000000E7    -7.155581116676331E-1   3.863430321216583E-1  -2.693575620651245E-1  -4.991494119167328E-1  -2.686903476715088E-1  -4.989673495292664E-1  -7.106386423110962E-1   3.859062492847443E-1  
 5.132000000000000E7    -7.154757380485535E-1   3.877303004264832E-1  -2.694849967956543E-1  -4.980430006980896E-1  -2.690424919128418E-1  -4.975957274436951E-1  -7.105074524879456E-1   3.868577778339386E-1  
 5.134000000000000E7    -7.153391838073731E-1   3.892578184604645E-1  -2.693871855735779E-1  -4.965064525604248E-1  -2.690820097923279E-1  -4.962249398231506E-1  -7.106806635856628E-1   3.882057964801788E-1  
 5.136000000000000E7    -7.150706648826599E-1   3.907994031906128E-1  -2.698698937892914E-1  -4.956159889698029E-1  -2.696307897567749E-1  -4.957751929759979E-1  -7.104062438011169E-1   3.894872069358826E-1  
 5.138000000000000E7    -7.153820991516113E-1   3.922283649444580E-1  -2.701737880706787E-1  -4.945572614669800E-1  -2.702019214630127E-1  -4.941053390502930E-1  -7.106395959854126E-1   3.910811841487885E-1  
 5.140000000000000E7    -7.150242328643799E-1   3.936399519443512E-1  -2.701391577720642E-1  -4.932903051376343E-1  -2.704097032546997E-1  -4.930119514465332E-1  -7.103901505470276E-1   3.921521306037903E-1  
 5.142000000000000E7    -7.148892879486084E-1   3.946032822132111E-1  -2.706750333309174E-1  -4.923328757286072E-1  -2.706843912601471E-1  -4.915714859962463E-1  -7.104514837265015E-1   3.939483165740967E-1  
 5.144000000000000E7    -7.148969769477844E-1   3.961977064609528E-1  -2.711015343666077E-1  -4.908317625522614E-1  -2.708135545253754E-1  -4.905499517917633E-1  -7.102312445640564E-1   3.949719965457916E-1  
 5.146000000000000E7    -7.147811055183411E-1   3.976454734802246E-1  -2.716485857963562E-1  -4.896344542503357E-1  -2.710567414760590E-1  -4.893189370632172E-1  -7.103433609008789E-1   3.961959481239319E-1  
 5.148000000000000E7    -7.145082354545593E-1   3.986774086952210E-1  -2.719102501869202E-1  -4.885460138320923E-1  -2.717078626155853E-1  -4.880508780479431E-1  -7.102565169334412E-1   3.974070847034454E-1  
 5.150000000000000E7    -7.147675752639771E-1   4.002617597579956E-1  -2.717103958129883E-1  -4.875868856906891E-1  -2.716023325920105E-1  -4.872370362281799E-1  -7.102457880973816E-1   3.989673256874085E-1  
 5.152000000000000E7    -7.143965363502502E-1   4.012877941131592E-1  -2.723626494407654E-1  -4.865210652351379E-1  -2.719769775867462E-1  -4.860407114028931E-1  -7.101886868476868E-1   4.007265865802765E-1  
 5.154000000000000E7    -7.144879102706909E-1   4.024232029914856E-1  -2.726016044616699E-1  -4.851827025413513E-1  -2.723610699176788E-1  -4.850631058216095E-1  -7.097330689430237E-1   4.018072187900543E-1  
 5.156000000000000E7    -7.146549820899963E-1   4.040342569351196E-1  -2.728738784790039E-1  -4.840327203273773E-1  -2.722991704940796E-1  -4.839157164096832E-1  -7.096125483512878E-1   4.032523930072784E-1  
 5.158000000000000E7    -7.142719626426697E-1   4.054936468601227E-1  -2.734276950359345E-1  -4.829543828964233E-1  -2.727193236351013E-1  -4.825103580951691E-1  -7.095584273338318E-1   4.045419096946716E-1  
 5.160000000000000E7    -7.142238616943359E-1   4.069327414035797E-1  -2.735891044139862E-1  -4.817219674587250E-1  -2.734234631061554E-1  -4.812224507331848E-1  -7.098656892776489E-1   4.058690071105957E-1  
 5.162000000000000E7    -7.138757109642029E-1   4.081926941871643E-1  -2.736781537532806E-1  -4.806736707687378E-1  -2.732737958431244E-1  -4.803805351257324E-1  -7.094517946243286E-1   4.071418344974518E-1  
 5.164000000000000E7    -7.140541076660156E-1   4.096598923206329E-1  -2.742516994476318E-1  -4.794633984565735E-1  -2.736102342605591E-1  -4.790909886360169E-1  -7.092477083206177E-1   4.084975421428680E-1  
 5.166000000000000E7    -7.137023210525513E-1   4.106892347335815E-1  -2.743074893951416E-1  -4.782226383686066E-1  -2.737644314765930E-1  -4.778443574905396E-1  -7.094034552574158E-1   4.098461866378784E-1  
 5.168000000000000E7    -7.138080596923828E-1   4.123193621635437E-1  -2.749160826206207E-1  -4.771113097667694E-1  -2.744253873825073E-1  -4.770850837230682E-1  -7.090242505073547E-1   4.110014438629150E-1  
 5.170000000000000E7    -7.136620879173279E-1   4.134820401668549E-1  -2.747243046760559E-1  -4.760376513004303E-1  -2.744387686252594E-1  -4.756334424018860E-1  -7.087689042091370E-1   4.124538302421570E-1  
 5.172000000000000E7    -7.130945324897766E-1   4.150438606739044E-1  -2.752497792243958E-1  -4.747097194194794E-1  -2.748137116432190E-1  -4.745225310325623E-1  -7.089163064956665E-1   4.134874641895294E-1  
 5.174000000000000E7    -7.136634588241577E-1   4.164148271083832E-1  -2.753171920776367E-1  -4.735934138298035E-1  -2.753931581974030E-1  -4.732618927955627E-1  -7.087103724479675E-1   4.152357280254364E-1  
 5.176000000000000E7    -7.133827805519104E-1   4.177492260932922E-1  -2.754650712013245E-1  -4.725720584392548E-1  -2.751694023609161E-1  -4.721447229385376E-1  -7.085513472557068E-1   4.166195392608643E-1  
 5.178000000000000E7    -7.130202651023865E-1   4.187466800212860E-1  -2.760178148746491E-1  -4.714006781578064E-1  -2.754423022270203E-1  -4.709403216838837E-1  -7.084934115409851E-1   4.178913235664368E-1  
 5.180000000000000E7    -7.129098176956177E-1   4.202399253845215E-1  -2.759476900100708E-1  -4.700464010238648E-1  -2.760332822799683E-1  -4.698790013790131E-1  -7.083780765533447E-1   4.191178977489471E-1  
 5.182000000000000E7    -7.127216458320618E-1   4.214519858360291E-1  -2.767812013626099E-1  -4.692013859748840E-1  -2.759050428867340E-1  -4.689311385154724E-1  -7.086505293846130E-1   4.204778671264648E-1  
 5.184000000000000E7    -7.128217220306397E-1   4.228027760982513E-1  -2.770641744136810E-1  -4.679121673107147E-1  -2.762756943702698E-1  -4.675741493701935E-1  -7.080461382865906E-1   4.216915071010590E-1  
 5.186000000000000E7    -7.125040888786316E-1   4.240053594112396E-1  -2.772286832332611E-1  -4.670803248882294E-1  -2.768490910530090E-1  -4.665064513683319E-1  -7.078016400337219E-1   4.230634868144989E-1  
 5.188000000000000E7    -7.123419046401978E-1   4.254505336284638E-1  -2.774278819561005E-1  -4.656158387660980E-1  -2.771249711513519E-1  -4.654880464076996E-1  -7.079560756683350E-1   4.245526790618897E-1  
 5.190000000000000E7    -7.123036384582520E-1   4.267891347408295E-1  -2.778024971485138E-1  -4.646234810352325E-1  -2.774581909179688E-1  -4.644086062908173E-1  -7.079408764839172E-1   4.256592690944672E-1  
 5.192000000000000E7    -7.122314572334290E-1   4.280489385128021E-1  -2.777138948440552E-1  -4.634736180305481E-1  -2.775885760784149E-1  -4.632691442966461E-1  -7.075677514076233E-1   4.269529879093170E-1  
 5.194000000000000E7    -7.117362618446350E-1   4.297519326210022E-1  -2.779647409915924E-1  -4.618676602840424E-1  -2.776681184768677E-1  -4.618255496025085E-1  -7.071950435638428E-1   4.282630681991577E-1  
 5.196000000000000E7    -7.117239236831665E-1   4.309169352054596E-1  -2.779530286788940E-1  -4.615249037742615E-1  -2.777343094348908E-1  -4.610572159290314E-1  -7.069793939590454E-1   4.294036626815796E-1  
 5.198000000000000E7    -7.115176916122437E-1   4.323803186416626E-1  -2.781113982200623E-1  -4.600811898708344E-1  -2.779472470283508E-1  -4.600058197975159E-1  -7.073261737823486E-1   4.311348795890808E-1  
 5.200000000000000E7    -7.110167145729065E-1   4.334960579872131E-1  -2.784583568572998E-1  -4.591663777828217E-1  -2.781857252120972E-1  -4.584973752498627E-1  -7.068152427673340E-1   4.322878420352936E-1  
 5.202000000000000E7    -7.112112641334534E-1   4.347830116748810E-1  -2.788798213005066E-1  -4.575488865375519E-1  -2.785805761814117E-1  -4.574109017848969E-1  -7.067185640335083E-1   4.335334002971649E-1  
 5.204000000000000E7    -7.109461426734924E-1   4.364595711231232E-1  -2.787742018699646E-1  -4.567419290542603E-1  -2.787501215934753E-1  -4.564403891563416E-1  -7.062792778015137E-1   4.348438382148743E-1  
 5.206000000000000E7    -7.109894156455994E-1   4.373713135719299E-1  -2.791502177715302E-1  -4.554334878921509E-1  -2.787123024463654E-1  -4.552697539329529E-1  -7.063790559768677E-1   4.361481070518494E-1  
 5.208000000000000E7    -7.109177112579346E-1   4.386158287525177E-1  -2.795309126377106E-1  -4.542901217937470E-1  -2.791894078254700E-1  -4.541876316070557E-1  -7.058469057083130E-1   4.377288222312927E-1  
 5.210000000000000E7    -7.105467319488525E-1   4.397807419300079E-1  -2.798206210136414E-1  -4.535959362983704E-1  -2.795336842536926E-1  -4.530004560947418E-1  -7.061700820922852E-1   4.389099776744843E-1  
 5.212000000000000E7    -7.101222872734070E-1   4.410805702209473E-1  -2.798947393894196E-1  -4.523790180683136E-1  -2.796725332736969E-1  -4.520324766635895E-1  -7.060593366622925E-1   4.403701126575470E-1  
 5.214000000000000E7    -7.100026607513428E-1   4.430203139781952E-1  -2.802897691726685E-1  -4.511807560920715E-1  -2.801384925842285E-1  -4.506346881389618E-1  -7.058200836181641E-1   4.414783418178558E-1  
 5.216000000000000E7    -7.098352313041687E-1   4.440526962280273E-1  -2.797991633415222E-1  -4.500831365585327E-1  -2.798807024955750E-1  -4.496653974056244E-1  -7.054998874664307E-1   4.425617456436157E-1  
 5.218000000000000E7    -7.096356153488159E-1   4.451365470886231E-1  -2.801628708839417E-1  -4.488959908485413E-1  -2.801565229892731E-1  -4.486148953437805E-1  -7.051962614059448E-1   4.440916478633881E-1  
 5.220000000000000E7    -7.094495296478272E-1   4.463066756725311E-1  -2.804954946041107E-1  -4.476836621761322E-1  -2.803082764148712E-1  -4.474365413188934E-1  -7.050687074661255E-1   4.453345537185669E-1  
 5.222000000000000E7    -7.092954516410828E-1   4.478942155838013E-1  -2.809925675392151E-1  -4.466388821601868E-1  -2.808375358581543E-1  -4.462274610996246E-1  -7.046365141868591E-1   4.466640055179596E-1  
 5.224000000000000E7    -7.092474102973938E-1   4.491434991359711E-1  -2.808300256729126E-1  -4.457813501358032E-1  -2.804956138134003E-1  -4.454610347747803E-1  -7.045731544494629E-1   4.481184780597687E-1  
 5.226000000000000E7    -7.088772654533386E-1   4.504840373992920E-1  -2.814460694789887E-1  -4.442643523216248E-1  -2.810646295547485E-1  -4.439070522785187E-1  -7.043865323066711E-1   4.493331909179688E-1  
 5.228000000000000E7    -7.086712121963501E-1   4.517158269882202E-1  -2.814200222492218E-1  -4.430612921714783E-1  -2.807968258857727E-1  -4.429402351379395E-1  -7.040060162544251E-1   4.505668580532074E-1  
 5.230000000000000E7    -7.086951136589050E-1   4.532627761363983E-1  -2.815066277980804E-1  -4.419324398040772E-1  -2.811385989189148E-1  -4.418191313743591E-1  -7.040323615074158E-1   4.519272744655609E-1  
 5.232000000000000E7    -7.080074548721314E-1   4.544419348239899E-1  -2.817183732986450E-1  -4.408438801765442E-1  -2.818513214588165E-1  -4.406226575374603E-1  -7.038969993591309E-1   4.527702033519745E-1  
 5.234000000000000E7    -7.076835036277771E-1   4.556684494018555E-1  -2.818122506141663E-1  -4.398185014724731E-1  -2.817572355270386E-1  -4.393652379512787E-1  -7.037127017974854E-1   4.545615911483765E-1  
 5.236000000000000E7    -7.079833149909973E-1   4.569579660892487E-1  -2.823080718517304E-1  -4.388255476951599E-1  -2.818130552768707E-1  -4.387012720108032E-1  -7.032667398452759E-1   4.558449089527130E-1  
 5.238000000000000E7    -7.073896527290344E-1   4.581673443317413E-1  -2.822775244712830E-1  -4.378399550914764E-1  -2.820205688476563E-1  -4.373888075351715E-1  -7.028812766075134E-1   4.572175741195679E-1  
 5.240000000000000E7    -7.069468498229981E-1   4.595176875591278E-1  -2.821416854858398E-1  -4.365918636322022E-1  -2.821884453296661E-1  -4.362010359764099E-1  -7.032081484794617E-1   4.584050774574280E-1  
 5.242000000000000E7    -7.069005966186523E-1   4.610010087490082E-1  -2.826614379882813E-1  -4.352613389492035E-1  -2.824141681194305E-1  -4.350171089172363E-1  -7.026664614677429E-1   4.594339132308960E-1  
 5.244000000000000E7    -7.067959308624268E-1   4.620518088340759E-1  -2.826262414455414E-1  -4.342316091060638E-1  -2.823210656642914E-1  -4.339058399200440E-1  -7.023645639419556E-1   4.607828855514526E-1  
 5.246000000000000E7    -7.066521644592285E-1   4.634672105312347E-1  -2.830187082290649E-1  -4.329187870025635E-1  -2.827528119087219E-1  -4.328140318393707E-1  -7.021995782852173E-1   4.623721539974213E-1  
 5.248000000000000E7    -7.061196565628052E-1   4.646694660186768E-1  -2.834658622741699E-1  -4.322183728218079E-1  -2.829199135303497E-1  -4.317679703235626E-1  -7.019477486610413E-1   4.636108875274658E-1  
 5.250000000000000E7    -7.061455249786377E-1   4.661624133586884E-1  -2.831652760505676E-1  -4.307298660278320E-1  -2.830128073692322E-1  -4.309912919998169E-1  -7.013637423515320E-1   4.646472632884979E-1  
 5.252000000000000E7    -7.060148715972900E-1   4.674609601497650E-1  -2.832042276859283E-1  -4.296292662620544E-1  -2.828787565231323E-1  -4.296092689037323E-1  -7.015272974967957E-1   4.662114381790161E-1  
 5.254000000000000E7    -7.057004570960999E-1   4.685619473457336E-1  -2.836202383041382E-1  -4.289382696151733E-1  -2.835952639579773E-1  -4.290756583213806E-1  -7.012937068939209E-1   4.673880338668823E-1  
 5.256000000000000E7    -7.054181098937988E-1   4.703408479690552E-1  -2.838485836982727E-1  -4.276935458183289E-1  -2.835476398468018E-1  -4.274716675281525E-1  -7.009207606315613E-1   4.688543975353241E-1  
 5.258000000000000E7    -7.049893140792847E-1   4.711457192897797E-1  -2.836800515651703E-1  -4.265628755092621E-1  -2.832052707672119E-1  -4.262847602367401E-1  -7.005636096000671E-1   4.699289500713348E-1  
 5.260000000000000E7    -7.048317193984985E-1   4.723090529441834E-1  -2.837189435958862E-1  -4.252903461456299E-1  -2.836704552173615E-1  -4.251537919044495E-1  -7.007782459259033E-1   4.711010158061981E-1  
 5.262000000000000E7    -7.045845985412598E-1   4.738397002220154E-1  -2.837718129158020E-1  -4.244301319122315E-1  -2.836548686027527E-1  -4.242140650749207E-1  -7.003191113471985E-1   4.725858867168427E-1  
 5.264000000000000E7    -7.043243050575256E-1   4.749146401882172E-1  -2.842398285865784E-1  -4.231349825859070E-1  -2.840611934661865E-1  -4.230589866638184E-1  -6.998955607414246E-1   4.739661216735840E-1  
 5.266000000000000E7    -7.040497660636902E-1   4.761683940887451E-1  -2.841879725456238E-1  -4.219362139701843E-1  -2.841589450836182E-1  -4.218055605888367E-1  -6.996136903762817E-1   4.751428961753845E-1  
 5.268000000000000E7    -7.037475705146790E-1   4.775565862655640E-1  -2.842186391353607E-1  -4.211205840110779E-1  -2.841696441173554E-1  -4.209512472152710E-1  -6.995586156845093E-1   4.763385951519013E-1  
 5.270000000000000E7    -7.035208940505981E-1   4.791376888751984E-1  -2.844384908676148E-1  -4.201098382472992E-1  -2.841466367244721E-1  -4.196443259716034E-1  -6.989725828170776E-1   4.777467846870422E-1  
 5.272000000000000E7    -7.031854987144470E-1   4.802550077438355E-1  -2.846914827823639E-1  -4.187480211257935E-1  -2.843262553215027E-1  -4.184117913246155E-1  -6.987476944923401E-1   4.789486229419708E-1  
 5.274000000000000E7    -7.028370499610901E-1   4.812057614326477E-1  -2.847718000411987E-1  -4.175759553909302E-1  -2.841571271419525E-1  -4.176083803176880E-1  -6.983525753021240E-1   4.804569482803345E-1  
 5.276000000000000E7    -7.026710510253906E-1   4.825178384780884E-1  -2.849748134613037E-1  -4.166616499423981E-1  -2.845927774906158E-1  -4.162364602088928E-1  -6.984654068946838E-1   4.815944731235504E-1  
 5.278000000000000E7    -7.022068500518799E-1   4.840613901615143E-1  -2.850988209247589E-1  -4.156650900840759E-1  -2.846512794494629E-1  -4.152658581733704E-1  -6.984345316886902E-1   4.825695753097534E-1  
 5.280000000000000E7    -7.022618055343628E-1   4.849560558795929E-1  -2.852895855903626E-1  -4.147797524929047E-1  -2.848358452320099E-1  -4.147532582283020E-1  -6.974890232086182E-1   4.841043651103973E-1  
 5.282000000000000E7    -7.018879652023315E-1   4.864110648632050E-1  -2.851756513118744E-1  -4.132734835147858E-1  -2.849089503288269E-1  -4.133453071117401E-1  -6.975225210189819E-1   4.856225252151489E-1  
 5.284000000000000E7    -7.017779946327210E-1   4.877147376537323E-1  -2.855324745178223E-1  -4.121377170085907E-1  -2.847239673137665E-1  -4.123719930648804E-1  -6.972181797027588E-1   4.864980280399323E-1  
 5.286000000000000E7    -7.016382217407227E-1   4.889953136444092E-1  -2.850167751312256E-1  -4.111782610416412E-1  -2.851461172103882E-1  -4.109919667243958E-1  -6.969363689422607E-1   4.877023100852966E-1  
 5.288000000000000E7    -7.007608413696289E-1   4.904217123985291E-1  -2.857299745082855E-1  -4.104205667972565E-1  -2.853909134864807E-1  -4.099733233451843E-1  -6.964589953422546E-1   4.892103970050812E-1  
 5.290000000000000E7    -7.007018923759460E-1   4.917041659355164E-1  -2.852732837200165E-1  -4.091299772262573E-1  -2.854194939136505E-1  -4.090250730514526E-1  -6.963058710098267E-1   4.904010593891144E-1  
 5.292000000000000E7    -7.003403306007385E-1   4.930492937564850E-1  -2.854142487049103E-1  -4.078055024147034E-1  -2.853991389274597E-1  -4.082236588001251E-1  -6.960018277168274E-1   4.915269911289215E-1  
 5.294000000000000E7    -7.001254558563232E-1   4.941501021385193E-1  -2.856186926364899E-1  -4.071606695652008E-1  -2.854259610176086E-1  -4.069161117076874E-1  -6.955277919769287E-1   4.927001297473908E-1  
 5.296000000000000E7    -6.998118162155151E-1   4.951563775539398E-1  -2.858890295028687E-1  -4.061141312122345E-1  -2.853994071483612E-1  -4.055294990539551E-1  -6.952950358390808E-1   4.942754805088043E-1  
 5.298000000000000E7    -6.995059847831726E-1   4.964276850223541E-1  -2.861369252204895E-1  -4.049257636070252E-1  -2.858403027057648E-1  -4.043599069118500E-1  -6.948427557945252E-1   4.954021275043488E-1  
 5.300000000000000E7    -6.990046501159668E-1   4.976923465728760E-1  -2.860728800296783E-1  -4.035165309906006E-1  -2.857888936996460E-1  -4.036232829093933E-1  -6.947073936462402E-1   4.966373741626740E-1  
 5.302000000000000E7    -6.990837454795837E-1   4.990861117839813E-1  -2.865217328071594E-1  -4.023166298866272E-1  -2.862131893634796E-1  -4.024611711502075E-1  -6.943341493606567E-1   4.978499710559845E-1  
 5.304000000000000E7    -6.984288096427918E-1   5.002935528755188E-1  -2.861316204071045E-1  -4.013906717300415E-1  -2.858371734619141E-1  -4.012101888656616E-1  -6.937718391418457E-1   4.992297589778900E-1  
 5.306000000000000E7    -6.982175707817078E-1   5.014934539794922E-1  -2.860751450061798E-1  -4.003713428974152E-1  -2.857665717601776E-1  -4.004617631435394E-1  -6.936604380607605E-1   5.001955032348633E-1  
 5.308000000000000E7    -6.978893876075745E-1   5.031884312629700E-1  -2.858715057373047E-1  -3.989586532115936E-1  -2.857318222522736E-1  -3.990813791751862E-1  -6.932281851768494E-1   5.015578866004944E-1  
 5.310000000000000E7    -6.975791454315186E-1   5.042008161544800E-1  -2.864049673080444E-1  -3.984110951423645E-1  -2.861418128013611E-1  -3.981074392795563E-1  -6.932473182678223E-1   5.029093623161316E-1  
 5.312000000000000E7    -6.970363855361939E-1   5.054368376731873E-1  -2.865657806396484E-1  -3.974595665931702E-1  -2.862899005413055E-1  -3.971792161464691E-1  -6.930558085441589E-1   5.039364099502564E-1  
 5.314000000000000E7    -6.965556740760803E-1   5.065010786056519E-1  -2.864933907985687E-1  -3.962163925170898E-1  -2.861763536930084E-1  -3.959195613861084E-1  -6.925636529922485E-1   5.053471922874451E-1  
 5.316000000000000E7    -6.963772773742676E-1   5.077707171440125E-1  -2.864177227020264E-1  -3.949933052062988E-1  -2.860210537910461E-1  -3.948151469230652E-1  -6.922292113304138E-1   5.068731307983398E-1  
 5.318000000000000E7    -6.962062716484070E-1   5.091910362243652E-1  -2.868008017539978E-1  -3.940873444080353E-1  -2.865310311317444E-1  -3.941194415092468E-1  -6.917033791542053E-1   5.080684423446655E-1  
 5.320000000000000E7    -6.957222819328308E-1   5.105350017547607E-1  -2.866061329841614E-1  -3.927217423915863E-1  -2.867841124534607E-1  -3.926934897899628E-1  -6.915454864501953E-1   5.088953971862793E-1  
 5.322000000000000E7    -6.954758167266846E-1   5.115883946418762E-1  -2.869223356246948E-1  -3.917406499385834E-1  -2.865855395793915E-1  -3.916244804859161E-1  -6.912721395492554E-1   5.103822946548462E-1  
 5.324000000000000E7    -6.952758431434631E-1   5.126489996910095E-1  -2.868541181087494E-1  -3.907693624496460E-1  -2.867431938648224E-1  -3.906404674053192E-1  -6.907970309257507E-1   5.113295912742615E-1  
 5.326000000000000E7    -6.951866745948792E-1   5.141506195068359E-1  -2.869350016117096E-1  -3.895666003227234E-1  -2.864863574504852E-1  -3.896614313125610E-1  -6.903792023658752E-1   5.127034783363342E-1  
 5.328000000000000E7    -6.944746375083923E-1   5.151743888854981E-1  -2.871181964874268E-1  -3.889087140560150E-1  -2.866371870040894E-1  -3.886114954948425E-1  -6.901155114173889E-1   5.141894221305847E-1  
 5.330000000000000E7    -6.941444277763367E-1   5.166994333267212E-1  -2.869776189327240E-1  -3.878405988216400E-1  -2.868969142436981E-1  -3.877469301223755E-1  -6.899874210357666E-1   5.152621269226074E-1  
 5.332000000000000E7    -6.937050223350525E-1   5.176877379417419E-1  -2.868726253509522E-1  -3.863573074340820E-1  -2.867999374866486E-1  -3.865025639533997E-1  -6.894552707672119E-1   5.166410803794861E-1  
 5.334000000000000E7    -6.935887336730957E-1   5.193200111389160E-1  -2.867584824562073E-1  -3.853348791599274E-1  -2.868166863918304E-1  -3.853846788406372E-1  -6.890904903411865E-1   5.177511572837830E-1  
 5.336000000000000E7    -6.929382681846619E-1   5.203613042831421E-1  -2.870769202709198E-1  -3.844055235385895E-1  -2.867682278156281E-1  -3.840339481830597E-1  -6.885549426078796E-1   5.189893245697022E-1  
 5.338000000000000E7    -6.924408078193665E-1   5.215532779693604E-1  -2.870821952819824E-1  -3.835966885089874E-1  -2.869381308555603E-1  -3.831502795219421E-1  -6.883922219276428E-1   5.202534198760986E-1  
 5.340000000000000E7    -6.924369335174561E-1   5.227491855621338E-1  -2.869248092174530E-1  -3.822507858276367E-1  -2.868349254131317E-1  -3.823348283767700E-1  -6.879661679267883E-1   5.214658379554749E-1  
 5.342000000000000E7    -6.920841336250305E-1   5.240120291709900E-1  -2.873838543891907E-1  -3.810634016990662E-1  -2.869497835636139E-1  -3.811682462692261E-1  -6.874682903289795E-1   5.227559804916382E-1  
 5.344000000000000E7    -6.915752887725830E-1   5.251542925834656E-1  -2.871278226375580E-1  -3.798987269401550E-1  -2.869966328144074E-1  -3.800891339778900E-1  -6.871787309646606E-1   5.241565704345703E-1  
 5.346000000000000E7    -6.912850141525269E-1   5.263200402259827E-1  -2.873634397983551E-1  -3.790253400802612E-1  -2.869405150413513E-1  -3.788400292396545E-1  -6.868249177932739E-1   5.254040360450745E-1  
 5.348000000000000E7    -6.908707618713379E-1   5.277863144874573E-1  -2.869383990764618E-1  -3.783078491687775E-1  -2.869873344898224E-1  -3.782797753810883E-1  -6.862951517105103E-1   5.265027284622192E-1  
 5.350000000000000E7    -6.901994943618774E-1   5.285662412643433E-1  -2.871017456054688E-1  -3.773792386054993E-1  -2.868080735206604E-1  -3.767984509468079E-1  -6.863120198249817E-1   5.278416872024536E-1  
 5.352000000000000E7    -6.899752020835877E-1   5.300219058990479E-1  -2.872316837310791E-1  -3.761777579784393E-1  -2.870714664459229E-1  -3.758527040481567E-1  -6.856242418289185E-1   5.288494825363159E-1  
 5.354000000000000E7    -6.896408796310425E-1   5.312546491622925E-1  -2.873347997665405E-1  -3.748569488525391E-1  -2.869287133216858E-1  -3.746141195297241E-1  -6.851551532745361E-1   5.302275419235230E-1  
 5.356000000000000E7    -6.895097494125366E-1   5.325856208801270E-1  -2.874093055725098E-1  -3.738116621971130E-1  -2.869569063186646E-1  -3.737385571002960E-1  -6.848572492599487E-1   5.311418175697327E-1  
 5.358000000000000E7    -6.887814998626709E-1   5.335265398025513E-1  -2.872975766658783E-1  -3.731178045272827E-1  -2.870276570320129E-1  -3.728883564472199E-1  -6.847749352455139E-1   5.325937271118164E-1  
 5.360000000000000E7    -6.885048151016235E-1   5.350251197814941E-1  -2.873875200748444E-1  -3.718158900737763E-1  -2.869139313697815E-1  -3.715323805809021E-1  -6.840757727622986E-1   5.337297916412354E-1  
 5.362000000000000E7    -6.878687143325806E-1   5.361379384994507E-1  -2.875345647335053E-1  -3.708682060241699E-1  -2.871248722076416E-1  -3.704788386821747E-1  -6.839143037796021E-1   5.351474285125732E-1  
 5.364000000000000E7    -6.880078315734863E-1   5.375706553459168E-1  -2.873885631561279E-1  -3.695867061614990E-1  -2.872146666049957E-1  -3.697269558906555E-1  -6.830365657806397E-1   5.359255075454712E-1  
 5.366000000000000E7    -6.870788931846619E-1   5.385473966598511E-1  -2.874654531478882E-1  -3.688395321369171E-1  -2.872980535030365E-1  -3.686331212520599E-1  -6.829769015312195E-1   5.372009277343750E-1  
 5.368000000000000E7    -6.871647238731384E-1   5.398227572441101E-1  -2.872290015220642E-1  -3.679187297821045E-1  -2.872108221054077E-1  -3.678613603115082E-1  -6.826574206352234E-1   5.386503934860230E-1  
 5.370000000000000E7    -6.862607598304749E-1   5.408875346183777E-1  -2.874176204204559E-1  -3.664537966251373E-1  -2.869966030120850E-1  -3.664890825748444E-1  -6.819802522659302E-1   5.399201512336731E-1  
 5.372000000000000E7    -6.857615709304810E-1   5.422140359878540E-1  -2.874783575534821E-1  -3.657162189483643E-1  -2.870538830757141E-1  -3.653290867805481E-1  -6.817234754562378E-1   5.409541130065918E-1  
 5.374000000000000E7    -6.853563785552979E-1   5.433128476142883E-1  -2.873024642467499E-1  -3.646705150604248E-1  -2.867720127105713E-1  -3.641978800296783E-1  -6.812282204627991E-1   5.420494079589844E-1  
 5.376000000000000E7    -6.853651404380798E-1   5.447288751602173E-1  -2.871948778629303E-1  -3.637964725494385E-1  -2.871750891208649E-1  -3.636420369148254E-1  -6.807159781455994E-1   5.432416200637817E-1  
 5.378000000000000E7    -6.847282648086548E-1   5.458463430404663E-1  -2.872280776500702E-1  -3.627012073993683E-1  -2.869555056095123E-1  -3.623465895652771E-1  -6.805514693260193E-1   5.447732210159302E-1  
 5.380000000000000E7    -6.844106316566467E-1   5.469796061515808E-1  -2.872028648853302E-1  -3.615893721580505E-1  -2.870430946350098E-1  -3.615086078643799E-1  -6.800337433815002E-1   5.456467866897583E-1  
 5.382000000000000E7    -6.836958527565002E-1   5.484998822212219E-1  -2.870199084281921E-1  -3.604802191257477E-1  -2.868697047233582E-1  -3.603974580764771E-1  -6.796662211418152E-1   5.467338562011719E-1  
 5.384000000000000E7    -6.836512684822083E-1   5.495986342430115E-1  -2.870995700359345E-1  -3.596312105655670E-1  -2.868963479995728E-1  -3.595320880413055E-1  -6.794362068176270E-1   5.478629469871521E-1  
 5.386000000000000E7    -6.829656362533569E-1   5.504419207572937E-1  -2.870591878890991E-1  -3.584579527378082E-1  -2.867968678474426E-1  -3.585686683654785E-1  -6.793120503425598E-1   5.495014190673828E-1  
 5.388000000000000E7    -6.826815009117127E-1   5.520535707473755E-1  -2.869270741939545E-1  -3.576967120170593E-1  -2.871770858764648E-1  -3.575001955032349E-1  -6.785650253295898E-1   5.506032705307007E-1  
 5.390000000000000E7    -6.824624538421631E-1   5.532997846603394E-1  -2.868436872959137E-1  -3.564316034317017E-1  -2.867861986160278E-1  -3.563600778579712E-1  -6.780031919479370E-1   5.516416430473328E-1  
 5.392000000000000E7    -6.817265748977661E-1   5.547419786453247E-1  -2.869947850704193E-1  -3.555737435817719E-1  -2.871397137641907E-1  -3.553698062896729E-1  -6.777693033218384E-1   5.529112815856934E-1  
 5.394000000000000E7    -6.812267303466797E-1   5.554191470146179E-1  -2.869615852832794E-1  -3.543781638145447E-1  -2.868565917015076E-1  -3.541707992553711E-1  -6.771715283393860E-1   5.540575385093689E-1  
 5.396000000000000E7    -6.809356808662415E-1   5.566770434379578E-1  -2.870370745658875E-1  -3.536835312843323E-1  -2.868494093418121E-1  -3.534581661224365E-1  -6.771404147148132E-1   5.555211901664734E-1  
 5.398000000000000E7    -6.805074810981751E-1   5.577325820922852E-1  -2.868117094039917E-1  -3.522381782531738E-1  -2.867995500564575E-1  -3.523299098014832E-1  -6.761619448661804E-1   5.564793348312378E-1  
 5.400000000000000E7    -6.800012588500977E-1   5.588110685348511E-1  -2.867746651172638E-1  -3.513912558555603E-1  -2.867778539657593E-1  -3.511855304241180E-1  -6.758841276168823E-1   5.576022863388062E-1  
 5.402000000000000E7    -6.797680854797363E-1   5.605804324150085E-1  -2.869068086147308E-1  -3.501060605049133E-1  -2.868041396141052E-1  -3.500385880470276E-1  -6.752102375030518E-1   5.583184361457825E-1  
 5.404000000000000E7    -6.791600584983826E-1   5.613364577293396E-1  -2.870486080646515E-1  -3.492253124713898E-1  -2.865660190582275E-1  -3.492300808429718E-1  -6.748543977737427E-1   5.601106882095337E-1  
 5.406000000000000E7    -6.789503693580627E-1   5.624490976333618E-1  -2.867972254753113E-1  -3.484641313552856E-1  -2.866691946983337E-1  -3.482450246810913E-1  -6.746020317077637E-1   5.613868832588196E-1  
 5.408000000000000E7    -6.785016059875488E-1   5.637911558151245E-1  -2.868117690086365E-1  -3.473145663738251E-1  -2.866611182689667E-1  -3.469500243663788E-1  -6.742030978202820E-1   5.624805092811585E-1  
 5.410000000000000E7    -6.779752373695374E-1   5.650139451026917E-1  -2.869598865509033E-1  -3.465242087841034E-1  -2.864575088024139E-1  -3.461589217185974E-1  -6.737806200981140E-1   5.638905763626099E-1  
 5.412000000000000E7    -6.771700382232666E-1   5.658782720565796E-1  -2.866720855236054E-1  -3.451851010322571E-1  -2.863464653491974E-1  -3.450383543968201E-1  -6.734182834625244E-1   5.647331476211548E-1  
 5.414000000000000E7    -6.769050359725952E-1   5.673601627349854E-1  -2.866686880588532E-1  -3.443783223628998E-1  -2.864279448986054E-1  -3.440483808517456E-1  -6.728392839431763E-1   5.660130381584168E-1  
 5.416000000000000E7    -6.763659119606018E-1   5.686535835266113E-1  -2.864819765090942E-1  -3.430535793304443E-1  -2.863056361675263E-1  -3.430226147174835E-1  -6.722118854522705E-1   5.670117139816284E-1  
 5.418000000000000E7    -6.758835315704346E-1   5.694172382354736E-1  -2.864386141300201E-1  -3.422666788101196E-1  -2.861619591712952E-1  -3.419191837310791E-1  -6.716978549957275E-1   5.684235095977783E-1  
 5.420000000000000E7    -6.755263209342957E-1   5.708999633789063E-1  -2.866509556770325E-1  -3.413317203521729E-1  -2.860257327556610E-1  -3.413914740085602E-1  -6.714982390403748E-1   5.697546601295471E-1  
 5.422000000000000E7    -6.750422120094299E-1   5.719601511955261E-1  -2.864191532135010E-1  -3.405422568321228E-1  -2.862322926521301E-1  -3.401778638362885E-1  -6.714640259742737E-1   5.705288052558899E-1  
 5.424000000000000E7    -6.743793487548828E-1   5.732830762863159E-1  -2.863963544368744E-1  -3.392796218395233E-1  -2.861284315586090E-1  -3.389292657375336E-1  -6.705117225646973E-1   5.716494321823120E-1  
 5.426000000000000E7    -6.742237806320190E-1   5.744485855102539E-1  -2.863953411579132E-1  -3.381821215152741E-1  -2.859287261962891E-1  -3.380624949932098E-1  -6.698812246322632E-1   5.730144381523132E-1  
 5.428000000000000E7    -6.735806465148926E-1   5.755907297134399E-1  -2.862762808799744E-1  -3.373672962188721E-1  -2.861429154872894E-1  -3.372655510902405E-1  -6.694915294647217E-1   5.744098424911499E-1  
 5.430000000000000E7    -6.732414960861206E-1   5.766811966896057E-1  -2.860756218433380E-1  -3.364264965057373E-1  -2.858084738254547E-1  -3.360854983329773E-1  -6.691607832908630E-1   5.752768516540527E-1  
 5.432000000000000E7    -6.727297306060791E-1   5.780590772628784E-1  -2.861119508743286E-1  -3.352618813514710E-1  -2.859921157360077E-1  -3.352592289447784E-1  -6.686718463897705E-1   5.764502286911011E-1  
 5.434000000000000E7    -6.724879741668701E-1   5.788936614990234E-1  -2.855827212333679E-1  -3.343521952629089E-1  -2.857588231563568E-1  -3.344586491584778E-1  -6.680622696876526E-1   5.776212811470032E-1  
 5.436000000000000E7    -6.716461777687073E-1   5.803880095481873E-1  -2.854138910770416E-1  -3.331722617149353E-1  -2.856597900390625E-1  -3.329894244670868E-1  -6.677520275115967E-1   5.784454941749573E-1  
 5.438000000000000E7    -6.711929440498352E-1   5.812091231346130E-1  -2.859347164630890E-1  -3.322370648384094E-1  -2.855237126350403E-1  -3.321621119976044E-1  -6.672567725181580E-1   5.799500942230225E-1  
 5.440000000000000E7    -6.706661581993103E-1   5.825873613357544E-1  -2.860752344131470E-1  -3.312548100948334E-1  -2.856672406196594E-1  -3.311346769332886E-1  -6.668619513511658E-1   5.814467668533325E-1  
 5.442000000000000E7    -6.699988842010498E-1   5.836455821990967E-1  -2.854199111461639E-1  -3.301531672477722E-1  -2.851298153400421E-1  -3.303312063217163E-1  -6.664167046546936E-1   5.819396376609802E-1  
 5.444000000000000E7    -6.697027087211609E-1   5.847794413566589E-1  -2.855740189552307E-1  -3.291894793510437E-1  -2.853155732154846E-1  -3.292512297630310E-1  -6.656697392463684E-1   5.834527015686035E-1  
 5.446000000000000E7    -6.693638563156128E-1   5.859575271606445E-1  -2.852857708930969E-1  -3.282340764999390E-1  -2.849318087100983E-1  -3.279847204685211E-1  -6.653289794921875E-1   5.845898985862732E-1  
 5.448000000000000E7    -6.685801744461060E-1   5.872611999511719E-1  -2.850995659828186E-1  -3.273627161979675E-1  -2.850500941276550E-1  -3.271989822387695E-1  -6.648667454719544E-1   5.854228734970093E-1  
 5.450000000000000E7    -6.682040095329285E-1   5.883526802062988E-1  -2.856505513191223E-1  -3.263546526432037E-1  -2.849724888801575E-1  -3.262559175491333E-1  -6.643872857093811E-1   5.869655609130859E-1  
 5.452000000000000E7    -6.677697896957398E-1   5.892326235771179E-1  -2.854229211807251E-1  -3.254139423370361E-1  -2.848165333271027E-1  -3.255981206893921E-1  -6.636175513267517E-1   5.882128477096558E-1  
 5.454000000000000E7    -6.673113107681274E-1   5.901988744735718E-1  -2.851715683937073E-1  -3.243563771247864E-1  -2.848908007144928E-1  -3.242670595645905E-1  -6.635051369667053E-1   5.895016789436340E-1  
 5.456000000000000E7    -6.670068502426148E-1   5.915282964706421E-1  -2.849242985248566E-1  -3.235646188259125E-1  -2.848137021064758E-1  -3.235885500907898E-1  -6.626461148262024E-1   5.903978347778320E-1  
 5.458000000000000E7    -6.665124297142029E-1   5.926563143730164E-1  -2.851808369159699E-1  -3.227086663246155E-1  -2.848545908927918E-1  -3.225582540035248E-1  -6.624410748481751E-1   5.915589332580566E-1  
 5.460000000000000E7    -6.656939983367920E-1   5.938143730163574E-1  -2.846341133117676E-1  -3.213513493537903E-1  -2.847470045089722E-1  -3.214576542377472E-1  -6.619099378585815E-1   5.923178195953369E-1  
 5.462000000000000E7    -6.652268767356873E-1   5.950197577476502E-1  -2.848222553730011E-1  -3.204992413520813E-1  -2.843548059463501E-1  -3.206446766853333E-1  -6.610828638076782E-1   5.936314463615418E-1  
 5.464000000000000E7    -6.648105978965759E-1   5.960902571678162E-1  -2.847759425640106E-1  -3.199401795864105E-1  -2.843372821807861E-1  -3.196437954902649E-1  -6.605318188667297E-1   5.950594544410706E-1  
 5.466000000000000E7    -6.642327904701233E-1   5.971814990043640E-1  -2.843675315380096E-1  -3.187003135681152E-1  -2.839629650115967E-1  -3.187518417835236E-1  -6.601201295852661E-1   5.956760644912720E-1  
 5.468000000000000E7    -6.635017395019531E-1   5.983867049217224E-1  -2.844447493553162E-1  -3.177367746829987E-1  -2.838634848594666E-1  -3.174662888050079E-1  -6.594989895820618E-1   5.972950458526611E-1  
 5.470000000000000E7    -6.634650230407715E-1   5.995470285415649E-1  -2.840908169746399E-1  -3.168124854564667E-1  -2.840906679630280E-1  -3.168841004371643E-1  -6.592082381248474E-1   5.982158780097961E-1  
 5.472000000000000E7    -6.628057360649109E-1   6.009753942489624E-1  -2.838110923767090E-1  -3.154941201210022E-1  -2.840189933776856E-1  -3.156858086585999E-1  -6.584895253181458E-1   5.991644263267517E-1  
 5.474000000000000E7    -6.622251868247986E-1   6.017321348190308E-1  -2.839064300060272E-1  -3.147401213645935E-1  -2.837993800640106E-1  -3.146495223045349E-1  -6.580171585083008E-1   6.006584167480469E-1  
 5.476000000000000E7    -6.617844700813294E-1   6.029178500175476E-1  -2.840028703212738E-1  -3.139071464538574E-1  -2.835484743118286E-1  -3.135412931442261E-1  -6.573573946952820E-1   6.014950275421143E-1  
 5.478000000000000E7    -6.607015728950501E-1   6.040758490562439E-1  -2.836943268775940E-1  -3.127650022506714E-1  -2.834528088569641E-1  -3.129351437091827E-1  -6.572449803352356E-1   6.026679277420044E-1  
 5.480000000000000E7    -6.604677438735962E-1   6.053016185760498E-1  -2.839393615722656E-1  -3.120148479938507E-1  -2.835537791252136E-1  -3.116676807403565E-1  -6.564033031463623E-1   6.041110157966614E-1  
 5.482000000000000E7    -6.601027846336365E-1   6.064047813415527E-1  -2.833577394485474E-1  -3.108815550804138E-1  -2.830331027507782E-1  -3.108875155448914E-1  -6.560903191566467E-1   6.049753427505493E-1  
 5.484000000000000E7    -6.599646210670471E-1   6.075606942176819E-1  -2.833725810050964E-1  -3.099415004253388E-1  -2.833411991596222E-1  -3.096684217453003E-1  -6.554202437400818E-1   6.061376333236694E-1  
 5.486000000000000E7    -6.591222286224365E-1   6.085932850837708E-1  -2.833413779735565E-1  -3.091341853141785E-1  -2.830601632595062E-1  -3.087850213050842E-1  -6.549526453018189E-1   6.071734428405762E-1  
 5.488000000000000E7    -6.585865616798401E-1   6.097559332847595E-1  -2.832296490669251E-1  -3.081255853176117E-1  -2.829529345035553E-1  -3.078419268131256E-1  -6.546470522880554E-1   6.084037423133850E-1  
 5.490000000000000E7    -6.580318808555603E-1   6.107783913612366E-1  -2.831941843032837E-1  -3.071055114269257E-1  -2.827262282371521E-1  -3.069531619548798E-1  -6.537500619888306E-1   6.092945933341980E-1  
 5.492000000000000E7    -6.577187776565552E-1   6.121234893798828E-1  -2.828204333782196E-1  -3.062848448753357E-1  -2.826662361621857E-1  -3.062714636325836E-1  -6.534255146980286E-1   6.104835271835327E-1  
 5.494000000000000E7    -6.569376587867737E-1   6.125475168228149E-1  -2.825699150562286E-1  -3.052628338336945E-1  -2.823845744132996E-1  -3.052681386470795E-1  -6.529833078384399E-1   6.118660569190979E-1  
 5.496000000000000E7    -6.560447216033936E-1   6.140953898429871E-1  -2.826494574546814E-1  -3.042520284652710E-1  -2.824581265449524E-1  -3.041179776191711E-1  -6.525179743766785E-1   6.129474043846130E-1  
 5.498000000000000E7    -6.558368206024170E-1   6.149808764457703E-1  -2.821694612503052E-1  -3.036032915115356E-1  -2.818358242511749E-1  -3.032062351703644E-1  -6.518285274505615E-1   6.139767765998840E-1  
 5.500000000000000E7    -6.552162766456604E-1   6.164171695709229E-1  -2.826367318630219E-1  -3.023578524589539E-1  -2.821516990661621E-1  -3.023522794246674E-1  -6.512171626091003E-1   6.149839162826538E-1  
 5.502000000000000E7    -6.548554301261902E-1   6.177322268486023E-1  -2.821639180183411E-1  -3.018130064010620E-1  -2.819130420684815E-1  -3.014724850654602E-1  -6.508435010910034E-1   6.162875890731812E-1  
 5.504000000000000E7    -6.540855169296265E-1   6.186835765838623E-1  -2.819271087646484E-1  -3.005581796169281E-1  -2.820286154747009E-1  -3.005367219448090E-1  -6.501597166061401E-1   6.171915531158447E-1  
 5.506000000000000E7    -6.534398794174194E-1   6.198294758796692E-1  -2.818200886249542E-1  -2.997445762157440E-1  -2.818571329116821E-1  -2.994708716869354E-1  -6.497627496719360E-1   6.183434128761292E-1  
 5.508000000000000E7    -6.529089808464050E-1   6.208015680313110E-1  -2.816514074802399E-1  -2.989469468593597E-1  -2.813909649848938E-1  -2.987604141235352E-1  -6.489840149879456E-1   6.193856596946716E-1  
 5.510000000000000E7    -6.521760225296021E-1   6.217391490936279E-1  -2.814266979694367E-1  -2.977047562599182E-1  -2.813572287559509E-1  -2.973613440990448E-1  -6.485885381698608E-1   6.204811334609985E-1  
 5.512000000000000E7    -6.518568396568298E-1   6.231496334075928E-1  -2.812860906124115E-1  -2.969729304313660E-1  -2.814915478229523E-1  -2.967971265316010E-1  -6.481786966323853E-1   6.216279268264771E-1  
 5.514000000000000E7    -6.515590548515320E-1   6.241324543952942E-1  -2.810271382331848E-1  -2.961322665214539E-1  -2.810518741607666E-1  -2.961828410625458E-1  -6.475518345832825E-1   6.226955652236939E-1  
 5.516000000000000E7    -6.507993340492249E-1   6.253265142440796E-1  -2.810442447662354E-1  -2.952133417129517E-1  -2.807558774948120E-1  -2.949977815151215E-1  -6.471195816993713E-1   6.236686110496521E-1  
 5.518000000000000E7    -6.503569483757019E-1   6.261301636695862E-1  -2.809434831142426E-1  -2.941091954708099E-1  -2.804861366748810E-1  -2.936590313911438E-1  -6.460423469543457E-1   6.246457099914551E-1  
 5.520000000000000E7    -6.500256061553955E-1   6.273795366287231E-1  -2.809287011623383E-1  -2.932898402214050E-1  -2.809131145477295E-1  -2.930856943130493E-1  -6.456884741783142E-1   6.260692477226257E-1  
 5.522000000000000E7    -6.493459939956665E-1   6.284841895103455E-1  -2.807362675666809E-1  -2.923675775527954E-1  -2.804775834083557E-1  -2.923751473426819E-1  -6.449871659278870E-1   6.270979046821594E-1  
 5.524000000000000E7    -6.485979557037354E-1   6.297640800476074E-1  -2.801023721694946E-1  -2.912246882915497E-1  -2.804013490676880E-1  -2.913309633731842E-1  -6.446353197097778E-1   6.279196143150330E-1  
 5.526000000000000E7    -6.480516791343689E-1   6.305860280990601E-1  -2.800247073173523E-1  -2.903475761413574E-1  -2.800694108009338E-1  -2.899887263774872E-1  -6.437786817550659E-1   6.294346451759338E-1  
 5.528000000000000E7    -6.475287079811096E-1   6.317771077156067E-1  -2.802188694477081E-1  -2.893503308296204E-1  -2.799765169620514E-1  -2.894052565097809E-1  -6.432760357856751E-1   6.303041577339172E-1  
 5.530000000000000E7    -6.467064023017883E-1   6.329016089439392E-1  -2.796523571014404E-1  -2.886357307434082E-1  -2.797003388404846E-1  -2.884317338466644E-1  -6.429644823074341E-1   6.313497424125671E-1  
 5.532000000000000E7    -6.462748050689697E-1   6.337767243385315E-1  -2.798268198966980E-1  -2.875842452049255E-1  -2.796432375907898E-1  -2.875984311103821E-1  -6.424401998519898E-1   6.326361298561096E-1  
 5.534000000000000E7    -6.458250284194946E-1   6.348835825920105E-1  -2.796527147293091E-1  -2.868188321590424E-1  -2.792919874191284E-1  -2.869047522544861E-1  -6.414072513580322E-1   6.338535547256470E-1  
 5.536000000000000E7    -6.450901627540588E-1   6.361319422721863E-1  -2.795183956623077E-1  -2.857789695262909E-1  -2.793967425823212E-1  -2.857280075550079E-1  -6.411072611808777E-1   6.345977783203125E-1  
 5.538000000000000E7    -6.444824337959290E-1   6.372501850128174E-1  -2.792449891567230E-1  -2.847007513046265E-1  -2.787208259105682E-1  -2.848819494247437E-1  -6.406095027923584E-1   6.358709931373596E-1  
 5.540000000000000E7    -6.440123915672302E-1   6.383311152458191E-1  -2.791430354118347E-1  -2.841842174530029E-1  -2.789501845836639E-1  -2.840092480182648E-1  -6.400359272956848E-1   6.368665099143982E-1  
 5.542000000000000E7    -6.434482336044312E-1   6.392449736595154E-1  -2.787455022335053E-1  -2.832954227924347E-1  -2.786314189434052E-1  -2.830524742603302E-1  -6.392483711242676E-1   6.379131078720093E-1  
 5.544000000000000E7    -6.428365111351013E-1   6.406846642494202E-1  -2.790070772171021E-1  -2.823043167591095E-1  -2.787740230560303E-1  -2.820756137371063E-1  -6.387412548065186E-1   6.388034820556641E-1  
 5.546000000000000E7    -6.423162221908569E-1   6.413221359252930E-1  -2.785810828208923E-1  -2.812052965164185E-1  -2.783932387828827E-1  -2.810821533203125E-1  -6.378445625305176E-1   6.401112079620361E-1  
 5.548000000000000E7    -6.419610977172852E-1   6.428468823432922E-1  -2.784052193164825E-1  -2.805533409118652E-1  -2.784179747104645E-1  -2.802510857582092E-1  -6.376101970672607E-1   6.409496068954468E-1  
 5.550000000000000E7    -6.411578655242920E-1   6.434376239776611E-1  -2.779607772827148E-1  -2.793516516685486E-1  -2.778976559638977E-1  -2.792780101299286E-1  -6.370469331741333E-1   6.420828104019165E-1  
 5.552000000000000E7    -6.402735114097595E-1   6.448630094528198E-1  -2.780291438102722E-1  -2.784359753131867E-1  -2.778452932834625E-1  -2.782593369483948E-1  -6.364340782165527E-1   6.433219909667969E-1  
 5.554000000000000E7    -6.399071216583252E-1   6.458670496940613E-1  -2.779546380043030E-1  -2.776441276073456E-1  -2.777837514877319E-1  -2.774609923362732E-1  -6.359630227088928E-1   6.444414258003235E-1  
 5.556000000000000E7    -6.390545964241028E-1   6.466666460037231E-1  -2.777224183082581E-1  -2.766937911510468E-1  -2.773628234863281E-1  -2.765797078609467E-1  -6.353793740272522E-1   6.455393433570862E-1  
 5.558000000000000E7    -6.384587883949280E-1   6.481211781501770E-1  -2.775868177413940E-1  -2.758417427539825E-1  -2.773614227771759E-1  -2.758350074291229E-1  -6.346501111984253E-1   6.467205882072449E-1  
 5.560000000000000E7    -6.381659507751465E-1   6.489572525024414E-1  -2.773017287254334E-1  -2.752588689327240E-1  -2.769543826580048E-1  -2.750753760337830E-1  -6.340596079826355E-1   6.473609805107117E-1  
 5.562000000000000E7    -6.376273632049561E-1   6.499757766723633E-1  -2.771481871604919E-1  -2.740125656127930E-1  -2.766929566860199E-1  -2.740396857261658E-1  -6.333149671554565E-1   6.486854553222656E-1  
 5.564000000000000E7    -6.366462707519531E-1   6.509595513343811E-1  -2.767804563045502E-1  -2.732795774936676E-1  -2.765619754791260E-1  -2.730258703231812E-1  -6.326767802238464E-1   6.498951911926270E-1  
 5.566000000000000E7    -6.361329555511475E-1   6.519352197647095E-1  -2.765036821365356E-1  -2.722369432449341E-1  -2.761234939098358E-1  -2.719514369964600E-1  -6.322534680366516E-1   6.506783366203308E-1  
 5.568000000000000E7    -6.355992555618286E-1   6.531239748001099E-1  -2.764706313610077E-1  -2.710672020912170E-1  -2.760528922080994E-1  -2.710281610488892E-1  -6.316034197807312E-1   6.516644954681397E-1  
 5.570000000000000E7    -6.351263523101807E-1   6.543034911155701E-1  -2.760622799396515E-1  -2.706136703491211E-1  -2.759654819965363E-1  -2.703774869441986E-1  -6.309943795204163E-1   6.530088782310486E-1  
 5.572000000000000E7    -6.343666315078735E-1   6.555181741714478E-1  -2.759685218334198E-1  -2.695208489894867E-1  -2.757020592689514E-1  -2.695354521274567E-1  -6.301732063293457E-1   6.538015604019165E-1  
 5.574000000000000E7    -6.335764527320862E-1   6.562353968620300E-1  -2.756334841251373E-1  -2.685987949371338E-1  -2.755502462387085E-1  -2.685679197311401E-1  -6.297721862792969E-1   6.547744274139404E-1  
 5.576000000000000E7    -6.331224441528320E-1   6.572522521018982E-1  -2.757852375507355E-1  -2.681869268417358E-1  -2.754115760326386E-1  -2.678854167461395E-1  -6.295268535614014E-1   6.557291746139526E-1  
 5.578000000000000E7    -6.326028108596802E-1   6.583638787269592E-1  -2.755984961986542E-1  -2.669765949249268E-1  -2.752396166324616E-1  -2.667528688907623E-1  -6.287895441055298E-1   6.572719216346741E-1  
 5.580000000000000E7    -6.316854357719421E-1   6.595392227172852E-1  -2.751799523830414E-1  -2.658286690711975E-1  -2.749227583408356E-1  -2.658398151397705E-1  -6.279148459434509E-1   6.582588553428650E-1  
 5.582000000000000E7    -6.310954093933106E-1   6.603717207908630E-1  -2.749437093734741E-1  -2.650466859340668E-1  -2.747972607612610E-1  -2.647913396358490E-1  -6.272860765457153E-1   6.587975025177002E-1  
 5.584000000000000E7    -6.307632923126221E-1   6.614295244216919E-1  -2.745328545570374E-1  -2.643674015998840E-1  -2.745002210140228E-1  -2.643626630306244E-1  -6.266546845436096E-1   6.599607467651367E-1  
 5.586000000000000E7    -6.300101280212402E-1   6.627095341682434E-1  -2.746564745903015E-1  -2.637730836868286E-1  -2.744573056697846E-1  -2.635832726955414E-1  -6.257647871971130E-1   6.611583232879639E-1  
 5.588000000000000E7    -6.291216015815735E-1   6.637066602706909E-1  -2.742499411106110E-1  -2.624264955520630E-1  -2.740428447723389E-1  -2.625515758991242E-1  -6.254094839096069E-1   6.619275212287903E-1  
 5.590000000000000E7    -6.285983324050903E-1   6.645360589027405E-1  -2.739630639553070E-1  -2.614568173885346E-1  -2.738374173641205E-1  -2.615028619766235E-1  -6.246917843818665E-1   6.631840467453003E-1  
 5.592000000000000E7    -6.281623244285584E-1   6.657441854476929E-1  -2.737275362014771E-1  -2.608229517936707E-1  -2.734099626541138E-1  -2.604297399520874E-1  -6.240552067756653E-1   6.642263531684876E-1  
 5.594000000000000E7    -6.276847124099731E-1   6.666597723960877E-1  -2.736300230026245E-1  -2.602038383483887E-1  -2.736698389053345E-1  -2.597982883453369E-1  -6.232610344886780E-1   6.655655503273010E-1  
 5.596000000000000E7    -6.270161271095276E-1   6.678271293640137E-1  -2.731733918190002E-1  -2.589940130710602E-1  -2.732901573181152E-1  -2.591217756271362E-1  -6.228020787239075E-1   6.661336421966553E-1  
 5.598000000000000E7    -6.262562870979309E-1   6.688421964645386E-1  -2.734806537628174E-1  -2.581866085529327E-1  -2.731490135192871E-1  -2.584304511547089E-1  -6.220583915710449E-1   6.676682233810425E-1  
 5.600000000000000E7    -6.254009604454041E-1   6.696113944053650E-1  -2.727562785148621E-1  -2.573506832122803E-1  -2.728039622306824E-1  -2.571702003479004E-1  -6.217246055603027E-1   6.685489416122437E-1  
 5.602000000000000E7    -6.247416138648987E-1   6.710709333419800E-1  -2.726463675498962E-1  -2.562939524650574E-1  -2.726444005966187E-1  -2.562437653541565E-1  -6.209337711334229E-1   6.691359877586365E-1  
 5.604000000000000E7    -6.238778829574585E-1   6.719311475753784E-1  -2.723203599452972E-1  -2.553861439228058E-1  -2.725473046302795E-1  -2.554135620594025E-1  -6.202901005744934E-1   6.704823374748230E-1  
 5.606000000000000E7    -6.235846281051636E-1   6.730269193649292E-1  -2.723391354084015E-1  -2.546846270561218E-1  -2.720849514007568E-1  -2.544954121112824E-1  -6.197905540466309E-1   6.715648174285889E-1  
 5.608000000000000E7    -6.228112578392029E-1   6.738193035125732E-1  -2.721645236015320E-1  -2.538848817348480E-1  -2.716588973999023E-1  -2.538001537322998E-1  -6.189632415771484E-1   6.723702549934387E-1  
 5.610000000000000E7    -6.221132278442383E-1   6.748836040496826E-1  -2.717735767364502E-1  -2.532414793968201E-1  -2.715277373790741E-1  -2.530034184455872E-1  -6.183753609657288E-1   6.736410856246948E-1  
 5.612000000000000E7    -6.214309930801392E-1   6.759038567543030E-1  -2.714827656745911E-1  -2.519150972366333E-1  -2.711645662784576E-1  -2.520459592342377E-1  -6.175801157951355E-1   6.742879152297974E-1  
 5.614000000000000E7    -6.213248968124390E-1   6.767529845237732E-1  -2.714066207408905E-1  -2.512047588825226E-1  -2.711055576801300E-1  -2.513326406478882E-1  -6.168741583824158E-1   6.756277084350586E-1  
 5.616000000000000E7    -6.204015612602234E-1   6.779606938362122E-1  -2.710817456245422E-1  -2.500137090682983E-1  -2.707714140415192E-1  -2.501718401908875E-1  -6.161441206932068E-1   6.762895584106445E-1  
 5.618000000000000E7    -6.192713379859924E-1   6.787945628166199E-1  -2.707459926605225E-1  -2.496672868728638E-1  -2.706625461578369E-1  -2.492873519659042E-1  -6.157028675079346E-1   6.775165200233460E-1  
 5.620000000000000E7    -6.191914677619934E-1   6.800863742828369E-1  -2.705085575580597E-1  -2.486993670463562E-1  -2.699441015720367E-1  -2.488206326961517E-1  -6.153270602226257E-1   6.783474683761597E-1  
 5.622000000000000E7    -6.184771656990051E-1   6.809064149856567E-1  -2.703364491462708E-1  -2.480115294456482E-1  -2.701629400253296E-1  -2.479161322116852E-1  -6.141675114631653E-1   6.797383427619934E-1  
 5.624000000000000E7    -6.177807450294495E-1   6.820244193077087E-1  -2.702429592609406E-1  -2.467614859342575E-1  -2.700496315956116E-1  -2.469087094068527E-1  -6.135498285293579E-1   6.803574562072754E-1  
 5.626000000000000E7    -6.173077225685120E-1   6.832401752471924E-1  -2.697515189647675E-1  -2.459965944290161E-1  -2.694926261901856E-1  -2.459972500801086E-1  -6.129807829856873E-1   6.812980771064758E-1  
 5.628000000000000E7    -6.161720752716065E-1   6.840632557868958E-1  -2.692708075046539E-1  -2.454264760017395E-1  -2.693473696708679E-1  -2.451322376728058E-1  -6.124312281608582E-1   6.827799081802368E-1  
 5.630000000000000E7    -6.156156659126282E-1   6.850237250328064E-1  -2.692736387252808E-1  -2.442420572042465E-1  -2.691813707351685E-1  -2.440787255764008E-1  -6.116290092468262E-1   6.836073398590088E-1  
 5.632000000000000E7    -6.151230931282044E-1   6.862051486968994E-1  -2.690564990043640E-1  -2.437727898359299E-1  -2.687932252883911E-1  -2.436579614877701E-1  -6.108427047729492E-1   6.847255825996399E-1  
 5.634000000000000E7    -6.145607233047485E-1   6.870614886283875E-1  -2.686635553836823E-1  -2.427119910717011E-1  -2.685131728649139E-1  -2.426848858594894E-1  -6.104460954666138E-1   6.855510473251343E-1  
 5.636000000000000E7    -6.139970421791077E-1   6.880397200584412E-1  -2.683351635932922E-1  -2.420367151498795E-1  -2.683898210525513E-1  -2.419216334819794E-1  -6.098751425743103E-1   6.866067051887512E-1  
 5.638000000000000E7    -6.131995916366577E-1   6.890605092048645E-1  -2.682314217090607E-1  -2.409716844558716E-1  -2.680788338184357E-1  -2.409875392913818E-1  -6.091858148574829E-1   6.877840161323547E-1  
 5.640000000000000E7    -6.124123334884644E-1   6.899404525756836E-1  -2.679352462291718E-1  -2.402418255805969E-1  -2.679178118705750E-1  -2.400569468736649E-1  -6.082731485366821E-1   6.884794831275940E-1  
 5.642000000000000E7    -6.116914153099060E-1   6.909952163696289E-1  -2.677287757396698E-1  -2.395440936088562E-1  -2.675631046295166E-1  -2.392891347408295E-1  -6.081076860427856E-1   6.895821690559387E-1  
 5.644000000000000E7    -6.109836697578430E-1   6.920703053474426E-1  -2.675613462924957E-1  -2.384198158979416E-1  -2.672364711761475E-1  -2.384026050567627E-1  -6.071760058403015E-1   6.901423931121826E-1  
 5.646000000000000E7    -6.103425025939941E-1   6.930691599845886E-1  -2.670692503452301E-1  -2.376254200935364E-1  -2.671636939048767E-1  -2.374977320432663E-1  -6.064033508300781E-1   6.913752555847168E-1  
 5.648000000000000E7    -6.095838546752930E-1   6.941813826560974E-1  -2.670734226703644E-1  -2.369084358215332E-1  -2.669747471809387E-1  -2.369626760482788E-1  -6.059646010398865E-1   6.926248669624329E-1  
 5.650000000000000E7    -6.089680194854736E-1   6.947427392005920E-1  -2.666768133640289E-1  -2.361347228288651E-1  -2.665521502494812E-1  -2.359832972288132E-1  -6.050347089767456E-1   6.935197710990906E-1  
 5.652000000000000E7    -6.080266237258911E-1   6.964161396026611E-1  -2.663764357566834E-1  -2.352163791656494E-1  -2.665466666221619E-1  -2.349664270877838E-1  -6.042654514312744E-1   6.944164633750916E-1  
 5.654000000000000E7    -6.078516244888306E-1   6.971073150634766E-1  -2.659361064434052E-1  -2.345957309007645E-1  -2.658821940422058E-1  -2.346106022596359E-1  -6.038533449172974E-1   6.952807307243347E-1  
 5.656000000000000E7    -6.070781946182251E-1   6.977627873420715E-1  -2.659836411476135E-1  -2.335189431905747E-1  -2.657023370265961E-1  -2.335076034069061E-1  -6.028426289558411E-1   6.967596411705017E-1  
 5.658000000000000E7    -6.063336730003357E-1   6.987900137901306E-1  -2.655278742313385E-1  -2.324313819408417E-1  -2.653206586837769E-1  -2.326369881629944E-1  -6.019852161407471E-1   6.973661780357361E-1  
 5.660000000000000E7    -6.056080460548401E-1   6.998961567878723E-1  -2.653728723526001E-1  -2.318449020385742E-1  -2.650181055068970E-1  -2.318778634071350E-1  -6.015708446502686E-1   6.980381011962891E-1  
 5.662000000000000E7    -6.049568653106690E-1   7.007406353950501E-1  -2.652641236782074E-1  -2.311504632234573E-1  -2.650976777076721E-1  -2.309970408678055E-1  -6.010775566101074E-1   6.995747685432434E-1  
 5.664000000000000E7    -6.038959622383118E-1   7.012915015220642E-1  -2.648189365863800E-1  -2.302001565694809E-1  -2.645159959793091E-1  -2.300842404365540E-1  -6.004861593246460E-1   7.003675699234009E-1  
 5.666000000000000E7    -6.034881472587585E-1   7.026079893112183E-1  -2.646488547325134E-1  -2.295282781124115E-1  -2.642356753349304E-1  -2.293688505887985E-1  -5.997660160064697E-1   7.013124227523804E-1  
 5.668000000000000E7    -6.028334498405457E-1   7.037376165390015E-1  -2.642877697944641E-1  -2.289302945137024E-1  -2.638136148452759E-1  -2.284788936376572E-1  -5.990220308303833E-1   7.022756338119507E-1  
 5.670000000000000E7    -6.023699045181274E-1   7.045340538024902E-1  -2.638012170791626E-1  -2.278562635183334E-1  -2.637651562690735E-1  -2.277215719223023E-1  -5.983640551567078E-1   7.033597230911255E-1  
 5.672000000000000E7    -6.014987826347351E-1   7.055589556694031E-1  -2.637476325035095E-1  -2.271082848310471E-1  -2.636436223983765E-1  -2.269275039434433E-1  -5.975019335746765E-1   7.043236494064331E-1  
 5.674000000000000E7    -6.008120775222778E-1   7.066721916198731E-1  -2.633647620677948E-1  -2.262365967035294E-1  -2.635248899459839E-1  -2.263196110725403E-1  -5.967358946800232E-1   7.052622437477112E-1  
 5.676000000000000E7    -5.998420715332031E-1   7.076788544654846E-1  -2.630773484706879E-1  -2.253772467374802E-1  -2.629378437995911E-1  -2.253581881523132E-1  -5.961124300956726E-1   7.062518596649170E-1  
 5.678000000000000E7    -5.994946956634522E-1   7.084973454475403E-1  -2.627727985382080E-1  -2.243636697530747E-1  -2.626233398914337E-1  -2.246299237012863E-1  -5.953181385993958E-1   7.073487639427185E-1  
 5.680000000000000E7    -5.984422564506531E-1   7.093241214752197E-1  -2.626344561576843E-1  -2.237271666526794E-1  -2.624169290065765E-1  -2.235646694898605E-1  -5.948996543884277E-1   7.080489397048950E-1  
 5.682000000000000E7    -5.980951189994812E-1   7.103794813156128E-1  -2.621310651302338E-1  -2.230128496885300E-1  -2.619705498218536E-1  -2.229562401771545E-1  -5.941490530967712E-1   7.089693546295166E-1  
 5.684000000000000E7    -5.973183512687683E-1   7.116366624832153E-1  -2.620775699615479E-1  -2.222714275121689E-1  -2.617993056774139E-1  -2.220698297023773E-1  -5.932751893997192E-1   7.097435593605042E-1  
 5.686000000000000E7    -5.962392091751099E-1   7.123357653617859E-1  -2.616817951202393E-1  -2.215148806571960E-1  -2.614785730838776E-1  -2.213274389505386E-1  -5.926840901374817E-1   7.108975052833557E-1  
 5.688000000000000E7    -5.961506366729736E-1   7.132846713066101E-1  -2.614923417568207E-1  -2.207264900207520E-1  -2.611685395240784E-1  -2.205537706613541E-1  -5.917150974273682E-1   7.119367122650147E-1  
 5.690000000000000E7    -5.950384736061096E-1   7.144573926925659E-1  -2.611077427864075E-1  -2.199178785085678E-1  -2.611351013183594E-1  -2.198942303657532E-1  -5.909829735755920E-1   7.131599783897400E-1  
 5.692000000000000E7    -5.944234728813171E-1   7.152410745620728E-1  -2.606486976146698E-1  -2.189885377883911E-1  -2.605146467685700E-1  -2.189736068248749E-1  -5.905551314353943E-1   7.136248350143433E-1  
 5.694000000000000E7    -5.935271382331848E-1   7.162792682647705E-1  -2.604661285877228E-1  -2.184256166219711E-1  -2.604141235351563E-1  -2.181319296360016E-1  -5.898759365081787E-1   7.145295143127441E-1  
 5.696000000000000E7    -5.930040478706360E-1   7.170188426971436E-1  -2.602356076240540E-1  -2.174730151891708E-1  -2.598423659801483E-1  -2.173486351966858E-1  -5.889035463333130E-1   7.158111333847046E-1  
 5.698000000000000E7    -5.921128988265991E-1   7.182086706161499E-1  -2.597349286079407E-1  -2.166169285774231E-1  -2.595689296722412E-1  -2.166329473257065E-1  -5.880935788154602E-1   7.164388895034790E-1  
 5.700000000000000E7    -5.913069844245911E-1   7.190142273902893E-1  -2.593764960765839E-1  -2.157364934682846E-1  -2.594634592533112E-1  -2.156659960746765E-1  -5.873907208442688E-1   7.175061702728272E-1  
 5.702000000000000E7    -5.908216238021851E-1   7.198879122734070E-1  -2.590908110141754E-1  -2.150631546974182E-1  -2.591633200645447E-1  -2.149673253297806E-1  -5.868824124336243E-1   7.180837988853455E-1  
 5.704000000000000E7    -5.900663137435913E-1   7.210297584533691E-1  -2.590187191963196E-1  -2.142407894134522E-1  -2.587159276008606E-1  -2.140501290559769E-1  -5.861039757728577E-1   7.191393375396729E-1  
 5.706000000000000E7    -5.895020961761475E-1   7.218918204307556E-1  -2.587376832962036E-1  -2.134692817926407E-1  -2.588402926921845E-1  -2.133630663156509E-1  -5.849629640579224E-1   7.204638123512268E-1  
 5.708000000000000E7    -5.886864662170410E-1   7.227931022644043E-1  -2.580951452255249E-1  -2.126604318618774E-1  -2.580194175243378E-1  -2.126200944185257E-1  -5.846551060676575E-1   7.213186621665955E-1  
 5.710000000000000E7    -5.878444314002991E-1   7.235702872276306E-1  -2.581021189689636E-1  -2.118548452854157E-1  -2.579101026058197E-1  -2.120383977890015E-1  -5.839855670928955E-1   7.223945856094360E-1  
 5.712000000000000E7    -5.874698758125305E-1   7.243481874465942E-1  -2.576939165592194E-1  -2.111789882183075E-1  -2.574284076690674E-1  -2.111262083053589E-1  -5.829148888587952E-1   7.231073379516602E-1  
 5.714000000000000E7    -5.865705609321594E-1   7.254586815834045E-1  -2.573803961277008E-1  -2.104775309562683E-1  -2.571808099746704E-1  -2.103967666625977E-1  -5.826320648193359E-1   7.240454554557800E-1  
 5.716000000000000E7    -5.858103632926941E-1   7.264342308044434E-1  -2.569522857666016E-1  -2.094379663467407E-1  -2.569300234317780E-1  -2.094289809465408E-1  -5.814920067787170E-1   7.249240279197693E-1  
 5.718000000000000E7    -5.852297544479370E-1   7.275673747062683E-1  -2.570385932922363E-1  -2.086300253868103E-1  -2.567661404609680E-1  -2.086964547634125E-1  -5.808773040771484E-1   7.258921861648560E-1  
 5.720000000000000E7    -5.843671560287476E-1   7.284731268882752E-1  -2.564686536788940E-1  -2.080069184303284E-1  -2.563195824623108E-1  -2.080714106559753E-1  -5.804770588874817E-1   7.266881465911865E-1  
 5.722000000000000E7    -5.835254788398743E-1   7.296381592750549E-1  -2.562647759914398E-1  -2.071194201707840E-1  -2.561414241790772E-1  -2.071666717529297E-1  -5.796712636947632E-1   7.278914451599121E-1  
 5.724000000000000E7    -5.829211473464966E-1   7.300584316253662E-1  -2.557434141635895E-1  -2.065160572528839E-1  -2.557461261749268E-1  -2.065323591232300E-1  -5.788083672523499E-1   7.286821603775024E-1  
 5.726000000000000E7    -5.822749733924866E-1   7.312041521072388E-1  -2.554665803909302E-1  -2.056820243597031E-1  -2.553794980049133E-1  -2.057070732116699E-1  -5.779969096183777E-1   7.298556566238403E-1  
 5.728000000000000E7    -5.812724828720093E-1   7.321905493736267E-1  -2.552326321601868E-1  -2.049900144338608E-1  -2.548374533653259E-1  -2.047654986381531E-1  -5.774386525154114E-1   7.305515408515930E-1  
 5.730000000000000E7    -5.805576443672180E-1   7.331272959709168E-1  -2.549933493137360E-1  -2.042553573846817E-1  -2.547197937965393E-1  -2.041193842887878E-1  -5.766704678535461E-1   7.313356399536133E-1  
 5.732000000000000E7    -5.795980095863342E-1   7.339971661567688E-1  -2.548124194145203E-1  -2.035000622272492E-1  -2.544812262058258E-1  -2.031023502349854E-1  -5.760368108749390E-1   7.325870394706726E-1  
 5.734000000000000E7    -5.789178013801575E-1   7.350767850875855E-1  -2.543956935405731E-1  -2.026685178279877E-1  -2.542214691638947E-1  -2.026230841875076E-1  -5.750148892402649E-1   7.333880662918091E-1  
 5.736000000000000E7    -5.784731507301331E-1   7.355763316154480E-1  -2.539719045162201E-1  -2.018766254186630E-1  -2.537647485733032E-1  -2.019491195678711E-1  -5.744980573654175E-1   7.343598604202271E-1  
 5.738000000000000E7    -5.775697827339172E-1   7.367234230041504E-1  -2.535748481750488E-1  -2.010125517845154E-1  -2.533682882785797E-1  -2.010412663221359E-1  -5.733788609504700E-1   7.351592183113098E-1  
 5.740000000000000E7    -5.770773887634277E-1   7.372878789901733E-1  -2.531579136848450E-1  -2.003718167543411E-1  -2.532597184181213E-1  -2.001182734966278E-1  -5.727015137672424E-1   7.360246181488037E-1  
 5.742000000000000E7    -5.762158036231995E-1   7.386991381645203E-1  -2.528687119483948E-1  -1.996006518602371E-1  -2.526384890079498E-1  -1.994595229625702E-1  -5.720255970954895E-1   7.368812561035156E-1  
 5.744000000000000E7    -5.752145648002625E-1   7.392441034317017E-1  -2.523984611034393E-1  -1.987891793251038E-1  -2.526158094406128E-1  -1.987668126821518E-1  -5.712996125221252E-1   7.379015684127808E-1  
 5.746000000000000E7    -5.744918584823608E-1   7.403731942176819E-1  -2.521261870861054E-1  -1.980950087308884E-1  -2.521292865276337E-1  -1.980297267436981E-1  -5.706090927124023E-1   7.385295629501343E-1  
 5.748000000000000E7    -5.740267634391785E-1   7.411996722221375E-1  -2.522181272506714E-1  -1.972903460264206E-1  -2.521061897277832E-1  -1.973290443420410E-1  -5.697525143623352E-1   7.399938106536865E-1  
 5.750000000000000E7    -5.729429721832275E-1   7.420641183853149E-1  -2.513214349746704E-1  -1.965901255607605E-1  -2.513889074325562E-1  -1.965141892433167E-1  -5.692057013511658E-1   7.406342029571533E-1  
 5.752000000000000E7    -5.722936987876892E-1   7.428433895111084E-1  -2.513100504875183E-1  -1.958157420158386E-1  -2.511547505855560E-1  -1.957064270973206E-1  -5.682668685913086E-1   7.416109442710877E-1  
 5.754000000000000E7    -5.716162323951721E-1   7.438958287239075E-1  -2.508328557014465E-1  -1.949108839035034E-1  -2.505858242511749E-1  -1.950403451919556E-1  -5.673446059226990E-1   7.420660257339478E-1  
 5.756000000000000E7    -5.708602070808411E-1   7.451739907264710E-1  -2.507354915142059E-1  -1.943306326866150E-1  -2.505882680416107E-1  -1.940881460905075E-1  -5.668754577636719E-1   7.431410551071167E-1  
 5.758000000000000E7    -5.702404975891113E-1   7.456532120704651E-1  -2.502528131008148E-1  -1.937090903520584E-1  -2.500066161155701E-1  -1.933777630329132E-1  -5.663495063781738E-1   7.442651987075806E-1  
 5.760000000000000E7    -5.695135593414307E-1   7.467785477638245E-1  -2.499313503503799E-1  -1.929018497467041E-1  -2.497664690017700E-1  -1.928063631057739E-1  -5.653581023216248E-1   7.447976469993591E-1  
 5.762000000000000E7    -5.687621235847473E-1   7.474164366722107E-1  -2.494708746671677E-1  -1.922676265239716E-1  -2.492256462574005E-1  -1.921904385089874E-1  -5.646597743034363E-1   7.457405924797058E-1  
 5.764000000000000E7    -5.680538415908814E-1   7.482167482376099E-1  -2.491511702537537E-1  -1.914331316947937E-1  -2.490940988063812E-1  -1.914703994989395E-1  -5.636937022209168E-1   7.465157508850098E-1  
 5.766000000000000E7    -5.672831535339356E-1   7.492471933364868E-1  -2.489528208971024E-1  -1.907332837581635E-1  -2.487551271915436E-1  -1.905587911605835E-1  -5.629867315292358E-1   7.476912140846252E-1  
 5.768000000000000E7    -5.662811994552612E-1   7.503030896186829E-1  -2.485816031694412E-1  -1.900860518217087E-1  -2.482729256153107E-1  -1.896469146013260E-1  -5.624192953109741E-1   7.482420206069946E-1  
 5.770000000000000E7    -5.656662583351135E-1   7.512320876121521E-1  -2.482927441596985E-1  -1.891081333160400E-1  -2.480828762054443E-1  -1.890437006950378E-1  -5.614935755729675E-1   7.494869232177734E-1  
 5.772000000000000E7    -5.645588040351868E-1   7.517482042312622E-1  -2.476506531238556E-1  -1.885645538568497E-1  -2.476540803909302E-1  -1.881992369890213E-1  -5.607859492301941E-1   7.499607205390930E-1  
 5.774000000000000E7    -5.639317631721497E-1   7.528993487358093E-1  -2.474301457405090E-1  -1.879173219203949E-1  -2.475429773330689E-1  -1.874846071004868E-1  -5.599744915962219E-1   7.511386871337891E-1  
 5.776000000000000E7    -5.632451176643372E-1   7.537915706634522E-1  -2.472079992294312E-1  -1.868753731250763E-1  -2.471310496330261E-1  -1.869363337755203E-1  -5.591325759887695E-1   7.519472837448120E-1  
 5.778000000000000E7    -5.627761483192444E-1   7.543520331382752E-1  -2.467933595180512E-1  -1.861930489540100E-1  -2.465925216674805E-1  -1.860160380601883E-1  -5.582252144813538E-1   7.527933120727539E-1  
 5.780000000000000E7    -5.618733167648315E-1   7.552050948143005E-1  -2.465444058179855E-1  -1.856120526790619E-1  -2.461730539798737E-1  -1.855173707008362E-1  -5.575641989707947E-1   7.536060810089111E-1  
 5.782000000000000E7    -5.613052248954773E-1   7.562009692192078E-1  -2.460818290710449E-1  -1.849067509174347E-1  -2.460677921772003E-1  -1.849078238010407E-1  -5.567691922187805E-1   7.547887563705444E-1  
 5.784000000000000E7    -5.602457523345947E-1   7.570489645004273E-1  -2.455965578556061E-1  -1.841769069433212E-1  -2.454261779785156E-1  -1.840657591819763E-1  -5.562140345573425E-1   7.554573416709900E-1  
 5.786000000000000E7    -5.595453977584839E-1   7.582879662513733E-1  -2.454632073640823E-1  -1.836241930723190E-1  -2.452497333288193E-1  -1.833706498146057E-1  -5.561367869377136E-1   7.563667297363281E-1  
 5.788000000000000E7    -5.587669610977173E-1   7.587083578109741E-1  -2.449368983507156E-1  -1.826186925172806E-1  -2.449405640363693E-1  -1.826515495777130E-1  -5.544531345367432E-1   7.573851346969605E-1  
 5.790000000000000E7    -5.577845573425293E-1   7.595633864402771E-1  -2.446230053901672E-1  -1.818562299013138E-1  -2.444439381361008E-1  -1.818572133779526E-1  -5.539189577102661E-1   7.583519816398621E-1  
 5.792000000000000E7    -5.571480989456177E-1   7.606327533721924E-1  -2.443060874938965E-1  -1.812213212251663E-1  -2.441724389791489E-1  -1.810260415077210E-1  -5.531666278839111E-1   7.588945031166077E-1  
 5.794000000000000E7    -5.562580227851868E-1   7.614127397537231E-1  -2.438772022724152E-1  -1.804426461458206E-1  -2.437876015901566E-1  -1.805336177349091E-1  -5.521284937858582E-1   7.598595619201660E-1  
 5.796000000000000E7    -5.556892752647400E-1   7.621862888336182E-1  -2.434922456741333E-1  -1.796412765979767E-1  -2.432865649461746E-1  -1.794706284999847E-1  -5.515212416648865E-1   7.607326507568359E-1  
 5.798000000000000E7    -5.547778606414795E-1   7.631641030311585E-1  -2.433746755123138E-1  -1.789635419845581E-1  -2.431204020977020E-1  -1.788921356201172E-1  -5.506446957588196E-1   7.616097927093506E-1  
 5.800000000000000E7    -5.537558794021606E-1   7.640004754066467E-1  -2.427708953619003E-1  -1.782737374305725E-1  -2.426321506500244E-1  -1.782107204198837E-1  -5.498063564300537E-1   7.624008059501648E-1  
 5.802000000000000E7    -5.534316897392273E-1   7.651308774948120E-1  -2.424799501895905E-1  -1.774765551090241E-1  -2.423138618469238E-1  -1.776278764009476E-1  -5.488917827606201E-1   7.631956934928894E-1  
 5.804000000000000E7    -5.524863004684448E-1   7.659167051315308E-1  -2.420215010643005E-1  -1.766219735145569E-1  -2.421436756849289E-1  -1.768159717321396E-1  -5.481851696968079E-1   7.643126845359802E-1  
 5.806000000000000E7    -5.514590740203857E-1   7.665919661521912E-1  -2.417090237140656E-1  -1.761732995510101E-1  -2.416714131832123E-1  -1.761093288660049E-1  -5.477965474128723E-1   7.646735310554504E-1  
 5.808000000000000E7    -5.508450269699097E-1   7.674793004989624E-1  -2.414167970418930E-1  -1.754531264305115E-1  -2.413095533847809E-1  -1.755874156951904E-1  -5.466273427009583E-1   7.657722830772400E-1  
 5.810000000000000E7    -5.499942898750305E-1   7.684014439582825E-1  -2.410248816013336E-1  -1.746596693992615E-1  -2.407619655132294E-1  -1.746812909841538E-1  -5.458648204803467E-1   7.664687037467957E-1  
 5.812000000000000E7    -5.489598512649536E-1   7.690147757530212E-1  -2.405289113521576E-1  -1.742110848426819E-1  -2.403822392225266E-1  -1.740297675132752E-1  -5.455575585365295E-1   7.672805786132813E-1  
 5.814000000000000E7    -5.482690930366516E-1   7.702877521514893E-1  -2.402090430259705E-1  -1.733364462852478E-1  -2.401110380887985E-1  -1.732087284326553E-1  -5.442053079605103E-1   7.682082653045654E-1  
 5.816000000000000E7    -5.476065278053284E-1   7.709825038909912E-1  -2.400192618370056E-1  -1.727295964956284E-1  -2.396733313798904E-1  -1.726371645927429E-1  -5.437315702438355E-1   7.692645788192749E-1  
 5.818000000000000E7    -5.470507740974426E-1   7.717132568359375E-1  -2.395339161157608E-1  -1.720043718814850E-1  -2.392873317003250E-1  -1.717173755168915E-1  -5.431020259857178E-1   7.700785994529724E-1  
 5.820000000000000E7    -5.462235808372498E-1   7.726221084594727E-1  -2.392439097166061E-1  -1.713942289352417E-1  -2.392003834247589E-1  -1.712718009948731E-1  -5.419695377349854E-1   7.709630727767944E-1  
 5.822000000000000E7    -5.453691482543945E-1   7.731758952140808E-1  -2.386329472064972E-1  -1.706797927618027E-1  -2.386376857757568E-1  -1.704606860876083E-1  -5.413823127746582E-1   7.716093063354492E-1  
 5.824000000000000E7    -5.445980429649353E-1   7.741135954856873E-1  -2.382166832685471E-1  -1.699383109807968E-1  -2.381952106952667E-1  -1.695605963468552E-1  -5.403289198875427E-1   7.725141644477844E-1  
 5.826000000000000E7    -5.438078045845032E-1   7.754257321357727E-1  -2.379593402147293E-1  -1.692396849393845E-1  -2.378769665956497E-1  -1.692957431077957E-1  -5.397436022758484E-1   7.729281187057495E-1  
 5.828000000000000E7    -5.427972674369812E-1   7.759311795234680E-1  -2.378270626068115E-1  -1.683906316757202E-1  -2.376490235328674E-1  -1.684821993112564E-1  -5.389791727066040E-1   7.745570540428162E-1  
 5.830000000000000E7    -5.420212745666504E-1   7.769196033477783E-1  -2.373702675104141E-1  -1.677363961935043E-1  -2.370692491531372E-1  -1.676422208547592E-1  -5.381798148155212E-1   7.748733758926392E-1  
 5.832000000000000E7    -5.413672327995300E-1   7.778055667877197E-1  -2.368522286415100E-1  -1.671020835638046E-1  -2.368080615997315E-1  -1.669856905937195E-1  -5.372277498245239E-1   7.755576372146606E-1  
 5.834000000000000E7    -5.404413342475891E-1   7.784546017646790E-1  -2.362891286611557E-1  -1.663186997175217E-1  -2.364240884780884E-1  -1.662825047969818E-1  -5.364456772804260E-1   7.763613462448120E-1  
 5.836000000000000E7    -5.397640466690064E-1   7.790799736976624E-1  -2.358160316944122E-1  -1.656708419322968E-1  -2.359076738357544E-1  -1.656703054904938E-1  -5.353118777275085E-1   7.774919271469116E-1  
 5.838000000000000E7    -5.390130877494812E-1   7.800552248954773E-1  -2.358719706535339E-1  -1.649609953165054E-1  -2.355342507362366E-1  -1.650620102882385E-1  -5.347437858581543E-1   7.783408761024475E-1  
 5.840000000000000E7    -5.383135676383972E-1   7.808331251144409E-1  -2.353107333183289E-1  -1.644978374242783E-1  -2.351900935173035E-1  -1.642384380102158E-1  -5.341020226478577E-1   7.790181636810303E-1  
 5.842000000000000E7    -5.373073816299439E-1   7.815827131271362E-1  -2.349766343832016E-1  -1.637051105499268E-1  -2.345256209373474E-1  -1.635969728231430E-1  -5.330157279968262E-1   7.801870107650757E-1  
 5.844000000000000E7    -5.364900231361389E-1   7.823699116706848E-1  -2.345965206623077E-1  -1.629763990640640E-1  -2.344242036342621E-1  -1.629434078931809E-1  -5.325294733047485E-1   7.804858088493347E-1  
 5.846000000000000E7    -5.356861352920532E-1   7.832924127578735E-1  -2.341892719268799E-1  -1.623388081789017E-1  -2.341926842927933E-1  -1.621093302965164E-1  -5.315808057785034E-1   7.815622091293335E-1  
 5.848000000000000E7    -5.348871350288391E-1   7.844294905662537E-1  -2.339131534099579E-1  -1.616917699575424E-1  -2.338457107543945E-1  -1.616168320178986E-1  -5.308613777160645E-1   7.825379967689514E-1  
 5.850000000000000E7    -5.340410470962524E-1   7.851105332374573E-1  -2.334017306566238E-1  -1.610467135906220E-1  -2.333616465330124E-1  -1.607885509729385E-1  -5.297996997833252E-1   7.832195758819580E-1  
 5.852000000000000E7    -5.332328677177429E-1   7.855055332183838E-1  -2.329424023628235E-1  -1.602503210306168E-1  -2.327192127704620E-1  -1.602510511875153E-1  -5.290762782096863E-1   7.840936779975891E-1  
 5.854000000000000E7    -5.323629379272461E-1   7.864599227905273E-1  -2.324818968772888E-1  -1.596062034368515E-1  -2.321846187114716E-1  -1.596037596464157E-1  -5.282686352729797E-1   7.845131754875183E-1  
 5.856000000000000E7    -5.318077206611633E-1   7.874026298522949E-1  -2.322709560394287E-1  -1.591939628124237E-1  -2.319996058940888E-1  -1.588509827852249E-1  -5.276637673377991E-1   7.854467034339905E-1  
 5.858000000000000E7    -5.309412479400635E-1   7.880951166152954E-1  -2.319533973932266E-1  -1.582643687725067E-1  -2.318971455097199E-1  -1.582944393157959E-1  -5.264733433723450E-1   7.868641614913940E-1  
 5.860000000000000E7    -5.300809741020203E-1   7.891383171081543E-1  -2.316398322582245E-1  -1.574935913085938E-1  -2.314550280570984E-1  -1.576749384403229E-1  -5.255911946296692E-1   7.872512340545654E-1  
 5.862000000000000E7    -5.295656323432922E-1   7.898275256156921E-1  -2.310365438461304E-1  -1.569830030202866E-1  -2.308679819107056E-1  -1.568981409072876E-1  -5.248201489448547E-1   7.881048917770386E-1  
 5.864000000000000E7    -5.284673571586609E-1   7.906500697135925E-1  -2.305907756090164E-1  -1.563140749931335E-1  -2.304736077785492E-1  -1.561355143785477E-1  -5.242242813110352E-1   7.888537049293518E-1  
 5.866000000000000E7    -5.275546312332153E-1   7.914478182792664E-1  -2.302030920982361E-1  -1.556659191846848E-1  -2.301249802112579E-1  -1.554688066244125E-1  -5.234718918800354E-1   7.893817424774170E-1  
 5.868000000000000E7    -5.267685055732727E-1   7.924105525016785E-1  -2.299843877553940E-1  -1.549242138862610E-1  -2.298943400382996E-1  -1.550530940294266E-1  -5.223802924156189E-1   7.906076908111572E-1  
 5.870000000000000E7    -5.258474946022034E-1   7.930785417556763E-1  -2.295106053352356E-1  -1.543888896703720E-1  -2.292501479387283E-1  -1.545003205537796E-1  -5.217002630233765E-1   7.915496230125427E-1  
 5.872000000000000E7    -5.251960158348084E-1   7.938206195831299E-1  -2.289342880249023E-1  -1.536666005849838E-1  -2.289680987596512E-1  -1.535490751266480E-1  -5.209163427352905E-1   7.920638322830200E-1  
 5.874000000000000E7    -5.242524147033691E-1   7.944275140762329E-1  -2.287063747644424E-1  -1.530589908361435E-1  -2.282868027687073E-1  -1.529257893562317E-1  -5.203804969787598E-1   7.929323315620422E-1  
 5.876000000000000E7    -5.236204862594605E-1   7.952704429626465E-1  -2.283826768398285E-1  -1.523462533950806E-1  -2.283333539962769E-1  -1.524048298597336E-1  -5.193525552749634E-1   7.937258481979370E-1  
 5.878000000000000E7    -5.227025747299194E-1   7.962313890457153E-1  -2.277771830558777E-1  -1.518072932958603E-1  -2.277826219797134E-1  -1.516923308372498E-1  -5.181158781051636E-1   7.944041490554810E-1  
 5.880000000000000E7    -5.216457247734070E-1   7.969213724136353E-1  -2.274740636348724E-1  -1.510607600212097E-1  -2.271803468465805E-1  -1.510563641786575E-1  -5.179385542869568E-1   7.951391339302063E-1  
 5.882000000000000E7    -5.214149951934815E-1   7.974482774734497E-1  -2.270162701606751E-1  -1.502924561500549E-1  -2.268662303686142E-1  -1.504646986722946E-1  -5.166044831275940E-1   7.960738539695740E-1  
 5.884000000000000E7    -5.203577876091003E-1   7.987979054450989E-1  -2.266843467950821E-1  -1.497869789600372E-1  -2.266298830509186E-1  -1.494806706905365E-1  -5.157958865165710E-1   7.968924045562744E-1  
 5.886000000000000E7    -5.192348957061768E-1   7.995198369026184E-1  -2.263794243335724E-1  -1.491759270429611E-1  -2.260819375514984E-1  -1.491622924804688E-1  -5.152518153190613E-1   7.973930835723877E-1  
 5.888000000000000E7    -5.185018777847290E-1   8.000429868698120E-1  -2.257927656173706E-1  -1.485179811716080E-1  -2.257018834352493E-1  -1.484723836183548E-1  -5.142878890037537E-1   7.983275651931763E-1  
 5.890000000000000E7    -5.175946950912476E-1   8.008014559745789E-1  -2.252642214298248E-1  -1.479859650135040E-1  -2.252959758043289E-1  -1.476115733385086E-1  -5.134052634239197E-1   7.993344664573669E-1  
 5.892000000000000E7    -5.169604420661926E-1   8.015568256378174E-1  -2.247911989688873E-1  -1.469664871692658E-1  -2.248018980026245E-1  -1.469590812921524E-1  -5.122784376144409E-1   7.999228835105896E-1  
 5.894000000000000E7    -5.159865021705627E-1   8.025581836700440E-1  -2.247834950685501E-1  -1.464369744062424E-1  -2.245772629976273E-1  -1.463744044303894E-1  -5.119228363037109E-1   8.008656501770020E-1  
 5.896000000000000E7    -5.149924755096436E-1   8.033336400985718E-1  -2.241610437631607E-1  -1.458629369735718E-1  -2.242161482572556E-1  -1.458418816328049E-1  -5.109255909919739E-1   8.011112213134766E-1  
 5.898000000000000E7    -5.144256949424744E-1   8.042194843292236E-1  -2.237414866685867E-1  -1.452208608388901E-1  -2.235470265150070E-1  -1.450941264629364E-1  -5.100870132446289E-1   8.020802736282349E-1  
 5.900000000000000E7    -5.134116411209106E-1   8.051886558532715E-1  -2.233955562114716E-1  -1.445184499025345E-1  -2.232314348220825E-1  -1.444664597511292E-1  -5.096747875213623E-1   8.029547929763794E-1  
 5.902000000000000E7    -5.125616192817688E-1   8.055142760276794E-1  -2.230603843927383E-1  -1.438443511724472E-1  -2.230173647403717E-1  -1.439647525548935E-1  -5.084276795387268E-1   8.040614128112793E-1  
 5.904000000000000E7    -5.118480920791626E-1   8.061476945877075E-1  -2.225841730833054E-1  -1.433725506067276E-1  -2.223637849092484E-1  -1.433207243680954E-1  -5.077267289161682E-1   8.046166896820068E-1  
 5.906000000000000E7    -5.111307501792908E-1   8.072725534439087E-1  -2.223425656557083E-1  -1.427116990089417E-1  -2.220425456762314E-1  -1.424961239099503E-1  -5.066300034523010E-1   8.054261803627014E-1  
 5.908000000000000E7    -5.100954174995422E-1   8.079361915588379E-1  -2.215371131896973E-1  -1.422803103923798E-1  -2.216039896011353E-1  -1.420199573040009E-1  -5.061689019203186E-1   8.060711622238159E-1  
 5.910000000000000E7    -5.093027949333191E-1   8.087508082389832E-1  -2.211574018001556E-1  -1.414339244365692E-1  -2.211417406797409E-1  -1.413061767816544E-1  -5.047811269760132E-1   8.066003322601318E-1  
 5.912000000000000E7    -5.084403753280640E-1   8.090409636497498E-1  -2.208804637193680E-1  -1.410775035619736E-1  -2.207195162773132E-1  -1.409114301204681E-1  -5.044661760330200E-1   8.076125383377075E-1  
 5.914000000000000E7    -5.077172517776489E-1   8.104274272918701E-1  -2.204397469758987E-1  -1.403530538082123E-1  -2.203517109155655E-1  -1.401323229074478E-1  -5.034216046333313E-1   8.083515167236328E-1  
 5.916000000000000E7    -5.067118406295776E-1   8.107354640960693E-1  -2.197997421026230E-1  -1.396693885326386E-1  -2.199378609657288E-1  -1.395771205425263E-1  -5.027045607566834E-1   8.089877963066101E-1  
 5.918000000000000E7    -5.058140754699707E-1   8.118681311607361E-1  -2.198024839162827E-1  -1.389479488134384E-1  -2.196478247642517E-1  -1.388926953077316E-1  -5.019108057022095E-1   8.100700974464417E-1  
 5.920000000000000E7    -5.048406124114990E-1   8.123916387557983E-1  -2.192105054855347E-1  -1.382190585136414E-1  -2.190039157867432E-1  -1.382350474596024E-1  -5.008528232574463E-1   8.104751706123352E-1  
 5.922000000000000E7    -5.042579174041748E-1   8.131418824195862E-1  -2.189187705516815E-1  -1.376903653144836E-1  -2.187853455543518E-1  -1.377542316913605E-1  -5.001817941665649E-1   8.113809227943420E-1  
 5.924000000000000E7    -5.031821727752686E-1   8.140013813972473E-1  -2.181244641542435E-1  -1.371879875659943E-1  -2.181316316127777E-1  -1.370327472686768E-1  -4.992484748363495E-1   8.116812109947205E-1  
 5.926000000000000E7    -5.027835965156555E-1   8.145593404769898E-1  -2.178181558847427E-1  -1.366604566574097E-1  -2.177323848009110E-1  -1.364959180355072E-1  -4.985005557537079E-1   8.127825260162354E-1  
 5.928000000000000E7    -5.014514327049255E-1   8.152208328247070E-1  -2.175249308347702E-1  -1.357563287019730E-1  -2.173607647418976E-1  -1.359079480171204E-1  -4.974249303340912E-1   8.135732412338257E-1  
 5.930000000000000E7    -5.008211135864258E-1   8.162636160850525E-1  -2.171147316694260E-1  -1.353677362203598E-1  -2.169146090745926E-1  -1.352406889200211E-1  -4.968374371528626E-1   8.144972324371338E-1  
 5.932000000000000E7    -4.999121427536011E-1   8.168183565139771E-1  -2.166881859302521E-1  -1.346068084239960E-1  -2.165302336215973E-1  -1.344744265079498E-1  -4.959918856620789E-1   8.149780035018921E-1  
 5.934000000000000E7    -4.990031421184540E-1   8.175621032714844E-1  -2.162974178791046E-1  -1.338600367307663E-1  -2.160927206277847E-1  -1.339326947927475E-1  -4.945920109748840E-1   8.158478736877441E-1  
 5.936000000000000E7    -4.981356561183929E-1   8.183460235595703E-1  -2.156978398561478E-1  -1.333751380443573E-1  -2.153745144605637E-1  -1.332927197217941E-1  -4.942338466644287E-1   8.161310553550720E-1  
 5.938000000000000E7    -4.973012804985046E-1   8.191134333610535E-1  -2.152445018291473E-1  -1.327632665634155E-1  -2.151861786842346E-1  -1.326628327369690E-1  -4.933577179908752E-1   8.169757723808289E-1  
 5.940000000000000E7    -4.964448809623718E-1   8.196561336517334E-1  -2.150177955627441E-1  -1.321482509374619E-1  -2.147935628890991E-1  -1.323248594999313E-1  -4.923893213272095E-1   8.179090619087219E-1  
 5.942000000000000E7    -4.956116676330566E-1   8.203663825988770E-1  -2.144178897142410E-1  -1.316740363836289E-1  -2.143143713474274E-1  -1.315169930458069E-1  -4.916371107101440E-1   8.187234401702881E-1  
 5.944000000000000E7    -4.950602650642395E-1   8.214553594589233E-1  -2.140236198902130E-1  -1.309990584850311E-1  -2.139652073383331E-1  -1.309935748577118E-1  -4.906800985336304E-1   8.193815946578980E-1  
 5.946000000000000E7    -4.939994215965271E-1   8.220002055168152E-1  -2.135114073753357E-1  -1.304552853107452E-1  -2.134816944599152E-1  -1.302734166383743E-1  -4.896545112133026E-1   8.202629089355469E-1  
 5.948000000000000E7    -4.933675825595856E-1   8.225916624069214E-1  -2.132970690727234E-1  -1.299586594104767E-1  -2.129233181476593E-1  -1.297991275787354E-1  -4.890800118446350E-1   8.211105465888977E-1  
 5.950000000000000E7    -4.922181069850922E-1   8.235296607017517E-1  -2.127520889043808E-1  -1.291526705026627E-1  -2.125962823629379E-1  -1.290920227766037E-1  -4.881411194801331E-1   8.215221762657166E-1  
 5.952000000000000E7    -4.916591644287109E-1   8.241891264915466E-1  -2.122901380062103E-1  -1.287342458963394E-1  -2.120847254991531E-1  -1.284758895635605E-1  -4.870238900184631E-1   8.220824599266052E-1  
 5.954000000000000E7    -4.905790686607361E-1   8.250202536582947E-1  -2.119722068309784E-1  -1.280035823583603E-1  -2.116679549217224E-1  -1.280758678913117E-1  -4.863627254962921E-1   8.228082060813904E-1  
 5.956000000000000E7    -4.896021485328674E-1   8.255369663238525E-1  -2.114178240299225E-1  -1.273712813854218E-1  -2.114767134189606E-1  -1.273762881755829E-1  -4.854871034622192E-1   8.237583041191101E-1  
 5.958000000000000E7    -4.888166189193726E-1   8.264436125755310E-1  -2.111746668815613E-1  -1.267716288566589E-1  -2.110169082880020E-1  -1.267499476671219E-1  -4.845473170280457E-1   8.246167302131653E-1  
 5.960000000000000E7    -4.877387881278992E-1   8.272377848625183E-1  -2.106415629386902E-1  -1.262003034353256E-1  -2.103923112154007E-1  -1.261109560728073E-1  -4.834950268268585E-1   8.249605298042297E-1  
 5.962000000000000E7    -4.869275391101837E-1   8.279913067817688E-1  -2.101818323135376E-1  -1.256103813648224E-1  -2.100660055875778E-1  -1.256253719329834E-1  -4.828479886054993E-1   8.258190751075745E-1  
 5.964000000000000E7    -4.860915839672089E-1   8.284263610839844E-1  -2.096562385559082E-1  -1.250814646482468E-1  -2.095541208982468E-1  -1.249470561742783E-1  -4.820793271064758E-1   8.266956806182861E-1  
 5.966000000000000E7    -4.852970838546753E-1   8.293290138244629E-1  -2.093133777379990E-1  -1.243149340152741E-1  -2.090477794408798E-1  -1.244894415140152E-1  -4.811966121196747E-1   8.272916674613953E-1  
 5.968000000000000E7    -4.842215776443481E-1   8.300821781158447E-1  -2.089217007160187E-1  -1.239699944853783E-1  -2.087389975786209E-1  -1.237506866455078E-1  -4.802270829677582E-1   8.281486034393311E-1  
 5.970000000000000E7    -4.834017455577850E-1   8.307680487632752E-1  -2.084228992462158E-1  -1.232824102044106E-1  -2.083397358655930E-1  -1.231690347194672E-1  -4.794195592403412E-1   8.286601901054382E-1  
 5.972000000000000E7    -4.825333654880524E-1   8.315452933311462E-1  -2.079848498106003E-1  -1.227567791938782E-1  -2.078749239444733E-1  -1.227427870035172E-1  -4.784566462039948E-1   8.294263482093811E-1  
 5.974000000000000E7    -4.816101789474487E-1   8.321392536163330E-1  -2.074690014123917E-1  -1.221542656421661E-1  -2.073184847831726E-1  -1.220717951655388E-1  -4.783434867858887E-1   8.301759362220764E-1  
 5.976000000000000E7    -4.809411764144898E-1   8.330356478691101E-1  -2.072160691022873E-1  -1.214305758476257E-1  -2.070101052522659E-1  -1.216062456369400E-1  -4.768590927124023E-1   8.309515118598938E-1  
 5.978000000000000E7    -4.801289141178131E-1   8.337638378143311E-1  -2.066211104393005E-1  -1.209093928337097E-1  -2.064472883939743E-1  -1.208867579698563E-1  -4.758813977241516E-1   8.314134478569031E-1  
 5.980000000000000E7    -4.793316423892975E-1   8.341457843780518E-1  -2.061873525381088E-1  -1.206505075097084E-1  -2.060687541961670E-1  -1.204099655151367E-1  -4.752404987812042E-1   8.325278162956238E-1  
 5.982000000000000E7    -4.783518016338348E-1   8.349564671516419E-1  -2.056604623794556E-1  -1.197824776172638E-1  -2.055610567331314E-1  -1.198112741112709E-1  -4.742265343666077E-1   8.328417539596558E-1  
 5.984000000000000E7    -4.777621924877167E-1   8.357806205749512E-1  -2.053965628147125E-1  -1.192960292100906E-1  -2.051620781421661E-1  -1.192530691623688E-1  -4.730536043643951E-1   8.337630033493042E-1  
 5.986000000000000E7    -4.769959747791290E-1   8.358826041221619E-1  -2.047337293624878E-1  -1.187618821859360E-1  -2.045946419239044E-1  -1.186973899602890E-1  -4.723314642906189E-1   8.344369530677795E-1  
 5.988000000000000E7    -4.759544730186462E-1   8.369538187980652E-1  -2.043064385652542E-1  -1.182136833667755E-1  -2.042855918407440E-1  -1.182315647602081E-1  -4.715917706489563E-1   8.353393673896790E-1  
 5.990000000000000E7    -4.749209284782410E-1   8.377715945243835E-1  -2.039354443550110E-1  -1.174821108579636E-1  -2.039234787225723E-1  -1.174594834446907E-1  -4.700856208801270E-1   8.360665440559387E-1  
 5.992000000000000E7    -4.738814532756805E-1   8.384068012237549E-1  -2.035779207944870E-1  -1.168830841779709E-1  -2.034796327352524E-1  -1.168498694896698E-1  -4.694919884204865E-1   8.368403315544128E-1  
 5.994000000000000E7    -4.731053113937378E-1   8.393140435218811E-1  -2.030372321605682E-1  -1.164560467004776E-1  -2.030052989721298E-1  -1.164213195443153E-1  -4.689407944679260E-1   8.370401263237000E-1  
 5.996000000000000E7    -4.721711575984955E-1   8.396477699279785E-1  -2.026573419570923E-1  -1.158334314823151E-1  -2.024057656526566E-1  -1.157046854496002E-1  -4.680226743221283E-1   8.379844427108765E-1  
 5.998000000000000E7    -4.716105759143829E-1   8.405740261077881E-1  -2.020356208086014E-1  -1.154105141758919E-1  -2.018498629331589E-1  -1.153440847992897E-1  -4.672224819660187E-1   8.381145596504211E-1  
 6.000000000000000E7    -4.703743159770966E-1   8.414540290832520E-1  -2.017386555671692E-1  -1.147937253117561E-1  -2.017449140548706E-1  -1.145531833171845E-1  -4.660613536834717E-1   8.394226431846619E-1  
 6.002000000000000E7    -4.696262776851654E-1   8.418888449668884E-1  -2.012539654970169E-1  -1.141500622034073E-1  -2.011583149433136E-1  -1.139684394001961E-1  -4.653725028038025E-1   8.399199843406677E-1  
 6.004000000000000E7    -4.685108959674835E-1   8.424544334411621E-1  -2.006313055753708E-1  -1.136895492672920E-1  -2.005051225423813E-1  -1.136061847209930E-1  -4.645459651947022E-1   8.408488631248474E-1  
 6.006000000000000E7    -4.678224027156830E-1   8.432635664939880E-1  -2.003648579120636E-1  -1.130932122468948E-1  -2.002606242895126E-1  -1.129194200038910E-1  -4.635557234287262E-1   8.413668870925903E-1  
 6.008000000000000E7    -4.667398631572723E-1   8.442434668540955E-1  -1.999816000461578E-1  -1.125259250402451E-1  -1.998510658740997E-1  -1.123170480132103E-1  -4.625813663005829E-1   8.421368598937988E-1  
 6.010000000000000E7    -4.663701355457306E-1   8.448951840400696E-1  -1.995784342288971E-1  -1.119631677865982E-1  -1.993403732776642E-1  -1.120713055133820E-1  -4.616531729698181E-1   8.427105545997620E-1  
 6.012000000000000E7    -4.651478528976440E-1   8.451722860336304E-1  -1.989232897758484E-1  -1.114214435219765E-1  -1.987660527229309E-1  -1.112982630729675E-1  -4.608157575130463E-1   8.432555794715881E-1  
 6.014000000000000E7    -4.641848802566528E-1   8.461408019065857E-1  -1.986036151647568E-1  -1.108239740133286E-1  -1.984278708696365E-1  -1.105977967381477E-1  -4.600413143634796E-1   8.441390991210938E-1  
 6.016000000000000E7    -4.633409678936005E-1   8.467510342597961E-1  -1.980878859758377E-1  -1.102866679430008E-1  -1.979103982448578E-1  -1.101782917976379E-1  -4.593262672424316E-1   8.445839881896973E-1  
 6.018000000000000E7    -4.625344276428223E-1   8.475118875503540E-1  -1.976846009492874E-1  -1.096303164958954E-1  -1.974148154258728E-1  -1.096566021442413E-1  -4.582398831844330E-1   8.453472256660461E-1  
 6.020000000000000E7    -4.614470899105072E-1   8.479597568511963E-1  -1.971786916255951E-1  -1.090188026428223E-1  -1.969922780990601E-1  -1.090961769223213E-1  -4.571940898895264E-1   8.460915088653565E-1  
 6.022000000000000E7    -4.605767726898193E-1   8.486593961715698E-1  -1.968040168285370E-1  -1.086102649569511E-1  -1.965018361806870E-1  -1.086728349328041E-1  -4.564259052276611E-1   8.466679453849793E-1  
 6.024000000000000E7    -4.599723219871521E-1   8.494967222213745E-1  -1.963386833667755E-1  -1.080639660358429E-1  -1.960981935262680E-1  -1.079546362161636E-1  -4.554528295993805E-1   8.475376367568970E-1  
 6.026000000000000E7    -4.589060544967651E-1   8.501684069633484E-1  -1.956257522106171E-1  -1.076598539948463E-1  -1.956320554018021E-1  -1.076736897230148E-1  -4.549592733383179E-1   8.479489088058472E-1  
 6.028000000000000E7    -4.580665528774262E-1   8.507990241050720E-1  -1.951426267623901E-1  -1.070461124181747E-1  -1.951083391904831E-1  -1.069964393973351E-1  -4.537401497364044E-1   8.487118482589722E-1  
 6.030000000000000E7    -4.570828080177307E-1   8.515024185180664E-1  -1.947313398122788E-1  -1.066056042909622E-1  -1.946837455034256E-1  -1.064250245690346E-1  -4.529514312744141E-1   8.493356704711914E-1  
 6.032000000000000E7    -4.560593366622925E-1   8.519178032875061E-1  -1.942138820886612E-1  -1.060479804873467E-1  -1.942097544670105E-1  -1.059641316533089E-1  -4.521449506282806E-1   8.500022888183594E-1  
 6.034000000000000E7    -4.555018842220306E-1   8.527227044105530E-1  -1.938921213150024E-1  -1.053692698478699E-1  -1.938044577836990E-1  -1.054426729679108E-1  -4.510275423526764E-1   8.507357239723206E-1  
 6.036000000000000E7    -4.544624388217926E-1   8.531246185302734E-1  -1.933437585830689E-1  -1.049548983573914E-1  -1.932602077722549E-1  -1.048151478171349E-1  -4.505279958248138E-1   8.513174057006836E-1  
 6.038000000000000E7    -4.536828994750977E-1   8.541370034217835E-1  -1.929718554019928E-1  -1.044405698776245E-1  -1.927946954965591E-1  -1.042665168642998E-1  -4.495476484298706E-1   8.519066572189331E-1  
 6.040000000000000E7    -4.524781405925751E-1   8.544864058494568E-1  -1.925144195556641E-1  -1.038364171981812E-1  -1.923662424087524E-1  -1.036793887615204E-1  -4.484260976314545E-1   8.525645136833191E-1  
 6.042000000000000E7    -4.517382979393005E-1   8.554975390434265E-1  -1.920519918203354E-1  -1.033746451139450E-1  -1.919720917940140E-1  -1.032162383198738E-1  -4.474798440933228E-1   8.532969951629639E-1  
 6.044000000000000E7    -4.508050084114075E-1   8.557194471359253E-1  -1.915225684642792E-1  -1.027372404932976E-1  -1.914777159690857E-1  -1.027710735797882E-1  -4.465947151184082E-1   8.538761734962463E-1  
 6.046000000000000E7    -4.499210417270660E-1   8.565465211868286E-1  -1.910855472087860E-1  -1.023368835449219E-1  -1.910097599029541E-1  -1.022248044610024E-1  -4.460078477859497E-1   8.547597527503967E-1  
 6.048000000000000E7    -4.492177367210388E-1   8.571450114250183E-1  -1.906829476356506E-1  -1.017541587352753E-1  -1.904625147581101E-1  -1.017237007617950E-1  -4.448004961013794E-1   8.552414178848267E-1  
 6.050000000000000E7    -4.482010602951050E-1   8.578009009361267E-1  -1.901677697896957E-1  -1.011545732617378E-1  -1.901627480983734E-1  -1.012426093220711E-1  -4.439200162887573E-1   8.562926054000855E-1  
 6.052000000000000E7    -4.474079608917236E-1   8.587871193885803E-1  -1.897044479846954E-1  -1.007781475782394E-1  -1.896063089370728E-1  -1.005985438823700E-1  -4.428912103176117E-1   8.565635681152344E-1  
 6.054000000000000E7    -4.466175734996796E-1   8.590499162673950E-1  -1.892451047897339E-1  -1.001946330070496E-1  -1.890773624181747E-1  -1.001507192850113E-1  -4.420538544654846E-1   8.570445775985718E-1  
 6.056000000000000E7    -4.452940821647644E-1   8.596543669700623E-1  -1.887531429529190E-1  -9.944427013397217E-2  -1.886642426252365E-1  -9.933064132928848E-2  -4.408720731735230E-1   8.577734827995300E-1  
 6.058000000000000E7    -4.446617066860199E-1   8.603836894035339E-1  -1.881697028875351E-1  -9.911718964576721E-2  -1.880892068147659E-1  -9.900497645139694E-2  -4.402223229408264E-1   8.585273623466492E-1  
 6.060000000000000E7    -4.437565803527832E-1   8.608754873275757E-1  -1.877465397119522E-1  -9.854993224143982E-2  -1.875974833965302E-1  -9.851885586977005E-2  -4.394527375698090E-1   8.588797450065613E-1  
 6.062000000000000E7    -4.427850246429443E-1   8.614166975021362E-1  -1.873256713151932E-1  -9.823440760374069E-2  -1.869814991950989E-1  -9.790273010730743E-2  -4.386448264122009E-1   8.595264554023743E-1  
 6.064000000000000E7    -4.421008527278900E-1   8.621352910995483E-1  -1.868756711483002E-1  -9.775364398956299E-2  -1.867269724607468E-1  -9.759603440761566E-2  -4.377337396144867E-1   8.604803681373596E-1  
 6.066000000000000E7    -4.410164654254913E-1   8.628951311111450E-1  -1.862903088331223E-1  -9.712719172239304E-2  -1.861321926116943E-1  -9.707091748714447E-2  -4.369596242904663E-1   8.608432412147522E-1  
 6.068000000000000E7    -4.401481151580811E-1   8.637297749519348E-1  -1.858529299497604E-1  -9.655131399631500E-2  -1.858341544866562E-1  -9.657448530197144E-2  -4.360169768333435E-1   8.615167737007141E-1  
 6.070000000000000E7    -4.391177892684937E-1   8.643566966056824E-1  -1.853791177272797E-1  -9.604027867317200E-2  -1.853121221065521E-1  -9.594511240720749E-2  -4.348117411136627E-1   8.619857430458069E-1  
 6.072000000000000E7    -4.385059177875519E-1   8.649700284004211E-1  -1.849950253963471E-1  -9.565674513578415E-2  -1.849337816238403E-1  -9.557355940341950E-2  -4.340364933013916E-1   8.627780675888062E-1  
 6.074000000000000E7    -4.373208880424500E-1   8.656611442565918E-1  -1.844739019870758E-1  -9.494721144437790E-2  -1.842557191848755E-1  -9.505343437194824E-2  -4.328599572181702E-1   8.632165789604187E-1  
 6.076000000000000E7    -4.365563988685608E-1   8.660959601402283E-1  -1.840445548295975E-1  -9.450474381446838E-2  -1.839180886745453E-1  -9.431713074445725E-2  -4.318844676017761E-1   8.637868762016296E-1  
 6.078000000000000E7    -4.355753958225250E-1   8.666823506355286E-1  -1.836435943841934E-1  -9.402575343847275E-2  -1.833916157484055E-1  -9.385646879673004E-2  -4.309750497341156E-1   8.646221756935120E-1  
 6.080000000000000E7    -4.341716766357422E-1   8.675496578216553E-1  -1.830238252878189E-1  -9.348191320896149E-2  -1.829917281866074E-1  -9.328587353229523E-2  -4.300971627235413E-1   8.651453256607056E-1  
 6.082000000000000E7    -4.338554739952087E-1   8.682683706283569E-1  -1.824651211500168E-1  -9.310801327228546E-2  -1.825485229492188E-1  -9.303951263427734E-2  -4.294964969158173E-1   8.656988143920898E-1  
 6.084000000000000E7    -4.329715669155121E-1   8.685674667358398E-1  -1.820712238550186E-1  -9.247774630784988E-2  -1.820566654205322E-1  -9.251850098371506E-2  -4.283246099948883E-1   8.666135668754578E-1  
 6.086000000000000E7    -4.319431185722351E-1   8.692884445190430E-1  -1.815495938062668E-1  -9.191641211509705E-2  -1.815303266048431E-1  -9.200970083475113E-2  -4.275442957878113E-1   8.670502305030823E-1  
 6.088000000000000E7    -4.311077892780304E-1   8.698238134384155E-1  -1.812048852443695E-1  -9.157639741897583E-2  -1.810197979211807E-1  -9.148329496383667E-2  -4.264340102672577E-1   8.676347732543945E-1  
 6.090000000000000E7    -4.301087260246277E-1   8.702977299690247E-1  -1.808059513568878E-1  -9.109605103731155E-2  -1.806861758232117E-1  -9.098960459232330E-2  -4.258497059345245E-1   8.685102462768555E-1  
 6.092000000000000E7    -4.291930198669434E-1   8.710661530494690E-1  -1.801835745573044E-1  -9.047246724367142E-2  -1.800970286130905E-1  -9.051015228033066E-2  -4.245926737785339E-1   8.689160943031311E-1  
 6.094000000000000E7    -4.280063509941101E-1   8.716869950294495E-1  -1.796949952840805E-1  -8.998602628707886E-2  -1.795952767133713E-1  -9.006379544734955E-2  -4.238775968551636E-1   8.695699572563171E-1  
 6.096000000000000E7    -4.268614947795868E-1   8.724147081375122E-1  -1.792737543582916E-1  -8.944289386272430E-2  -1.791526526212692E-1  -8.946019411087036E-2  -4.225871860980988E-1   8.701547384262085E-1  
 6.098000000000000E7    -4.262967407703400E-1   8.728821873664856E-1  -1.788489520549774E-1  -8.908611536026001E-2  -1.786317378282547E-1  -8.895556628704071E-2  -4.222907721996307E-1   8.708251118659973E-1  
 6.100000000000000E7    -4.249668419361115E-1   8.733205199241638E-1  -1.782058626413345E-1  -8.853037655353546E-2  -1.780849397182465E-1  -8.845419436693192E-2  -4.209897220134735E-1   8.712121844291687E-1  
 6.102000000000000E7    -4.245839118957520E-1   8.741025328636169E-1  -1.777226477861404E-1  -8.804294466972351E-2  -1.777039766311646E-1  -8.800251781940460E-2  -4.201196730136871E-1   8.720139861106873E-1  
 6.104000000000000E7    -4.235059022903442E-1   8.748388886451721E-1  -1.773509681224823E-1  -8.756197243928909E-2  -1.771736741065979E-1  -8.761600404977799E-2  -4.194199144840241E-1   8.723585009574890E-1  
 6.106000000000000E7    -4.228782355785370E-1   8.752369880676270E-1  -1.767137497663498E-1  -8.716966956853867E-2  -1.766867190599442E-1  -8.702647686004639E-2  -4.183541536331177E-1   8.730762004852295E-1  
 6.108000000000000E7    -4.217556118965149E-1   8.756808042526245E-1  -1.762928515672684E-1  -8.660353720188141E-2  -1.761427372694016E-1  -8.660835772752762E-2  -4.172688126564026E-1   8.735880851745606E-1  
 6.110000000000000E7    -4.206888675689697E-1   8.763208389282227E-1  -1.757241934537888E-1  -8.613279461860657E-2  -1.756217926740646E-1  -8.610968291759491E-2  -4.166583716869354E-1   8.741005659103394E-1  
 6.112000000000000E7    -4.200170636177063E-1   8.768999576568604E-1  -1.753476262092590E-1  -8.593157678842545E-2  -1.752211749553680E-1  -8.573232591152191E-2  -4.156059026718140E-1   8.751797676086426E-1  
 6.114000000000000E7    -4.188253581523895E-1   8.776220083236694E-1  -1.747790277004242E-1  -8.506126701831818E-2  -1.747791469097138E-1  -8.511584997177124E-2  -4.145722389221191E-1   8.754161000251770E-1  
 6.116000000000000E7    -4.175865054130554E-1   8.783873915672302E-1  -1.744549274444580E-1  -8.462809026241303E-2  -1.742552518844605E-1  -8.455525338649750E-2  -4.137851297855377E-1   8.762520551681519E-1  
 6.118000000000000E7    -4.168794155120850E-1   8.789604902267456E-1  -1.737199127674103E-1  -8.427761495113373E-2  -1.738069653511047E-1  -8.407075703144074E-2  -4.127914309501648E-1   8.761845827102661E-1  
 6.120000000000000E7    -4.162898659706116E-1   8.793467283248901E-1  -1.734097450971603E-1  -8.380986750125885E-2  -1.734163165092468E-1  -8.377534151077271E-2  -4.117604792118073E-1   8.774924278259277E-1  
 6.122000000000000E7    -4.154082834720612E-1   8.799481987953186E-1  -1.728576570749283E-1  -8.323295414447784E-2  -1.726271659135819E-1  -8.326004445552826E-2  -4.110574126243591E-1   8.777793645858765E-1  
 6.124000000000000E7    -4.140854775905609E-1   8.804574012756348E-1  -1.723244637250900E-1  -8.278454095125198E-2  -1.721864789724350E-1  -8.274591714143753E-2  -4.098010361194611E-1   8.786079883575440E-1  
 6.126000000000000E7    -4.135230779647827E-1   8.812864422798157E-1  -1.718842387199402E-1  -8.226757496595383E-2  -1.717900037765503E-1  -8.235971629619598E-2  -4.091184437274933E-1   8.787315487861633E-1  
 6.128000000000000E7    -4.121161997318268E-1   8.817445635795593E-1  -1.714394390583038E-1  -8.193928003311157E-2  -1.713075041770935E-1  -8.184196799993515E-2  -4.082747101783752E-1   8.795106410980225E-1  
 6.130000000000000E7    -4.115337431430817E-1   8.822622895240784E-1  -1.708236038684845E-1  -8.139657974243164E-2  -1.707298010587692E-1  -8.136846125125885E-2  -4.071134328842163E-1   8.800975084304810E-1  
 6.132000000000000E7    -4.106697440147400E-1   8.829694986343384E-1  -1.704426407814026E-1  -8.098284900188446E-2  -1.704441756010056E-1  -8.080720156431198E-2  -4.062645733356476E-1   8.807441592216492E-1  
 6.134000000000000E7    -4.095273315906525E-1   8.834522962570190E-1  -1.699585467576981E-1  -8.044563233852387E-2  -1.698502004146576E-1  -8.062200993299484E-2  -4.056560695171356E-1   8.812643885612488E-1  
 6.136000000000000E7    -4.088088274002075E-1   8.841816782951355E-1  -1.693526059389114E-1  -8.000999689102173E-2  -1.692254841327667E-1  -7.997058331966400E-2  -4.042515754699707E-1   8.817401528358460E-1  
 6.138000000000000E7    -4.077145755290985E-1   8.846923708915710E-1  -1.689935475587845E-1  -7.956213504076004E-2  -1.688618510961533E-1  -7.959903031587601E-2  -4.034425020217896E-1   8.825550079345703E-1  
 6.140000000000000E7    -4.068616330623627E-1   8.854022622108460E-1  -1.683812439441681E-1  -7.899237424135208E-2  -1.683586984872818E-1  -7.910314947366715E-2  -4.025828540325165E-1   8.828814029693604E-1  
 6.142000000000000E7    -4.056902825832367E-1   8.857232332229614E-1  -1.680652350187302E-1  -7.862191647291184E-2  -1.678300797939301E-1  -7.848148792982101E-2  -4.017237424850464E-1   8.832775354385376E-1  
 6.144000000000000E7    -4.050315618515015E-1   8.865109682083130E-1  -1.674870401620865E-1  -7.812070846557617E-2  -1.673885434865952E-1  -7.816739380359650E-2  -4.006673693656921E-1   8.842434883117676E-1  
 6.146000000000000E7    -4.040010869503021E-1   8.869174718856812E-1  -1.669793874025345E-1  -7.764799892902374E-2  -1.668716073036194E-1  -7.773023843765259E-2  -3.997501432895660E-1   8.846079111099243E-1  
 6.148000000000000E7    -4.031973183155060E-1   8.875875473022461E-1  -1.665206551551819E-1  -7.725891470909119E-2  -1.664058119058609E-1  -7.726360857486725E-2  -3.990536034107208E-1   8.851062655448914E-1  
 6.150000000000000E7    -4.023909568786621E-1   8.879440426826477E-1  -1.658669263124466E-1  -7.695747911930084E-2  -1.658350378274918E-1  -7.687126845121384E-2  -3.981750607490540E-1   8.856041431427002E-1  
 6.152000000000000E7    -4.014071524143219E-1   8.885948657989502E-1  -1.654341965913773E-1  -7.637536525726318E-2  -1.653110086917877E-1  -7.625449448823929E-2  -3.969374895095825E-1   8.860757350921631E-1  
 6.154000000000000E7    -4.004350006580353E-1   8.889970183372498E-1  -1.649573296308518E-1  -7.597020268440247E-2  -1.649048924446106E-1  -7.598094642162323E-2  -3.961977064609528E-1   8.870514035224915E-1  
 6.156000000000000E7    -3.997357189655304E-1   8.897375464439392E-1  -1.644343733787537E-1  -7.540684938430786E-2  -1.644119322299957E-1  -7.553588598966599E-2  -3.950479030609131E-1   8.876261711120606E-1  
 6.158000000000000E7    -3.983847796916962E-1   8.902146220207214E-1  -1.639957129955292E-1  -7.507207244634628E-2  -1.639799177646637E-1  -7.508198916912079E-2  -3.941895067691803E-1   8.881331682205200E-1  
 6.160000000000000E7    -3.977179527282715E-1   8.906630873680115E-1  -1.634573191404343E-1  -7.465445995330811E-2  -1.633892655372620E-1  -7.450476288795471E-2  -3.934631645679474E-1   8.885622024536133E-1  
 6.162000000000000E7    -3.966042995452881E-1   8.914469480514526E-1  -1.629329025745392E-1  -7.409845292568207E-2  -1.628081798553467E-1  -7.423778623342514E-2  -3.924517929553986E-1   8.891223669052124E-1  
 6.164000000000000E7    -3.958337604999542E-1   8.919659852981567E-1  -1.624736785888672E-1  -7.364672422409058E-2  -1.624547690153122E-1  -7.371380925178528E-2  -3.915391266345978E-1   8.896341323852539E-1  
 6.166000000000000E7    -3.949476480484009E-1   8.923308849334717E-1  -1.618262827396393E-1  -7.339301705360413E-2  -1.616601943969727E-1  -7.327185571193695E-2  -3.905301094055176E-1   8.899719119071960E-1  
 6.168000000000000E7    -3.937110304832459E-1   8.929656744003296E-1  -1.613710522651672E-1  -7.285584509372711E-2  -1.613595783710480E-1  -7.283960282802582E-2  -3.895357251167297E-1   8.904019594192505E-1  
 6.170000000000000E7    -3.928013145923615E-1   8.935657739639282E-1  -1.609456986188889E-1  -7.244624197483063E-2  -1.608102321624756E-1  -7.234744727611542E-2  -3.886734545230866E-1   8.910309672355652E-1  
 6.172000000000000E7    -3.920930922031403E-1   8.944500088691711E-1  -1.605688184499741E-1  -7.206648588180542E-2  -1.604033410549164E-1  -7.200726121664047E-2  -3.876363933086395E-1   8.917963504791260E-1  
 6.174000000000000E7    -3.909665346145630E-1   8.944817781448364E-1  -1.599192321300507E-1  -7.160305231809616E-2  -1.597955673933029E-1  -7.153582572937012E-2  -3.866905272006989E-1   8.920390605926514E-1  
 6.176000000000000E7    -3.902694582939148E-1   8.950299620628357E-1  -1.593976914882660E-1  -7.110037654638290E-2  -1.592955440282822E-1  -7.106080651283264E-2  -3.857548236846924E-1   8.929138779640198E-1  
 6.178000000000000E7    -3.890092372894287E-1   8.955669403076172E-1  -1.589600592851639E-1  -7.073048502206802E-2  -1.589450389146805E-1  -7.070359587669373E-2  -3.848450779914856E-1   8.936139345169067E-1  
 6.180000000000000E7    -3.886301815509796E-1   8.962696790695190E-1  -1.584664136171341E-1  -7.023581862449646E-2  -1.583348363637924E-1  -7.024350017309189E-2  -3.836775720119476E-1   8.938843011856079E-1  
 6.182000000000000E7    -3.874993920326233E-1   8.968520760536194E-1  -1.578849107027054E-1  -6.991329789161682E-2  -1.578620523214340E-1  -6.982261687517166E-2  -3.829936087131500E-1   8.945256471633911E-1  
 6.184000000000000E7    -3.865326344966888E-1   8.973618745803833E-1  -1.574172377586365E-1  -6.931890547275543E-2  -1.572516560554504E-1  -6.936663389205933E-2  -3.819963634014130E-1   8.948969244956970E-1  
 6.186000000000000E7    -3.853324949741364E-1   8.980392813682556E-1  -1.567778140306473E-1  -6.907633692026138E-2  -1.568168550729752E-1  -6.882680207490921E-2  -3.811573982238770E-1   8.955411911010742E-1  
 6.188000000000000E7    -3.844177126884460E-1   8.988078236579895E-1  -1.564811617136002E-1  -6.855066865682602E-2  -1.563702225685120E-1  -6.854699552059174E-2  -3.801922798156738E-1   8.961445093154907E-1  
 6.190000000000000E7    -3.834051787853241E-1   8.986031413078308E-1  -1.559295505285263E-1  -6.815048307180405E-2  -1.558759212493897E-1  -6.810045242309570E-2  -3.793189823627472E-1   8.967674374580383E-1  
 6.192000000000000E7    -3.826156854629517E-1   8.992591500282288E-1  -1.553918719291687E-1  -6.773096323013306E-2  -1.552676856517792E-1  -6.774574518203735E-2  -3.784538209438324E-1   8.973219990730286E-1  
 6.194000000000000E7    -3.816976249217987E-1   8.999738693237305E-1  -1.549473553895950E-1  -6.732837855815888E-2  -1.548472791910172E-1  -6.718825548887253E-2  -3.772256076335907E-1   8.976014256477356E-1  
 6.196000000000000E7    -3.805474936962128E-1   9.006872773170471E-1  -1.544699817895889E-1  -6.682990491390228E-2  -1.544442474842072E-1  -6.676313281059265E-2  -3.763445913791657E-1   8.983109593391419E-1  
 6.198000000000000E7    -3.798083066940308E-1   9.012281894683838E-1  -1.540839970111847E-1  -6.647557765245438E-2  -1.539092361927033E-1  -6.639222800731659E-2  -3.756040334701538E-1   8.988129496574402E-1  
 6.200000000000000E7    -3.785994946956635E-1   9.015174508094788E-1  -1.534461677074432E-1  -6.593710929155350E-2  -1.533111184835434E-1  -6.601468473672867E-2  -3.744579851627350E-1   8.990865349769592E-1  
 6.202000000000000E7    -3.776676654815674E-1   9.022388458251953E-1  -1.530214250087738E-1  -6.559833884239197E-2  -1.526677161455154E-1  -6.557250022888184E-2  -3.735507130622864E-1   8.997210264205933E-1  
 6.204000000000000E7    -3.771182894706726E-1   9.024299979209900E-1  -1.523283123970032E-1  -6.535647064447403E-2  -1.522122323513031E-1  -6.516780704259872E-2  -3.725539445877075E-1   9.002441167831421E-1  
 6.206000000000000E7    -3.756853342056274E-1   9.034425616264343E-1  -1.519959717988968E-1  -6.485417485237122E-2  -1.518753916025162E-1  -6.473670899868012E-2  -3.717260956764221E-1   9.009103178977966E-1  
 6.208000000000000E7    -3.748512566089630E-1   9.035479426383972E-1  -1.514550447463989E-1  -6.439998000860214E-2  -1.513109654188156E-1  -6.442682445049286E-2  -3.710339367389679E-1   9.015840291976929E-1  
 6.210000000000000E7    -3.741339743137360E-1   9.038414359092712E-1  -1.508997082710266E-1  -6.401029229164124E-2  -1.506927460432053E-1  -6.403400748968124E-2  -3.699068129062653E-1   9.020740389823914E-1  
 6.212000000000000E7    -3.729059994220734E-1   9.048486351966858E-1  -1.503893733024597E-1  -6.349885463714600E-2  -1.501821130514145E-1  -6.340150535106659E-2  -3.687736690044403E-1   9.021843075752258E-1  
 6.214000000000000E7    -3.721205294132233E-1   9.051141142845154E-1  -1.498098522424698E-1  -6.315346807241440E-2  -1.496998518705368E-1  -6.313623487949371E-2  -3.677858412265778E-1   9.028577804565430E-1  
 6.216000000000000E7    -3.715252876281738E-1   9.056540131568909E-1  -1.492545455694199E-1  -6.267610192298889E-2  -1.491629332304001E-1  -6.270517408847809E-2  -3.670108020305634E-1   9.033288359642029E-1  
 6.218000000000000E7    -3.702765703201294E-1   9.060330390930176E-1  -1.488006412982941E-1  -6.237724050879479E-2  -1.487317681312561E-1  -6.233549863100052E-2  -3.660379052162170E-1   9.038996696472168E-1  
 6.220000000000000E7    -3.693464100360870E-1   9.064927697181702E-1  -1.482787877321243E-1  -6.202325597405434E-2  -1.481566578149796E-1  -6.199600175023079E-2  -3.654292523860931E-1   9.044178128242493E-1  
 6.222000000000000E7    -3.683812022209168E-1   9.070028662681580E-1  -1.478358805179596E-1  -6.144658476114273E-2  -1.476505696773529E-1  -6.144820153713226E-2  -3.639045059680939E-1   9.050708413124085E-1  
 6.224000000000000E7    -3.670520186424255E-1   9.074841141700745E-1  -1.473456323146820E-1  -6.106004118919373E-2  -1.470573544502258E-1  -6.105106696486473E-2  -3.631742894649506E-1   9.058453440666199E-1  
 6.226000000000000E7    -3.662978410720825E-1   9.083603024482727E-1  -1.468209773302078E-1  -6.068966537714005E-2  -1.467617601156235E-1  -6.066827476024628E-2  -3.618203401565552E-1   9.061534404754639E-1  
 6.228000000000000E7    -3.656958341598511E-1   9.085877537727356E-1  -1.461885869503021E-1  -6.035990640521050E-2  -1.461085826158524E-1  -6.040719524025917E-2  -3.611995577812195E-1   9.064111113548279E-1  
 6.230000000000000E7    -3.644838631153107E-1   9.089925289154053E-1  -1.457496136426926E-1  -5.990126729011536E-2  -1.456041187047958E-1  -5.985860154032707E-2  -3.600493371486664E-1   9.072335362434387E-1  
 6.232000000000000E7    -3.633767962455750E-1   9.096853137016296E-1  -1.452348381280899E-1  -5.954911559820175E-2  -1.451448202133179E-1  -5.961170792579651E-2  -3.593649268150330E-1   9.075488448143005E-1  
 6.234000000000000E7    -3.627462685108185E-1   9.102730154991150E-1  -1.447297632694244E-1  -5.921103060245514E-2  -1.445749551057816E-1  -5.909661203622818E-2  -3.584277629852295E-1   9.077396988868713E-1  
 6.236000000000000E7    -3.615985512733460E-1   9.104757308959961E-1  -1.441553831100464E-1  -5.879063904285431E-2  -1.440676301717758E-1  -5.873080343008041E-2  -3.574182391166687E-1   9.083898663520813E-1  
 6.238000000000000E7    -3.606212437152863E-1   9.113749861717224E-1  -1.437060385942459E-1  -5.840760469436646E-2  -1.436211317777634E-1  -5.838192999362946E-2  -3.565596938133240E-1   9.089587330818176E-1  
 6.240000000000000E7    -3.598581254482269E-1   9.115626811981201E-1  -1.430119276046753E-1  -5.796765536069870E-2  -1.430554538965225E-1  -5.805242806673050E-2  -3.556622862815857E-1   9.091754555702210E-1  
 6.242000000000000E7    -3.587325811386108E-1   9.119607210159302E-1  -1.425617486238480E-1  -5.760379135608673E-2  -1.425425708293915E-1  -5.747020989656448E-2  -3.549493849277496E-1   9.096515178680420E-1  
 6.244000000000000E7    -3.579268157482147E-1   9.125177860260010E-1  -1.421021223068237E-1  -5.726288631558418E-2  -1.420164257287979E-1  -5.714114010334015E-2  -3.533787727355957E-1   9.102119803428650E-1  
 6.246000000000000E7    -3.571133613586426E-1   9.132136702537537E-1  -1.416380554437637E-1  -5.688958615064621E-2  -1.415731757879257E-1  -5.683714523911476E-2  -3.526753187179565E-1   9.109003543853760E-1  
 6.248000000000000E7    -3.561124801635742E-1   9.136590957641602E-1  -1.411610841751099E-1  -5.642468109726906E-2  -1.408912241458893E-1  -5.650338158011437E-2  -3.515297770500183E-1   9.109978675842285E-1  
 6.250000000000000E7    -3.550517559051514E-1   9.139925837516785E-1  -1.405175179243088E-1  -5.612069368362427E-2  -1.404727995395660E-1  -5.600334331393242E-2  -3.508653938770294E-1   9.114874601364136E-1  
 6.252000000000000E7    -3.540205061435700E-1   9.144981503486633E-1  -1.400687843561173E-1  -5.564527958631516E-2  -1.399441510438919E-1  -5.561311542987824E-2  -3.496996164321899E-1   9.120694398880005E-1  
 6.254000000000000E7    -3.533276617527008E-1   9.148362278938294E-1  -1.394879817962647E-1  -5.539476126432419E-2  -1.394025832414627E-1  -5.525415018200874E-2  -3.489201962947846E-1   9.124479293823242E-1  
 6.256000000000000E7    -3.520557582378388E-1   9.157127737998962E-1  -1.390710026025772E-1  -5.487056821584702E-2  -1.389580518007278E-1  -5.490972101688385E-2  -3.478569686412811E-1   9.130384325981140E-1  
 6.258000000000000E7    -3.511643111705780E-1   9.164124131202698E-1  -1.386360228061676E-1  -5.459755659103394E-2  -1.384576261043549E-1  -5.454768985509872E-2  -3.471276462078095E-1   9.135228395462036E-1  
 6.260000000000000E7    -3.505948185920715E-1   9.163216948509216E-1  -1.380285918712616E-1  -5.426420271396637E-2  -1.378639340400696E-1  -5.413521081209183E-2  -3.460271656513214E-1   9.144082069396973E-1  
 6.262000000000000E7    -3.492698073387146E-1   9.168655872344971E-1  -1.374081373214722E-1  -5.380653962492943E-2  -1.373430639505386E-1  -5.386681109666824E-2  -3.450593650341034E-1   9.144466519355774E-1  
 6.264000000000000E7    -3.484100401401520E-1   9.173124432563782E-1  -1.370009481906891E-1  -5.335132405161858E-2  -1.369332075119019E-1  -5.348474904894829E-2  -3.440400958061218E-1   9.147124290466309E-1  
 6.266000000000000E7    -3.474538922309876E-1   9.177269935607910E-1  -1.364136338233948E-1  -5.307689309120178E-2  -1.363081634044647E-1  -5.305486917495728E-2  -3.431423008441925E-1   9.154154062271118E-1  
 6.268000000000000E7    -3.465881049633026E-1   9.181876778602600E-1  -1.358777135610580E-1  -5.285859107971191E-2  -1.357751339673996E-1  -5.276107043027878E-2  -3.422226309776306E-1   9.156454205513001E-1  
 6.270000000000000E7    -3.455038070678711E-1   9.189547300338745E-1  -1.354760378599167E-1  -5.235819518566132E-2  -1.354405283927918E-1  -5.240115523338318E-2  -3.411669135093689E-1   9.164855480194092E-1  
 6.272000000000000E7    -3.445136547088623E-1   9.190837144851685E-1  -1.348503232002258E-1  -5.199195444583893E-2  -1.348038762807846E-1  -5.190762132406235E-2  -3.405025601387024E-1   9.167668819427490E-1  
 6.274000000000000E7    -3.433683514595032E-1   9.195576310157776E-1  -1.342764496803284E-1  -5.160159245133400E-2  -1.341903209686279E-1  -5.149457976222038E-2  -3.392483592033386E-1   9.171723127365112E-1  
 6.276000000000000E7    -3.427470624446869E-1   9.204374551773071E-1  -1.338493824005127E-1  -5.136806517839432E-2  -1.337292343378067E-1  -5.133292078971863E-2  -3.384391069412231E-1   9.174633622169495E-1  
 6.278000000000000E7    -3.416671454906464E-1   9.203031659126282E-1  -1.333081573247910E-1  -5.089524015784264E-2  -1.332147121429443E-1  -5.088451132178307E-2  -3.371839225292206E-1   9.183055758476257E-1  
 6.280000000000000E7    -3.406366407871246E-1   9.210911989212036E-1  -1.328604072332382E-1  -5.052925646305084E-2  -1.326935291290283E-1  -5.049884319305420E-2  -3.362920284271240E-1   9.185347557067871E-1  
 6.282000000000000E7    -3.396434783935547E-1   9.214141964912415E-1  -1.323046386241913E-1  -5.024283379316330E-2  -1.321117281913757E-1  -5.017335712909699E-2  -3.353899419307709E-1   9.190692305564880E-1  
 6.284000000000000E7    -3.387728631496429E-1   9.217132329940796E-1  -1.316246986389160E-1  -4.977595806121826E-2  -1.316741704940796E-1  -4.977354034781456E-2  -3.341772556304932E-1   9.195088148117065E-1  
 6.286000000000000E7    -3.379006087779999E-1   9.226420521736145E-1  -1.311874687671661E-1  -4.949745535850525E-2  -1.311334669589996E-1  -4.943362623453140E-2  -3.337565362453461E-1   9.197435975074768E-1  
 6.288000000000000E7    -3.374403119087219E-1   9.228696823120117E-1  -1.307479739189148E-1  -4.918222874403000E-2  -1.305847167968750E-1  -4.916424676775932E-2  -3.326109349727631E-1   9.201666712760925E-1  
 6.290000000000000E7    -3.360285460948944E-1   9.232159852981567E-1  -1.301722526550293E-1  -4.874673485755920E-2  -1.301464587450028E-1  -4.877945780754089E-2  -3.314372897148132E-1   9.204021692276001E-1  
 6.292000000000000E7    -3.348746895790100E-1   9.237247705459595E-1  -1.296630650758743E-1  -4.852145165205002E-2  -1.295896321535111E-1  -4.845580086112022E-2  -3.308565616607666E-1   9.213896393775940E-1  
 6.294000000000000E7    -3.342816233634949E-1   9.241182804107666E-1  -1.291166245937347E-1  -4.820595309138298E-2  -1.290514022111893E-1  -4.815996438264847E-2  -3.298681080341339E-1   9.216969609260559E-1  
 6.296000000000000E7    -3.330064415931702E-1   9.249000549316406E-1  -1.286338567733765E-1  -4.776155203580856E-2  -1.285581588745117E-1  -4.765886813402176E-2  -3.287920653820038E-1   9.220520853996277E-1  
 6.298000000000000E7    -3.320680856704712E-1   9.251682758331299E-1  -1.280254125595093E-1  -4.737415909767151E-2  -1.279936432838440E-1  -4.741044342517853E-2  -3.276582360267639E-1   9.225105047225952E-1  
 6.300000000000000E7    -3.311639726161957E-1   9.257757067680359E-1  -1.275736689567566E-1  -4.706749320030212E-2  -1.274583488702774E-1  -4.712549597024918E-2  -3.271633386611939E-1   9.229925870895386E-1  
 6.302000000000000E7    -3.299128711223602E-1   9.263336062431335E-1  -1.270420551300049E-1  -4.670357704162598E-2  -1.270833611488342E-1  -4.661789909005165E-2  -3.258103430271149E-1   9.234355092048645E-1  
 6.304000000000000E7    -3.291186094284058E-1   9.265311956405640E-1  -1.265792995691299E-1  -4.625700414180756E-2  -1.264489442110062E-1  -4.631332680583000E-2  -3.248376846313477E-1   9.237299561500549E-1  
 6.306000000000000E7    -3.281093239784241E-1   9.268906712532044E-1  -1.259338110685349E-1  -4.599129408597946E-2  -1.258963942527771E-1  -4.589651152491570E-2  -3.237792849540710E-1   9.240460991859436E-1  
 6.308000000000000E7    -3.268296122550964E-1   9.273704290390015E-1  -1.254775822162628E-1  -4.559005796909332E-2  -1.254278272390366E-1  -4.560489580035210E-2  -3.229906558990479E-1   9.249544143676758E-1  
 6.310000000000000E7    -3.263424634933472E-1   9.280008077621460E-1  -1.250104457139969E-1  -4.534313827753067E-2  -1.248546540737152E-1  -4.533591121435165E-2  -3.221004903316498E-1   9.249808192253113E-1  
 6.312000000000000E7    -3.250249326229096E-1   9.280912876129150E-1  -1.244750022888184E-1  -4.499335214495659E-2  -1.242911964654923E-1  -4.492597654461861E-2  -3.210657536983490E-1   9.255781769752502E-1  
 6.314000000000000E7    -3.243642747402191E-1   9.285928010940552E-1  -1.239016577601433E-1  -4.461012408137322E-2  -1.237415298819542E-1  -4.467873275279999E-2  -3.201644420623779E-1   9.259840846061707E-1  
 6.316000000000000E7    -3.232426345348358E-1   9.288704395294190E-1  -1.233114376664162E-1  -4.431144520640373E-2  -1.232826933264732E-1  -4.425481334328651E-2  -3.189826607704163E-1   9.263720512390137E-1  
 6.318000000000000E7    -3.221296072006226E-1   9.296610355377197E-1  -1.228871718049049E-1  -4.408701881766319E-2  -1.228182092308998E-1  -4.394958913326263E-2  -3.180214464664459E-1   9.270845055580139E-1  
 6.320000000000000E7    -3.213153183460236E-1   9.297730922698975E-1  -1.223354265093803E-1  -4.363451153039932E-2  -1.222395002841950E-1  -4.367084801197052E-2  -3.171775043010712E-1   9.273560047149658E-1  
 6.322000000000000E7    -3.205633163452148E-1   9.304320812225342E-1  -1.218265518546104E-1  -4.334158822894096E-2  -1.217237561941147E-1  -4.330263659358025E-2  -3.162215352058411E-1   9.278554320335388E-1  
 6.324000000000000E7    -3.193508386611939E-1   9.308505654335022E-1  -1.212301701307297E-1  -4.297772422432900E-2  -1.211427077651024E-1  -4.296923428773880E-2  -3.152565360069275E-1   9.282295107841492E-1  
 6.326000000000000E7    -3.186302483081818E-1   9.311409592628479E-1  -1.206752508878708E-1  -4.258803650736809E-2  -1.205788403749466E-1  -4.254836961627007E-2  -3.142818808555603E-1   9.283569455146790E-1  
 6.328000000000000E7    -3.176676928997040E-1   9.313894510269165E-1  -1.201532185077667E-1  -4.232133552432060E-2  -1.199797987937927E-1  -4.226558282971382E-2  -3.132429718971252E-1   9.288406968116760E-1  
 6.330000000000000E7    -3.165605366230011E-1   9.320904016494751E-1  -1.196884438395500E-1  -4.190474376082420E-2  -1.195980757474899E-1  -4.196953028440476E-2  -3.126631379127502E-1   9.293978214263916E-1  
 6.332000000000000E7    -3.156716525554657E-1   9.324552416801453E-1  -1.191701367497444E-1  -4.166198521852493E-2  -1.190420240163803E-1  -4.172840714454651E-2  -3.118373453617096E-1   9.298898577690125E-1  
 6.334000000000000E7    -3.146093487739563E-1   9.327799081802368E-1  -1.185791566967964E-1  -4.141186922788620E-2  -1.185133308172226E-1  -4.124034196138382E-2  -3.103080391883850E-1   9.301779270172119E-1  
 6.336000000000000E7    -3.134343922138214E-1   9.331941008567810E-1  -1.180785074830055E-1  -4.096651449799538E-2  -1.179770529270172E-1  -4.092727974057198E-2  -3.091934621334076E-1   9.305922985076904E-1  
 6.338000000000000E7    -3.128232955932617E-1   9.336211085319519E-1  -1.174322962760925E-1  -4.064913094043732E-2  -1.174258738756180E-1  -4.069622233510017E-2  -3.083230555057526E-1   9.310115575790405E-1  
 6.340000000000000E7    -3.117340505123138E-1   9.343045353889465E-1  -1.170557439327240E-1  -4.033752530813217E-2  -1.170270517468453E-1  -4.040211811661720E-2  -3.077389597892761E-1   9.315512776374817E-1  
 6.342000000000000E7    -3.107169270515442E-1   9.344855546951294E-1  -1.165121793746948E-1  -4.002305492758751E-2  -1.164172887802124E-1  -4.003401100635529E-2  -3.064317405223846E-1   9.318537116050720E-1  
 6.344000000000000E7    -3.098722398281097E-1   9.348090887069702E-1  -1.159734949469566E-1  -3.964922577142716E-2  -1.159375086426735E-1  -3.967825323343277E-2  -3.055239617824554E-1   9.320941567420960E-1  
 6.346000000000000E7    -3.085410594940186E-1   9.353061318397522E-1  -1.155453845858574E-1  -3.947313129901886E-2  -1.153760477900505E-1  -3.945108503103256E-2  -3.045758605003357E-1   9.329419732093811E-1  
 6.348000000000000E7    -3.079586029052734E-1   9.355672001838684E-1  -1.148643344640732E-1  -3.915996849536896E-2  -1.147853583097458E-1  -3.908065706491470E-2  -3.033700883388519E-1   9.329246878623962E-1  
 6.350000000000000E7    -3.069834113121033E-1   9.360717535018921E-1  -1.143659502267838E-1  -3.883777931332588E-2  -1.142911389470100E-1  -3.881133347749710E-2  -3.029919266700745E-1   9.334733486175537E-1  
 6.352000000000000E7    -3.057971298694611E-1   9.366996288299561E-1  -1.138423159718514E-1  -3.840938210487366E-2  -1.138269975781441E-1  -3.846009820699692E-2  -3.015679717063904E-1   9.336759448051453E-1  
 6.354000000000000E7    -3.046748638153076E-1   9.369082450866699E-1  -1.133427619934082E-1  -3.807640448212624E-2  -1.131961196660996E-1  -3.820751607418060E-2  -3.006377220153809E-1   9.343255162239075E-1  
 6.356000000000000E7    -3.039859831333160E-1   9.372766613960266E-1  -1.128876581788063E-1  -3.778571635484695E-2  -1.126967370510101E-1  -3.784630447626114E-2  -2.997965812683106E-1   9.347051382064819E-1  
 6.358000000000000E7    -3.029511868953705E-1   9.376105070114136E-1  -1.122592017054558E-1  -3.741488605737686E-2  -1.120671480894089E-1  -3.749255463480949E-2  -2.984971404075623E-1   9.349502325057983E-1  
 6.360000000000000E7    -3.022419810295105E-1   9.378534555435181E-1  -1.117328703403473E-1  -3.722045570611954E-2  -1.116624027490616E-1  -3.717734664678574E-2  -2.977809011936188E-1   9.355744719505310E-1  
 6.362000000000000E7    -3.012977838516235E-1   9.385361671447754E-1  -1.111957058310509E-1  -3.694488853216171E-2  -1.111385002732277E-1  -3.698005899786949E-2  -2.968223989009857E-1   9.358933568000794E-1  
 6.364000000000000E7    -2.999934852123261E-1   9.387936592102051E-1  -1.107070744037628E-1  -3.656277060508728E-2  -1.105163022875786E-1  -3.657154366374016E-2  -2.957524359226227E-1   9.362693428993225E-1  
 6.366000000000000E7    -2.992049455642700E-1   9.395036697387695E-1  -1.101320311427116E-1  -3.638774901628494E-2  -1.100959628820419E-1  -3.637167066335678E-2  -2.948913872241974E-1   9.363648891448975E-1  
 6.368000000000000E7    -2.979018986225128E-1   9.398341178894043E-1  -1.095897480845451E-1  -3.595340996980667E-2  -1.095100492238998E-1  -3.602907434105873E-2  -2.937788665294647E-1   9.369742274284363E-1  
 6.370000000000000E7    -2.971233427524567E-1   9.403058886528015E-1  -1.091595739126205E-1  -3.576172515749931E-2  -1.090108454227448E-1  -3.568588569760323E-2  -2.929397523403168E-1   9.374907016754150E-1  
 6.372000000000000E7    -2.959550321102142E-1   9.402998089790344E-1  -1.085698902606964E-1  -3.545741736888886E-2  -1.084733828902245E-1  -3.541035205125809E-2  -2.919028401374817E-1   9.379976987838745E-1  
 6.374000000000000E7    -2.954698503017426E-1   9.411563277244568E-1  -1.080234050750732E-1  -3.523547202348709E-2  -1.079637482762337E-1  -3.516592457890511E-2  -2.910828888416290E-1   9.379656314849854E-1  
 6.376000000000000E7    -2.941355705261231E-1   9.410637021064758E-1  -1.074608266353607E-1  -3.485623002052307E-2  -1.073768064379692E-1  -3.484228625893593E-2  -2.900949418544769E-1   9.386267662048340E-1  
 6.378000000000000E7    -2.931984961032867E-1   9.416498541831970E-1  -1.071114838123322E-1  -3.454039618372917E-2  -1.070077419281006E-1  -3.453418239951134E-2  -2.891462147235870E-1   9.389699697494507E-1  
 6.380000000000000E7    -2.922317981719971E-1   9.419726133346558E-1  -1.064400598406792E-1  -3.422065451741219E-2  -1.063719242811203E-1  -3.426255285739899E-2  -2.879683077335358E-1   9.392376542091370E-1  
 6.382000000000000E7    -2.914885580539703E-1   9.421834349632263E-1  -1.058856770396233E-1  -3.392900526523590E-2  -1.058589816093445E-1  -3.398101404309273E-2  -2.870040833950043E-1   9.399309754371643E-1  
 6.384000000000000E7    -2.901578843593597E-1   9.426414966583252E-1  -1.054177582263947E-1  -3.356254845857620E-2  -1.052430346608162E-1  -3.364458680152893E-2  -2.858615815639496E-1   9.401258826255798E-1  
 6.386000000000000E7    -2.891995608806610E-1   9.428822398185730E-1  -1.047917902469635E-1  -3.334406763315201E-2  -1.047412157058716E-1  -3.336189687252045E-2  -2.851053476333618E-1   9.406357407569885E-1  
 6.388000000000000E7    -2.882223725318909E-1   9.436079859733582E-1  -1.043970361351967E-1  -3.302221745252609E-2  -1.042591035366058E-1  -3.305790200829506E-2  -2.841587364673615E-1   9.408696293830872E-1  
 6.390000000000000E7    -2.871213257312775E-1   9.439088702201843E-1  -1.037558689713478E-1  -3.283661603927612E-2  -1.036852076649666E-1  -3.282366693019867E-2  -2.833855450153351E-1   9.413177967071533E-1  
 6.392000000000000E7    -2.864555418491364E-1   9.442275166511536E-1  -1.031876206398010E-1  -3.247750177979469E-2  -1.032768413424492E-1  -3.248432278633118E-2  -2.818896174430847E-1   9.416062235832214E-1  
 6.394000000000000E7    -2.853167951107025E-1   9.446101188659668E-1  -1.026809066534042E-1  -3.215647488832474E-2  -1.026898026466370E-1  -3.221317008137703E-2  -2.811837196350098E-1   9.418723583221436E-1  
 6.396000000000000E7    -2.845196723937988E-1   9.450265765190125E-1  -1.021408215165138E-1  -3.188588842749596E-2  -1.020819917321205E-1  -3.192372620105743E-2  -2.802220880985260E-1   9.421232342720032E-1  
 6.398000000000000E7    -2.834128141403198E-1   9.451113939285278E-1  -1.016211956739426E-1  -3.162779659032822E-2  -1.014993339776993E-1  -3.164939582347870E-2  -2.793576717376709E-1   9.425784945487976E-1  
 6.400000000000000E7    -2.824439406394959E-1   9.457867145538330E-1  -1.011159494519234E-1  -3.142215311527252E-2  -1.010464504361153E-1  -3.131303563714027E-2  -2.783730328083038E-1   9.431232810020447E-1  
 6.402000000000000E7    -2.815251350402832E-1   9.458187222480774E-1  -1.004849597811699E-1  -3.112418949604034E-2  -1.004680618643761E-1  -3.112603537738323E-2  -2.776069939136505E-1   9.432117938995361E-1  
 6.404000000000000E7    -2.805817425251007E-1   9.464806318283081E-1  -9.997236728668213E-2  -3.082233108580113E-2  -9.990756958723068E-2  -3.076428920030594E-2  -2.765946984291077E-1   9.438601732254028E-1  
 6.406000000000000E7    -2.796666920185089E-1   9.466096162796021E-1  -9.947382658720017E-2  -3.058248013257980E-2  -9.934730082750320E-2  -3.053105622529984E-2  -2.753430902957916E-1   9.439385533332825E-1  
 6.408000000000000E7    -2.782499194145203E-1   9.472796320915222E-1  -9.895827621221542E-2  -3.028490021824837E-2  -9.892947226762772E-2  -3.020931966602802E-2  -2.742030024528503E-1   9.443964958190918E-1  
 6.410000000000000E7    -2.775653898715973E-1   9.474439620971680E-1  -9.846406430006027E-2  -2.997539564967156E-2  -9.833937883377075E-2  -2.999624982476234E-2  -2.732846438884735E-1   9.448385238647461E-1  
 6.412000000000000E7    -2.764598429203033E-1   9.480773806571960E-1  -9.789536893367767E-2  -2.967831119894981E-2  -9.784615039825440E-2  -2.972108311951160E-2  -2.725504040718079E-1   9.449749588966370E-1  
 6.414000000000000E7    -2.756391465663910E-1   9.482938647270203E-1  -9.740004688501358E-2  -2.947297133505344E-2  -9.730383753776550E-2  -2.948081120848656E-2  -2.711050510406494E-1   9.456576108932495E-1  
 6.416000000000000E7    -2.745282948017120E-1   9.486088156700134E-1  -9.678036719560623E-2  -2.919083833694458E-2  -9.669363498687744E-2  -2.919526770710945E-2  -2.705647051334381E-1   9.459161162376404E-1  
 6.418000000000000E7    -2.737904787063599E-1   9.489492177963257E-1  -9.623913466930389E-2  -2.890850603580475E-2  -9.618520736694336E-2  -2.894234284758568E-2  -2.696250081062317E-1   9.460313320159912E-1  
 6.420000000000000E7    -2.726920843124390E-1   9.491936564445496E-1  -9.574247151613236E-2  -2.869722433388233E-2  -9.567812085151672E-2  -2.866203524172306E-2  -2.685596644878388E-1   9.466219544410706E-1  
 6.422000000000000E7    -2.719164192676544E-1   9.495054483413696E-1  -9.521313756704330E-2  -2.836669050157070E-2  -9.519316256046295E-2  -2.842018567025662E-2  -2.676318585872650E-1   9.466466903686523E-1  
 6.424000000000000E7    -2.708206474781036E-1   9.495525956153870E-1  -9.459827095270157E-2  -2.812883444130421E-2  -9.455649554729462E-2  -2.809586189687252E-2  -2.668315470218658E-1   9.469919204711914E-1  
 6.426000000000000E7    -2.697777748107910E-1   9.498571753501892E-1  -9.407854825258255E-2  -2.784540317952633E-2  -9.400602430105209E-2  -2.787757478654385E-2  -2.656202018260956E-1   9.475418329238892E-1  
 6.428000000000000E7    -2.687900066375732E-1   9.505169391632080E-1  -9.358496218919754E-2  -2.749347314238548E-2  -9.353799372911453E-2  -2.761091291904450E-2  -2.645624577999115E-1   9.477761983871460E-1  
 6.430000000000000E7    -2.678378522396088E-1   9.510189890861511E-1  -9.307371079921722E-2  -2.731919474899769E-2  -9.300753474235535E-2  -2.726521529257298E-2  -2.634737491607666E-1   9.484774470329285E-1  
 6.432000000000000E7    -2.668837904930115E-1   9.511384367942810E-1  -9.254654496908188E-2  -2.707564458251000E-2  -9.243271499872208E-2  -2.704975008964539E-2  -2.624432444572449E-1   9.482320547103882E-1  
 6.434000000000000E7    -2.656632959842682E-1   9.510951638221741E-1  -9.191796183586121E-2  -2.679190039634705E-2  -9.190102666616440E-2  -2.676707506179810E-2  -2.615357935428619E-1   9.486892223358154E-1  
 6.436000000000000E7    -2.649185955524445E-1   9.520371556282044E-1  -9.142015874385834E-2  -2.659618854522705E-2  -9.141423553228378E-2  -2.658577822148800E-2  -2.607633173465729E-1   9.490483999252319E-1  
 6.438000000000000E7    -2.637067735195160E-1   9.520261287689209E-1  -9.086196869611740E-2  -2.627794630825520E-2  -9.085077792406082E-2  -2.622857689857483E-2  -2.596575021743774E-1   9.495605230331421E-1  
 6.440000000000000E7    -2.628951668739319E-1   9.524621367454529E-1  -9.038910269737244E-2  -2.603407204151154E-2  -9.034407883882523E-2  -2.609683945775032E-2  -2.586642503738403E-1   9.499522447586060E-1  
 6.442000000000000E7    -2.619226574897766E-1   9.531440138816834E-1  -8.984304964542389E-2  -2.584751136600971E-2  -8.982610702514648E-2  -2.583064511418343E-2  -2.581174671649933E-1   9.500735998153687E-1  
 6.444000000000000E7    -2.607678472995758E-1   9.531733989715576E-1  -8.927306532859802E-2  -2.553714066743851E-2  -8.923262357711792E-2  -2.550813928246498E-2  -2.566227018833160E-1   9.504266381263733E-1  
 6.446000000000000E7    -2.598473727703095E-1   9.535661935806274E-1  -8.879656344652176E-2  -2.532491460442543E-2  -8.873188495635986E-2  -2.529008686542511E-2  -2.558573186397553E-1   9.508193135261536E-1  
 6.448000000000000E7    -2.590625286102295E-1   9.539623260498047E-1  -8.819364756345749E-2  -2.507755719125271E-2  -8.810513466596603E-2  -2.503881044685841E-2  -2.546296417713165E-1   9.507900476455689E-1  
 6.450000000000000E7    -2.579361498355866E-1   9.540080428123474E-1  -8.764673024415970E-2  -2.481010928750038E-2  -8.759068697690964E-2  -2.482729405164719E-2  -2.540330290794373E-1   9.510989189147949E-1  
 6.452000000000000E7    -2.569358944892883E-1   9.541660547256470E-1  -8.706081658601761E-2  -2.457085624337196E-2  -8.702326565980911E-2  -2.453450113534927E-2  -2.527428269386292E-1   9.515038132667542E-1  
 6.454000000000000E7    -2.560282647609711E-1   9.549346566200256E-1  -8.659134805202484E-2  -2.432032115757465E-2  -8.653760701417923E-2  -2.434932067990303E-2  -2.519860267639160E-1   9.518773555755615E-1  
 6.456000000000000E7    -2.546124756336212E-1   9.552389383316040E-1  -8.606116473674774E-2  -2.396557480096817E-2  -8.604273200035095E-2  -2.403719723224640E-2  -2.508142888545990E-1   9.522610306739807E-1  
 6.458000000000000E7    -2.538406550884247E-1   9.557109475135803E-1  -8.553843200206757E-2  -2.382456138730049E-2  -8.552637696266174E-2  -2.378713153302670E-2  -2.495999783277512E-1   9.526730179786682E-1  
 6.460000000000000E7    -2.531976699829102E-1   9.558532238006592E-1  -8.495175838470459E-2  -2.356074564158917E-2  -8.497006446123123E-2  -2.362178266048431E-2  -2.490785866975784E-1   9.531149268150330E-1  
 6.462000000000000E7    -2.518161535263062E-1   9.560129642486572E-1  -8.448299765586853E-2  -2.336924150586128E-2  -8.443357795476914E-2  -2.338327839970589E-2  -2.480194419622421E-1   9.535312056541443E-1  
 6.464000000000000E7    -2.509944140911102E-1   9.564417004585266E-1  -8.393956720829010E-2  -2.308325469493866E-2  -8.387117832899094E-2  -2.308688685297966E-2  -2.468372285366058E-1   9.537489414215088E-1  
 6.466000000000000E7    -2.499085515737534E-1   9.566054344177246E-1  -8.340162783861160E-2  -2.285593748092651E-2  -8.331755548715591E-2  -2.280528470873833E-2  -2.455062866210938E-1   9.542450904846191E-1  
 6.468000000000000E7    -2.485772967338562E-1   9.572303295135498E-1  -8.287256956100464E-2  -2.257017418742180E-2  -8.282367140054703E-2  -2.262830734252930E-2  -2.448936700820923E-1   9.547083377838135E-1  
 6.470000000000000E7    -2.481901347637177E-1   9.576671123504639E-1  -8.233979344367981E-2  -2.239324897527695E-2  -8.230774849653244E-2  -2.242712303996086E-2  -2.441664189100266E-1   9.546648859977722E-1  
 6.472000000000000E7    -2.470482885837555E-1   9.579821825027466E-1  -8.173065632581711E-2  -2.218201756477356E-2  -8.172207325696945E-2  -2.216226607561112E-2  -2.428513914346695E-1   9.548336863517761E-1  
 6.474000000000000E7    -2.463166117668152E-1   9.578040242195129E-1  -8.124691247940064E-2  -2.194750681519508E-2  -8.117718994617462E-2  -2.196757867932320E-2  -2.418529242277145E-1   9.554993510246277E-1  
 6.476000000000000E7    -2.453825026750565E-1   9.586129188537598E-1  -8.065990358591080E-2  -2.174822986125946E-2  -8.062665164470673E-2  -2.170361019670963E-2  -2.412311881780624E-1   9.556850194931030E-1  
 6.478000000000000E7    -2.443453669548035E-1   9.587379693984985E-1  -8.015910536050797E-2  -2.148927003145218E-2  -8.008695393800736E-2  -2.152468636631966E-2  -2.399367839097977E-1   9.559573531150818E-1  
 6.480000000000000E7    -2.429504990577698E-1   9.590415954589844E-1  -7.962168008089066E-2  -2.119512110948563E-2  -7.957220822572708E-2  -2.123653888702393E-2  -2.390180379152298E-1   9.562901258468628E-1  
 6.482000000000000E7    -2.424224615097046E-1   9.593346714973450E-1  -7.914557307958603E-2  -2.097602002322674E-2  -7.911696285009384E-2  -2.101201564073563E-2  -2.376451194286346E-1   9.567681550979614E-1  
 6.484000000000000E7    -2.413160949945450E-1   9.597720503807068E-1  -7.857391238212585E-2  -2.078286372125149E-2  -7.849232852458954E-2  -2.069717831909657E-2  -2.370132803916931E-1   9.570038318634033E-1  
 6.486000000000000E7    -2.400636076927185E-1   9.598774313926697E-1  -7.803139835596085E-2  -2.060937508940697E-2  -7.795555144548416E-2  -2.053548395633698E-2  -2.364798784255981E-1   9.571664929389954E-1  
 6.488000000000000E7    -2.391691207885742E-1   9.602178335189819E-1  -7.747446000576019E-2  -2.035141550004482E-2  -7.740723341703415E-2  -2.035588026046753E-2  -2.351062595844269E-1   9.576592445373535E-1  
 6.490000000000000E7    -2.383227944374085E-1   9.605414271354675E-1  -7.689212262630463E-2  -2.008619345724583E-2  -7.695262879133225E-2  -2.012624591588974E-2  -2.341524958610535E-1   9.575567245483398E-1  
 6.492000000000000E7    -2.373592257499695E-1   9.605348706245422E-1  -7.638919353485107E-2  -1.988646760582924E-2  -7.632286846637726E-2  -1.984148100018501E-2  -2.331698536872864E-1   9.581123590469360E-1  
 6.494000000000000E7    -2.362407296895981E-1   9.612357020378113E-1  -7.584887742996216E-2  -1.973531395196915E-2  -7.576064020395279E-2  -1.966699957847595E-2  -2.323114424943924E-1   9.584274291992188E-1  
 6.496000000000000E7    -2.354171723127365E-1   9.614724516868591E-1  -7.527269423007965E-2  -1.945925317704678E-2  -7.525070011615753E-2  -1.947402209043503E-2  -2.311571836471558E-1   9.587014913558960E-1  
 6.498000000000000E7    -2.345112413167954E-1   9.617750644683838E-1  -7.481870055198669E-2  -1.926947757601738E-2  -7.472740113735199E-2  -1.927796564996243E-2  -2.302609533071518E-1   9.591012597084045E-1  
 6.500000000000000E7    -2.331918776035309E-1   9.618559479713440E-1  -7.419249415397644E-2  -1.897924765944481E-2  -7.413780689239502E-2  -1.898641139268875E-2  -2.290737032890320E-1   9.590301513671875E-1  
 6.502000000000000E7    -2.326053380966187E-1   9.622619152069092E-1  -7.369928807020187E-2  -1.885790005326271E-2  -7.360652089118958E-2  -1.886253431439400E-2  -2.283032834529877E-1   9.595358371734619E-1  
 6.504000000000000E7    -2.316538691520691E-1   9.626607894897461E-1  -7.312292605638504E-2  -1.861158013343811E-2  -7.310666143894196E-2  -1.865092478692532E-2  -2.274289131164551E-1   9.597302675247192E-1  
 6.506000000000000E7    -2.307090461254120E-1   9.626571536064148E-1  -7.259134203195572E-2  -1.838023774325848E-2  -7.256847620010376E-2  -1.837981678545475E-2  -2.264400720596314E-1   9.600490331649780E-1  
 6.508000000000000E7    -2.297611981630325E-1   9.629842638969421E-1  -7.211028039455414E-2  -1.817084103822708E-2  -7.202422618865967E-2  -1.818419247865677E-2  -2.251129448413849E-1   9.602533578872681E-1  
 6.510000000000000E7    -2.285066843032837E-1   9.635547995567322E-1  -7.157400995492935E-2  -1.801031455397606E-2  -7.144188135862351E-2  -1.801807247102261E-2  -2.247214019298554E-1   9.602491855621338E-1  
 6.512000000000000E7    -2.272652238607407E-1   9.637574553489685E-1  -7.100963592529297E-2  -1.769908331334591E-2  -7.091643661260605E-2  -1.774911396205425E-2  -2.233048379421234E-1   9.608786702156067E-1  
 6.514000000000000E7    -2.264868319034576E-1   9.640316367149353E-1  -7.044759392738342E-2  -1.760419830679894E-2  -7.040989398956299E-2  -1.755151152610779E-2  -2.223963737487793E-1   9.608280658721924E-1  
 6.516000000000000E7    -2.256667166948319E-1   9.641866683959961E-1  -6.991431862115860E-2  -1.735297404229641E-2  -6.994161754846573E-2  -1.734783314168453E-2  -2.212366312742233E-1   9.613362550735474E-1  
 6.518000000000000E7    -2.246287763118744E-1   9.646974802017212E-1  -6.937438994646072E-2  -1.714915223419666E-2  -6.928845494985580E-2  -1.715891435742378E-2  -2.204244136810303E-1   9.614682197570801E-1  
 6.520000000000000E7    -2.232814133167267E-1   9.652153253555298E-1  -6.886448711156845E-2  -1.693713851273060E-2  -6.884869933128357E-2  -1.692499965429306E-2  -2.193503379821777E-1   9.622601866722107E-1  
 6.522000000000000E7    -2.225689142942429E-1   9.651206731796265E-1  -6.832800060510635E-2  -1.673066429793835E-2  -6.824652105569840E-2  -1.673236861824989E-2  -2.186606079339981E-1   9.621861577033997E-1  
 6.524000000000000E7    -2.213973551988602E-1   9.655749797821045E-1  -6.775419414043427E-2  -1.656169071793556E-2  -6.773391366004944E-2  -1.652128994464874E-2  -2.171444147825241E-1   9.629464149475098E-1  
 6.526000000000000E7    -2.204584479331970E-1   9.656594991683960E-1  -6.723113358020783E-2  -1.627949066460133E-2  -6.722383946180344E-2  -1.633622497320175E-2  -2.162413597106934E-1   9.628748297691345E-1  
 6.528000000000000E7    -2.196402698755264E-1   9.660076498985291E-1  -6.665482372045517E-2  -1.610156893730164E-2  -6.661012768745422E-2  -1.609633490443230E-2  -2.155705839395523E-1   9.626497030258179E-1  
 6.530000000000000E7    -2.187129259109497E-1   9.660310149192810E-1  -6.615021824836731E-2  -1.591091230511665E-2  -6.611000001430512E-2  -1.590265333652496E-2  -2.143886983394623E-1   9.633972644805908E-1  
 6.532000000000000E7    -2.177239656448364E-1   9.661988615989685E-1  -6.557598710060120E-2  -1.572565734386444E-2  -6.552330404520035E-2  -1.581153273582459E-2  -2.135462015867233E-1   9.633473157882690E-1  
 6.534000000000000E7    -2.166704386472702E-1   9.664232730865479E-1  -6.510008126497269E-2  -1.548661943525076E-2  -6.502329558134079E-2  -1.555058360099793E-2  -2.125131189823151E-1   9.637625217437744E-1  
 6.536000000000000E7    -2.160349190235138E-1   9.672189950942993E-1  -6.447307020425797E-2  -1.533582247793675E-2  -6.452323496341705E-2  -1.537480577826500E-2  -2.115436792373657E-1   9.640522599220276E-1  
 6.538000000000000E7    -2.146645188331604E-1   9.671754837036133E-1  -6.399182230234146E-2  -1.517815887928009E-2  -6.396602094173431E-2  -1.516876462846994E-2  -2.104914635419846E-1   9.643453359603882E-1  
 6.540000000000000E7    -2.133207172155380E-1   9.674983620643616E-1  -6.346394866704941E-2  -1.499407924711704E-2  -6.337793171405792E-2  -1.496906299144030E-2  -2.095700800418854E-1   9.645040035247803E-1  
 6.542000000000000E7    -2.129439860582352E-1   9.674042463302612E-1  -6.292129307985306E-2  -1.480183936655521E-2  -6.287312507629395E-2  -1.483968272805214E-2  -2.088495641946793E-1   9.650132060050964E-1  
 6.544000000000000E7    -2.116857618093491E-1   9.681081771850586E-1  -6.233908236026764E-2  -1.457841321825981E-2  -6.229968369007111E-2  -1.459062285721302E-2  -2.077832818031311E-1   9.648263454437256E-1  
 6.546000000000000E7    -2.107475996017456E-1   9.682884812355042E-1  -6.183496117591858E-2  -1.441822201013565E-2  -6.179994344711304E-2  -1.441627368330956E-2  -2.064899653196335E-1   9.653014540672302E-1  
 6.548000000000000E7    -2.101099044084549E-1   9.686550498008728E-1  -6.129555404186249E-2  -1.424528472125530E-2  -6.124617159366608E-2  -1.429444644600153E-2  -2.056306451559067E-1   9.655166864395142E-1  
 6.550000000000000E7    -2.087557911872864E-1   9.688225984573364E-1  -6.076086312532425E-2  -1.406340114772320E-2  -6.072084978222847E-2  -1.401773374527693E-2  -2.047300040721893E-1   9.656879305839539E-1  
 6.552000000000000E7    -2.077884376049042E-1   9.691566824913025E-1  -6.022778898477554E-2  -1.381680369377136E-2  -6.017495691776276E-2  -1.388829667121172E-2  -2.038274109363556E-1   9.660220742225647E-1  
 6.554000000000000E7    -2.069996893405914E-1   9.693507552146912E-1  -5.966155230998993E-2  -1.370693091303110E-2  -5.960393324494362E-2  -1.369265280663967E-2  -2.026900947093964E-1   9.663709402084351E-1  
 6.556000000000000E7    -2.059775888919830E-1   9.695074558258057E-1  -5.913521721959114E-2  -1.347695663571358E-2  -5.907950550317764E-2  -1.350337360054255E-2  -2.016382217407227E-1   9.665154814720154E-1  
 6.558000000000000E7    -2.051489055156708E-1   9.697098135948181E-1  -5.856627970933914E-2  -1.330697536468506E-2  -5.853002518415451E-2  -1.334063522517681E-2  -2.008497118949890E-1   9.668226838111877E-1  
 6.560000000000000E7    -2.041835188865662E-1   9.700687527656555E-1  -5.805296450853348E-2  -1.316434144973755E-2  -5.799415707588196E-2  -1.313405111432076E-2  -1.999424099922180E-1   9.671059846878052E-1  
 6.562000000000000E7    -2.029696106910706E-1   9.703310728073120E-1  -5.749316513538361E-2  -1.297102682292461E-2  -5.750197544693947E-2  -1.293908059597015E-2  -1.989509910345078E-1   9.674456715583801E-1  
 6.564000000000000E7    -2.022608667612076E-1   9.705013632774353E-1  -5.696411058306694E-2  -1.276079751551151E-2  -5.695360898971558E-2  -1.276798546314240E-2  -1.976244896650314E-1   9.675506949424744E-1  
 6.566000000000000E7    -2.007523626089096E-1   9.707303643226624E-1  -5.640850961208344E-2  -1.262218598276377E-2  -5.640638619661331E-2  -1.257266849279404E-2  -1.966819763183594E-1   9.678055644035339E-1  
 6.568000000000000E7    -1.999984830617905E-1   9.711594581604004E-1  -5.593394115567207E-2  -1.242968253791332E-2  -5.587724968791008E-2  -1.240724232047796E-2  -1.956719756126404E-1   9.681753516197205E-1  
 6.570000000000000E7    -1.989002525806427E-1   9.710890650749207E-1  -5.532542616128922E-2  -1.224565412849188E-2  -5.529955774545670E-2  -1.226094830781221E-2  -1.949606835842133E-1   9.682262539863586E-1  
 6.572000000000000E7    -1.981277465820313E-1   9.714282155036926E-1  -5.482515320181847E-2  -1.211358606815338E-2  -5.478530004620552E-2  -1.210631709545851E-2  -1.940837800502777E-1   9.686068296432495E-1  
 6.574000000000000E7    -1.970990300178528E-1   9.718009829521179E-1  -5.426068603992462E-2  -1.194916386157274E-2  -5.422238633036614E-2  -1.193347852677107E-2  -1.931440979242325E-1   9.685764908790588E-1  
 6.576000000000000E7    -1.961036324501038E-1   9.719962477684021E-1  -5.376696959137917E-2  -1.172807440161705E-2  -5.368452519178391E-2  -1.175685785710812E-2  -1.917909234762192E-1   9.689779281616211E-1  
 6.578000000000000E7    -1.949494779109955E-1   9.719820618629456E-1  -5.322325602173805E-2  -1.156873349100351E-2  -5.316447094082832E-2  -1.154992263764143E-2  -1.908307820558548E-1   9.691023230552673E-1  
 6.580000000000000E7    -1.943311840295792E-1   9.722970128059387E-1  -5.264857038855553E-2  -1.144305989146233E-2  -5.262466520071030E-2  -1.142932381480932E-2  -1.897875517606735E-1   9.693972468376160E-1  
 6.582000000000000E7    -1.928040236234665E-1   9.724792242050171E-1  -5.215088650584221E-2  -1.124895270913839E-2  -5.209245160222054E-2  -1.123039424419403E-2  -1.892621070146561E-1   9.696398973464966E-1  
 6.584000000000000E7    -1.922444105148315E-1   9.729816913604736E-1  -5.159549787640572E-2  -1.107557490468025E-2  -5.156794190406799E-2  -1.106793060898781E-2  -1.878498643636704E-1   9.701484441757202E-1  
 6.586000000000000E7    -1.910592019557953E-1   9.729983806610107E-1  -5.102161318063736E-2  -1.090473495423794E-2  -5.100376904010773E-2  -1.092585735023022E-2  -1.871737092733383E-1   9.699308872222900E-1  
 6.588000000000000E7    -1.901835650205612E-1   9.730888009071350E-1  -5.052378028631210E-2  -1.073515601456165E-2  -5.042518675327301E-2  -1.075876690447331E-2  -1.856672614812851E-1   9.702470898628235E-1  
 6.590000000000000E7    -1.893089860677719E-1   9.732891321182251E-1  -4.998848214745522E-2  -1.060539018362761E-2  -4.993624612689018E-2  -1.059913635253906E-2  -1.845406293869019E-1   9.706811308860779E-1  
 6.592000000000000E7    -1.879439204931259E-1   9.736018776893616E-1  -4.944398626685143E-2  -1.037714071571827E-2  -4.936965554952622E-2  -1.040662638843060E-2  -1.836946606636047E-1   9.710580706596375E-1  
 6.594000000000000E7    -1.873554736375809E-1   9.738539457321167E-1  -4.888790100812912E-2  -1.028418261557818E-2  -4.883760958909988E-2  -1.031901035457850E-2  -1.832205951213837E-1   9.711971879005432E-1  
 6.596000000000000E7    -1.863204240798950E-1   9.741566181182861E-1  -4.835096746683121E-2  -1.010726951062679E-2  -4.830780625343323E-2  -1.012095622718334E-2  -1.818239539861679E-1   9.712038040161133E-1  
 6.598000000000000E7    -1.852104216814041E-1   9.743901491165161E-1  -4.783688485622406E-2  -9.966894984245300E-3  -4.777231067419052E-2  -1.000045053660870E-2  -1.807730048894882E-1   9.713714718818665E-1  
 6.600000000000000E7    -1.840522140264511E-1   9.746086597442627E-1  -4.730068519711494E-2  -9.825000539422035E-3  -4.722043871879578E-2  -9.819418191909790E-3  -1.801114529371262E-1   9.714475870132446E-1  
 6.602000000000000E7    -1.831770539283752E-1   9.750740528106690E-1  -4.673081636428833E-2  -9.650963358581066E-3  -4.668385535478592E-2  -9.679220616817474E-3  -1.793634295463562E-1   9.717446565628052E-1  
 6.604000000000000E7    -1.821784675121307E-1   9.746086597442627E-1  -4.621490463614464E-2  -9.523729793727398E-3  -4.615223780274391E-2  -9.482703171670437E-3  -1.780522763729096E-1   9.724020361900330E-1  
 6.606000000000000E7    -1.811363548040390E-1   9.755013585090637E-1  -4.566904902458191E-2  -9.326326660811901E-3  -4.564339295029640E-2  -9.335421025753021E-3  -1.770727932453156E-1   9.722413420677185E-1  
 6.608000000000000E7    -1.800265908241272E-1   9.753958582878113E-1  -4.513036087155342E-2  -9.200592525303364E-3  -4.512261599302292E-2  -9.231824427843094E-3  -1.762902438640595E-1   9.724833369255066E-1  
 6.610000000000000E7    -1.791780292987824E-1   9.756869673728943E-1  -4.460803419351578E-2  -9.068761952221394E-3  -4.453513398766518E-2  -9.045289829373360E-3  -1.751654297113419E-1   9.731410145759583E-1  
 6.612000000000000E7    -1.779936403036118E-1   9.759427905082703E-1  -4.405539110302925E-2  -8.890513330698013E-3  -4.403897374868393E-2  -8.888799697160721E-3  -1.741474419832230E-1   9.729013442993164E-1  
 6.614000000000000E7    -1.775318980216980E-1   9.759166836738586E-1  -4.351157322525978E-2  -8.729344233870506E-3  -4.345963150262833E-2  -8.791002444922924E-3  -1.729058921337128E-1   9.734432101249695E-1  
 6.616000000000000E7    -1.762815415859222E-1   9.763605594635010E-1  -4.298059642314911E-2  -8.616959676146507E-3  -4.290169104933739E-2  -8.577933534979820E-3  -1.719458550214768E-1   9.730879068374634E-1  
 6.618000000000000E7    -1.756070405244827E-1   9.763425588607788E-1  -4.240218922495842E-2  -8.471684530377388E-3  -4.240347445011139E-2  -8.465405553579330E-3  -1.709574013948441E-1   9.734795689582825E-1  
 6.620000000000000E7    -1.743931919336319E-1   9.767309427261353E-1  -4.188044369220734E-2  -8.314662612974644E-3  -4.186354577541351E-2  -8.342724293470383E-3  -1.699067056179047E-1   9.734302163124085E-1  
 6.622000000000000E7    -1.733370274305344E-1   9.770358800888062E-1  -4.135996103286743E-2  -8.187503553926945E-3  -4.132895544171333E-2  -8.170146495103836E-3  -1.690060943365097E-1   9.741456508636475E-1  
 6.624000000000000E7    -1.723310500383377E-1   9.774929285049439E-1  -4.083046689629555E-2  -8.024358190596104E-3  -4.078740626573563E-2  -8.061401546001434E-3  -1.681541651487351E-1   9.739628434181213E-1  
 6.626000000000000E7    -1.710577011108398E-1   9.774184823036194E-1  -4.028401151299477E-2  -7.884048856794834E-3  -4.024876654148102E-2  -7.913058623671532E-3  -1.672277152538300E-1   9.743734002113342E-1  
 6.628000000000000E7    -1.706759631633759E-1   9.775967597961426E-1  -3.974676504731178E-2  -7.760718464851379E-3  -3.970139846205711E-2  -7.765542250126600E-3  -1.663630902767181E-1   9.743584394454956E-1  
 6.630000000000000E7    -1.696250438690186E-1   9.779844880104065E-1  -3.922985494136810E-2  -7.673521991819143E-3  -3.917251154780388E-2  -7.651502266526222E-3  -1.653822362422943E-1   9.747940897941589E-1  
 6.632000000000000E7    -1.683017462491989E-1   9.779536724090576E-1  -3.868089243769646E-2  -7.482496090233326E-3  -3.862567618489265E-2  -7.499925326555967E-3  -1.644472926855087E-1   9.752168655395508E-1  
 6.634000000000000E7    -1.673398762941361E-1   9.782496094703674E-1  -3.811652958393097E-2  -7.333398796617985E-3  -3.808114305138588E-2  -7.364876102656126E-3  -1.633132547140122E-1   9.752595424652100E-1  
 6.636000000000000E7    -1.663631945848465E-1   9.781315326690674E-1  -3.759024292230606E-2  -7.232410833239555E-3  -3.756231069564819E-2  -7.210433017462492E-3  -1.623954772949219E-1   9.755568504333496E-1  
 6.638000000000000E7    -1.658599525690079E-1   9.786909818649292E-1  -3.706051409244537E-2  -7.086040452122688E-3  -3.702702745795250E-2  -7.099234499037266E-3  -1.614306420087814E-1   9.755837321281433E-1  
 6.640000000000000E7    -1.646002531051636E-1   9.786605834960938E-1  -3.653583303093910E-2  -6.959448102861643E-3  -3.649728000164032E-2  -6.954740267246962E-3  -1.601009964942932E-1   9.755960106849670E-1  
 6.642000000000000E7    -1.638063639402390E-1   9.787680506706238E-1  -3.597108647227287E-2  -6.846496369689703E-3  -3.592285886406899E-2  -6.837653927505016E-3  -1.595242321491242E-1   9.760079383850098E-1  
 6.644000000000000E7    -1.627732515335083E-1   9.793401360511780E-1  -3.546316176652908E-2  -6.694449111819267E-3  -3.539005666971207E-2  -6.705672480165958E-3  -1.583465784788132E-1   9.758470058441162E-1  
 6.646000000000000E7    -1.616785824298859E-1   9.793539047241211E-1  -3.487150371074677E-2  -6.580518558621407E-3  -3.486979752779007E-2  -6.564082112163305E-3  -1.571684181690216E-1   9.760394096374512E-1  
 6.648000000000000E7    -1.605849713087082E-1   9.796583652496338E-1  -3.437438979744911E-2  -6.430513225495815E-3  -3.429485857486725E-2  -6.460951641201973E-3  -1.564299166202545E-1   9.766356348991394E-1  
 6.650000000000000E7    -1.597904711961746E-1   9.794516563415527E-1  -3.382214903831482E-2  -6.331640295684338E-3  -3.379379212856293E-2  -6.337186321616173E-3  -1.555430442094803E-1   9.766760468482971E-1  
 6.652000000000000E7    -1.587687432765961E-1   9.794560670852661E-1  -3.327552974224091E-2  -6.200579926371574E-3  -3.324360027909279E-2  -6.191272754222155E-3  -1.544206291437149E-1   9.771706461906433E-1  
 6.654000000000000E7    -1.577277481555939E-1   9.801596999168396E-1  -3.272879123687744E-2  -6.072981748729944E-3  -3.271570429205895E-2  -6.081412546336651E-3  -1.537673026323319E-1   9.768095612525940E-1  
 6.656000000000000E7    -1.568972021341324E-1   9.802152514457703E-1  -3.222386538982391E-2  -5.967875011265278E-3  -3.219141811132431E-2  -5.972249433398247E-3  -1.525882482528687E-1   9.771183133125305E-1  
 6.658000000000000E7    -1.556637883186340E-1   9.805726408958435E-1  -3.167263045907021E-2  -5.834193900227547E-3  -3.167702630162239E-2  -5.845994222909212E-3  -1.518164724111557E-1   9.774414896965027E-1  
 6.660000000000000E7    -1.547868400812149E-1   9.803833961486816E-1  -3.113054297864437E-2  -5.730597767978907E-3  -3.110668249428272E-2  -5.723461974412203E-3  -1.505384147167206E-1   9.774032831192017E-1  
 6.662000000000000E7    -1.539902389049530E-1   9.805878996849060E-1  -3.060403279960156E-2  -5.587263498455286E-3  -3.056273236870766E-2  -5.636846646666527E-3  -1.498125940561295E-1   9.775308370590210E-1  
 6.664000000000000E7    -1.528847217559815E-1   9.807009100914002E-1  -3.007970936596394E-2  -5.466918926686049E-3  -3.002964518964291E-2  -5.478747189044952E-3  -1.483463048934937E-1   9.780790805816650E-1  
 6.666000000000000E7    -1.520719081163406E-1   9.808176159858704E-1  -2.953447774052620E-2  -5.369170568883419E-3  -2.949756383895874E-2  -5.361554212868214E-3  -1.478363424539566E-1   9.781674146652222E-1  
 6.668000000000000E7    -1.506734937429428E-1   9.813882708549500E-1  -2.899144962430000E-2  -5.239188205450773E-3  -2.899129688739777E-2  -5.275575444102287E-3  -1.467785835266113E-1   9.780867695808411E-1  
 6.670000000000000E7    -1.500048041343689E-1   9.814533591270447E-1  -2.844478189945221E-2  -5.116586107760668E-3  -2.843493036925793E-2  -5.131971091032028E-3  -1.455333679914475E-1   9.784529805183411E-1  
 6.672000000000000E7    -1.485945880413055E-1   9.813343882560730E-1  -2.792796120047569E-2  -5.001781973987818E-3  -2.787308953702450E-2  -5.030035972595215E-3  -1.445513367652893E-1   9.782636761665344E-1  
 6.674000000000000E7    -1.479760259389877E-1   9.818361401557922E-1  -2.742671966552734E-2  -4.912870470434427E-3  -2.737135253846645E-2  -4.931750707328320E-3  -1.433312445878983E-1   9.788911342620850E-1  
 6.676000000000000E7    -1.471476107835770E-1   9.815134406089783E-1  -2.685526944696903E-2  -4.803162533789873E-3  -2.683037891983986E-2  -4.802488721907139E-3  -1.430353969335556E-1   9.787703752517700E-1  
 6.678000000000000E7    -1.457161903381348E-1   9.819029569625855E-1  -2.633492834866047E-2  -4.695382900536060E-3  -2.627827413380146E-2  -4.680010490119457E-3  -1.419027894735336E-1   9.789994359016419E-1  
 6.680000000000000E7    -1.448476165533066E-1   9.821416735649109E-1  -2.579409442842007E-2  -4.593132063746452E-3  -2.576993592083454E-2  -4.591875709593296E-3  -1.407017707824707E-1   9.792259335517883E-1  
 6.682000000000000E7    -1.438654959201813E-1   9.825787544250488E-1  -2.524414099752903E-2  -4.473987035453320E-3  -2.523060888051987E-2  -4.474939312785864E-3  -1.397688388824463E-1   9.792686104774475E-1  
 6.684000000000000E7    -1.426352262496948E-1   9.824919700622559E-1  -2.470667660236359E-2  -4.377651493996382E-3  -2.468384802341461E-2  -4.360828083008528E-3  -1.387525945901871E-1   9.793939590454102E-1  
 6.686000000000000E7    -1.419045031070709E-1   9.825649261474609E-1  -2.417893707752228E-2  -4.287939518690109E-3  -2.415720932185650E-2  -4.264007788151503E-3  -1.381151825189591E-1   9.795621037483215E-1  
 6.688000000000000E7    -1.412132531404495E-1   9.829250574111939E-1  -2.364430017769337E-2  -4.191438667476177E-3  -2.360426262021065E-2  -4.177205730229616E-3  -1.369008421897888E-1   9.797936081886292E-1  
 6.690000000000000E7    -1.400761902332306E-1   9.831260442733765E-1  -2.313262782990933E-2  -4.091871436685324E-3  -2.309410460293293E-2  -4.091403447091579E-3  -1.364044398069382E-1   9.801953434944153E-1  
 6.692000000000000E7    -1.388246715068817E-1   9.830359220504761E-1  -2.258512750267983E-2  -3.961077425628901E-3  -2.254989929497242E-2  -3.978445194661617E-3  -1.349099278450012E-1   9.802657961845398E-1  
 6.694000000000000E7    -1.379531621932983E-1   9.832507967948914E-1  -2.204838953912258E-2  -3.874413901939988E-3  -2.201559208333492E-2  -3.863571211695671E-3  -1.338388323783875E-1   9.801589846611023E-1  
 6.696000000000000E7    -1.369651854038239E-1   9.834138751029968E-1  -2.150394022464752E-2  -3.775910707190633E-3  -2.147532813251019E-2  -3.757451195269823E-3  -1.330678761005402E-1   9.808793067932129E-1  
 6.698000000000000E7    -1.363562345504761E-1   9.831985831260681E-1  -2.095097489655018E-2  -3.680466674268246E-3  -2.092984132468700E-2  -3.672508988529444E-3  -1.321088224649429E-1   9.803021550178528E-1  
 6.700000000000000E7    -1.352344900369644E-1   9.834659099578857E-1  -2.043058350682259E-2  -3.575203707441688E-3  -2.042087726294994E-2  -3.579355776309967E-3  -1.308343559503555E-1   9.804953336715698E-1  
 6.702000000000000E7    -1.340336501598358E-1   9.836429357528687E-1  -1.991267874836922E-2  -3.484795568510890E-3  -1.985762454569340E-2  -3.482277505099773E-3  -1.299776732921600E-1   9.809329509735107E-1  
 6.704000000000000E7    -1.332475841045380E-1   9.841008186340332E-1  -1.936003938317299E-2  -3.381539136171341E-3  -1.935483701527119E-2  -3.389957826584578E-3  -1.290347427129746E-1   9.811573028564453E-1  
 6.706000000000000E7    -1.319932788610458E-1   9.841937422752380E-1  -1.884943433105946E-2  -3.290556371212006E-3  -1.881506666541100E-2  -3.284065751358867E-3  -1.279724389314652E-1   9.812601804733276E-1  
 6.708000000000000E7    -1.310954391956329E-1   9.842991232872009E-1  -1.831812597811222E-2  -3.215108998119831E-3  -1.829320564866066E-2  -3.201360814273357E-3  -1.270402520895004E-1   9.813184738159180E-1  
 6.710000000000000E7    -1.303223073482513E-1   9.845090508460999E-1  -1.777575537562370E-2  -3.106345189735293E-3  -1.774853840470314E-2  -3.124987008050084E-3  -1.262891292572022E-1   9.814440011978149E-1  
 6.712000000000000E7    -1.293397545814514E-1   9.850283861160278E-1  -1.724582910537720E-2  -3.022733842954040E-3  -1.721444539725781E-2  -3.041368443518877E-3  -1.255377084016800E-1   9.813463687896729E-1  
 6.714000000000000E7    -1.282507032155991E-1   9.851218461990356E-1  -1.671914570033550E-2  -2.937904559075832E-3  -1.669722609221935E-2  -2.932788338512182E-3  -1.241937428712845E-1   9.815936684608460E-1  
 6.716000000000000E7    -1.271297931671143E-1   9.847522974014282E-1  -1.616388000547886E-2  -2.851885510608554E-3  -1.615114882588387E-2  -2.866567345336080E-3  -1.236886233091354E-1   9.817788004875183E-1  
 6.718000000000000E7    -1.260834932327271E-1   9.848573803901672E-1  -1.564114354550839E-2  -2.750884508714080E-3  -1.562068704515696E-2  -2.753193024545908E-3  -1.222640424966812E-1   9.820009469985962E-1  
 6.720000000000000E7    -1.250782012939453E-1   9.855160713195801E-1  -1.510603260248900E-2  -2.676249481737614E-3  -1.508672162890434E-2  -2.682765247300267E-3  -1.213914975523949E-1   9.821578264236450E-1  
 6.722000000000000E7    -1.244498044252396E-1   9.856962561607361E-1  -1.457115914672613E-2  -2.607803326100111E-3  -1.455968152731657E-2  -2.603279193863273E-3  -1.205309182405472E-1   9.826245903968811E-1  
 6.724000000000000E7    -1.230745837092400E-1   9.856166243553162E-1  -1.404368691146374E-2  -2.495720516890287E-3  -1.403263211250305E-2  -2.507612807676196E-3  -1.192396059632301E-1   9.820974469184876E-1  
 6.726000000000000E7    -1.222447231411934E-1   9.856385588645935E-1  -1.351105049252510E-2  -2.423248020932078E-3  -1.350647304207087E-2  -2.420269884169102E-3  -1.182619929313660E-1   9.826922416687012E-1  
 6.728000000000000E7    -1.215182617306709E-1   9.856196641921997E-1  -1.297849789261818E-2  -2.347751986235380E-3  -1.296523865312338E-2  -2.355459611862898E-3  -1.175250858068466E-1   9.829086065292358E-1  
 6.730000000000000E7    -1.207006871700287E-1   9.860540628433228E-1  -1.245336513966322E-2  -2.281229943037033E-3  -1.243638992309570E-2  -2.278463914990425E-3  -1.163849234580994E-1   9.830631017684937E-1  
 6.732000000000000E7    -1.193478181958199E-1   9.861390590667725E-1  -1.190972886979580E-2  -2.190283499658108E-3  -1.189747825264931E-2  -2.202716423198581E-3  -1.158461198210716E-1   9.827430844306946E-1  
 6.734000000000000E7    -1.183001026511192E-1   9.865959882736206E-1  -1.138176769018173E-2  -2.114412141963840E-3  -1.137374434620142E-2  -2.117292024195194E-3  -1.144394651055336E-1   9.830425381660461E-1  
 6.736000000000000E7    -1.173551976680756E-1   9.863787293434143E-1  -1.085413061082363E-2  -2.036663703620434E-3  -1.083649229258299E-2  -2.044887514784932E-3  -1.138829067349434E-1   9.834681153297424E-1  
 6.738000000000000E7    -1.164427474141121E-1   9.866650700569153E-1  -1.031840033829212E-2  -1.960756490007043E-3  -1.031441707164049E-2  -1.959285233169794E-3  -1.121010854840279E-1   9.835910797119141E-1  
 6.740000000000000E7    -1.154816076159477E-1   9.864490628242493E-1  -9.788705036044121E-3  -1.893582288175821E-3  -9.777449071407318E-3  -1.882762997411192E-3  -1.114830970764160E-1   9.835041761398315E-1  
 6.742000000000000E7    -1.144808232784271E-1   9.866231083869934E-1  -9.250436909496784E-3  -1.815651077777147E-3  -9.251598268747330E-3  -1.818114309571683E-3  -1.107901558279991E-1   9.837213158607483E-1  
 6.744000000000000E7    -1.134941056370735E-1   9.867888689041138E-1  -8.726272732019424E-3  -1.743142842315137E-3  -8.724747225642204E-3  -1.742238644510508E-3  -1.097804754972458E-1   9.836400747299194E-1  
 6.746000000000000E7    -1.124281436204910E-1   9.866655468940735E-1  -8.197765797376633E-3  -1.661538495682180E-3  -8.185511454939842E-3  -1.667811768129468E-3  -1.083976551890373E-1   9.837701916694641E-1  
 6.748000000000000E7    -1.115111932158470E-1   9.867433309555054E-1  -7.662327028810978E-3  -1.602114411070943E-3  -7.652642671018839E-3  -1.596840447746217E-3  -1.075696423649788E-1   9.841583967208862E-1  
 6.750000000000000E7    -1.110753938555718E-1   9.870725274085999E-1  -7.130036596208811E-3  -1.531632151454687E-3  -7.130055688321590E-3  -1.538833137601614E-3  -1.066155433654785E-1   9.840285181999207E-1  
 6.752000000000000E7    -1.098698526620865E-1   9.872614741325378E-1  -6.606858223676682E-3  -1.460547326132655E-3  -6.594887934625149E-3  -1.462539075873792E-3  -1.054003834724426E-1   9.839417338371277E-1  
 6.754000000000000E7    -1.087093949317932E-1   9.875767827033997E-1  -6.082265637814999E-3  -1.396642881445587E-3  -6.069079041481018E-3  -1.398764085024595E-3  -1.046300753951073E-1   9.843215942382813E-1  
 6.756000000000000E7    -1.078279614448547E-1   9.871891736984253E-1  -5.547747015953064E-3  -1.336704473942518E-3  -5.539476871490479E-3  -1.330235507339239E-3  -1.036673113703728E-1   9.843115806579590E-1  
 6.758000000000000E7    -1.067227423191071E-1   9.873826503753662E-1  -5.023961421102285E-3  -1.263565849512816E-3  -5.012951325625181E-3  -1.267702085897327E-3  -1.027301624417305E-1   9.847508072853088E-1  
 6.760000000000000E7    -1.060535833239555E-1   9.873894453048706E-1  -4.489344544708729E-3  -1.209659618325532E-3  -4.486224148422480E-3  -1.201690407469869E-3  -1.016077026724815E-1   9.849430918693543E-1  
 6.762000000000000E7    -1.044754832983017E-1   9.876682162284851E-1  -3.958079963922501E-3  -1.142601249739528E-3  -3.956405445933342E-3  -1.143344794400036E-3  -1.008099168539047E-1   9.849905371665955E-1  
 6.764000000000000E7    -1.037603244185448E-1   9.880065321922302E-1  -3.436936531215906E-3  -1.081831054762006E-3  -3.431976074352861E-3  -1.084347837604582E-3  -9.989584237337112E-2   9.849997162818909E-1  
 6.766000000000000E7    -1.030295565724373E-1   9.880608916282654E-1  -2.905025146901608E-3  -1.024726894684136E-3  -2.900847699493170E-3  -1.022359356284142E-3  -9.886681288480759E-2   9.852926135063171E-1  
 6.768000000000000E7    -1.018460020422936E-1   9.879676699638367E-1  -2.380088903009892E-3  -9.644763194955885E-4  -2.372258808463812E-3  -9.618554031476378E-4  -9.811520576477051E-2   9.852173328399658E-1  
 6.770000000000000E7    -1.010164618492127E-1   9.885454773902893E-1  -1.846821396611631E-3  -9.072194225154817E-4  -1.846088562160730E-3  -9.114556014537811E-4  -9.674135595560074E-2   9.850651025772095E-1  
 6.772000000000000E7    -9.990744292736054E-2   9.882107973098755E-1  -1.318297581747174E-3  -8.514063665643334E-4  -1.314047840423882E-3  -8.474178612232208E-4  -9.596367925405502E-2   9.855604171752930E-1  
 6.774000000000000E7    -9.925483912229538E-2   9.883413314819336E-1  -7.884445367380977E-4  -7.966757984831929E-4  -7.887025712989271E-4  -7.946143741719425E-4  -9.507550299167633E-2   9.853166341781616E-1  
 6.776000000000000E7    -9.781093895435333E-2   9.886033535003662E-1  -2.615536795929074E-4  -7.416117587126792E-4  -2.644605410750955E-4  -7.438731263391674E-4  -9.389908611774445E-2   9.856251478195190E-1  
 6.778000000000000E7    -9.715174883604050E-2   9.883471131324768E-1   2.640964521560818E-4  -6.833035149611533E-4   2.619992301333696E-4  -6.829865160398185E-4  -9.313423931598663E-2   9.855535626411438E-1  
 6.780000000000000E7    -9.616915881633759E-2   9.885121583938599E-1   7.938955095596612E-4  -6.355468067340553E-4   7.902255747467279E-4  -6.345617584884167E-4  -9.198334813117981E-2   9.857339859008789E-1  
 6.782000000000000E7    -9.491012245416641E-2   9.887194037437439E-1   1.314729219302535E-3  -5.900411633774638E-4   1.321279094554484E-3  -5.804570391774178E-4  -9.100139141082764E-2   9.858882427215576E-1  
 6.784000000000000E7    -9.473656117916107E-2   9.889250397682190E-1   1.845388906076551E-3  -5.341350333765149E-4   1.841952558606863E-3  -5.288827815093100E-4  -9.010214358568192E-2   9.857828617095947E-1  
 6.786000000000000E7    -9.314918518066406E-2   9.889783859252930E-1   2.371912589296699E-3  -4.833554557990283E-4   2.371082548052073E-3  -4.850012483075261E-4  -8.872691541910172E-2   9.859955310821533E-1  
 6.788000000000000E7    -9.219729155302048E-2   9.891959428787231E-1   2.897598082199693E-3  -4.376653814688325E-4   2.893472556024790E-3  -4.372663679532707E-4  -8.824433386325836E-2   9.861100912094116E-1  
 6.790000000000000E7    -9.086932241916657E-2   9.892993569374085E-1   3.423010464757681E-3  -3.925196942873299E-4   3.420906141400337E-3  -3.887137281708419E-4  -8.689296245574951E-2   9.862446188926697E-1  
 6.792000000000000E7    -9.010127186775208E-2   9.894599914550781E-1   3.946676384657621E-3  -3.411052748560906E-4   3.946939483284950E-3  -3.426226030569524E-4  -8.616220951080322E-2   9.860126376152039E-1  
 6.794000000000000E7    -8.902835100889206E-2   9.892477989196777E-1   4.480912815779448E-3  -2.988225023727864E-4   4.470310173928738E-3  -2.953773073386401E-4  -8.520756661891937E-2   9.865850210189819E-1  
 6.796000000000000E7    -8.796030282974243E-2   9.895789623260498E-1   5.003542173653841E-3  -2.532470389269292E-4   4.997031763195992E-3  -2.508216421119869E-4  -8.441965281963348E-2   9.863824844360352E-1  
 6.798000000000000E7    -8.727844804525375E-2   9.892956614494324E-1   5.526738241314888E-3  -2.129676286131144E-4   5.521683953702450E-3  -2.100320998579264E-4  -8.328275382518768E-2   9.866820573806763E-1  
 6.800000000000000E7    -8.647469431161881E-2   9.894208908081055E-1   6.057121790945530E-3  -1.710219657979906E-4   6.043173838406801E-3  -1.686750620137900E-4  -8.210335671901703E-2   9.867625832557678E-1  
 6.802000000000000E7    -8.513019233942032E-2   9.896867275238037E-1   6.575268693268299E-3  -1.376939326291904E-4   6.568302866071463E-3  -1.279616117244586E-4  -8.137482404708862E-2   9.871528744697571E-1  
 6.804000000000000E7    -8.453608304262161E-2   9.900148510932922E-1   7.102162111550570E-3  -8.853958570398390E-5   7.090758532285690E-3  -8.305202936753631E-5  -8.036933839321137E-2   9.868369698524475E-1  
 6.806000000000000E7    -8.328352123498917E-2   9.896073341369629E-1   7.628191728144884E-3  -5.214419797994196E-5   7.618922740221024E-3  -4.480063216760755E-5  -7.952290028333664E-2   9.869125485420227E-1  
 6.808000000000000E7    -8.259206265211105E-2   9.897978901863098E-1   8.149211294949055E-3  -1.642393181100488E-5   8.135955780744553E-3  -5.641079042106867E-6  -7.839267700910568E-2   9.869224429130554E-1  
 6.810000000000000E7    -8.149705827236176E-2   9.897829890251160E-1   8.666779845952988E-3   2.591914380900562E-5   8.662763983011246E-3   2.499829861335456E-5  -7.740636914968491E-2   9.870056509971619E-1  
 6.812000000000000E7    -8.070135116577148E-2   9.901224374771118E-1   9.199490770697594E-3   5.867736763320863E-5   9.184378199279308E-3   5.666524521075189E-5  -7.634750753641129E-2   9.871560335159302E-1  
 6.814000000000000E7    -7.974790781736374E-2   9.900953769683838E-1   9.721880778670311E-3   9.035867697093636E-5   9.708127006888390E-3   9.922817116603255E-5  -7.516857981681824E-2   9.869927167892456E-1  
 6.816000000000000E7    -7.836949080228806E-2   9.902451038360596E-1   1.024088356643915E-2   1.212292700074613E-4   1.023097243160009E-2   1.261297438759357E-4  -7.436715066432953E-2   9.872944951057434E-1  
 6.818000000000000E7    -7.735712826251984E-2   9.902690649032593E-1   1.077134907245636E-2   1.486848923377693E-4   1.075932011008263E-2   1.614575303392485E-4  -7.342053204774857E-2   9.873371720314026E-1  
 6.820000000000000E7    -7.663543522357941E-2   9.902212619781494E-1   1.128770131617785E-2   1.884407829493284E-4   1.127683464437723E-2   1.907443220261484E-4  -7.241751998662949E-2   9.872884750366211E-1  
 6.822000000000000E7    -7.520886510610580E-2   9.905930161476135E-1   1.181846577674151E-2   2.084011794067919E-4   1.180218905210495E-2   2.174137480324134E-4  -7.158955186605454E-2   9.874223470687866E-1  
 6.824000000000000E7    -7.457900047302246E-2   9.900938272476196E-1   1.233723945915699E-2   2.424483245704323E-4   1.231887098401785E-2   2.421238605165854E-4  -7.037293165922165E-2   9.876253604888916E-1  
 6.826000000000000E7    -7.363338023424149E-2   9.906097054481506E-1   1.285279076546431E-2   2.721599303185940E-4   1.284035388380289E-2   2.780290669761598E-4  -6.966914236545563E-2   9.874736070632935E-1  
 6.828000000000000E7    -7.262218743562698E-2   9.907249212265015E-1   1.337981130927801E-2   3.032090899068862E-4   1.336782146245241E-2   2.939231635536999E-4  -6.873682886362076E-2   9.877552986145020E-1  
 6.830000000000000E7    -7.177482545375824E-2   9.906024932861328E-1   1.389126293361187E-2   3.235888434574008E-4   1.388707384467125E-2   3.377048706170172E-4  -6.777402758598328E-2   9.875574111938477E-1  
 6.832000000000000E7    -7.081000506877899E-2   9.907274246215820E-1   1.441827416419983E-2   3.471295058261603E-4   1.439879182726145E-2   3.569951222743839E-4  -6.676409393548966E-2   9.876616597175598E-1  
 6.834000000000000E7    -6.982005387544632E-2   9.906615018844605E-1   1.494939625263214E-2   3.757755330298096E-4   1.493737660348415E-2   3.760703839361668E-4  -6.567076593637466E-2   9.880487322807312E-1  
 6.836000000000000E7    -6.894382089376450E-2   9.909635186195374E-1   1.546717062592506E-2   3.936521825380623E-4   1.544614508748055E-2   3.967069787904620E-4  -6.473527848720551E-2   9.878653883934021E-1  
 6.838000000000000E7    -6.802784651517868E-2   9.907912611961365E-1   1.599273271858692E-2   4.133604525122792E-4   1.596689596772194E-2   4.279290442354977E-4  -6.369645148515701E-2   9.878872036933899E-1  
 6.840000000000000E7    -6.679925322532654E-2   9.908500313758850E-1   1.651300303637981E-2   4.353615513537079E-4   1.649425551295281E-2   4.354552074801177E-4  -6.263037025928497E-2   9.879139065742493E-1  
 6.842000000000000E7    -6.608963012695313E-2   9.906701445579529E-1   1.702274195849896E-2   4.568835720419884E-4   1.700294017791748E-2   4.735145485028625E-4  -6.162831932306290E-2   9.879251122474670E-1  
 6.844000000000000E7    -6.489002704620361E-2   9.913098216056824E-1   1.756752096116543E-2   4.696027026511729E-4   1.754463091492653E-2   4.808281664736569E-4  -6.082604825496674E-2   9.884331226348877E-1  
 6.846000000000000E7    -6.389285624027252E-2   9.912497401237488E-1   1.806814223527908E-2   5.074585787951946E-4   1.805362105369568E-2   5.015133065171540E-4  -6.027389690279961E-2   9.881293773651123E-1  
 6.848000000000000E7    -6.331437081098557E-2   9.908373355865479E-1   1.856496743857861E-2   5.106136668473482E-4   1.855990290641785E-2   5.228299414739013E-4  -5.919186025857925E-2   9.882969856262207E-1  
 6.850000000000000E7    -6.209023296833038E-2   9.913819432258606E-1   1.910532638430595E-2   5.128266056999564E-4   1.908496767282486E-2   5.242800107225776E-4  -5.785321816802025E-2   9.881592988967896E-1  
 6.852000000000000E7    -6.089949235320091E-2   9.913698434829712E-1   1.963911950588226E-2   5.280907498672605E-4   1.959678530693054E-2   5.425412673503161E-4  -5.726843327283859E-2   9.884335398674011E-1  
 6.854000000000000E7    -6.012764945626259E-2   9.914104938507080E-1   2.015103958547115E-2   5.482350243255496E-4   2.011479996144772E-2   5.513970972970128E-4  -5.603839084506035E-2   9.882875680923462E-1  
 6.856000000000000E7    -5.905285850167275E-2   9.915590286254883E-1   2.067104354500771E-2   5.452886689454317E-4   2.064701914787293E-2   5.646505742333829E-4  -5.533022060990334E-2   9.882557392120361E-1  
 6.858000000000000E7    -5.808250233530998E-2   9.916290640830994E-1   2.118535898625851E-2   5.538972327485681E-4   2.116107195615768E-2   5.798410857096314E-4  -5.411798134446144E-2   9.885290861129761E-1  
 6.860000000000000E7    -5.754847824573517E-2   9.912952780723572E-1   2.168664522469044E-2   5.769836716353893E-4   2.166510932147503E-2   5.836002528667450E-4  -5.283477902412415E-2   9.886160492897034E-1  
 6.862000000000000E7    -5.614857375621796E-2   9.918916225433350E-1   2.222419902682304E-2   5.817835917696357E-4   2.217989042401314E-2   5.681866314262152E-4  -5.215396359562874E-2   9.885974526405335E-1  
 6.864000000000000E7    -5.513337999582291E-2   9.914704561233521E-1   2.272423729300499E-2   5.799565697088838E-4   2.270592935383320E-2   5.918544484302402E-4  -5.141391605138779E-2   9.886150956153870E-1  
 6.866000000000000E7    -5.421352759003639E-2   9.919661283493042E-1   2.324920892715454E-2   6.041263695806265E-4   2.321597002446652E-2   6.201576325111091E-4  -5.061057209968567E-2   9.884285926818848E-1  
 6.868000000000000E7    -5.355703458189964E-2   9.917888045310974E-1   2.377039194107056E-2   6.096878787502646E-4   2.374551258981228E-2   6.133684655651450E-4  -4.934022948145866E-2   9.887160658836365E-1  
 6.870000000000000E7    -5.230031535029411E-2   9.919208884239197E-1   2.429661527276039E-2   5.876566283404827E-4   2.426508069038391E-2   5.894928472116590E-4  -4.810511693358421E-2   9.886252284049988E-1  
 6.872000000000000E7    -5.131520703434944E-2   9.917164444923401E-1   2.479677833616734E-2   5.872488254681230E-4   2.477962896227837E-2   6.267247954383493E-4  -4.726077988743782E-2   9.888563156127930E-1  
 6.874000000000000E7    -5.090590566396713E-2   9.915083050727844E-1   2.532911673188210E-2   6.190011044964194E-4   2.528064139187336E-2   6.226149853318930E-4  -4.642545059323311E-2   9.890005588531494E-1  
 6.876000000000000E7    -4.967813566327095E-2   9.920493364334106E-1   2.582875266671181E-2   6.271448219195008E-4   2.580698207020760E-2   6.345800939016044E-4  -4.540088400244713E-2   9.886921644210815E-1  
 6.878000000000000E7    -4.853658378124237E-2   9.917699694633484E-1   2.634770795702934E-2   6.276038475334644E-4   2.631714008748531E-2   6.235657492652535E-4  -4.441649839282036E-2   9.888887405395508E-1  
 6.880000000000000E7    -4.749139770865440E-2   9.919381737709045E-1   2.685558237135410E-2   6.308840238489211E-4   2.683308906853199E-2   6.180854979902506E-4  -4.372440278530121E-2   9.888646602630615E-1  
 6.882000000000000E7    -4.693232476711273E-2   9.920051097869873E-1   2.739490754902363E-2   6.236754124984145E-4   2.736344188451767E-2   6.256994092836976E-4  -4.263277724385262E-2   9.890403747558594E-1  
 6.884000000000000E7    -4.588998854160309E-2   9.918551445007324E-1   2.788353711366653E-2   6.218670750968158E-4   2.785711549222469E-2   6.479044677689672E-4  -4.193129390478134E-2   9.890626668930054E-1  
 6.886000000000000E7    -4.476517438888550E-2   9.918528795242310E-1   2.841808274388313E-2   6.019104039296508E-4   2.838163077831268E-2   6.163919460959733E-4  -4.074847698211670E-2   9.890953898429871E-1  
 6.888000000000000E7    -4.343688115477562E-2   9.921385049819946E-1   2.891335263848305E-2   5.945972516201437E-4   2.889314480125904E-2   6.163621437735856E-4  -3.982659801840782E-2   9.890820980072022E-1  
 6.890000000000000E7    -4.271109029650688E-2   9.919365644454956E-1   2.944195643067360E-2   5.743289948441088E-4   2.940899319946766E-2   6.235879845917225E-4  -3.892193362116814E-2   9.888681173324585E-1  
 6.892000000000000E7    -4.168943688273430E-2   9.921595454216003E-1   2.992899343371391E-2   5.758144543506205E-4   2.990420162677765E-2   6.157758762128651E-4  -3.807446733117104E-2   9.890516400337219E-1  
 6.894000000000000E7    -4.108099639415741E-2   9.921498894691467E-1   3.045124001801014E-2   6.090270471759141E-4   3.043067269027233E-2   6.236063782125711E-4  -3.742624074220657E-2   9.890968203544617E-1  
 6.896000000000000E7    -3.995801508426666E-2   9.922928214073181E-1   3.099018707871437E-2   6.006226176396012E-4   3.096351213753223E-2   5.925041623413563E-4  -3.630670905113220E-2   9.890129566192627E-1  
 6.898000000000000E7    -3.907453268766403E-2   9.921827912330627E-1   3.149320185184479E-2   5.898511735722423E-4   3.144438937306404E-2   5.941122071817517E-4  -3.522386029362679E-2   9.891266822814941E-1  
 6.900000000000000E7    -3.799766302108765E-2   9.922140240669251E-1   3.199192509055138E-2   5.705276271328330E-4   3.196265548467636E-2   5.620295414701104E-4  -3.405200690031052E-2   9.891417026519775E-1  
 6.902000000000000E7    -3.735522925853729E-2   9.921700358390808E-1   3.250131383538246E-2   5.677517037838697E-4   3.247509524226189E-2   5.596310365945101E-4  -3.300550580024719E-2   9.891622662544251E-1  
 6.904000000000000E7    -3.589176759123802E-2   9.923943877220154E-1   3.305229172110558E-2   5.168343195691705E-4   3.298890218138695E-2   5.629629595205188E-4  -3.206659853458405E-2   9.894472360610962E-1  
 6.906000000000000E7    -3.493435680866242E-2   9.921303987503052E-1   3.352592140436173E-2   5.289745749905706E-4   3.350101038813591E-2   5.191774107515812E-4  -3.120899945497513E-2   9.891356825828552E-1  
 6.908000000000000E7    -3.423365205526352E-2   9.921506047248840E-1   3.404494747519493E-2   5.345373647287488E-4   3.399128094315529E-2   5.224858177825809E-4  -3.010268881917000E-2   9.891968965530396E-1  
 6.910000000000000E7    -3.315481916069984E-2   9.921485781669617E-1   3.454160690307617E-2   4.850445548072457E-4   3.455459699034691E-2   4.850614350289106E-4  -2.906581386923790E-2   9.894207119941711E-1  
 6.912000000000000E7    -3.215807303786278E-2   9.921567440032959E-1   3.508399426937103E-2   5.071060732007027E-4   3.503075614571571E-2   4.821900511160493E-4  -2.845534496009350E-2   9.893465042114258E-1  
 6.914000000000000E7    -3.165234252810478E-2   9.922248125076294E-1   3.555735200643539E-2   4.593456396833062E-4   3.553547337651253E-2   4.692946095019579E-4  -2.720550820231438E-2   9.895252585411072E-1  
 6.916000000000000E7    -3.046242147684097E-2   9.925923347473145E-1   3.610144555568695E-2   4.408812383189797E-4   3.605636954307556E-2   4.884654190391302E-4  -2.641729637980461E-2   9.895692467689514E-1  
 6.918000000000000E7    -2.961718104779720E-2   9.924964308738709E-1   3.660332411527634E-2   4.288483178243041E-4   3.655401617288590E-2   4.436054732650518E-4  -2.536444738507271E-2   9.895717501640320E-1  
 6.920000000000000E7    -2.857511863112450E-2   9.924476146697998E-1   3.709677606821060E-2   3.957782173529267E-4   3.709095343947411E-2   3.977833548560739E-4  -2.422312088310719E-2   9.894648194313049E-1  
 6.922000000000000E7    -2.756763435900211E-2   9.926069378852844E-1   3.764633461833000E-2   3.738022642210126E-4   3.757131099700928E-2   3.860604483634234E-4  -2.335237339138985E-2   9.897416234016419E-1  
 6.924000000000000E7    -2.638784423470497E-2   9.923810362815857E-1   3.812885656952858E-2   3.272662870585918E-4   3.809730336070061E-2   3.791567869484425E-4  -2.261453308165073E-2   9.892381429672241E-1  
 6.926000000000000E7    -2.595027536153793E-2   9.921230673789978E-1   3.864395618438721E-2   3.261705860495567E-4   3.856441006064415E-2   3.478522412478924E-4  -2.136606164276600E-2   9.895380139350891E-1  
 6.928000000000000E7    -2.463591657578945E-2   9.923062324523926E-1   3.914754092693329E-2   3.000953001901507E-4   3.907110914587975E-2   3.457723651081324E-4  -2.070709504187107E-2   9.892309308052063E-1  
 6.930000000000000E7    -2.353801205754280E-2   9.927025437355042E-1   3.970307484269142E-2   2.710592234507203E-4   3.963207826018333E-2   2.741664648056030E-4  -1.962432824075222E-2   9.896157383918762E-1  
 6.932000000000000E7    -2.216737344861031E-2   9.923812747001648E-1   4.019154608249664E-2   2.236280124634504E-4   4.012213274836540E-2   2.549814525991678E-4  -1.867978274822235E-2   9.894010424613953E-1  
 6.934000000000000E7    -2.176009491086006E-2   9.924508333206177E-1   4.067342728376389E-2   2.136065158993006E-4   4.063232615590096E-2   2.406337298452854E-4  -1.772815547883511E-2   9.892806410789490E-1  
 6.936000000000000E7    -2.062430977821350E-2   9.928257465362549E-1   4.117818176746368E-2   1.937202177941799E-4   4.113037511706352E-2   1.886913087219000E-4  -1.664323359727860E-2   9.893242716789246E-1  
 6.938000000000000E7    -1.997824385762215E-2   9.923437833786011E-1   4.168146476149559E-2   1.394336577504873E-4   4.162823036313057E-2   1.950818113982678E-4  -1.573120243847370E-2   9.894002079963684E-1  
 6.940000000000000E7    -1.931403204798698E-2   9.926004409790039E-1   4.218249395489693E-2   1.508053392171860E-4   4.213684424757958E-2   1.681046560406685E-4  -1.472719851881266E-2   9.895473718643189E-1  
 6.942000000000000E7    -1.807256229221821E-2   9.924005270004273E-1   4.268040880560875E-2   9.346706792712212E-5   4.262203723192215E-2   1.490782015025616E-4  -1.396923884749413E-2   9.894030690193176E-1  
 6.944000000000000E7    -1.729023084044457E-2   9.922578930854797E-1   4.319630563259125E-2   8.457317017018795E-5   4.314886778593063E-2   1.104655675590038E-4  -1.324479933828116E-2   9.893073439598084E-1  
 6.946000000000000E7    -1.599004864692688E-2   9.924697279930115E-1   4.369678720831871E-2   1.721107582852710E-5   4.365733638405800E-2   6.285263225436211E-5  -1.189483143389225E-2   9.893574714660645E-1  
 6.948000000000000E7    -1.518043223768473E-2   9.921610951423645E-1   4.421901702880859E-2  -2.019666135311127E-5   4.413776844739914E-2   3.285077400505543E-5  -1.140082720667124E-2   9.894227385520935E-1  
 6.950000000000000E7    -1.391806732863188E-2   9.924864768981934E-1   4.471772536635399E-2  -5.018990486860275E-5   4.467399045825005E-2  -2.846145071089268E-5  -1.004435308277607E-2   9.893028140068054E-1  
 6.952000000000000E7    -1.363705098628998E-2   9.924270510673523E-1   4.523200541734695E-2   4.073837772011757E-6   4.519685357809067E-2  -1.665437594056130E-5  -9.435748681426048E-3   9.896800518035889E-1  
 6.954000000000000E7    -1.261354330927134E-2   9.920746684074402E-1   4.569456726312637E-2  -1.055810134857893E-4   4.565947502851486E-2  -7.786462083458901E-5  -8.170891553163528E-3   9.891822934150696E-1  
 6.956000000000000E7    -1.145595777779818E-2   9.924555420875549E-1   4.621567577123642E-2  -1.494409516453743E-4   4.616826027631760E-2  -7.396307773888111E-5  -7.575258146971464E-3   9.891040921211243E-1  
 6.958000000000000E7    -1.041724625974894E-2   9.923203587532044E-1   4.674232751131058E-2  -1.876342575997114E-4   4.665297269821167E-2  -1.456076279282570E-4  -6.285100243985653E-3   9.891393780708313E-1  
 6.960000000000000E7    -9.212349541485310E-3   9.924747943878174E-1   4.720796644687653E-2  -2.411173190921545E-4   4.719509556889534E-2  -2.020495012402535E-4  -5.408079363405705E-3   9.892950057983398E-1  
 6.962000000000000E7    -8.759394288063049E-3   9.924271106719971E-1   4.774328321218491E-2  -2.804747782647610E-4   4.771635681390762E-2  -2.345335669815540E-4  -4.164099227637053E-3   9.893077015876770E-1  
 6.964000000000000E7    -7.538401056081057E-3   9.924333691596985E-1   4.824050888419151E-2  -3.126892261207104E-4   4.820198193192482E-2  -2.739608753472567E-4  -3.432058496400714E-3   9.894340038299561E-1  
 6.966000000000000E7    -6.757203489542007E-3   9.921602606773377E-1   4.872702807188034E-2  -3.604402299970388E-4   4.867943003773689E-2  -2.977878320962191E-4  -2.709337044507265E-3   9.891597628593445E-1  
 6.968000000000000E7    -5.623679608106613E-3   9.921084642410278E-1   4.926048591732979E-2  -4.005995579063892E-4   4.917855560779572E-2  -3.571449778974056E-4  -1.326663303188980E-3   9.892160892486572E-1  
 6.970000000000000E7    -4.718048498034477E-3   9.917566180229187E-1   4.973255470395088E-2  -4.272183869034052E-4   4.968373849987984E-2  -3.971082624047995E-4  -7.666946039535105E-4   9.890606999397278E-1  
 6.972000000000000E7    -3.819110570475459E-3   9.923182725906372E-1   5.027647316455841E-2  -5.042331758886576E-4   5.016825720667839E-2  -4.715470131486654E-4   3.797138633672148E-4   9.889414906501770E-1  
 6.974000000000000E7    -2.819599816575646E-3   9.922875165939331E-1   5.074376612901688E-2  -5.187557544559240E-4   5.072537064552307E-2  -5.180689040571451E-4   1.232113456353545E-3   9.892360568046570E-1  
 6.976000000000000E7    -2.007185481488705E-3   9.920109510421753E-1   5.123700946569443E-2  -6.111599504947662E-4   5.120026692748070E-2  -5.528698675334454E-4   2.245600568130612E-3   9.893321394920349E-1  
 6.978000000000000E7    -1.050121616572142E-3   9.921794533729553E-1   5.178125575184822E-2  -5.747124087065458E-4   5.173258483409882E-2  -5.776798352599144E-4   3.056312445551157E-3   9.892573356628418E-1  
 6.980000000000000E7     2.417477517155930E-4   9.920246005058289E-1   5.225271731615067E-2  -7.122247479856014E-4   5.219829082489014E-2  -6.613740697503090E-4   4.030874930322170E-3   9.891921877861023E-1  
 6.982000000000000E7     8.090345072560012E-4   9.922001957893372E-1   5.272185429930687E-2  -7.132429163902998E-4   5.266905948519707E-2  -6.591903511434794E-4   4.986684769392014E-3   9.889096617698669E-1  
 6.984000000000000E7     2.021885709837079E-3   9.920761585235596E-1   5.323239415884018E-2  -8.074652869254351E-4   5.319327861070633E-2  -7.261976134032011E-4   6.116310134530067E-3   9.890548586845398E-1  
 6.986000000000000E7     3.030812833458185E-3   9.924433231353760E-1   5.378090962767601E-2  -8.055760990828276E-4   5.369861051440239E-2  -8.051332551985979E-4   6.702680140733719E-3   9.890897870063782E-1  
 6.988000000000000E7     3.942123614251614E-3   9.915707707405090E-1   5.421601608395577E-2  -8.701100014150143E-4   5.419244244694710E-2  -8.689865935593844E-4   7.964842952787876E-3   9.890730977058411E-1  
 6.990000000000000E7     5.015640985220671E-3   9.921070933341980E-1   5.473754554986954E-2  -9.335952345281839E-4   5.468692630529404E-2  -9.123547933995724E-4   8.934735320508480E-3   9.889197349548340E-1  
 6.992000000000000E7     5.967705044895411E-3   9.921302199363709E-1   5.522518977522850E-2  -9.653544984757900E-4   5.516696721315384E-2  -9.539851453155279E-4   9.764832444489002E-3   9.889225959777832E-1  
 6.994000000000000E7     6.850074976682663E-3   9.920660257339478E-1   5.571196600794792E-2  -1.056544948369265E-3   5.568723753094673E-2  -1.014783279970288E-3   1.083533465862274E-2   9.888437986373901E-1  
 6.996000000000000E7     7.709646597504616E-3   9.919928908348084E-1   5.624468252062798E-2  -1.074448693543673E-3   5.620247498154640E-2  -1.067228149622679E-3   1.159123238176107E-2   9.888107776641846E-1  
 6.998000000000000E7     8.844061754643917E-3   9.917060136795044E-1   5.668771266937256E-2  -1.178155653178692E-3   5.668798089027405E-2  -1.144068781286478E-3   1.266372296959162E-2   9.887655973434448E-1  
 7.000000000000000E7     9.316493757069111E-3   9.916746020317078E-1   5.718827992677689E-2  -1.202687853947282E-3   5.718934908509255E-2  -1.191392075270414E-3   1.362792495638132E-2   9.891710281372070E-1  
