#  HZ   S   RI   R     50.00 
! Rohde & Schwarz ZVT8 8Ports - Version 4.11 - 1300.0000k08 SN: 100242
! Date: 2026-07-13 14:03:19
! Measurements: S11 S21 S12 S22 
! 
 1.000000000000000E7    -8.588051199913025E-1   4.265120923519135E-1   1.055993661284447E-1   2.130630165338516E-1   1.058658063411713E-1   2.128115296363831E-1  -8.562698364257813E-1   4.235698580741882E-1  
 1.002000000000000E7    -8.583385944366455E-1   4.272329211235046E-1   1.058570891618729E-1   2.136172354221344E-1   1.060844287276268E-1   2.135307192802429E-1  -8.560353517532349E-1   4.237322211265564E-1  
 1.004000000000000E7    -8.575306534767151E-1   4.278095364570618E-1   1.064869686961174E-1   2.141008973121643E-1   1.065756604075432E-1   2.136444300413132E-1  -8.554881215095520E-1   4.249288737773895E-1  
 1.006000000000000E7    -8.573089838027954E-1   4.288954138755798E-1   1.067170351743698E-1   2.141272872686386E-1   1.071061864495277E-1   2.141117602586746E-1  -8.549332022666931E-1   4.258189797401428E-1  
 1.008000000000000E7    -8.569132089614868E-1   4.297711849212647E-1   1.072249636054039E-1   2.145252376794815E-1   1.073773205280304E-1   2.144167274236679E-1  -8.544187545776367E-1   4.263099431991577E-1  
 1.010000000000000E7    -8.564314842224121E-1   4.302989542484283E-1   1.074552908539772E-1   2.149324417114258E-1   1.075590103864670E-1   2.147441059350967E-1  -8.541223406791687E-1   4.266545474529266E-1  
 1.012000000000000E7    -8.562279343605042E-1   4.304763674736023E-1   1.078838557004929E-1   2.152548879384995E-1   1.082612574100494E-1   2.148761600255966E-1  -8.531701564788818E-1   4.279745519161224E-1  
 1.014000000000000E7    -8.554409146308899E-1   4.316766560077667E-1   1.085761561989784E-1   2.154421061277390E-1   1.087351143360138E-1   2.152686864137650E-1  -8.527110219001770E-1   4.283926188945770E-1  
 1.016000000000000E7    -8.547052145004273E-1   4.320757687091827E-1   1.087541729211807E-1   2.159840464591980E-1   1.090415641665459E-1   2.155968695878983E-1  -8.525043129920960E-1   4.293451905250549E-1  
 1.018000000000000E7    -8.546190261840820E-1   4.331421554088593E-1   1.091973707079887E-1   2.163899987936020E-1   1.095227003097534E-1   2.161117196083069E-1  -8.524886965751648E-1   4.296342730522156E-1  
 1.020000000000000E7    -8.537853956222534E-1   4.338597953319550E-1   1.096376925706863E-1   2.163740098476410E-1   1.096934527158737E-1   2.161073237657547E-1  -8.513597846031189E-1   4.305279850959778E-1  
 1.022000000000000E7    -8.531974554061890E-1   4.347587227821350E-1   1.098633930087090E-1   2.168785929679871E-1   1.101108267903328E-1   2.164924591779709E-1  -8.510407805442810E-1   4.309880435466766E-1  
 1.024000000000000E7    -8.527573943138123E-1   4.355654120445252E-1   1.105820611119270E-1   2.171323746442795E-1   1.108932644128799E-1   2.167225778102875E-1  -8.504482507705689E-1   4.325069785118103E-1  
 1.026000000000000E7    -8.523098230361939E-1   4.359535276889801E-1   1.107358187437058E-1   2.176498472690582E-1   1.109167113900185E-1   2.171775102615356E-1  -8.502003550529480E-1   4.324158728122711E-1  
 1.028000000000000E7    -8.516378402709961E-1   4.367140829563141E-1   1.111632138490677E-1   2.178944200277329E-1   1.115368083119392E-1   2.174633741378784E-1  -8.494833707809448E-1   4.331327676773071E-1  
 1.030000000000000E7    -8.515561223030090E-1   4.374575316905975E-1   1.118959859013557E-1   2.181536704301834E-1   1.120453923940659E-1   2.179129719734192E-1  -8.488463163375855E-1   4.345434606075287E-1  
 1.032000000000000E7    -8.509330153465271E-1   4.380020499229431E-1   1.121837645769119E-1   2.185017764568329E-1   1.123516708612442E-1   2.182502448558807E-1  -8.486800789833069E-1   4.350352287292481E-1  
 1.034000000000000E7    -8.506906032562256E-1   4.390250444412231E-1   1.126247122883797E-1   2.188816964626312E-1   1.127733290195465E-1   2.185737043619156E-1  -8.480561971664429E-1   4.357475638389587E-1  
 1.036000000000000E7    -8.499856591224670E-1   4.392383098602295E-1   1.129686906933785E-1   2.190856188535690E-1   1.129976436495781E-1   2.188322395086289E-1  -8.474261760711670E-1   4.361110329627991E-1  
 1.038000000000000E7    -8.491388559341431E-1   4.401541650295258E-1   1.133930832147598E-1   2.193956971168518E-1   1.136370450258255E-1   2.191866934299469E-1  -8.470590114593506E-1   4.372940659523010E-1  
 1.040000000000000E7    -8.485971093177795E-1   4.409034252166748E-1   1.137325614690781E-1   2.197475284337997E-1   1.140704080462456E-1   2.194127440452576E-1  -8.464514613151550E-1   4.377072453498840E-1  
 1.042000000000000E7    -8.482316732406616E-1   4.413504004478455E-1   1.141787618398666E-1   2.199590951204300E-1   1.144398823380470E-1   2.198150604963303E-1  -8.456175327301025E-1   4.384891390800476E-1  
 1.044000000000000E7    -8.477239012718201E-1   4.423487782478333E-1   1.147225424647331E-1   2.202282249927521E-1   1.150339320302010E-1   2.199883908033371E-1  -8.450334072113037E-1   4.393033683300018E-1  
 1.046000000000000E7    -8.475663065910339E-1   4.427366554737091E-1   1.151664927601814E-1   2.206274271011353E-1   1.150381565093994E-1   2.203945368528366E-1  -8.447481393814087E-1   4.395731985569000E-1  
 1.048000000000000E7    -8.468116521835327E-1   4.437842667102814E-1   1.154601499438286E-1   2.211102247238159E-1   1.156470701098442E-1   2.206392586231232E-1  -8.446159958839417E-1   4.403536617755890E-1  
 1.050000000000000E7    -8.463442921638489E-1   4.448410272598267E-1   1.159764826297760E-1   2.215200960636139E-1   1.162696778774262E-1   2.210372090339661E-1  -8.437322974205017E-1   4.413997232913971E-1  
 1.052000000000000E7    -8.463245630264282E-1   4.453739523887634E-1   1.165141761302948E-1   2.217523008584976E-1   1.165831536054611E-1   2.214091122150421E-1  -8.430958390235901E-1   4.420637488365173E-1  
 1.054000000000000E7    -8.454400897026062E-1   4.459776878356934E-1   1.168698444962502E-1   2.221668958663940E-1   1.168682053685188E-1   2.218933850526810E-1  -8.429598212242127E-1   4.425521790981293E-1  
 1.056000000000000E7    -8.452427387237549E-1   4.467688202857971E-1   1.170350983738899E-1   2.224217653274536E-1   1.171296834945679E-1   2.219138741493225E-1  -8.422027826309204E-1   4.430309236049652E-1  
 1.058000000000000E7    -8.443017005920410E-1   4.473038911819458E-1   1.177434474229813E-1   2.226835787296295E-1   1.178146004676819E-1   2.224569916725159E-1  -8.421252965927124E-1   4.440917074680328E-1  
 1.060000000000000E7    -8.438781499862671E-1   4.481007754802704E-1   1.179527267813683E-1   2.228467315435410E-1   1.183324903249741E-1   2.226015031337738E-1  -8.413531184196472E-1   4.447484612464905E-1  
 1.062000000000000E7    -8.429644107818604E-1   4.488238096237183E-1   1.186390593647957E-1   2.234327644109726E-1   1.189527735114098E-1   2.229563891887665E-1  -8.408526182174683E-1   4.458659887313843E-1  
 1.064000000000000E7    -8.428106904029846E-1   4.494588375091553E-1   1.192052364349365E-1   2.234380841255188E-1   1.191546097397804E-1   2.232350558042526E-1  -8.399948477745056E-1   4.462000131607056E-1  
 1.066000000000000E7    -8.423883914947510E-1   4.501823186874390E-1   1.194615289568901E-1   2.237882465124130E-1   1.197101771831513E-1   2.236608117818832E-1  -8.398808240890503E-1   4.472938776016235E-1  
 1.068000000000000E7    -8.419372439384460E-1   4.509940147399902E-1   1.196831092238426E-1   2.242894768714905E-1   1.198980808258057E-1   2.238973826169968E-1  -8.393937945365906E-1   4.477895200252533E-1  
 1.070000000000000E7    -8.411540389060974E-1   4.516904056072235E-1   1.199546679854393E-1   2.243007868528366E-1   1.203043982386589E-1   2.240929454565048E-1  -8.384867906570435E-1   4.477907419204712E-1  
 1.072000000000000E7    -8.409090042114258E-1   4.524294137954712E-1   1.205672696232796E-1   2.249915897846222E-1   1.208242550492287E-1   2.245297431945801E-1  -8.381394147872925E-1   4.488644897937775E-1  
 1.074000000000000E7    -8.401329517364502E-1   4.531597495079041E-1   1.213718876242638E-1   2.251489311456680E-1   1.213721409440041E-1   2.247527688741684E-1  -8.374567627906799E-1   4.501628875732422E-1  
 1.076000000000000E7    -8.394498825073242E-1   4.539029896259308E-1   1.217966005206108E-1   2.252498418092728E-1   1.216995567083359E-1   2.251852452754974E-1  -8.370556831359863E-1   4.502733647823334E-1  
 1.078000000000000E7    -8.392434716224670E-1   4.541908204555512E-1   1.220395490527153E-1   2.257305532693863E-1   1.220955401659012E-1   2.254705429077148E-1  -8.362078666687012E-1   4.511582851409912E-1  
 1.080000000000000E7    -8.385557532310486E-1   4.549504518508911E-1   1.222884654998779E-1   2.258710116147995E-1   1.223178356885910E-1   2.255968004465103E-1  -8.357989788055420E-1   4.515698254108429E-1  
 1.082000000000000E7    -8.383752107620239E-1   4.561415016651154E-1   1.227759495377541E-1   2.262552082538605E-1   1.229471042752266E-1   2.259684652090073E-1  -8.351339697837830E-1   4.521993994712830E-1  
 1.084000000000000E7    -8.376103043556213E-1   4.564982056617737E-1   1.233718469738960E-1   2.266082763671875E-1   1.236794590950012E-1   2.261208742856979E-1  -8.347072601318359E-1   4.533927142620087E-1  
 1.086000000000000E7    -8.367674946784973E-1   4.570084810256958E-1   1.238921433687210E-1   2.268127202987671E-1   1.238653063774109E-1   2.263977676630020E-1  -8.342608809471130E-1   4.538513422012329E-1  
 1.088000000000000E7    -8.364859819412231E-1   4.575933814048767E-1   1.242689564824104E-1   2.272667139768601E-1   1.243125796318054E-1   2.268456220626831E-1  -8.340057134628296E-1   4.548094570636749E-1  
 1.090000000000000E7    -8.355665802955627E-1   4.580980241298676E-1   1.244272813200951E-1   2.275363951921463E-1   1.245573833584786E-1   2.274710237979889E-1  -8.338049054145813E-1   4.550011456012726E-1  
 1.092000000000000E7    -8.352403044700623E-1   4.595897495746613E-1   1.251661926507950E-1   2.277837991714478E-1   1.253251284360886E-1   2.275648564100266E-1  -8.328198790550232E-1   4.558700025081635E-1  
 1.094000000000000E7    -8.343009352684021E-1   4.603352546691895E-1   1.254601627588272E-1   2.279497683048248E-1   1.257065832614899E-1   2.276601791381836E-1  -8.324053287506104E-1   4.566266238689423E-1  
 1.096000000000000E7    -8.343886137008667E-1   4.607861936092377E-1   1.260773688554764E-1   2.283696383237839E-1   1.259957402944565E-1   2.280562520027161E-1  -8.316090106964111E-1   4.571570754051209E-1  
 1.098000000000000E7    -8.335973620414734E-1   4.615795910358429E-1   1.266081780195236E-1   2.286186665296555E-1   1.263367980718613E-1   2.282772213220596E-1  -8.312507271766663E-1   4.576472938060761E-1  
 1.100000000000000E7    -8.335286974906921E-1   4.623885154724121E-1   1.270157843828201E-1   2.291473597288132E-1   1.272758990526199E-1   2.288300842046738E-1  -8.304948210716248E-1   4.586263895034790E-1  
 1.102000000000000E7    -8.327417373657227E-1   4.630341827869415E-1   1.273072361946106E-1   2.292601764202118E-1   1.273893117904663E-1   2.290548533201218E-1  -8.301024436950684E-1   4.591695070266724E-1  
 1.104000000000000E7    -8.314848542213440E-1   4.634503424167633E-1   1.277259290218353E-1   2.293838560581207E-1   1.277388781309128E-1   2.290557622909546E-1  -8.294917941093445E-1   4.602597355842590E-1  
 1.106000000000000E7    -8.312798142433167E-1   4.638072848320007E-1   1.281988173723221E-1   2.298955470323563E-1   1.283981502056122E-1   2.295546531677246E-1  -8.290534615516663E-1   4.613122940063477E-1  
 1.108000000000000E7    -8.310791850090027E-1   4.644076228141785E-1   1.286865919828415E-1   2.299523651599884E-1   1.286582499742508E-1   2.298152446746826E-1  -8.277204036712647E-1   4.615063369274139E-1  
 1.110000000000000E7    -8.301224708557129E-1   4.653153419494629E-1   1.287700831890106E-1   2.304362356662750E-1   1.291239261627197E-1   2.302397042512894E-1  -8.279656171798706E-1   4.624455869197846E-1  
 1.112000000000000E7    -8.296048045158386E-1   4.660813510417938E-1   1.295022070407867E-1   2.307568788528442E-1   1.295583546161652E-1   2.304349541664124E-1  -8.272551894187927E-1   4.628126621246338E-1  
 1.114000000000000E7    -8.291091322898865E-1   4.668621718883514E-1   1.300324350595474E-1   2.311825007200241E-1   1.301437765359879E-1   2.307084500789642E-1  -8.269999623298645E-1   4.634540081024170E-1  
 1.116000000000000E7    -8.285298347473145E-1   4.672676026821137E-1   1.304054856300354E-1   2.310325652360916E-1   1.304829418659210E-1   2.309436947107315E-1  -8.262271881103516E-1   4.641716778278351E-1  
 1.118000000000000E7    -8.280634284019470E-1   4.683294892311096E-1   1.306373178958893E-1   2.315023988485336E-1   1.307272017002106E-1   2.314734160900116E-1  -8.257952332496643E-1   4.650772213935852E-1  
 1.120000000000000E7    -8.276540040969849E-1   4.691877067089081E-1   1.313665062189102E-1   2.318626195192337E-1   1.313389986753464E-1   2.313194423913956E-1  -8.246921896934509E-1   4.656052887439728E-1  
 1.122000000000000E7    -8.274950981140137E-1   4.695813059806824E-1   1.317356973886490E-1   2.321698963642120E-1   1.318341493606567E-1   2.319703549146652E-1  -8.243188261985779E-1   4.665069580078125E-1  
 1.124000000000000E7    -8.266930580139160E-1   4.704763591289520E-1   1.318771094083786E-1   2.325685024261475E-1   1.322013586759567E-1   2.322421669960022E-1  -8.239544630050659E-1   4.663160145282745E-1  
 1.126000000000000E7    -8.261487483978272E-1   4.707663953304291E-1   1.326358616352081E-1   2.328771203756332E-1   1.329018175601959E-1   2.324340492486954E-1  -8.232800364494324E-1   4.676784276962280E-1  
 1.128000000000000E7    -8.256390690803528E-1   4.713454842567444E-1   1.330538839101791E-1   2.331053912639618E-1   1.332654207944870E-1   2.329558432102203E-1  -8.227835297584534E-1   4.683915376663208E-1  
 1.130000000000000E7    -8.247691988945007E-1   4.722172617912293E-1   1.334594041109085E-1   2.332390695810318E-1   1.338294744491577E-1   2.333139181137085E-1  -8.223109841346741E-1   4.690961539745331E-1  
 1.132000000000000E7    -8.240582942962647E-1   4.736572504043579E-1   1.340896487236023E-1   2.335072010755539E-1   1.343097835779190E-1   2.331125438213348E-1  -8.213307857513428E-1   4.693395793437958E-1  
 1.134000000000000E7    -8.241827487945557E-1   4.735591709613800E-1   1.345062702894211E-1   2.341320067644119E-1   1.345622539520264E-1   2.336716204881668E-1  -8.209295868873596E-1   4.698380827903748E-1  
 1.136000000000000E7    -8.231759071350098E-1   4.746917486190796E-1   1.349107325077057E-1   2.342830449342728E-1   1.349275559186935E-1   2.340743988752365E-1  -8.207951784133911E-1   4.709306955337524E-1  
 1.138000000000000E7    -8.226180672645569E-1   4.747679531574249E-1   1.351384669542313E-1   2.341829240322113E-1   1.354021131992340E-1   2.343251705169678E-1  -8.201538324356079E-1   4.716412127017975E-1  
 1.140000000000000E7    -8.222607374191284E-1   4.756447374820709E-1   1.354558467864990E-1   2.349695861339569E-1   1.356417089700699E-1   2.344826608896256E-1  -8.196922540664673E-1   4.721253514289856E-1  
 1.142000000000000E7    -8.215016126632690E-1   4.763770103454590E-1   1.361151337623596E-1   2.350590974092484E-1   1.363331526517868E-1   2.346975207328796E-1  -8.187944293022156E-1   4.727855622768402E-1  
 1.144000000000000E7    -8.206123113632202E-1   4.771208465099335E-1   1.366725862026215E-1   2.352830618619919E-1   1.368794739246368E-1   2.349920868873596E-1  -8.188959956169128E-1   4.737417101860046E-1  
 1.146000000000000E7    -8.203829526901245E-1   4.776537120342255E-1   1.369774341583252E-1   2.357119172811508E-1   1.372566968202591E-1   2.355389147996903E-1  -8.181918859481812E-1   4.740451872348785E-1  
 1.148000000000000E7    -8.199346065521240E-1   4.786323606967926E-1   1.374983787536621E-1   2.358251065015793E-1   1.378579139709473E-1   2.354539036750794E-1  -8.171209692955017E-1   4.752403795719147E-1  
 1.150000000000000E7    -8.188384175300598E-1   4.789672791957855E-1   1.378514468669891E-1   2.361630946397781E-1   1.381442844867706E-1   2.357213199138641E-1  -8.165639042854309E-1   4.757082462310791E-1  
 1.152000000000000E7    -8.185033202171326E-1   4.794379472732544E-1   1.384196877479553E-1   2.364336550235748E-1   1.385232508182526E-1   2.362234294414520E-1  -8.164917826652527E-1   4.761822521686554E-1  
 1.154000000000000E7    -8.178942799568176E-1   4.802635014057159E-1   1.388284862041473E-1   2.364451885223389E-1   1.388258039951325E-1   2.362471222877502E-1  -8.154835700988770E-1   4.770009219646454E-1  
 1.156000000000000E7    -8.175883293151856E-1   4.810968339443207E-1   1.395350694656372E-1   2.369268983602524E-1   1.396490782499313E-1   2.368803322315216E-1  -8.154377937316895E-1   4.776016175746918E-1  
 1.158000000000000E7    -8.167131543159485E-1   4.816353619098663E-1   1.397609710693359E-1   2.372030764818192E-1   1.399047076702118E-1   2.370266914367676E-1  -8.147047758102417E-1   4.784204363822937E-1  
 1.160000000000000E7    -8.159661889076233E-1   4.819740653038025E-1   1.400337219238281E-1   2.375059872865677E-1   1.403713673353195E-1   2.373509854078293E-1  -8.142345547676086E-1   4.784509241580963E-1  
 1.162000000000000E7    -8.155090808868408E-1   4.832287132740021E-1   1.406266093254089E-1   2.379008084535599E-1   1.409321427345276E-1   2.375535666942596E-1  -8.130843043327332E-1   4.796094000339508E-1  
 1.164000000000000E7    -8.150742650032044E-1   4.839154779911041E-1   1.411635726690292E-1   2.381924539804459E-1   1.415425688028336E-1   2.379163801670075E-1  -8.128066658973694E-1   4.799802303314209E-1  
 1.166000000000000E7    -8.144918084144592E-1   4.843916296958923E-1   1.418550014495850E-1   2.385078966617584E-1   1.417840719223023E-1   2.382906526327133E-1  -8.126911520957947E-1   4.808179438114166E-1  
 1.168000000000000E7    -8.142647743225098E-1   4.849496781826019E-1   1.422112733125687E-1   2.390116155147553E-1   1.423233896493912E-1   2.383823543787003E-1  -8.124201893806458E-1   4.818088114261627E-1  
 1.170000000000000E7    -8.133043646812439E-1   4.859620332717896E-1   1.427330821752548E-1   2.387716621160507E-1   1.428750157356262E-1   2.387395054101944E-1  -8.106884360313416E-1   4.824068844318390E-1  
 1.172000000000000E7    -8.125473260879517E-1   4.861150979995728E-1   1.429395973682404E-1   2.391176223754883E-1   1.433099508285523E-1   2.388614416122437E-1  -8.107253909111023E-1   4.833489656448364E-1  
 1.174000000000000E7    -8.119977712631226E-1   4.870601296424866E-1   1.433772891759872E-1   2.395473420619965E-1   1.436625123023987E-1   2.393634319305420E-1  -8.104983568191528E-1   4.832766950130463E-1  
 1.176000000000000E7    -8.120080828666687E-1   4.876123368740082E-1   1.437705308198929E-1   2.397368550300598E-1   1.440551578998566E-1   2.393844574689865E-1  -8.093860149383545E-1   4.841159582138062E-1  
 1.178000000000000E7    -8.113288283348084E-1   4.886316955089569E-1   1.446196287870407E-1   2.400641441345215E-1   1.448921859264374E-1   2.398442327976227E-1  -8.091996908187866E-1   4.848056733608246E-1  
 1.180000000000000E7    -8.108518123626709E-1   4.888890385627747E-1   1.448389142751694E-1   2.402823567390442E-1   1.450618803501129E-1   2.400363683700562E-1  -8.082262277603149E-1   4.854566752910614E-1  
 1.182000000000000E7    -8.097845911979675E-1   4.902294278144836E-1   1.453233361244202E-1   2.406644374132156E-1   1.454893797636032E-1   2.400847077369690E-1  -8.077735304832459E-1   4.861491918563843E-1  
 1.184000000000000E7    -8.095566630363464E-1   4.906079173088074E-1   1.460454761981964E-1   2.405536174774170E-1   1.461392492055893E-1   2.403758168220520E-1  -8.069797158241272E-1   4.869994819164276E-1  
 1.186000000000000E7    -8.090553879737854E-1   4.911909103393555E-1   1.464612632989883E-1   2.411958873271942E-1   1.465927958488464E-1   2.410199940204620E-1  -8.068937063217163E-1   4.876117706298828E-1  
 1.188000000000000E7    -8.076009750366211E-1   4.920518100261688E-1   1.468693017959595E-1   2.414553612470627E-1   1.469159126281738E-1   2.410474419593811E-1  -8.061124682426453E-1   4.883292913436890E-1  
 1.190000000000000E7    -8.073111772537231E-1   4.923869073390961E-1   1.469886451959610E-1   2.416348010301590E-1   1.473247706890106E-1   2.412059456110001E-1  -8.058304190635681E-1   4.885455369949341E-1  
 1.192000000000000E7    -8.072225451469421E-1   4.926715493202210E-1   1.474589258432388E-1   2.417543232440949E-1   1.477029323577881E-1   2.415804415941238E-1  -8.052197098731995E-1   4.892787039279938E-1  
 1.194000000000000E7    -8.065882921218872E-1   4.935719072818756E-1   1.482204049825668E-1   2.421680241823196E-1   1.483571529388428E-1   2.418145686388016E-1  -8.044231534004211E-1   4.901548624038696E-1  
 1.196000000000000E7    -8.060680031776428E-1   4.944628179073334E-1   1.485378891229630E-1   2.422787994146347E-1   1.486390978097916E-1   2.420739829540253E-1  -8.034422993659973E-1   4.904634058475494E-1  
 1.198000000000000E7    -8.055713176727295E-1   4.949772655963898E-1   1.492145955562592E-1   2.428761273622513E-1   1.493107974529266E-1   2.424131333827972E-1  -8.033821582794190E-1   4.916600883007050E-1  
 1.200000000000000E7    -8.046454787254334E-1   4.956928193569183E-1   1.494230628013611E-1   2.431643754243851E-1   1.497044116258621E-1   2.426536530256271E-1  -8.025511503219605E-1   4.921744167804718E-1  
 1.202000000000000E7    -8.039036393165588E-1   4.964054226875305E-1   1.501000225543976E-1   2.429439723491669E-1   1.505351066589356E-1   2.430750727653503E-1  -8.020143508911133E-1   4.929776787757874E-1  
 1.204000000000000E7    -8.034572005271912E-1   4.973030686378479E-1   1.502299755811691E-1   2.433715611696243E-1   1.505871564149857E-1   2.432384639978409E-1  -8.014371991157532E-1   4.934247136116028E-1  
 1.206000000000000E7    -8.028625249862671E-1   4.974460005760193E-1   1.509055644273758E-1   2.436200082302094E-1   1.513129919767380E-1   2.433401644229889E-1  -8.008803129196167E-1   4.938418865203857E-1  
 1.208000000000000E7    -8.020006418228149E-1   4.983974695205689E-1   1.515601277351379E-1   2.436511516571045E-1   1.518652737140656E-1   2.438203245401382E-1  -8.003903627395630E-1   4.947292208671570E-1  
 1.210000000000000E7    -8.022071123123169E-1   4.985980689525604E-1   1.517755538225174E-1   2.446392774581909E-1   1.520168036222458E-1   2.440166920423508E-1  -7.999204397201538E-1   4.952651262283325E-1  
 1.212000000000000E7    -8.013026118278503E-1   4.995616376399994E-1   1.525253206491470E-1   2.444756478071213E-1   1.525917649269104E-1   2.442338913679123E-1  -7.987806797027588E-1   4.956817328929901E-1  
 1.214000000000000E7    -8.008282184600830E-1   5.005946159362793E-1   1.527692377567291E-1   2.447740137577057E-1   1.531155854463577E-1   2.446819543838501E-1  -7.990174293518066E-1   4.961474835872650E-1  
 1.216000000000000E7    -7.998967766761780E-1   5.010303258895874E-1   1.533932089805603E-1   2.451374381780624E-1   1.536719948053360E-1   2.448303699493408E-1  -7.983653545379639E-1   4.976680576801300E-1  
 1.218000000000000E7    -7.998144626617432E-1   5.014035701751709E-1   1.537190973758698E-1   2.452789545059204E-1   1.538445055484772E-1   2.447861433029175E-1  -7.972750663757324E-1   4.977748394012451E-1  
 1.220000000000000E7    -7.991260290145874E-1   5.021723508834839E-1   1.543745398521423E-1   2.455273270606995E-1   1.547332257032394E-1   2.452471107244492E-1  -7.967203855514526E-1   4.988127350807190E-1  
 1.222000000000000E7    -7.982788085937500E-1   5.028339028358460E-1   1.546847373247147E-1   2.456814944744110E-1   1.549141407012940E-1   2.455799728631973E-1  -7.958451509475708E-1   4.987037777900696E-1  
 1.224000000000000E7    -7.979074120521545E-1   5.037435889244080E-1   1.555236577987671E-1   2.460422962903976E-1   1.556380391120911E-1   2.455584853887558E-1  -7.955426573753357E-1   5.001139640808106E-1  
 1.226000000000000E7    -7.968958616256714E-1   5.039883255958557E-1   1.561735272407532E-1   2.463515996932983E-1   1.560407280921936E-1   2.461490035057068E-1  -7.950476408004761E-1   5.007690191268921E-1  
 1.228000000000000E7    -7.963398694992065E-1   5.046677589416504E-1   1.562901139259338E-1   2.465233802795410E-1   1.565817296504974E-1   2.462161779403687E-1  -7.944177985191345E-1   5.013515353202820E-1  
 1.230000000000000E7    -7.961613535881043E-1   5.051746964454651E-1   1.566730886697769E-1   2.467229515314102E-1   1.569208055734634E-1   2.466714829206467E-1  -7.939112186431885E-1   5.019679069519043E-1  
 1.232000000000000E7    -7.953603863716126E-1   5.060952305793762E-1   1.572763919830322E-1   2.471522837877274E-1   1.576816588640213E-1   2.469231933355331E-1  -7.933505773544312E-1   5.025172829627991E-1  
 1.234000000000000E7    -7.948167920112610E-1   5.067426562309265E-1   1.574312746524811E-1   2.471442967653275E-1   1.578442603349686E-1   2.468935400247574E-1  -7.926453351974487E-1   5.026952028274536E-1  
 1.236000000000000E7    -7.939030528068543E-1   5.068315267562866E-1   1.580062359571457E-1   2.476221621036530E-1   1.581871807575226E-1   2.473640441894531E-1  -7.924519181251526E-1   5.036295056343079E-1  
 1.238000000000000E7    -7.937908172607422E-1   5.078378915786743E-1   1.584763228893280E-1   2.479964196681976E-1   1.588815152645111E-1   2.479142248630524E-1  -7.915897965431213E-1   5.045318603515625E-1  
 1.240000000000000E7    -7.930814623832703E-1   5.088401436805725E-1   1.592240929603577E-1   2.479973733425140E-1   1.593153625726700E-1   2.478407174348831E-1  -7.907263636589050E-1   5.045865178108215E-1  
 1.242000000000000E7    -7.921805381774902E-1   5.089321732521057E-1   1.594149768352509E-1   2.483713179826737E-1   1.598096638917923E-1   2.480199337005615E-1  -7.903297543525696E-1   5.055471062660217E-1  
 1.244000000000000E7    -7.912763357162476E-1   5.098640322685242E-1   1.600552350282669E-1   2.487184405326843E-1   1.602482497692108E-1   2.484085857868195E-1  -7.898144721984863E-1   5.062720775604248E-1  
 1.246000000000000E7    -7.912195920944214E-1   5.102243423461914E-1   1.606288701295853E-1   2.489638924598694E-1   1.606852710247040E-1   2.487598210573196E-1  -7.890390753746033E-1   5.070227384567261E-1  
 1.248000000000000E7    -7.904201149940491E-1   5.113217234611511E-1   1.613346636295319E-1   2.488789111375809E-1   1.612483114004135E-1   2.489063441753388E-1  -7.885944247245789E-1   5.074613094329834E-1  
 1.250000000000000E7    -7.898866534233093E-1   5.116762518882752E-1   1.614039391279221E-1   2.492164075374603E-1   1.615016460418701E-1   2.492335438728333E-1  -7.879224419593811E-1   5.080626010894775E-1  
 1.252000000000000E7    -7.892365455627441E-1   5.128369927406311E-1   1.621273010969162E-1   2.494980096817017E-1   1.624229401350021E-1   2.492597103118897E-1  -7.872538566589356E-1   5.089472532272339E-1  
 1.254000000000000E7    -7.884222269058228E-1   5.130196809768677E-1   1.627204269170761E-1   2.494490146636963E-1   1.626992523670197E-1   2.493632137775421E-1  -7.865150570869446E-1   5.096920728683472E-1  
 1.256000000000000E7    -7.879812121391296E-1   5.139939785003662E-1   1.627520620822907E-1   2.500718235969544E-1   1.632650196552277E-1   2.498679012060165E-1  -7.859718203544617E-1   5.097748637199402E-1  
 1.258000000000000E7    -7.872149348258972E-1   5.145573616027832E-1   1.634584963321686E-1   2.501441538333893E-1   1.636485457420349E-1   2.500306963920593E-1  -7.854249477386475E-1   5.104634761810303E-1  
 1.260000000000000E7    -7.869555354118347E-1   5.148788690567017E-1   1.637744605541229E-1   2.505312263965607E-1   1.640926301479340E-1   2.505058646202087E-1  -7.847263813018799E-1   5.111789107322693E-1  
 1.262000000000000E7    -7.864133119583130E-1   5.154881477355957E-1   1.643366813659668E-1   2.507154941558838E-1   1.646798253059387E-1   2.505873143672943E-1  -7.844287753105164E-1   5.117641687393189E-1  
 1.264000000000000E7    -7.856773734092712E-1   5.158837437629700E-1   1.649296134710312E-1   2.510279417037964E-1   1.650892049074173E-1   2.508544325828552E-1  -7.837518453598023E-1   5.128735303878784E-1  
 1.266000000000000E7    -7.855118513107300E-1   5.162905454635620E-1   1.654154807329178E-1   2.513208389282227E-1   1.653117239475250E-1   2.510503530502319E-1  -7.829765677452087E-1   5.133265256881714E-1  
 1.268000000000000E7    -7.852740287780762E-1   5.176541805267334E-1   1.660483330488205E-1   2.517826259136200E-1   1.659798026084900E-1   2.514386773109436E-1  -7.823737263679504E-1   5.132637023925781E-1  
 1.270000000000000E7    -7.839113473892212E-1   5.182146430015564E-1   1.662589013576508E-1   2.518147826194763E-1   1.666301488876343E-1   2.514764368534088E-1  -7.818894982337952E-1   5.138660073280335E-1  
 1.272000000000000E7    -7.832872867584229E-1   5.182407498359680E-1   1.668760925531387E-1   2.521116137504578E-1   1.671871691942215E-1   2.519572675228119E-1  -7.816069126129150E-1   5.152435302734375E-1  
 1.274000000000000E7    -7.825108766555786E-1   5.189644098281860E-1   1.672087758779526E-1   2.523213326931000E-1   1.674425899982452E-1   2.519630193710327E-1  -7.808431982994080E-1   5.153726339340210E-1  
 1.276000000000000E7    -7.822481393814087E-1   5.197401046752930E-1   1.681510359048843E-1   2.525638043880463E-1   1.682226657867432E-1   2.521728873252869E-1  -7.797089815139771E-1   5.164242982864380E-1  
 1.278000000000000E7    -7.818138599395752E-1   5.206835865974426E-1   1.685996502637863E-1   2.528284192085266E-1   1.686508655548096E-1   2.524693012237549E-1  -7.794341444969177E-1   5.171105861663818E-1  
 1.280000000000000E7    -7.808626294136047E-1   5.213459134101868E-1   1.689782738685608E-1   2.529175877571106E-1   1.689546555280685E-1   2.526257634162903E-1  -7.787452340126038E-1   5.172160267829895E-1  
 1.282000000000000E7    -7.801988720893860E-1   5.215084552764893E-1   1.691609770059586E-1   2.530953586101532E-1   1.694922596216202E-1   2.531819641590118E-1  -7.785009145736694E-1   5.180547833442688E-1  
 1.284000000000000E7    -7.795687317848206E-1   5.225179195404053E-1   1.697324812412262E-1   2.537111937999725E-1   1.699790954589844E-1   2.531405389308929E-1  -7.778770923614502E-1   5.189282298088074E-1  
 1.286000000000000E7    -7.789077162742615E-1   5.226600170135498E-1   1.702972501516342E-1   2.537675201892853E-1   1.704919785261154E-1   2.534938752651215E-1  -7.770109772682190E-1   5.193831324577332E-1  
 1.288000000000000E7    -7.783122658729553E-1   5.236053466796875E-1   1.705910861492157E-1   2.539986371994019E-1   1.710179895162582E-1   2.535485625267029E-1  -7.766888737678528E-1   5.201200842857361E-1  
 1.290000000000000E7    -7.780345082283020E-1   5.237227678298950E-1   1.710293442010880E-1   2.542790174484253E-1   1.713158935308456E-1   2.538075149059296E-1  -7.758934497833252E-1   5.204347372055054E-1  
 1.292000000000000E7    -7.771561741828919E-1   5.245105624198914E-1   1.713562458753586E-1   2.543080449104309E-1   1.715169399976730E-1   2.541387379169464E-1  -7.754248976707459E-1   5.208425521850586E-1  
 1.294000000000000E7    -7.766985893249512E-1   5.253374576568604E-1   1.719614714384079E-1   2.547601163387299E-1   1.725095063447952E-1   2.543729543685913E-1  -7.746494412422180E-1   5.219892859458923E-1  
 1.296000000000000E7    -7.757472395896912E-1   5.259612798690796E-1   1.728198081254959E-1   2.551310956478119E-1   1.731411516666412E-1   2.545860409736633E-1  -7.745711207389832E-1   5.225167870521545E-1  
 1.298000000000000E7    -7.754232287406921E-1   5.267392992973328E-1   1.736866980791092E-1   2.549934387207031E-1   1.735069006681442E-1   2.548008263111115E-1  -7.733487486839294E-1   5.228066444396973E-1  
 1.300000000000000E7    -7.747765183448792E-1   5.273276567459106E-1   1.738394349813461E-1   2.553665935993195E-1   1.737474799156189E-1   2.550645470619202E-1  -7.724246978759766E-1   5.232276916503906E-1  
 1.302000000000000E7    -7.739273309707642E-1   5.282983183860779E-1   1.744186133146286E-1   2.552179992198944E-1   1.744883507490158E-1   2.550699412822723E-1  -7.719231247901917E-1   5.242854356765747E-1  
 1.304000000000000E7    -7.735378146171570E-1   5.287169814109802E-1   1.745136529207230E-1   2.559843361377716E-1   1.748866438865662E-1   2.554183900356293E-1  -7.714881300926209E-1   5.243363976478577E-1  
 1.306000000000000E7    -7.728349566459656E-1   5.296669602394104E-1   1.758702397346497E-1   2.558215558528900E-1   1.756982207298279E-1   2.557219564914703E-1  -7.708404064178467E-1   5.255770087242127E-1  
 1.308000000000000E7    -7.725582122802734E-1   5.299438834190369E-1   1.758845746517181E-1   2.560127079486847E-1   1.760793626308441E-1   2.559789419174194E-1  -7.703214883804321E-1   5.260852575302124E-1  
 1.310000000000000E7    -7.716110348701477E-1   5.301495790481567E-1   1.763235330581665E-1   2.564457654953003E-1   1.765796691179276E-1   2.559960484504700E-1  -7.697172760963440E-1   5.267495512962341E-1  
 1.312000000000000E7    -7.710257172584534E-1   5.311006307601929E-1   1.767472922801971E-1   2.566581070423126E-1   1.769222915172577E-1   2.565590739250183E-1  -7.695301771163940E-1   5.272801518440247E-1  
 1.314000000000000E7    -7.703912258148193E-1   5.319802165031433E-1   1.777007132768631E-1   2.571496665477753E-1   1.773617565631867E-1   2.568935751914978E-1  -7.689091563224793E-1   5.277134180068970E-1  
 1.316000000000000E7    -7.697267532348633E-1   5.325254201889038E-1   1.777738481760025E-1   2.573664784431458E-1   1.780484616756439E-1   2.568667232990265E-1  -7.679767012596130E-1   5.283858776092529E-1  
 1.318000000000000E7    -7.691674232482910E-1   5.330671072006226E-1   1.786395758390427E-1   2.575688958168030E-1   1.787303388118744E-1   2.574780583381653E-1  -7.678407430648804E-1   5.295658111572266E-1  
 1.320000000000000E7    -7.684222459793091E-1   5.334517359733582E-1   1.789724528789520E-1   2.576182484626770E-1   1.790248304605484E-1   2.571244835853577E-1  -7.665175199508667E-1   5.298245549201965E-1  
 1.322000000000000E7    -7.675243020057678E-1   5.339841842651367E-1   1.794467121362686E-1   2.579343318939209E-1   1.795937120914459E-1   2.575109899044037E-1  -7.660363316535950E-1   5.305221676826477E-1  
 1.324000000000000E7    -7.674608230590820E-1   5.347592830657959E-1   1.799433082342148E-1   2.580077350139618E-1   1.801622956991196E-1   2.577021420001984E-1  -7.650933265686035E-1   5.309017300605774E-1  
 1.326000000000000E7    -7.668076753616333E-1   5.353859663009644E-1   1.806173920631409E-1   2.582547068595886E-1   1.805595010519028E-1   2.583021819591522E-1  -7.650554180145264E-1   5.315543413162231E-1  
 1.328000000000000E7    -7.661211490631104E-1   5.360283851623535E-1   1.809431463479996E-1   2.586193382740021E-1   1.810045391321182E-1   2.582644224166870E-1  -7.643119096755981E-1   5.321753025054932E-1  
 1.330000000000000E7    -7.655044794082642E-1   5.364100933074951E-1   1.813853979110718E-1   2.588015496730804E-1   1.815962642431259E-1   2.586007118225098E-1  -7.639545202255249E-1   5.326560735702515E-1  
 1.332000000000000E7    -7.647524476051331E-1   5.372323989868164E-1   1.818003058433533E-1   2.591673433780670E-1   1.822008788585663E-1   2.586421072483063E-1  -7.629652023315430E-1   5.334880948066711E-1  
 1.334000000000000E7    -7.644734978675842E-1   5.374528765678406E-1   1.823584288358688E-1   2.596117258071899E-1   1.824875175952911E-1   2.590273618698120E-1  -7.624490261077881E-1   5.342327356338501E-1  
 1.336000000000000E7    -7.635024785995483E-1   5.382565259933472E-1   1.829659640789032E-1   2.596035003662109E-1   1.827632933855057E-1   2.591348886489868E-1  -7.619171738624573E-1   5.346337556838989E-1  
 1.338000000000000E7    -7.631134986877441E-1   5.390508770942688E-1   1.833952516317368E-1   2.597215175628662E-1   1.837470084428787E-1   2.595655024051666E-1  -7.612686157226563E-1   5.354186296463013E-1  
 1.340000000000000E7    -7.623893022537231E-1   5.394487977027893E-1   1.842043250799179E-1   2.600476145744324E-1   1.842636615037918E-1   2.597540616989136E-1  -7.603096365928650E-1   5.361674427986145E-1  
 1.342000000000000E7    -7.614287137985230E-1   5.400304794311523E-1   1.845748722553253E-1   2.601794004440308E-1   1.847418248653412E-1   2.598380148410797E-1  -7.601650357246399E-1   5.365737676620483E-1  
 1.344000000000000E7    -7.612841725349426E-1   5.408436655998230E-1   1.848670393228531E-1   2.601489424705505E-1   1.849005967378616E-1   2.598804235458374E-1  -7.587909102439880E-1   5.368338823318481E-1  
 1.346000000000000E7    -7.606911063194275E-1   5.418790578842163E-1   1.856557428836823E-1   2.605611085891724E-1   1.857665628194809E-1   2.603447139263153E-1  -7.586764693260193E-1   5.372462272644043E-1  
 1.348000000000000E7    -7.595205307006836E-1   5.421573519706726E-1   1.859303712844849E-1   2.604628503322601E-1   1.862483471632004E-1   2.604203224182129E-1  -7.583445906639099E-1   5.382322669029236E-1  
 1.350000000000000E7    -7.591426372528076E-1   5.422039628028870E-1   1.862904280424118E-1   2.608495056629181E-1   1.868847459554672E-1   2.604734003543854E-1  -7.569144964218140E-1   5.389322042465210E-1  
 1.352000000000000E7    -7.584155201911926E-1   5.432247519493103E-1   1.872696131467819E-1   2.610027790069580E-1   1.871014982461929E-1   2.607485353946686E-1  -7.565441131591797E-1   5.392124652862549E-1  
 1.354000000000000E7    -7.578099966049194E-1   5.438922643661499E-1   1.877005398273468E-1   2.610401213169098E-1   1.878062784671783E-1   2.609831690788269E-1  -7.554903626441956E-1   5.397900342941284E-1  
 1.356000000000000E7    -7.571631073951721E-1   5.442315936088562E-1   1.878526806831360E-1   2.613249123096466E-1   1.880989521741867E-1   2.610771358013153E-1  -7.550451159477234E-1   5.405811071395874E-1  
 1.358000000000000E7    -7.566616535186768E-1   5.449220538139343E-1   1.887911707162857E-1   2.618677318096161E-1   1.889355033636093E-1   2.616293728351593E-1  -7.548041343688965E-1   5.414293408393860E-1  
 1.360000000000000E7    -7.560660839080811E-1   5.460205078125000E-1   1.892257034778595E-1   2.621605992317200E-1   1.892492026090622E-1   2.619763612747192E-1  -7.539836764335632E-1   5.417851209640503E-1  
 1.362000000000000E7    -7.558670639991760E-1   5.463305115699768E-1   1.895749270915985E-1   2.624149024486542E-1   1.901597380638123E-1   2.622959315776825E-1  -7.533865571022034E-1   5.425091981887817E-1  
 1.364000000000000E7    -7.548777461051941E-1   5.467277169227600E-1   1.900181770324707E-1   2.623585462570190E-1   1.900483369827271E-1   2.620833516120911E-1  -7.525953650474548E-1   5.426174402236939E-1  
 1.366000000000000E7    -7.541655302047730E-1   5.474936366081238E-1   1.905179470777512E-1   2.626955807209015E-1   1.908591985702515E-1   2.626113891601563E-1  -7.523525357246399E-1   5.433575510978699E-1  
 1.368000000000000E7    -7.534438371658325E-1   5.481858849525452E-1   1.911040544509888E-1   2.627239227294922E-1   1.914358586072922E-1   2.626432478427887E-1  -7.518652677536011E-1   5.440137982368469E-1  
 1.370000000000000E7    -7.527993321418762E-1   5.485654473304749E-1   1.917539089918137E-1   2.632295191287994E-1   1.919480264186859E-1   2.627213597297669E-1  -7.507730722427368E-1   5.447437167167664E-1  
 1.372000000000000E7    -7.526041269302368E-1   5.489932298660278E-1   1.918629407882690E-1   2.634310722351074E-1   1.922639608383179E-1   2.629930377006531E-1  -7.504571080207825E-1   5.451061725616455E-1  
 1.374000000000000E7    -7.515221238136292E-1   5.495441555976868E-1   1.926615685224533E-1   2.634684145450592E-1   1.925968676805496E-1   2.632108330726624E-1  -7.497378587722778E-1   5.455614924430847E-1  
 1.376000000000000E7    -7.511819005012512E-1   5.502911806106567E-1   1.932362020015717E-1   2.639613151550293E-1   1.936047077178955E-1   2.633872926235199E-1  -7.490871548652649E-1   5.464984774589539E-1  
 1.378000000000000E7    -7.503919005393982E-1   5.510581135749817E-1   1.935894042253494E-1   2.635186612606049E-1   1.937969774007797E-1   2.635194063186646E-1  -7.480512857437134E-1   5.466877818107605E-1  
 1.380000000000000E7    -7.494677305221558E-1   5.515086054801941E-1   1.942670196294785E-1   2.640600502490997E-1   1.943859606981278E-1   2.637225687503815E-1  -7.476670742034912E-1   5.477069020271301E-1  
 1.382000000000000E7    -7.489342093467712E-1   5.521472096443176E-1   1.948002278804779E-1   2.641891539096832E-1   1.947980970144272E-1   2.639393806457520E-1  -7.469521164894104E-1   5.478456020355225E-1  
 1.384000000000000E7    -7.484257221221924E-1   5.527154207229614E-1   1.951988339424133E-1   2.644693851470947E-1   1.955361217260361E-1   2.644915878772736E-1  -7.463248968124390E-1   5.485188364982605E-1  
 1.386000000000000E7    -7.481518983840942E-1   5.535125732421875E-1   1.959584653377533E-1   2.647065222263336E-1   1.959154605865479E-1   2.645590305328369E-1  -7.457757592201233E-1   5.492334961891174E-1  
 1.388000000000000E7    -7.472221255302429E-1   5.536370277404785E-1   1.961134374141693E-1   2.650004327297211E-1   1.964340358972549E-1   2.645315527915955E-1  -7.450461983680725E-1   5.501282811164856E-1  
 1.390000000000000E7    -7.461005449295044E-1   5.548680424690247E-1   1.970211118459702E-1   2.651611566543579E-1   1.972219645977020E-1   2.650295794010162E-1  -7.448337078094482E-1   5.504845380783081E-1  
 1.392000000000000E7    -7.460689544677734E-1   5.551046133041382E-1   1.974109113216400E-1   2.652657032012940E-1   1.974587142467499E-1   2.652118504047394E-1  -7.441841363906860E-1   5.510706305503845E-1  
 1.394000000000000E7    -7.450327277183533E-1   5.560930967330933E-1   1.982022523880005E-1   2.651938498020172E-1   1.985128521919251E-1   2.649872303009033E-1  -7.429859042167664E-1   5.518265962600708E-1  
 1.396000000000000E7    -7.442886233329773E-1   5.566190481185913E-1   1.986433267593384E-1   2.658253014087677E-1   1.989214420318604E-1   2.654058933258057E-1  -7.431161403656006E-1   5.524982213973999E-1  
 1.398000000000000E7    -7.439360022544861E-1   5.568277239799500E-1   1.987946480512619E-1   2.658362090587616E-1   1.992509365081787E-1   2.655280828475952E-1  -7.421681284904480E-1   5.528398156166077E-1  
 1.400000000000000E7    -7.436885833740234E-1   5.572341680526733E-1   1.993322819471359E-1   2.660952806472778E-1   1.997572034597397E-1   2.658943533897400E-1  -7.414260506629944E-1   5.536023378372192E-1  
 1.402000000000000E7    -7.427788972854614E-1   5.579586029052734E-1   2.002488672733307E-1   2.662574350833893E-1   2.001971453428268E-1   2.659192681312561E-1  -7.406335473060608E-1   5.539181232452393E-1  
 1.404000000000000E7    -7.420626282691956E-1   5.586550831794739E-1   2.007420510053635E-1   2.667292952537537E-1   2.005288600921631E-1   2.661074697971344E-1  -7.401032447814941E-1   5.549289584159851E-1  
 1.406000000000000E7    -7.412408590316773E-1   5.592601895332336E-1   2.009101510047913E-1   2.666409313678742E-1   2.011951655149460E-1   2.665224969387054E-1  -7.393404841423035E-1   5.556589365005493E-1  
 1.408000000000000E7    -7.410559654235840E-1   5.599111914634705E-1   2.017073631286621E-1   2.668080925941467E-1   2.021055370569229E-1   2.666263282299042E-1  -7.386054396629334E-1   5.561078190803528E-1  
 1.410000000000000E7    -7.400297522544861E-1   5.601705312728882E-1   2.022087872028351E-1   2.671846747398377E-1   2.022662609815598E-1   2.667308449745178E-1  -7.379490137100220E-1   5.568348765373230E-1  
 1.412000000000000E7    -7.392228841781616E-1   5.609434247016907E-1   2.026686072349548E-1   2.670834958553314E-1   2.030404657125473E-1   2.671052515506744E-1  -7.377836108207703E-1   5.571998953819275E-1  
 1.414000000000000E7    -7.387611269950867E-1   5.612018108367920E-1   2.034702301025391E-1   2.674241065979004E-1   2.036224454641342E-1   2.669651210308075E-1  -7.366388440132141E-1   5.579589605331421E-1  
 1.416000000000000E7    -7.379757761955261E-1   5.616208314895630E-1   2.039475589990616E-1   2.675548493862152E-1   2.040332704782486E-1   2.672733366489410E-1  -7.359201908111572E-1   5.586665272712708E-1  
 1.418000000000000E7    -7.371250987052918E-1   5.622290968894959E-1   2.042506933212280E-1   2.677011489868164E-1   2.043162882328033E-1   2.676897048950195E-1  -7.357191443443298E-1   5.587123632431030E-1  
 1.420000000000000E7    -7.368288636207581E-1   5.630596280097961E-1   2.050278037786484E-1   2.683303058147430E-1   2.050131559371948E-1   2.675825953483582E-1  -7.351312637329102E-1   5.597370266914368E-1  
 1.422000000000000E7    -7.361543178558350E-1   5.635766386985779E-1   2.053572088479996E-1   2.681469023227692E-1   2.056218981742859E-1   2.682477831840515E-1  -7.344419360160828E-1   5.598047971725464E-1  
 1.424000000000000E7    -7.353840470314026E-1   5.642483830451965E-1   2.057465016841888E-1   2.685831487178803E-1   2.059137821197510E-1   2.680575549602509E-1  -7.338252663612366E-1   5.604960322380066E-1  
 1.426000000000000E7    -7.346966266632080E-1   5.650280714035034E-1   2.063371390104294E-1   2.684403359889984E-1   2.066499888896942E-1   2.682644128799439E-1  -7.327440977096558E-1   5.611937642097473E-1  
 1.428000000000000E7    -7.342873215675354E-1   5.656496286392212E-1   2.068008929491043E-1   2.686964273452759E-1   2.072999477386475E-1   2.682462930679321E-1  -7.320449352264404E-1   5.616458058357239E-1  
 1.430000000000000E7    -7.336557507514954E-1   5.660075545310974E-1   2.075760066509247E-1   2.688709497451782E-1   2.078548073768616E-1   2.686670422554016E-1  -7.313224077224731E-1   5.619202256202698E-1  
 1.432000000000000E7    -7.324322462081909E-1   5.667890906333923E-1   2.080499082803726E-1   2.693995237350464E-1   2.084033340215683E-1   2.688029408454895E-1  -7.314918041229248E-1   5.625343918800354E-1  
 1.434000000000000E7    -7.319702506065369E-1   5.673533678054810E-1   2.087692320346832E-1   2.694823741912842E-1   2.089843153953552E-1   2.691807746887207E-1  -7.306762337684631E-1   5.637636780738831E-1  
 1.436000000000000E7    -7.319707274436951E-1   5.674008131027222E-1   2.088287472724915E-1   2.696767449378967E-1   2.091720998287201E-1   2.691127955913544E-1  -7.295988798141480E-1   5.640526413917542E-1  
 1.438000000000000E7    -7.306947112083435E-1   5.678293108940125E-1   2.096402943134308E-1   2.694464027881622E-1   2.094611525535584E-1   2.693496942520142E-1  -7.289806604385376E-1   5.645833611488342E-1  
 1.440000000000000E7    -7.302400469779968E-1   5.687482357025147E-1   2.100580781698227E-1   2.698126733303070E-1   2.104400694370270E-1   2.692559361457825E-1  -7.284643650054932E-1   5.650187730789185E-1  
 1.442000000000000E7    -7.297259569168091E-1   5.694088339805603E-1   2.110298126935959E-1   2.700532078742981E-1   2.111775875091553E-1   2.699920237064362E-1  -7.279232144355774E-1   5.659297108650208E-1  
 1.444000000000000E7    -7.289918065071106E-1   5.701931715011597E-1   2.113628238439560E-1   2.702523469924927E-1   2.114450931549072E-1   2.697304785251617E-1  -7.270900607109070E-1   5.660877823829651E-1  
 1.446000000000000E7    -7.280997633934021E-1   5.703561305999756E-1   2.115581929683685E-1   2.705578207969666E-1   2.117581963539124E-1   2.701240181922913E-1  -7.266089320182800E-1   5.663076639175415E-1  
 1.448000000000000E7    -7.273561954498291E-1   5.713026523590088E-1   2.120376378297806E-1   2.705892920494080E-1   2.123970985412598E-1   2.703608274459839E-1  -7.256321310997009E-1   5.671043395996094E-1  
 1.450000000000000E7    -7.270457744598389E-1   5.719003081321716E-1   2.129331231117249E-1   2.710554003715515E-1   2.129761874675751E-1   2.707217633724213E-1  -7.253726720809937E-1   5.677983760833740E-1  
 1.452000000000000E7    -7.262905836105347E-1   5.723417997360230E-1   2.133410573005676E-1   2.709609270095825E-1   2.136994004249573E-1   2.705191373825073E-1  -7.246708273887634E-1   5.680202841758728E-1  
 1.454000000000000E7    -7.253811359405518E-1   5.727636218070984E-1   2.140594422817230E-1   2.712522447109222E-1   2.142776995897293E-1   2.707073390483856E-1  -7.239130735397339E-1   5.688967704772949E-1  
 1.456000000000000E7    -7.249453663825989E-1   5.730560421943665E-1   2.142681330442429E-1   2.714619040489197E-1   2.143489122390747E-1   2.708882987499237E-1  -7.230277061462402E-1   5.692869424819946E-1  
 1.458000000000000E7    -7.240254878997803E-1   5.736798644065857E-1   2.150370031595230E-1   2.711670994758606E-1   2.151578664779663E-1   2.710059285163879E-1  -7.223239541053772E-1   5.699180960655212E-1  
 1.460000000000000E7    -7.237003445625305E-1   5.745728611946106E-1   2.156110703945160E-1   2.718153893947601E-1   2.157410383224487E-1   2.709161341190338E-1  -7.216116189956665E-1   5.704835653305054E-1  
 1.462000000000000E7    -7.226967215538025E-1   5.749807953834534E-1   2.162598818540573E-1   2.716445326805115E-1   2.164632678031921E-1   2.712297141551971E-1  -7.209237217903137E-1   5.711883306503296E-1  
 1.464000000000000E7    -7.226044535636902E-1   5.753346681594849E-1   2.169051915407181E-1   2.719687819480896E-1   2.168503254652023E-1   2.718182802200317E-1  -7.204681038856506E-1   5.719092488288879E-1  
 1.466000000000000E7    -7.211707830429077E-1   5.758180618286133E-1   2.170798480510712E-1   2.720993459224701E-1   2.172992378473282E-1   2.720078825950623E-1  -7.199479937553406E-1   5.720525979995728E-1  
 1.468000000000000E7    -7.210256457328796E-1   5.767973065376282E-1   2.178328633308411E-1   2.722553908824921E-1   2.180531769990921E-1   2.722702622413635E-1  -7.193500399589539E-1   5.723411440849304E-1  
 1.470000000000000E7    -7.201563715934753E-1   5.773277282714844E-1   2.184541374444962E-1   2.722949683666229E-1   2.187064737081528E-1   2.721280455589294E-1  -7.184120416641235E-1   5.729887485504150E-1  
 1.472000000000000E7    -7.196378111839294E-1   5.773591399192810E-1   2.188108116388321E-1   2.725000381469727E-1   2.192304730415344E-1   2.725565135478973E-1  -7.179390192031860E-1   5.739002227783203E-1  
 1.474000000000000E7    -7.188054323196411E-1   5.780337452888489E-1   2.196056842803955E-1   2.725384831428528E-1   2.197553068399429E-1   2.724905610084534E-1  -7.168021798133850E-1   5.744603276252747E-1  
 1.476000000000000E7    -7.181054353713989E-1   5.791097879409790E-1   2.200574278831482E-1   2.732167840003967E-1   2.203159630298615E-1   2.727867066860199E-1  -7.169264554977417E-1   5.751976370811462E-1  
 1.478000000000000E7    -7.175331115722656E-1   5.793567299842835E-1   2.203679233789444E-1   2.730613648891449E-1   2.204901129007340E-1   2.728256285190582E-1  -7.157956957817078E-1   5.755481719970703E-1  
 1.480000000000000E7    -7.166497707366943E-1   5.800850391387940E-1   2.210222035646439E-1   2.733443975448608E-1   2.210425585508347E-1   2.731648087501526E-1  -7.152457833290100E-1   5.761520266532898E-1  
 1.482000000000000E7    -7.163473963737488E-1   5.807501077651978E-1   2.218267917633057E-1   2.737784683704376E-1   2.218117564916611E-1   2.733802497386932E-1  -7.148852348327637E-1   5.766406059265137E-1  
 1.484000000000000E7    -7.157625555992127E-1   5.814457535743713E-1   2.223560214042664E-1   2.738721668720245E-1   2.226408571004868E-1   2.732584774494171E-1  -7.135577797889710E-1   5.776347517967224E-1  
 1.486000000000000E7    -7.151594161987305E-1   5.816814899444580E-1   2.227134406566620E-1   2.739361524581909E-1   2.228410691022873E-1   2.737584412097931E-1  -7.132486104965210E-1   5.774522423744202E-1  
 1.488000000000000E7    -7.144007086753845E-1   5.822474956512451E-1   2.232548296451569E-1   2.741167545318604E-1   2.235566675662994E-1   2.735683321952820E-1  -7.125895023345947E-1   5.780628323554993E-1  
 1.490000000000000E7    -7.132866382598877E-1   5.828199982643127E-1   2.237706333398819E-1   2.740758955478668E-1   2.241759300231934E-1   2.739050984382629E-1  -7.117157578468323E-1   5.786620974540710E-1  
 1.492000000000000E7    -7.124870419502258E-1   5.831384658813477E-1   2.242728322744370E-1   2.743298113346100E-1   2.247447669506073E-1   2.736530601978302E-1  -7.111289501190186E-1   5.795482397079468E-1  
 1.494000000000000E7    -7.123612761497498E-1   5.842541456222534E-1   2.252636551856995E-1   2.744660079479218E-1   2.252754420042038E-1   2.741170525550842E-1  -7.103230357170105E-1   5.798583626747131E-1  
 1.496000000000000E7    -7.114160060882568E-1   5.843152403831482E-1   2.255250960588455E-1   2.745990157127380E-1   2.258565276861191E-1   2.743004560470581E-1  -7.098399996757507E-1   5.804089903831482E-1  
 1.498000000000000E7    -7.107818126678467E-1   5.847954154014587E-1   2.257589846849442E-1   2.747111916542053E-1   2.264165282249451E-1   2.744207084178925E-1  -7.090565562248230E-1   5.812122821807861E-1  
 1.500000000000000E7    -7.103344202041626E-1   5.853598117828369E-1   2.267713844776154E-1   2.750363349914551E-1   2.268252670764923E-1   2.748447060585022E-1  -7.085303068161011E-1   5.819048881530762E-1  
 1.502000000000000E7    -7.094687223434448E-1   5.859923362731934E-1   2.272416353225708E-1   2.752755582332611E-1   2.270381152629852E-1   2.746889293193817E-1  -7.077824473381043E-1   5.823993086814880E-1  
 1.504000000000000E7    -7.088274359703064E-1   5.869230628013611E-1   2.280059158802033E-1   2.754491865634918E-1   2.283048182725906E-1   2.750932872295380E-1  -7.074847817420960E-1   5.829978585243225E-1  
 1.506000000000000E7    -7.083364725112915E-1   5.868802666664124E-1   2.284573614597321E-1   2.754478156566620E-1   2.282955497503281E-1   2.751167416572571E-1  -7.061629891395569E-1   5.834853649139404E-1  
 1.508000000000000E7    -7.076984047889710E-1   5.877553820610046E-1   2.289033681154251E-1   2.758539915084839E-1   2.289253622293472E-1   2.752989530563355E-1  -7.057151794433594E-1   5.840300917625427E-1  
 1.510000000000000E7    -7.068704962730408E-1   5.880849957466126E-1   2.294522672891617E-1   2.758284211158752E-1   2.296511828899384E-1   2.755462527275085E-1  -7.052118778228760E-1   5.844730138778687E-1  
 1.512000000000000E7    -7.061058878898621E-1   5.884333252906799E-1   2.303037941455841E-1   2.758023738861084E-1   2.303800582885742E-1   2.755954861640930E-1  -7.044494152069092E-1   5.854172110557556E-1  
 1.514000000000000E7    -7.057436108589172E-1   5.895729064941406E-1   2.304448932409287E-1   2.760809063911438E-1   2.309467047452927E-1   2.760601937770844E-1  -7.044181823730469E-1   5.850626826286316E-1  
 1.516000000000000E7    -7.046874761581421E-1   5.898555517196655E-1   2.312938719987869E-1   2.761599719524384E-1   2.310963422060013E-1   2.762942314147949E-1  -7.034540176391602E-1   5.860656499862671E-1  
 1.518000000000000E7    -7.043043375015259E-1   5.897577404975891E-1   2.315452247858048E-1   2.766905725002289E-1   2.316819727420807E-1   2.761946916580200E-1  -7.023844718933106E-1   5.870172977447510E-1  
 1.520000000000000E7    -7.032354474067688E-1   5.910251736640930E-1   2.324782907962799E-1   2.762971222400665E-1   2.326119393110275E-1   2.763378024101257E-1  -7.014650702476502E-1   5.870524644851685E-1  
 1.522000000000000E7    -7.028311491012573E-1   5.916874408721924E-1   2.329176664352417E-1   2.767643630504608E-1   2.330149561166763E-1   2.763223946094513E-1  -7.010496258735657E-1   5.878204703330994E-1  
 1.524000000000000E7    -7.018048167228699E-1   5.919807553291321E-1   2.331338524818420E-1   2.768338918685913E-1   2.334690093994141E-1   2.764445543289185E-1  -7.004551887512207E-1   5.884394645690918E-1  
 1.526000000000000E7    -7.014923691749573E-1   5.929128527641296E-1   2.343306243419647E-1   2.769814431667328E-1   2.342226803302765E-1   2.767473757266998E-1  -6.998189091682434E-1   5.891159176826477E-1  
 1.528000000000000E7    -7.006058096885681E-1   5.935518741607666E-1   2.346747219562531E-1   2.771811187267304E-1   2.350799143314362E-1   2.771210372447968E-1  -6.992699503898621E-1   5.897600650787354E-1  
 1.530000000000000E7    -7.001992464065552E-1   5.938159227371216E-1   2.348625361919403E-1   2.772120535373688E-1   2.353523820638657E-1   2.768960595130920E-1  -6.976419687271118E-1   5.896915793418884E-1  
 1.532000000000000E7    -6.993656158447266E-1   5.938517451286316E-1   2.354564070701599E-1   2.772509753704071E-1   2.358135432004929E-1   2.771288156509399E-1  -6.972289085388184E-1   5.903599858283997E-1  
 1.534000000000000E7    -6.984814405441284E-1   5.948926210403442E-1   2.361053079366684E-1   2.776525914669037E-1   2.362616658210754E-1   2.772792875766754E-1  -6.973799467086792E-1   5.906310677528381E-1  
 1.536000000000000E7    -6.980845332145691E-1   5.953812599182129E-1   2.366668432950974E-1   2.777810096740723E-1   2.370068281888962E-1   2.776149213314056E-1  -6.961321234703064E-1   5.915530323982239E-1  
 1.538000000000000E7    -6.972665786743164E-1   5.962067842483521E-1   2.374753952026367E-1   2.778630852699280E-1   2.375659644603729E-1   2.774533927440643E-1  -6.953660249710083E-1   5.918683409690857E-1  
 1.540000000000000E7    -6.964768767356873E-1   5.963786840438843E-1   2.377668619155884E-1   2.777933180332184E-1   2.380627244710922E-1   2.775436341762543E-1  -6.943709254264832E-1   5.924076437950134E-1  
 1.542000000000000E7    -6.956294178962708E-1   5.966169238090515E-1   2.385220527648926E-1   2.779062986373901E-1   2.386839985847473E-1   2.777947783470154E-1  -6.935068368911743E-1   5.932332277297974E-1  
 1.544000000000000E7    -6.953913569450378E-1   5.977717638015747E-1   2.392221689224243E-1   2.780970931053162E-1   2.392280697822571E-1   2.778578102588654E-1  -6.931398510932922E-1   5.934154391288757E-1  
 1.546000000000000E7    -6.946757435798645E-1   5.977659225463867E-1   2.397167980670929E-1   2.781104147434235E-1   2.401425242424011E-1   2.780907750129700E-1  -6.925017237663269E-1   5.941833257675171E-1  
 1.548000000000000E7    -6.938464641571045E-1   5.986911654472351E-1   2.403318732976914E-1   2.789017558097839E-1   2.405446320772171E-1   2.783415615558624E-1  -6.919607520103455E-1   5.949110388755798E-1  
 1.550000000000000E7    -6.929761171340942E-1   5.990457534790039E-1   2.407243102788925E-1   2.786918282508850E-1   2.407792210578919E-1   2.782269716262817E-1  -6.911764144897461E-1   5.951308012008667E-1  
 1.552000000000000E7    -6.924587488174439E-1   5.997399687767029E-1   2.415384650230408E-1   2.788740694522858E-1   2.416430115699768E-1   2.785768210887909E-1  -6.907283663749695E-1   5.955798625946045E-1  
 1.554000000000000E7    -6.922122836112976E-1   6.003158092498779E-1   2.414471954107285E-1   2.792872190475464E-1   2.424558997154236E-1   2.787110209465027E-1  -6.898204684257507E-1   5.965621471405029E-1  
 1.556000000000000E7    -6.912161111831665E-1   6.005036830902100E-1   2.423705458641052E-1   2.790957391262054E-1   2.425129115581513E-1   2.788705527782440E-1  -6.892696619033814E-1   5.963740348815918E-1  
 1.558000000000000E7    -6.910337805747986E-1   6.013393402099609E-1   2.430044859647751E-1   2.795536220073700E-1   2.436754405498505E-1   2.791705131530762E-1  -6.883504986763001E-1   5.974724292755127E-1  
 1.560000000000000E7    -6.896280050277710E-1   6.016896367073059E-1   2.435007393360138E-1   2.792532145977020E-1   2.440166175365448E-1   2.792828381061554E-1  -6.880886554718018E-1   5.980277061462402E-1  
 1.562000000000000E7    -6.890203952789307E-1   6.021302938461304E-1   2.441042810678482E-1   2.793602347373962E-1   2.439501285552979E-1   2.791128754615784E-1  -6.866137385368347E-1   5.977073907852173E-1  
 1.564000000000000E7    -6.884738206863403E-1   6.024810671806335E-1   2.445184886455536E-1   2.798556983470917E-1   2.448796182870865E-1   2.793423235416412E-1  -6.866185069084168E-1   5.980970859527588E-1  
 1.566000000000000E7    -6.877372860908508E-1   6.037204265594482E-1   2.454418540000916E-1   2.798099517822266E-1   2.454855442047119E-1   2.794440090656281E-1  -6.859139204025269E-1   5.985077023506165E-1  
 1.568000000000000E7    -6.870131492614746E-1   6.039953827857971E-1   2.461187243461609E-1   2.797449231147766E-1   2.460599839687347E-1   2.795512676239014E-1  -6.848419308662415E-1   5.998051166534424E-1  
 1.570000000000000E7    -6.863316297531128E-1   6.047092080116272E-1   2.468293905258179E-1   2.801747918128967E-1   2.467518448829651E-1   2.797242403030396E-1  -6.837786436080933E-1   6.006026268005371E-1  
 1.572000000000000E7    -6.852806210517883E-1   6.053857803344727E-1   2.469882220029831E-1   2.800232768058777E-1   2.478193342685700E-1   2.799468040466309E-1  -6.838192343711853E-1   6.006811261177063E-1  
 1.574000000000000E7    -6.848900318145752E-1   6.052885055541992E-1   2.476642429828644E-1   2.805269360542297E-1   2.479105591773987E-1   2.800442576408386E-1  -6.827839612960815E-1   6.014452576637268E-1  
 1.576000000000000E7    -6.842748522758484E-1   6.063668727874756E-1   2.484713792800903E-1   2.804243862628937E-1   2.486698627471924E-1   2.801776528358460E-1  -6.818978190422058E-1   6.016551256179810E-1  
 1.578000000000000E7    -6.835169792175293E-1   6.063114404678345E-1   2.485219240188599E-1   2.807815372943878E-1   2.485451549291611E-1   2.801800668239594E-1  -6.812863349914551E-1   6.022735834121704E-1  
 1.580000000000000E7    -6.824671030044556E-1   6.068557500839233E-1   2.495032250881195E-1   2.809138298034668E-1   2.496493905782700E-1   2.804780900478363E-1  -6.809662580490112E-1   6.031376719474793E-1  
 1.582000000000000E7    -6.818382143974304E-1   6.074792146682739E-1   2.498435080051422E-1   2.808195948600769E-1   2.502462565898895E-1   2.803002297878265E-1  -6.801471114158630E-1   6.037026047706604E-1  
 1.584000000000000E7    -6.811898350715637E-1   6.075583100318909E-1   2.504109740257263E-1   2.809997797012329E-1   2.507158517837524E-1   2.807562351226807E-1  -6.793286204338074E-1   6.040862798690796E-1  
 1.586000000000000E7    -6.806939244270325E-1   6.085603237152100E-1   2.511126697063446E-1   2.812240123748779E-1   2.512525916099548E-1   2.807451188564301E-1  -6.785492897033691E-1   6.043568253517151E-1  
 1.588000000000000E7    -6.798109412193298E-1   6.087323427200317E-1   2.517759501934052E-1   2.811831533908844E-1   2.520128190517426E-1   2.809292376041412E-1  -6.783326864242554E-1   6.048755645751953E-1  
 1.590000000000000E7    -6.790796518325806E-1   6.092035174369812E-1   2.522315680980682E-1   2.814893424510956E-1   2.523644864559174E-1   2.808640599250794E-1  -6.770852804183960E-1   6.052496433258057E-1  
 1.592000000000000E7    -6.781313419342041E-1   6.105771660804749E-1   2.529812455177307E-1   2.812012434005737E-1   2.530507147312164E-1   2.809053063392639E-1  -6.765725016593933E-1   6.057590842247009E-1  
 1.594000000000000E7    -6.774907112121582E-1   6.108649969100952E-1   2.534466683864594E-1   2.812688648700714E-1   2.539210617542267E-1   2.811090052127838E-1  -6.755520701408386E-1   6.060919165611267E-1  
 1.596000000000000E7    -6.771844029426575E-1   6.106953620910645E-1   2.542217671871185E-1   2.814447283744812E-1   2.536846995353699E-1   2.813644707202911E-1  -6.751849651336670E-1   6.070403456687927E-1  
 1.598000000000000E7    -6.758678555488586E-1   6.113882660865784E-1   2.545210719108582E-1   2.818534672260284E-1   2.545724809169769E-1   2.812877297401428E-1  -6.745293736457825E-1   6.079865694046021E-1  
 1.600000000000000E7    -6.757381558418274E-1   6.113451123237610E-1   2.552402317523956E-1   2.818663418292999E-1   2.552174031734467E-1   2.814664840698242E-1  -6.735026836395264E-1   6.083157062530518E-1  
 1.602000000000000E7    -6.752325296401978E-1   6.125740408897400E-1   2.558518648147583E-1   2.821033895015717E-1   2.560784816741943E-1   2.819863855838776E-1  -6.731451749801636E-1   6.089675426483154E-1  
 1.604000000000000E7    -6.739668250083923E-1   6.132369637489319E-1   2.563795149326325E-1   2.815023362636566E-1   2.563986778259277E-1   2.814827859401703E-1  -6.719782352447510E-1   6.087522506713867E-1  
 1.606000000000000E7    -6.733166575431824E-1   6.136652231216431E-1   2.569534778594971E-1   2.820072472095490E-1   2.572190165519714E-1   2.821634709835053E-1  -6.714903116226196E-1   6.097235679626465E-1  
 1.608000000000000E7    -6.729491353034973E-1   6.142656803131104E-1   2.572740316390991E-1   2.829129397869110E-1   2.576379477977753E-1   2.819788157939911E-1  -6.710352301597595E-1   6.097321510314941E-1  
 1.610000000000000E7    -6.723797321319580E-1   6.144889593124390E-1   2.584107816219330E-1   2.825275957584381E-1   2.585650682449341E-1   2.824791371822357E-1  -6.699930429458618E-1   6.107561588287354E-1  
 1.612000000000000E7    -6.713813543319702E-1   6.153166890144348E-1   2.587317526340485E-1   2.824656963348389E-1   2.591240108013153E-1   2.822117507457733E-1  -6.691698431968689E-1   6.109699010848999E-1  
 1.614000000000000E7    -6.707404255867004E-1   6.154420971870422E-1   2.590251863002777E-1   2.827260494232178E-1   2.593348324298859E-1   2.824010252952576E-1  -6.687246561050415E-1   6.116229295730591E-1  
 1.616000000000000E7    -6.697680950164795E-1   6.160433292388916E-1   2.599253058433533E-1   2.829822599887848E-1   2.602109909057617E-1   2.823330461978912E-1  -6.679063439369202E-1   6.124253869056702E-1  
 1.618000000000000E7    -6.691015958786011E-1   6.169673204421997E-1   2.604603767395020E-1   2.830605506896973E-1   2.610575854778290E-1   2.824371457099915E-1  -6.671355962753296E-1   6.128060817718506E-1  
 1.620000000000000E7    -6.682699918746948E-1   6.174070835113525E-1   2.613353729248047E-1   2.831996381282806E-1   2.615488469600678E-1   2.825235128402710E-1  -6.666046380996704E-1   6.130533218383789E-1  
 1.622000000000000E7    -6.680591702461243E-1   6.176897883415222E-1   2.616338431835175E-1   2.833170890808106E-1   2.619478404521942E-1   2.829378247261047E-1  -6.654853224754334E-1   6.137486100196838E-1  
 1.624000000000000E7    -6.669988632202148E-1   6.183494329452515E-1   2.625143527984619E-1   2.834567725658417E-1   2.624917626380920E-1   2.828795015811920E-1  -6.652150750160217E-1   6.142335534095764E-1  
 1.626000000000000E7    -6.658996939659119E-1   6.185035705566406E-1   2.626894712448120E-1   2.833479642868042E-1   2.630020976066589E-1   2.828493118286133E-1  -6.644648909568787E-1   6.150721907615662E-1  
 1.628000000000000E7    -6.655782461166382E-1   6.191129684448242E-1   2.634413838386536E-1   2.834495306015015E-1   2.634312212467194E-1   2.835372686386108E-1  -6.638037562370300E-1   6.151219606399536E-1  
 1.630000000000000E7    -6.648894548416138E-1   6.192123889923096E-1   2.640345096588135E-1   2.833466529846191E-1   2.643895447254181E-1   2.832025289535523E-1  -6.628409624099731E-1   6.156839728355408E-1  
 1.632000000000000E7    -6.642849445343018E-1   6.201216578483582E-1   2.644584774971008E-1   2.837803959846497E-1   2.644793689250946E-1   2.835985422134399E-1  -6.622699499130249E-1   6.157522201538086E-1  
 1.634000000000000E7    -6.636672019958496E-1   6.208458542823792E-1   2.654360830783844E-1   2.836998701095581E-1   2.652673423290253E-1   2.834996283054352E-1  -6.610239744186401E-1   6.162360906600952E-1  
 1.636000000000000E7    -6.624523997306824E-1   6.211035251617432E-1   2.659013271331787E-1   2.840108573436737E-1   2.659587860107422E-1   2.834953069686890E-1  -6.609076261520386E-1   6.173598766326904E-1  
 1.638000000000000E7    -6.619731187820435E-1   6.214796304702759E-1   2.663777768611908E-1   2.840685844421387E-1   2.664865851402283E-1   2.835275530815125E-1  -6.601683497428894E-1   6.172483563423157E-1  
 1.640000000000000E7    -6.611599922180176E-1   6.218855977058411E-1   2.667901813983917E-1   2.840073406696320E-1   2.671006917953491E-1   2.839249968528748E-1  -6.595544219017029E-1   6.185877919197083E-1  
 1.642000000000000E7    -6.603174805641174E-1   6.229278445243835E-1   2.677526175975800E-1   2.839156687259674E-1   2.680910825729370E-1   2.836402356624603E-1  -6.581785082817078E-1   6.187723278999329E-1  
 1.644000000000000E7    -6.595289111137390E-1   6.231567263603210E-1   2.680936753749847E-1   2.842339575290680E-1   2.688676714897156E-1   2.839419543743134E-1  -6.584165692329407E-1   6.190968751907349E-1  
 1.646000000000000E7    -6.589058637619019E-1   6.236762404441834E-1   2.685229182243347E-1   2.839174866676331E-1   2.688255608081818E-1   2.838007211685181E-1  -6.565762162208557E-1   6.190343499183655E-1  
 1.648000000000000E7    -6.582740545272827E-1   6.241014003753662E-1   2.690566778182983E-1   2.845672369003296E-1   2.696255743503571E-1   2.843066751956940E-1  -6.566758155822754E-1   6.198737621307373E-1  
 1.650000000000000E7    -6.576612591743469E-1   6.247964501380920E-1   2.702152729034424E-1   2.846625745296478E-1   2.703818976879120E-1   2.842541933059692E-1  -6.561881899833679E-1   6.203705072402954E-1  
 1.652000000000000E7    -6.571111083030701E-1   6.250272989273071E-1   2.707584500312805E-1   2.847826480865479E-1   2.707508504390717E-1   2.842656970024109E-1  -6.550633311271668E-1   6.210178136825562E-1  
 1.654000000000000E7    -6.562991142272949E-1   6.258718371391296E-1   2.711037397384644E-1   2.848591506481171E-1   2.713846862316132E-1   2.842682003974915E-1  -6.541188955307007E-1   6.216688156127930E-1  
 1.656000000000000E7    -6.550454497337341E-1   6.260610222816467E-1   2.716420292854309E-1   2.848694324493408E-1   2.718886733055115E-1   2.844055593013763E-1  -6.534811258316040E-1   6.217721700668335E-1  
 1.658000000000000E7    -6.543675065040588E-1   6.266390085220337E-1   2.719244062900543E-1   2.847487628459930E-1   2.725706696510315E-1   2.845167517662048E-1  -6.529200077056885E-1   6.224788427352905E-1  
 1.660000000000000E7    -6.538015604019165E-1   6.266255974769592E-1   2.725987732410431E-1   2.848555445671082E-1   2.728083431720734E-1   2.842968404293060E-1  -6.521005630493164E-1   6.230206489562988E-1  
 1.662000000000000E7    -6.529684662818909E-1   6.277886629104614E-1   2.736940383911133E-1   2.850684225559235E-1   2.738990783691406E-1   2.848862409591675E-1  -6.514154672622681E-1   6.234757900238037E-1  
 1.664000000000000E7    -6.523229479789734E-1   6.277579069137573E-1   2.738867998123169E-1   2.850270271301270E-1   2.746798396110535E-1   2.847692072391510E-1  -6.505992412567139E-1   6.238690614700317E-1  
 1.666000000000000E7    -6.516991257667542E-1   6.284537911415100E-1   2.747002840042114E-1   2.852322459220886E-1   2.748135924339294E-1   2.848446667194367E-1  -6.498728990554810E-1   6.241566538810730E-1  
 1.668000000000000E7    -6.513277292251587E-1   6.293048262596130E-1   2.756244838237763E-1   2.851020991802216E-1   2.754991054534912E-1   2.846331298351288E-1  -6.491506695747376E-1   6.248783469200134E-1  
 1.670000000000000E7    -6.498875617980957E-1   6.291465759277344E-1   2.759875953197479E-1   2.853759825229645E-1   2.759964764118195E-1   2.848700582981110E-1  -6.486743688583374E-1   6.251208186149597E-1  
 1.672000000000000E7    -6.494477987289429E-1   6.296724677085877E-1   2.766380012035370E-1   2.853764891624451E-1   2.767194509506226E-1   2.853354811668396E-1  -6.477518677711487E-1   6.258258223533630E-1  
 1.674000000000000E7    -6.486963033676148E-1   6.301550269126892E-1   2.770997285842896E-1   2.857253849506378E-1   2.774795889854431E-1   2.851774394512177E-1  -6.470533013343811E-1   6.264257431030273E-1  
 1.676000000000000E7    -6.481532454490662E-1   6.310029625892639E-1   2.779423594474793E-1   2.856428623199463E-1   2.779220938682556E-1   2.849816977977753E-1  -6.459234356880188E-1   6.267380118370056E-1  
 1.678000000000000E7    -6.472411751747131E-1   6.312530040740967E-1   2.778300940990448E-1   2.857168912887573E-1   2.782382369041443E-1   2.855359911918640E-1  -6.457146406173706E-1   6.273078322410584E-1  
 1.680000000000000E7    -6.463495492935181E-1   6.318440437316895E-1   2.791178524494171E-1   2.856524884700775E-1   2.790284454822540E-1   2.853720486164093E-1  -6.447216868400574E-1   6.278263330459595E-1  
 1.682000000000000E7    -6.459777951240540E-1   6.321313381195068E-1   2.798871994018555E-1   2.859204411506653E-1   2.796432077884674E-1   2.855829894542694E-1  -6.442246437072754E-1   6.280833482742310E-1  
 1.684000000000000E7    -6.451125741004944E-1   6.329286098480225E-1   2.803449034690857E-1   2.859057784080505E-1   2.802098989486694E-1   2.857539057731628E-1  -6.433813571929932E-1   6.287251710891724E-1  
 1.686000000000000E7    -6.443327665328980E-1   6.331310272216797E-1   2.808575034141541E-1   2.856996655464172E-1   2.808151841163635E-1   2.859548926353455E-1  -6.429694890975952E-1   6.289108991622925E-1  
 1.688000000000000E7    -6.435582637786865E-1   6.338869929313660E-1   2.813901305198669E-1   2.863457798957825E-1   2.817587256431580E-1   2.857463359832764E-1  -6.421737670898438E-1   6.299956440925598E-1  
 1.690000000000000E7    -6.432492733001709E-1   6.340528726577759E-1   2.817865610122681E-1   2.864896655082703E-1   2.819742262363434E-1   2.862658500671387E-1  -6.411803364753723E-1   6.299530863761902E-1  
 1.692000000000000E7    -6.422063708305359E-1   6.342933773994446E-1   2.826541066169739E-1   2.863723635673523E-1   2.827123403549194E-1   2.859254181385040E-1  -6.402195692062378E-1   6.310411691665649E-1  
 1.694000000000000E7    -6.418583393096924E-1   6.352361440658569E-1   2.832924723625183E-1   2.864381372928619E-1   2.835702002048492E-1   2.860958874225617E-1  -6.394424438476563E-1   6.310082674026489E-1  
 1.696000000000000E7    -6.408718824386597E-1   6.357481479644775E-1   2.837267816066742E-1   2.867720425128937E-1   2.839514613151550E-1   2.862480878829956E-1  -6.388755440711975E-1   6.313611268997192E-1  
 1.698000000000000E7    -6.398066282272339E-1   6.360327005386353E-1   2.844356894493103E-1   2.863653600215912E-1   2.849510014057159E-1   2.860910892486572E-1  -6.381969451904297E-1   6.316410303115845E-1  
 1.700000000000000E7    -6.397480964660645E-1   6.365926265716553E-1   2.850719690322876E-1   2.864326536655426E-1   2.852133810520172E-1   2.863245010375977E-1  -6.373298168182373E-1   6.322067379951477E-1  
 1.702000000000000E7    -6.385896205902100E-1   6.373595595359802E-1   2.858616709709168E-1   2.867322266101837E-1   2.858025729656220E-1   2.868273258209229E-1  -6.368891596794128E-1   6.333917975425720E-1  
 1.704000000000000E7    -6.377041935920715E-1   6.375021338462830E-1   2.861638665199280E-1   2.864820957183838E-1   2.864329516887665E-1   2.863847911357880E-1  -6.362735033035278E-1   6.332219243049622E-1  
 1.706000000000000E7    -6.366675496101379E-1   6.378772854804993E-1   2.867394387722015E-1   2.870628237724304E-1   2.871527075767517E-1   2.861966788768768E-1  -6.355924606323242E-1   6.341844797134399E-1  
 1.708000000000000E7    -6.364721059799194E-1   6.385551691055298E-1   2.879194617271423E-1   2.868742048740387E-1   2.875390946865082E-1   2.864663600921631E-1  -6.341629624366760E-1   6.343520283699036E-1  
 1.710000000000000E7    -6.355021595954895E-1   6.384816765785217E-1   2.880765199661255E-1   2.871938049793243E-1   2.879689931869507E-1   2.867876887321472E-1  -6.342339515686035E-1   6.351443529129028E-1  
 1.712000000000000E7    -6.349163651466370E-1   6.396812200546265E-1   2.889032363891602E-1   2.870908677577972E-1   2.888582646846771E-1   2.869316935539246E-1  -6.328294277191162E-1   6.352148652076721E-1  
 1.714000000000000E7    -6.338465213775635E-1   6.397556662559509E-1   2.891160845756531E-1   2.868311405181885E-1   2.894483208656311E-1   2.867779731750488E-1  -6.324644684791565E-1   6.358919739723206E-1  
 1.716000000000000E7    -6.331568956375122E-1   6.403058767318726E-1   2.903850078582764E-1   2.872527241706848E-1   2.899329662322998E-1   2.868874669075012E-1  -6.317661404609680E-1   6.365412473678589E-1  
 1.718000000000000E7    -6.327678561210632E-1   6.406586170196533E-1   2.904942929744721E-1   2.874433398246765E-1   2.905403077602387E-1   2.871716618537903E-1  -6.304824352264404E-1   6.365115046501160E-1  
 1.720000000000000E7    -6.317247748374939E-1   6.408145427703857E-1   2.910175025463104E-1   2.870351076126099E-1   2.911034524440765E-1   2.868818938732147E-1  -6.299908161163330E-1   6.372184753417969E-1  
 1.722000000000000E7    -6.308926939964294E-1   6.415845155715942E-1   2.918288111686707E-1   2.871659696102142E-1   2.919968962669373E-1   2.871253490447998E-1  -6.288621425628662E-1   6.378614306449890E-1  
 1.724000000000000E7    -6.298896670341492E-1   6.422545909881592E-1   2.923777997493744E-1   2.875578105449677E-1   2.925398647785187E-1   2.868514657020569E-1  -6.287034749984741E-1   6.376574635505676E-1  
 1.726000000000000E7    -6.293620467185974E-1   6.428354978561401E-1   2.928795218467712E-1   2.875134944915772E-1   2.929369807243347E-1   2.869153320789337E-1  -6.276699900627136E-1   6.383657455444336E-1  
 1.728000000000000E7    -6.287457942962647E-1   6.426405906677246E-1   2.936088740825653E-1   2.875600159168243E-1   2.934833467006683E-1   2.872279286384583E-1  -6.266943812370300E-1   6.389439702033997E-1  
 1.730000000000000E7    -6.275081038475037E-1   6.434817314147949E-1   2.941974401473999E-1   2.876549065113068E-1   2.940481603145599E-1   2.873948216438294E-1  -6.263733506202698E-1   6.391676068305969E-1  
 1.732000000000000E7    -6.269381046295166E-1   6.439271569252014E-1   2.946551740169525E-1   2.877473831176758E-1   2.953036427497864E-1   2.873350083827972E-1  -6.259182691574097E-1   6.400760412216187E-1  
 1.734000000000000E7    -6.269319057464600E-1   6.442250013351440E-1   2.954964041709900E-1   2.876239717006683E-1   2.957247197628021E-1   2.875424921512604E-1  -6.247320771217346E-1   6.401706337928772E-1  
 1.736000000000000E7    -6.258373856544495E-1   6.445804238319397E-1   2.957475781440735E-1   2.878035902976990E-1   2.960389852523804E-1   2.872386276721954E-1  -6.240971684455872E-1   6.411380171775818E-1  
 1.738000000000000E7    -6.246418952941895E-1   6.453353166580200E-1   2.965652346611023E-1   2.878954410552979E-1   2.968066930770874E-1   2.868330776691437E-1  -6.228990554809570E-1   6.409702301025391E-1  
 1.740000000000000E7    -6.244814991950989E-1   6.458123922348023E-1   2.975341677665710E-1   2.878428995609283E-1   2.970278263092041E-1   2.873422801494598E-1  -6.220562458038330E-1   6.416320800781250E-1  
 1.742000000000000E7    -6.232531666755676E-1   6.457578539848328E-1   2.979518175125122E-1   2.879687845706940E-1   2.976366877555847E-1   2.872511744499207E-1  -6.217013001441956E-1   6.419278383255005E-1  
 1.744000000000000E7    -6.229235529899597E-1   6.465430259704590E-1   2.989400923252106E-1   2.877454757690430E-1   2.983812093734741E-1   2.874736189842224E-1  -6.204838752746582E-1   6.421868205070496E-1  
 1.746000000000000E7    -6.225172281265259E-1   6.471622586250305E-1   2.994014024734497E-1   2.879678905010223E-1   2.991291284561157E-1   2.879910767078400E-1  -6.203603148460388E-1   6.429790258407593E-1  
 1.748000000000000E7    -6.209719181060791E-1   6.477750539779663E-1   2.997424602508545E-1   2.880063354969025E-1   2.999998331069946E-1   2.876867949962616E-1  -6.193385720252991E-1   6.432441473007202E-1  
 1.750000000000000E7    -6.203863024711609E-1   6.483570337295532E-1   3.000487387180328E-1   2.880134880542755E-1   3.000438213348389E-1   2.876906096935272E-1  -6.187267899513245E-1   6.433670520782471E-1  
 1.752000000000000E7    -6.197848916053772E-1   6.490476727485657E-1   3.010434210300446E-1   2.881063520908356E-1   3.011172711849213E-1   2.877437472343445E-1  -6.179665923118591E-1   6.442586779594421E-1  
 1.754000000000000E7    -6.192340254783630E-1   6.489703655242920E-1   3.018445968627930E-1   2.882333695888519E-1   3.016185760498047E-1   2.876946926116943E-1  -6.171935796737671E-1   6.450433135032654E-1  
 1.756000000000000E7    -6.181930303573608E-1   6.495093107223511E-1   3.022064566612244E-1   2.884496450424194E-1   3.025725483894348E-1   2.876314222812653E-1  -6.163010001182556E-1   6.451551318168640E-1  
 1.758000000000000E7    -6.175805330276489E-1   6.497608423233032E-1   3.025517463684082E-1   2.885616123676300E-1   3.027901649475098E-1   2.877445816993713E-1  -6.156231760978699E-1   6.453853845596314E-1  
 1.760000000000000E7    -6.169586777687073E-1   6.504852175712585E-1   3.033872842788696E-1   2.884614765644074E-1   3.037091791629791E-1   2.879762947559357E-1  -6.148873567581177E-1   6.459946036338806E-1  
 1.762000000000000E7    -6.158844828605652E-1   6.501657962799072E-1   3.042708635330200E-1   2.883667945861816E-1   3.042157292366028E-1   2.877769470214844E-1  -6.139129996299744E-1   6.463840603828430E-1  
 1.764000000000000E7    -6.152793169021606E-1   6.512442827224731E-1   3.049345314502716E-1   2.884316742420197E-1   3.045942485332489E-1   2.881609797477722E-1  -6.135020256042481E-1   6.468752622604370E-1  
 1.766000000000000E7    -6.145442128181458E-1   6.517292857170105E-1   3.054140806198120E-1   2.886278033256531E-1   3.053687810897827E-1   2.883836627006531E-1  -6.125457286834717E-1   6.474055647850037E-1  
 1.768000000000000E7    -6.137661337852478E-1   6.518552899360657E-1   3.057677447795868E-1   2.885221540927887E-1   3.059274554252625E-1   2.884851098060608E-1  -6.115803718566895E-1   6.477807760238648E-1  
 1.770000000000000E7    -6.127922534942627E-1   6.523910760879517E-1   3.063538968563080E-1   2.888607084751129E-1   3.066324889659882E-1   2.883896827697754E-1  -6.109318733215332E-1   6.482104063034058E-1  
 1.772000000000000E7    -6.122655272483826E-1   6.527460813522339E-1   3.069800436496735E-1   2.887052893638611E-1   3.073124289512634E-1   2.882181107997894E-1  -6.099128723144531E-1   6.484604477882385E-1  
 1.774000000000000E7    -6.110021471977234E-1   6.535828113555908E-1   3.077118396759033E-1   2.886181771755219E-1   3.083633482456207E-1   2.882749140262604E-1  -6.093391180038452E-1   6.489732861518860E-1  
 1.776000000000000E7    -6.104381084442139E-1   6.536273956298828E-1   3.083183169364929E-1   2.888042926788330E-1   3.083956837654114E-1   2.881623804569244E-1  -6.087962985038757E-1   6.495090126991272E-1  
 1.778000000000000E7    -6.098079681396484E-1   6.542083621025085E-1   3.089372813701630E-1   2.885226607322693E-1   3.090011179447174E-1   2.881493568420410E-1  -6.078013777732849E-1   6.498670578002930E-1  
 1.780000000000000E7    -6.089379787445068E-1   6.546648144721985E-1   3.093811273574829E-1   2.886577844619751E-1   3.099316954612732E-1   2.884041666984558E-1  -6.071895956993103E-1   6.504805684089661E-1  
 1.782000000000000E7    -6.083166003227234E-1   6.550696492195129E-1   3.101398050785065E-1   2.887438833713532E-1   3.100731670856476E-1   2.883857786655426E-1  -6.060887575149536E-1   6.505853533744812E-1  
 1.784000000000000E7    -6.074140071868897E-1   6.552205681800842E-1   3.111324310302734E-1   2.886771261692047E-1   3.109909892082214E-1   2.885090112686157E-1  -6.055842638015747E-1   6.515926718711853E-1  
 1.786000000000000E7    -6.064807772636414E-1   6.560675501823425E-1   3.114737570285797E-1   2.889629006385803E-1   3.114475607872009E-1   2.882886826992035E-1  -6.049560308456421E-1   6.513597965240479E-1  
 1.788000000000000E7    -6.059225797653198E-1   6.559858918190002E-1   3.123083114624023E-1   2.884888350963593E-1   3.120449781417847E-1   2.886660993099213E-1  -6.043326258659363E-1   6.525230407714844E-1  
 1.790000000000000E7    -6.053450107574463E-1   6.566590070724487E-1   3.126794993877411E-1   2.884526848793030E-1   3.129961490631104E-1   2.886758446693420E-1  -6.031166315078735E-1   6.528790593147278E-1  
 1.792000000000000E7    -6.044076681137085E-1   6.570899486541748E-1   3.133662939071655E-1   2.888736128807068E-1   3.134640753269196E-1   2.884313166141510E-1  -6.027388572692871E-1   6.527445912361145E-1  
 1.794000000000000E7    -6.037049293518066E-1   6.574972271919251E-1   3.138940036296845E-1   2.887856960296631E-1   3.143202066421509E-1   2.883744537830353E-1  -6.019994616508484E-1   6.533833146095276E-1  
 1.796000000000000E7    -6.027469038963318E-1   6.580965518951416E-1   3.144983351230621E-1   2.891486883163452E-1   3.149487972259522E-1   2.883905172348023E-1  -6.010937690734863E-1   6.539924740791321E-1  
 1.798000000000000E7    -6.025151610374451E-1   6.586176753044128E-1   3.153232038021088E-1   2.889534235000610E-1   3.154423832893372E-1   2.891743481159210E-1  -6.001965999603272E-1   6.541483998298645E-1  
 1.800000000000000E7    -6.012607812881470E-1   6.586596369743347E-1   3.161396384239197E-1   2.890664041042328E-1   3.160829246044159E-1   2.888381481170654E-1  -5.998094677925110E-1   6.549165844917297E-1  
 1.802000000000000E7    -6.009029150009155E-1   6.589637398719788E-1   3.163102865219116E-1   2.890361845493317E-1   3.168117105960846E-1   2.888202965259552E-1  -5.984591245651245E-1   6.550007462501526E-1  
 1.804000000000000E7    -5.990992188453674E-1   6.593450903892517E-1   3.171592652797699E-1   2.886552214622498E-1   3.173276782035828E-1   2.883723080158234E-1  -5.977827310562134E-1   6.552193760871887E-1  
 1.806000000000000E7    -5.990547537803650E-1   6.599670648574829E-1   3.175166845321655E-1   2.888059318065643E-1   3.176742196083069E-1   2.890105843544006E-1  -5.968890190124512E-1   6.555801630020142E-1  
 1.808000000000000E7    -5.986263155937195E-1   6.605274677276611E-1   3.183770775794983E-1   2.892175018787384E-1   3.182934522628784E-1   2.888474166393280E-1  -5.964186191558838E-1   6.561159491539002E-1  
 1.810000000000000E7    -5.975677371025085E-1   6.610252261161804E-1   3.192121088504791E-1   2.893388271331787E-1   3.189246058464050E-1   2.888184785842896E-1  -5.960724353790283E-1   6.564220190048218E-1  
 1.812000000000000E7    -5.969696640968323E-1   6.612768173217773E-1   3.194534480571747E-1   2.891556620597839E-1   3.198043406009674E-1   2.889104485511780E-1  -5.952029228210449E-1   6.573970317840576E-1  
 1.814000000000000E7    -5.958906412124634E-1   6.619771122932434E-1   3.206202387809753E-1   2.887400984764099E-1   3.203423619270325E-1   2.889661192893982E-1  -5.939297080039978E-1   6.576905846595764E-1  
 1.816000000000000E7    -5.951247811317444E-1   6.621940732002258E-1   3.209735155105591E-1   2.891916036605835E-1   3.209455907344818E-1   2.888980507850647E-1  -5.929563045501709E-1   6.582215428352356E-1  
 1.818000000000000E7    -5.940874218940735E-1   6.626632809638977E-1   3.214406073093414E-1   2.887201607227325E-1   3.216003775596619E-1   2.885393798351288E-1  -5.923054814338684E-1   6.582084894180298E-1  
 1.820000000000000E7    -5.932256579399109E-1   6.627573966979981E-1   3.219353854656220E-1   2.891146838665009E-1   3.223886489868164E-1   2.887225747108460E-1  -5.916966795921326E-1   6.584533452987671E-1  
 1.822000000000000E7    -5.930061340332031E-1   6.632348299026489E-1   3.227959871292114E-1   2.893282771110535E-1   3.227664828300476E-1   2.890406250953674E-1  -5.908811688423157E-1   6.587963700294495E-1  
 1.824000000000000E7    -5.913013815879822E-1   6.636372208595276E-1   3.232546150684357E-1   2.892416119575501E-1   3.236427307128906E-1   2.885326445102692E-1  -5.898634791374207E-1   6.594325304031372E-1  
 1.826000000000000E7    -5.913205742835999E-1   6.644690036773682E-1   3.241398036479950E-1   2.893601953983307E-1   3.241224288940430E-1   2.886943817138672E-1  -5.892875790596008E-1   6.598142385482788E-1  
 1.828000000000000E7    -5.907319784164429E-1   6.647616624832153E-1   3.246258795261383E-1   2.892234325408936E-1   3.250757157802582E-1   2.890008389949799E-1  -5.887171030044556E-1   6.604577898979187E-1  
 1.830000000000000E7    -5.893387794494629E-1   6.650068163871765E-1   3.254349231719971E-1   2.895042002201080E-1   3.252950310707092E-1   2.889874279499054E-1  -5.879911780357361E-1   6.608290076255798E-1  
 1.832000000000000E7    -5.886890888214111E-1   6.654574275016785E-1   3.260981440544128E-1   2.890660762786865E-1   3.258563578128815E-1   2.888239324092865E-1  -5.870648622512817E-1   6.612491607666016E-1  
 1.834000000000000E7    -5.877938866615295E-1   6.658421158790588E-1   3.265867829322815E-1   2.894855439662933E-1   3.265305757522583E-1   2.886561453342438E-1  -5.862746834754944E-1   6.615714430809021E-1  
 1.836000000000000E7    -5.872756242752075E-1   6.665596961975098E-1   3.272332847118378E-1   2.891747355461121E-1   3.273362517356873E-1   2.893321514129639E-1  -5.854502916336060E-1   6.617795825004578E-1  
 1.838000000000000E7    -5.866168737411499E-1   6.668586730957031E-1   3.282270431518555E-1   2.892837226390839E-1   3.278975784778595E-1   2.887899875640869E-1  -5.848402976989746E-1   6.623426675796509E-1  
 1.840000000000000E7    -5.854075551033020E-1   6.666985154151917E-1   3.283720016479492E-1   2.894029915332794E-1   3.282945454120636E-1   2.885996699333191E-1  -5.839924216270447E-1   6.625180840492249E-1  
 1.842000000000000E7    -5.845775008201599E-1   6.674036383628845E-1   3.295749723911285E-1   2.892385721206665E-1   3.293053507804871E-1   2.888419032096863E-1  -5.831848978996277E-1   6.630845665931702E-1  
 1.844000000000000E7    -5.840989351272583E-1   6.675950884819031E-1   3.296091854572296E-1   2.892524898052216E-1   3.294357657432556E-1   2.887060642242432E-1  -5.823360085487366E-1   6.633406877517700E-1  
 1.846000000000000E7    -5.832250118255615E-1   6.682119369506836E-1   3.299967944622040E-1   2.892536520957947E-1   3.302813470363617E-1   2.888196408748627E-1  -5.810511112213135E-1   6.635744571685791E-1  
 1.848000000000000E7    -5.821933150291443E-1   6.683309078216553E-1   3.307679891586304E-1   2.892013192176819E-1   3.310373127460480E-1   2.886686325073242E-1  -5.810726881027222E-1   6.638829112052918E-1  
 1.850000000000000E7    -5.820908546447754E-1   6.691132783889771E-1   3.316110372543335E-1   2.892313301563263E-1   3.316794633865356E-1   2.890403568744659E-1  -5.797543525695801E-1   6.642826199531555E-1  
 1.852000000000000E7    -5.808408260345459E-1   6.691854596138001E-1   3.320878148078919E-1   2.897967994213104E-1   3.323782086372376E-1   2.888963222503662E-1  -5.796102881431580E-1   6.652378439903259E-1  
 1.854000000000000E7    -5.802342891693115E-1   6.696702241897583E-1   3.332016170024872E-1   2.891066968441010E-1   3.331978619098663E-1   2.891942560672760E-1  -5.786979794502258E-1   6.657588481903076E-1  
 1.856000000000000E7    -5.790514349937439E-1   6.701185703277588E-1   3.339157104492188E-1   2.887947559356690E-1   3.337147831916809E-1   2.886423766613007E-1  -5.778628587722778E-1   6.661775708198547E-1  
 1.858000000000000E7    -5.789252519607544E-1   6.707231998443604E-1   3.344428539276123E-1   2.889703512191773E-1   3.345715999603272E-1   2.888945937156677E-1  -5.768273472785950E-1   6.660426259040833E-1  
 1.860000000000000E7    -5.779327750205994E-1   6.706722378730774E-1   3.348997831344605E-1   2.892486453056335E-1   3.349288702011108E-1   2.890102565288544E-1  -5.764168500900269E-1   6.667841076850891E-1  
 1.862000000000000E7    -5.770428776741028E-1   6.715233325958252E-1   3.356924355030060E-1   2.896969616413117E-1   3.356824219226837E-1   2.890469133853912E-1  -5.759502053260803E-1   6.670899987220764E-1  
 1.864000000000000E7    -5.758169293403626E-1   6.717399358749390E-1   3.364424705505371E-1   2.890771627426148E-1   3.361189961433411E-1   2.889558672904968E-1  -5.746175050735474E-1   6.677828431129456E-1  
 1.866000000000000E7    -5.754936337471008E-1   6.723157763481140E-1   3.367311656475067E-1   2.892051935195923E-1   3.371343016624451E-1   2.889310121536255E-1  -5.738463997840881E-1   6.679140925407410E-1  
 1.868000000000000E7    -5.746816992759705E-1   6.723674535751343E-1   3.374229967594147E-1   2.887513637542725E-1   3.373258113861084E-1   2.887464463710785E-1  -5.724840760231018E-1   6.677376627922058E-1  
 1.870000000000000E7    -5.736061930656433E-1   6.727563738822937E-1   3.379235267639160E-1   2.889458239078522E-1   3.383009433746338E-1   2.889779806137085E-1  -5.718178153038025E-1   6.685487627983093E-1  
 1.872000000000000E7    -5.726906657218933E-1   6.734266877174377E-1   3.385837972164154E-1   2.890912592411041E-1   3.386861681938171E-1   2.889561653137207E-1  -5.713693499565125E-1   6.691172719001770E-1  
 1.874000000000000E7    -5.719177126884460E-1   6.737043857574463E-1   3.394256234169006E-1   2.890853881835938E-1   3.392989039421082E-1   2.885889708995819E-1  -5.706853866577148E-1   6.692916154861450E-1  
 1.876000000000000E7    -5.711059570312500E-1   6.737286448478699E-1   3.400418162345886E-1   2.890219390392304E-1   3.397658467292786E-1   2.884087860584259E-1  -5.695042014122009E-1   6.697413921356201E-1  
 1.878000000000000E7    -5.706514120101929E-1   6.741956472396851E-1   3.406814932823181E-1   2.893547713756561E-1   3.405126929283142E-1   2.889491617679596E-1  -5.686442852020264E-1   6.707264780998230E-1  
 1.880000000000000E7    -5.695909261703491E-1   6.747800111770630E-1   3.414375185966492E-1   2.887099981307983E-1   3.412708342075348E-1   2.885859012603760E-1  -5.683050155639648E-1   6.703354120254517E-1  
 1.882000000000000E7    -5.686762332916260E-1   6.754084229469299E-1   3.423143625259399E-1   2.893322110176086E-1   3.418582975864410E-1   2.889526784420013E-1  -5.671145915985107E-1   6.711584329605103E-1  
 1.884000000000000E7    -5.681669712066650E-1   6.754560470581055E-1   3.425849676132202E-1   2.892010807991028E-1   3.425625264644623E-1   2.886718809604645E-1  -5.663827657699585E-1   6.717199087142944E-1  
 1.886000000000000E7    -5.675202608108521E-1   6.765584349632263E-1   3.433703780174255E-1   2.891112565994263E-1   3.431393802165985E-1   2.887973785400391E-1  -5.660955905914307E-1   6.715321540832520E-1  
 1.888000000000000E7    -5.666233301162720E-1   6.767222285270691E-1   3.437145650386810E-1   2.891622483730316E-1   3.440206944942474E-1   2.888787388801575E-1  -5.651175379753113E-1   6.719254255294800E-1  
 1.890000000000000E7    -5.656499266624451E-1   6.765012145042419E-1   3.443209528923035E-1   2.890142202377319E-1   3.444508016109467E-1   2.886781394481659E-1  -5.642454028129578E-1   6.727440357208252E-1  
 1.892000000000000E7    -5.650589466094971E-1   6.771069765090942E-1   3.450908958911896E-1   2.887498140335083E-1   3.447409272193909E-1   2.886062264442444E-1  -5.630232691764832E-1   6.730828285217285E-1  
 1.894000000000000E7    -5.640553832054138E-1   6.773267388343811E-1   3.458774685859680E-1   2.889707982540131E-1   3.455964326858521E-1   2.886085212230682E-1  -5.623976588249207E-1   6.731481552124023E-1  
 1.896000000000000E7    -5.635979771614075E-1   6.779854893684387E-1   3.463899195194244E-1   2.886543869972229E-1   3.461222052574158E-1   2.885341048240662E-1  -5.615246891975403E-1   6.734422445297241E-1  
 1.898000000000000E7    -5.628404617309570E-1   6.780398488044739E-1   3.467912673950195E-1   2.888475358486176E-1   3.471285700798035E-1   2.887483537197113E-1  -5.607336163520813E-1   6.740998029708862E-1  
 1.900000000000000E7    -5.622298121452332E-1   6.783686876296997E-1   3.477296531200409E-1   2.889135479927063E-1   3.474593758583069E-1   2.890008389949799E-1  -5.602773427963257E-1   6.739598512649536E-1  
 1.902000000000000E7    -5.609446763992310E-1   6.788648366928101E-1   3.484896123409271E-1   2.884842157363892E-1   3.483922481536865E-1   2.886190116405487E-1  -5.594472885131836E-1   6.745718121528626E-1  
 1.904000000000000E7    -5.603255033493042E-1   6.792643070220947E-1   3.493826389312744E-1   2.887345850467682E-1   3.489780128002167E-1   2.884901463985443E-1  -5.579981207847595E-1   6.746346354484558E-1  
 1.906000000000000E7    -5.593999028205872E-1   6.797519922256470E-1   3.499534726142883E-1   2.887937128543854E-1   3.495335280895233E-1   2.887597084045410E-1  -5.577358603477478E-1   6.755791902542114E-1  
 1.908000000000000E7    -5.588852763175964E-1   6.804240942001343E-1   3.499791920185089E-1   2.888635098934174E-1   3.506053090095520E-1   2.888762950897217E-1  -5.572001934051514E-1   6.755484938621521E-1  
 1.910000000000000E7    -5.579609274864197E-1   6.804811954498291E-1   3.509506881237030E-1   2.886120975017548E-1   3.508775234222412E-1   2.884021997451782E-1  -5.562303662300110E-1   6.762569546699524E-1  
 1.912000000000000E7    -5.566027760505676E-1   6.809363365173340E-1   3.516862392425537E-1   2.889532744884491E-1   3.518925309181213E-1   2.884009480476379E-1  -5.557115674018860E-1   6.761250495910645E-1  
 1.914000000000000E7    -5.560954809188843E-1   6.810496449470520E-1   3.518800735473633E-1   2.882392704486847E-1   3.521917462348938E-1   2.881753742694855E-1  -5.545022487640381E-1   6.770473718643189E-1  
 1.916000000000000E7    -5.553672313690186E-1   6.814285516738892E-1   3.528816699981690E-1   2.891203463077545E-1   3.530036509037018E-1   2.885684072971344E-1  -5.539045333862305E-1   6.772166490554810E-1  
 1.918000000000000E7    -5.543652772903442E-1   6.819031834602356E-1   3.533689975738525E-1   2.885889410972595E-1   3.535702824592590E-1   2.884226739406586E-1  -5.529123544692993E-1   6.775883436203003E-1  
 1.920000000000000E7    -5.536836981773377E-1   6.820930838584900E-1   3.545058369636536E-1   2.883756458759308E-1   3.544390201568604E-1   2.884422838687897E-1  -5.521631240844727E-1   6.777314543724060E-1  
 1.922000000000000E7    -5.524355173110962E-1   6.826280355453491E-1   3.549016714096069E-1   2.885225415229797E-1   3.548126220703125E-1   2.877940237522125E-1  -5.511986613273621E-1   6.784653067588806E-1  
 1.924000000000000E7    -5.521661043167114E-1   6.831482052803040E-1   3.554255962371826E-1   2.884355783462524E-1   3.556212782859802E-1   2.881165742874146E-1  -5.506104230880737E-1   6.783088445663452E-1  
 1.926000000000000E7    -5.512509346008301E-1   6.835947036743164E-1   3.561934232711792E-1   2.882744967937470E-1   3.559236228466034E-1   2.879807949066162E-1  -5.498483180999756E-1   6.786354780197144E-1  
 1.928000000000000E7    -5.505726337432861E-1   6.837034225463867E-1   3.567030429840088E-1   2.884997725486755E-1   3.564171791076660E-1   2.881815731525421E-1  -5.493417382240295E-1   6.789247393608093E-1  
 1.930000000000000E7    -5.500064492225647E-1   6.839417219161987E-1   3.575640320777893E-1   2.885438203811646E-1   3.571380376815796E-1   2.882099449634552E-1  -5.483027696609497E-1   6.795910000801086E-1  
 1.932000000000000E7    -5.490784645080566E-1   6.838573217391968E-1   3.582794070243835E-1   2.881084382534027E-1   3.580400645732880E-1   2.878799140453339E-1  -5.469667911529541E-1   6.800786256790161E-1  
 1.934000000000000E7    -5.481954216957092E-1   6.848327517509460E-1   3.588845431804657E-1   2.883465290069580E-1   3.587598204612732E-1   2.879250645637512E-1  -5.468207597732544E-1   6.800205111503601E-1  
 1.936000000000000E7    -5.474444627761841E-1   6.849451065063477E-1   3.593500256538391E-1   2.881009876728058E-1   3.592176139354706E-1   2.882345914840698E-1  -5.455290675163269E-1   6.807002425193787E-1  
 1.938000000000000E7    -5.466172695159912E-1   6.855219006538391E-1   3.602772355079651E-1   2.879994809627533E-1   3.597798347473145E-1   2.877905070781708E-1  -5.449430942535400E-1   6.807666420936585E-1  
 1.940000000000000E7    -5.460692644119263E-1   6.857882738113403E-1   3.603604435920715E-1   2.882318496704102E-1   3.607342541217804E-1   2.880370020866394E-1  -5.439968705177307E-1   6.815778017044067E-1  
 1.942000000000000E7    -5.448906421661377E-1   6.860387921333313E-1   3.611012399196625E-1   2.882150411605835E-1   3.611846268177033E-1   2.877063751220703E-1  -5.436506867408752E-1   6.814047694206238E-1  
 1.944000000000000E7    -5.439226031303406E-1   6.866882443428040E-1   3.619517385959625E-1   2.877601683139801E-1   3.621138632297516E-1   2.875796854496002E-1  -5.424525737762451E-1   6.818327903747559E-1  
 1.946000000000000E7    -5.431527495384216E-1   6.864780783653259E-1   3.626194000244141E-1   2.877125442028046E-1   3.623783588409424E-1   2.874186038970947E-1  -5.415795445442200E-1   6.825375556945801E-1  
 1.948000000000000E7    -5.422654747962952E-1   6.871265769004822E-1   3.637196123600006E-1   2.877785563468933E-1   3.634401559829712E-1   2.874075770378113E-1  -5.408980250358582E-1   6.828110218048096E-1  
 1.950000000000000E7    -5.418687462806702E-1   6.875972747802734E-1   3.636156022548676E-1   2.876770496368408E-1   3.637270331382752E-1   2.872495055198669E-1  -5.398370027542114E-1   6.824744939804077E-1  
 1.952000000000000E7    -5.410462617874146E-1   6.881953477859497E-1   3.646122813224793E-1   2.880549728870392E-1   3.644323647022247E-1   2.874404788017273E-1  -5.393072962760925E-1   6.832954287528992E-1  
 1.954000000000000E7    -5.399702191352844E-1   6.883648037910461E-1   3.647985458374023E-1   2.880845367908478E-1   3.652679324150085E-1   2.872331738471985E-1  -5.389286875724793E-1   6.835159063339233E-1  
 1.956000000000000E7    -5.393574237823486E-1   6.886849999427795E-1   3.658049702644348E-1   2.878147959709168E-1   3.662091493606567E-1   2.873550057411194E-1  -5.374555587768555E-1   6.838378906250000E-1  
 1.958000000000000E7    -5.386071205139160E-1   6.890111565589905E-1   3.665534555912018E-1   2.880167365074158E-1   3.667415380477905E-1   2.873403728008270E-1  -5.367606282234192E-1   6.844429373741150E-1  
 1.960000000000000E7    -5.372354388237000E-1   6.893692016601563E-1   3.672491908073425E-1   2.876425683498383E-1   3.676985502243042E-1   2.871587276458740E-1  -5.363138914108276E-1   6.849744319915772E-1  
 1.962000000000000E7    -5.367718935012817E-1   6.896067857742310E-1   3.677813112735748E-1   2.877029180526733E-1   3.675950169563294E-1   2.874904870986939E-1  -5.352441668510437E-1   6.852065324783325E-1  
 1.964000000000000E7    -5.361789464950562E-1   6.898868083953857E-1   3.682808876037598E-1   2.871744334697723E-1   3.686186075210571E-1   2.872158288955689E-1  -5.342556834220886E-1   6.855373382568359E-1  
 1.966000000000000E7    -5.350883007049561E-1   6.903904080390930E-1   3.694214224815369E-1   2.877135574817658E-1   3.694190979003906E-1   2.869990170001984E-1  -5.333167314529419E-1   6.855654120445252E-1  
 1.968000000000000E7    -5.343320965766907E-1   6.903693675994873E-1   3.696261048316956E-1   2.878282666206360E-1   3.697045445442200E-1   2.876977920532227E-1  -5.327317118644714E-1   6.863163709640503E-1  
 1.970000000000000E7    -5.332829356193543E-1   6.904151439666748E-1   3.707068860530853E-1   2.874583601951599E-1   3.702111542224884E-1   2.871024906635284E-1  -5.318360328674316E-1   6.864949464797974E-1  
 1.972000000000000E7    -5.330299139022827E-1   6.914120912551880E-1   3.711722195148468E-1   2.874362468719482E-1   3.713583648204804E-1   2.872535288333893E-1  -5.312250256538391E-1   6.865079998970032E-1  
 1.974000000000000E7    -5.314835309982300E-1   6.912055611610413E-1   3.717027306556702E-1   2.869340181350708E-1   3.717149198055267E-1   2.867582738399506E-1  -5.301241874694824E-1   6.872743368148804E-1  
 1.976000000000000E7    -5.308282375335693E-1   6.916201114654541E-1   3.721894323825836E-1   2.869043350219727E-1   3.726165592670441E-1   2.868997454643250E-1  -5.294127464294434E-1   6.871932148933411E-1  
 1.978000000000000E7    -5.302110314369202E-1   6.922160387039185E-1   3.732624351978302E-1   2.873482108116150E-1   3.730608820915222E-1   2.868071198463440E-1  -5.285586118698120E-1   6.872700452804565E-1  
 1.980000000000000E7    -5.293413400650024E-1   6.921299695968628E-1   3.739534616470337E-1   2.872036397457123E-1   3.735431730747223E-1   2.866865396499634E-1  -5.277709364891052E-1   6.882458329200745E-1  
 1.982000000000000E7    -5.288122892379761E-1   6.924023628234863E-1   3.746309280395508E-1   2.869780957698822E-1   3.742873966693878E-1   2.866121530532837E-1  -5.272580981254578E-1   6.884862780570984E-1  
 1.984000000000000E7    -5.277354121208191E-1   6.928688287734985E-1   3.745243549346924E-1   2.870841920375824E-1   3.750559985637665E-1   2.866034805774689E-1  -5.262166261672974E-1   6.882493495941162E-1  
 1.986000000000000E7    -5.268051624298096E-1   6.932772397994995E-1   3.752353787422180E-1   2.869786024093628E-1   3.757814168930054E-1   2.866126596927643E-1  -5.255661606788635E-1   6.885256767272949E-1  
 1.988000000000000E7    -5.258259177207947E-1   6.937373876571655E-1   3.768996298313141E-1   2.867743670940399E-1   3.763646483421326E-1   2.859842479228973E-1  -5.249375104904175E-1   6.894136667251587E-1  
 1.990000000000000E7    -5.252746939659119E-1   6.944342851638794E-1   3.767557740211487E-1   2.864186167716980E-1   3.769358396530151E-1   2.861820459365845E-1  -5.240403413772583E-1   6.894800662994385E-1  
 1.992000000000000E7    -5.243180990219116E-1   6.945635676383972E-1   3.776040971279144E-1   2.864005267620087E-1   3.779434263706207E-1   2.861537337303162E-1  -5.228121876716614E-1   6.904307603836060E-1  
 1.994000000000000E7    -5.234617590904236E-1   6.946247816085815E-1   3.784711658954620E-1   2.867536544799805E-1   3.783153891563416E-1   2.858338356018066E-1  -5.225433111190796E-1   6.904181241989136E-1  
 1.996000000000000E7    -5.227961540222168E-1   6.946649551391602E-1   3.788944184780121E-1   2.861194908618927E-1   3.788353502750397E-1   2.860120236873627E-1  -5.212509036064148E-1   6.907764077186585E-1  
 1.998000000000000E7    -5.220755338668823E-1   6.951203346252441E-1   3.794462680816650E-1   2.865047454833984E-1   3.794077634811401E-1   2.860264182090759E-1  -5.207303762435913E-1   6.910234689712524E-1  
 2.000000000000000E7    -5.210167765617371E-1   6.953598260879517E-1   3.803435862064362E-1   2.862194776535034E-1   3.798990249633789E-1   2.856098711490631E-1  -5.195606350898743E-1   6.915888190269470E-1  
 2.002000000000000E7    -5.214520096778870E-1   6.939141750335693E-1   3.802217245101929E-1   2.868660688400269E-1   3.799396455287933E-1   2.866457402706146E-1  -5.204235315322876E-1   6.893954873085022E-1  
 2.004000000000000E7    -5.206723213195801E-1   6.946856975555420E-1   3.807490766048431E-1   2.867717742919922E-1   3.802268505096436E-1   2.865075767040253E-1  -5.194019675254822E-1   6.896718144416809E-1  
 2.006000000000000E7    -5.192848443984985E-1   6.947362422943115E-1   3.812731504440308E-1   2.868225574493408E-1   3.812291622161865E-1   2.865940034389496E-1  -5.187675952911377E-1   6.896581053733826E-1  
 2.008000000000000E7    -5.187993049621582E-1   6.950226426124573E-1   3.820487558841705E-1   2.867297530174255E-1   3.814767003059387E-1   2.863091826438904E-1  -5.175713896751404E-1   6.904518604278565E-1  
 2.010000000000000E7    -5.181021690368652E-1   6.952182054519653E-1   3.825044333934784E-1   2.862617373466492E-1   3.822386562824249E-1   2.865096032619476E-1  -5.167870521545410E-1   6.908010244369507E-1  
 2.012000000000000E7    -5.171144604682922E-1   6.955657005310059E-1   3.830940723419190E-1   2.864582836627960E-1   3.828741908073425E-1   2.862230837345123E-1  -5.159699916839600E-1   6.910710334777832E-1  
 2.014000000000000E7    -5.159428119659424E-1   6.958516240119934E-1   3.839162886142731E-1   2.867127954959869E-1   3.835743367671967E-1   2.862177789211273E-1  -5.154533982276917E-1   6.914131641387940E-1  
 2.016000000000000E7    -5.153373479843140E-1   6.961742043495178E-1   3.847195506095886E-1   2.866538763046265E-1   3.844474852085114E-1   2.860532701015472E-1  -5.145380496978760E-1   6.918373107910156E-1  
 2.018000000000000E7    -5.147508978843689E-1   6.963937878608704E-1   3.856181502342224E-1   2.858299016952515E-1   3.850790262222290E-1   2.858761548995972E-1  -5.137066841125488E-1   6.920727491378784E-1  
 2.020000000000000E7    -5.138640999794006E-1   6.966426372528076E-1   3.861742615699768E-1   2.864588201045990E-1   3.856481611728668E-1   2.857998013496399E-1  -5.123469829559326E-1   6.919347643852234E-1  
 2.022000000000000E7    -5.130401253700256E-1   6.972010135650635E-1   3.871881961822510E-1   2.862010002136231E-1   3.860859274864197E-1   2.856636345386505E-1  -5.120533704757690E-1   6.928740739822388E-1  
 2.024000000000000E7    -5.125709176063538E-1   6.974764466285706E-1   3.870820701122284E-1   2.860163450241089E-1   3.871161639690399E-1   2.859260141849518E-1  -5.110207200050354E-1   6.932131052017212E-1  
 2.026000000000000E7    -5.113934874534607E-1   6.983159184455872E-1   3.878365755081177E-1   2.857764661312103E-1   3.879520297050476E-1   2.861169576644898E-1  -5.104161500930786E-1   6.934226751327515E-1  
 2.028000000000000E7    -5.110611915588379E-1   6.983811259269714E-1   3.886780142784119E-1   2.858414947986603E-1   3.883869946002960E-1   2.855567932128906E-1  -5.092919468879700E-1   6.936446428298950E-1  
 2.030000000000000E7    -5.100972652435303E-1   6.986400485038757E-1   3.888219296932221E-1   2.857177555561066E-1   3.892717957496643E-1   2.855541110038757E-1  -5.088697671890259E-1   6.934412717819214E-1  
 2.032000000000000E7    -5.091020464897156E-1   6.986517310142517E-1   3.899847269058228E-1   2.861039638519287E-1   3.899517953395844E-1   2.854776680469513E-1  -5.077518820762634E-1   6.942894458770752E-1  
 2.034000000000000E7    -5.078938603401184E-1   6.991809606552124E-1   3.910412490367889E-1   2.860292196273804E-1   3.904864490032196E-1   2.855763435363770E-1  -5.073056817054749E-1   6.947377324104309E-1  
 2.036000000000000E7    -5.073916912078857E-1   6.994661092758179E-1   3.910644650459290E-1   2.857055068016052E-1   3.908879756927490E-1   2.852146029472351E-1  -5.065420269966126E-1   6.947618722915649E-1  
 2.038000000000000E7    -5.063167214393616E-1   6.994783282279968E-1   3.919923007488251E-1   2.854825854301453E-1   3.919877111911774E-1   2.852769494056702E-1  -5.053572654724121E-1   6.951476931571960E-1  
 2.040000000000000E7    -5.054636001586914E-1   7.005367875099182E-1   3.924699127674103E-1   2.849330008029938E-1   3.922639489173889E-1   2.850022315979004E-1  -5.047674775123596E-1   6.949657201766968E-1  
 2.042000000000000E7    -5.041970610618591E-1   7.007270455360413E-1   3.933280706405640E-1   2.854264974594116E-1   3.926344215869904E-1   2.845561206340790E-1  -5.044415593147278E-1   6.956100463867188E-1  
 2.044000000000000E7    -5.037600398063660E-1   7.008216977119446E-1   3.939220011234283E-1   2.853908836841583E-1   3.934859037399292E-1   2.849296033382416E-1  -5.028918981552124E-1   6.958556175231934E-1  
 2.046000000000000E7    -5.028532743453980E-1   7.012951970100403E-1   3.946620225906372E-1   2.850327491760254E-1   3.945358097553253E-1   2.845407426357269E-1  -5.022585988044739E-1   6.958027482032776E-1  
 2.048000000000000E7    -5.025123357772827E-1   7.016925215721130E-1   3.953731656074524E-1   2.847495377063751E-1   3.953663706779480E-1   2.847482562065125E-1  -5.013582706451416E-1   6.962198019027710E-1  
 2.050000000000000E7    -5.015736222267151E-1   7.016026973724365E-1   3.960922360420227E-1   2.849259674549103E-1   3.960209488868713E-1   2.847319543361664E-1  -5.005607604980469E-1   6.966522932052612E-1  
 2.052000000000000E7    -5.004689693450928E-1   7.017017602920532E-1   3.966856002807617E-1   2.845385074615479E-1   3.962559700012207E-1   2.841929197311401E-1  -4.996290802955627E-1   6.968345046043396E-1  
 2.054000000000000E7    -4.996968805789948E-1   7.022204995155335E-1   3.971698880195618E-1   2.845258712768555E-1   3.967860639095306E-1   2.843583524227142E-1  -4.989649057388306E-1   6.971220374107361E-1  
 2.056000000000000E7    -4.988561570644379E-1   7.023412585258484E-1   3.977512717247009E-1   2.845418751239777E-1   3.974995017051697E-1   2.841926217079163E-1  -4.983471930027008E-1   6.977895498275757E-1  
 2.058000000000000E7    -4.980368912220001E-1   7.032077908515930E-1   3.981693387031555E-1   2.845057845115662E-1   3.980486989021301E-1   2.840240597724915E-1  -4.974558055400848E-1   6.976971626281738E-1  
 2.060000000000000E7    -4.974403679370880E-1   7.031345963478088E-1   3.989759683609009E-1   2.840668261051178E-1   3.990231156349182E-1   2.838345766067505E-1  -4.964199066162109E-1   6.981813311576843E-1  
 2.062000000000000E7    -4.964919984340668E-1   7.030191421508789E-1   3.999300003051758E-1   2.841987609863281E-1   3.995600044727325E-1   2.837983369827271E-1  -4.956355392932892E-1   6.986185908317566E-1  
 2.064000000000000E7    -4.954460859298706E-1   7.035436630249023E-1   4.005578458309174E-1   2.838210165500641E-1   4.004193842411041E-1   2.834798693656921E-1  -4.946759045124054E-1   6.987881064414978E-1  
 2.066000000000000E7    -4.947076737880707E-1   7.039910554885864E-1   4.011139571666718E-1   2.841179966926575E-1   4.007595181465149E-1   2.838675379753113E-1  -4.936929941177368E-1   6.989617943763733E-1  
 2.068000000000000E7    -4.939524829387665E-1   7.042200565338135E-1   4.019704461097717E-1   2.839400172233582E-1   4.016403853893280E-1   2.834107577800751E-1  -4.932772517204285E-1   6.998916268348694E-1  
 2.070000000000000E7    -4.929626584053040E-1   7.049038410186768E-1   4.023478031158447E-1   2.834493219852448E-1   4.025728404521942E-1   2.833312451839447E-1  -4.921787679195404E-1   6.997073292732239E-1  
 2.072000000000000E7    -4.920523166656494E-1   7.043267488479614E-1   4.034672677516937E-1   2.839082479476929E-1   4.027859866619110E-1   2.835177779197693E-1  -4.918038249015808E-1   7.004303932189941E-1  
 2.074000000000000E7    -4.914472103118897E-1   7.045718431472778E-1   4.042340517044067E-1   2.836502194404602E-1   4.038001596927643E-1   2.831591367721558E-1  -4.902694523334503E-1   7.006677389144898E-1  
 2.076000000000000E7    -4.903868436813355E-1   7.051303386688232E-1   4.044524729251862E-1   2.834654450416565E-1   4.044969975948334E-1   2.830223441123962E-1  -4.902909994125366E-1   7.004032731056213E-1  
 2.078000000000000E7    -4.894610941410065E-1   7.058370113372803E-1   4.052208364009857E-1   2.831251323223114E-1   4.053771495819092E-1   2.830019295215607E-1  -4.888489842414856E-1   7.007776498794556E-1  
 2.080000000000000E7    -4.891488850116730E-1   7.057538032531738E-1   4.061661362648010E-1   2.830227017402649E-1   4.058747887611389E-1   2.828109860420227E-1  -4.882427453994751E-1   7.012391090393066E-1  
 2.082000000000000E7    -4.877225160598755E-1   7.058952450752258E-1   4.068579673767090E-1   2.830961942672730E-1   4.063428938388825E-1   2.828108668327332E-1  -4.875683784484863E-1   7.016909122467041E-1  
 2.084000000000000E7    -4.871627688407898E-1   7.060415148735046E-1   4.072941839694977E-1   2.829361557960510E-1   4.068435132503510E-1   2.825933992862701E-1  -4.863984286785126E-1   7.016653418540955E-1  
 2.086000000000000E7    -4.862023890018463E-1   7.067259550094605E-1   4.080563485622406E-1   2.825638651847839E-1   4.078844487667084E-1   2.825732231140137E-1  -4.853096604347229E-1   7.019648551940918E-1  
 2.088000000000000E7    -4.856741428375244E-1   7.070925831794739E-1   4.081901907920837E-1   2.825761437416077E-1   4.084196388721466E-1   2.823623418807983E-1  -4.849124848842621E-1   7.022513151168823E-1  
 2.090000000000000E7    -4.846388101577759E-1   7.073346972465515E-1   4.093291163444519E-1   2.827186286449432E-1   4.089490175247192E-1   2.819347679615021E-1  -4.843229651451111E-1   7.024742960929871E-1  
 2.092000000000000E7    -4.838921427726746E-1   7.076342701911926E-1   4.102447330951691E-1   2.820029258728027E-1   4.100009202957153E-1   2.822243869304657E-1  -4.831555485725403E-1   7.027018666267395E-1  
 2.094000000000000E7    -4.826038479804993E-1   7.080122232437134E-1   4.108770191669464E-1   2.821728885173798E-1   4.104738235473633E-1   2.818302512168884E-1  -4.826343357563019E-1   7.032113075256348E-1  
 2.096000000000000E7    -4.817983508110046E-1   7.077214717864990E-1   4.112890958786011E-1   2.820142805576325E-1   4.109408259391785E-1   2.818068265914917E-1  -4.812993705272675E-1   7.033421397209168E-1  
 2.098000000000000E7    -4.812757372856140E-1   7.080203294754028E-1   4.120596647262573E-1   2.816600501537323E-1   4.117907881736755E-1   2.814026474952698E-1  -4.804322123527527E-1   7.040162682533264E-1  
 2.100000000000000E7    -4.803798198699951E-1   7.084861993789673E-1   4.124180376529694E-1   2.815521657466888E-1   4.124756753444672E-1   2.814692556858063E-1  -4.799066483974457E-1   7.039883732795715E-1  
 2.102000000000000E7    -4.796379208564758E-1   7.093225717544556E-1   4.134454727172852E-1   2.815243005752564E-1   4.132044017314911E-1   2.814622223377228E-1  -4.785445630550385E-1   7.042942643165588E-1  
 2.104000000000000E7    -4.785415828227997E-1   7.091111540794373E-1   4.137409925460815E-1   2.817601561546326E-1   4.137297570705414E-1   2.814224958419800E-1  -4.778441786766052E-1   7.050200104713440E-1  
 2.106000000000000E7    -4.780356287956238E-1   7.092448472976685E-1   4.148958325386047E-1   2.814771533012390E-1   4.147723615169525E-1   2.812421023845673E-1  -4.770387709140778E-1   7.045559883117676E-1  
 2.108000000000000E7    -4.770158827304840E-1   7.092034816741943E-1   4.157958626747131E-1   2.812268435955048E-1   4.154718518257141E-1   2.810389697551727E-1  -4.762124717235565E-1   7.051963806152344E-1  
 2.110000000000000E7    -4.762981235980988E-1   7.103078365325928E-1   4.157035350799561E-1   2.814145386219025E-1   4.158050417900085E-1   2.809132337570190E-1  -4.755498468875885E-1   7.053382396697998E-1  
 2.112000000000000E7    -4.757061004638672E-1   7.100495100021362E-1   4.168062806129456E-1   2.811025977134705E-1   4.164984822273254E-1   2.808925509452820E-1  -4.746425449848175E-1   7.057179212570190E-1  
 2.114000000000000E7    -4.748179614543915E-1   7.102736234664917E-1   4.173626899719238E-1   2.806130349636078E-1   4.171966612339020E-1   2.806025743484497E-1  -4.734565317630768E-1   7.060337662696838E-1  
 2.116000000000000E7    -4.738323390483856E-1   7.103032469749451E-1   4.181412458419800E-1   2.806059718132019E-1   4.180138707160950E-1   2.803863286972046E-1  -4.730070531368256E-1   7.060860991477966E-1  
 2.118000000000000E7    -4.730330109596252E-1   7.109035253524780E-1   4.185278117656708E-1   2.808231711387634E-1   4.184208810329437E-1   2.800054848194122E-1  -4.726123213768005E-1   7.062132954597473E-1  
 2.120000000000000E7    -4.719920158386231E-1   7.110751867294312E-1   4.196593463420868E-1   2.803556025028229E-1   4.191283285617828E-1   2.802808880805969E-1  -4.713505506515503E-1   7.069312930107117E-1  
 2.122000000000000E7    -4.714049696922302E-1   7.111960649490356E-1   4.199123084545136E-1   2.804388105869293E-1   4.197012782096863E-1   2.802292704582214E-1  -4.702426195144653E-1   7.068262696266174E-1  
 2.124000000000000E7    -4.704681038856506E-1   7.120136618614197E-1   4.207797944545746E-1   2.803481519222260E-1   4.205739498138428E-1   2.800380587577820E-1  -4.698743522167206E-1   7.072019577026367E-1  
 2.126000000000000E7    -4.695301055908203E-1   7.119212746620178E-1   4.216100573539734E-1   2.797439098358154E-1   4.214134216308594E-1   2.794902026653290E-1  -4.688614010810852E-1   7.071164250373840E-1  
 2.128000000000000E7    -4.687505960464478E-1   7.123978734016419E-1   4.220898151397705E-1   2.799918949604034E-1   4.216554760932922E-1   2.791797518730164E-1  -4.680323302745819E-1   7.076596617698669E-1  
 2.130000000000000E7    -4.677172005176544E-1   7.126734256744385E-1   4.227460622787476E-1   2.797285318374634E-1   4.228012859821320E-1   2.793514132499695E-1  -4.670521020889282E-1   7.076033949851990E-1  
 2.132000000000000E7    -4.667296111583710E-1   7.125666141510010E-1   4.235696196556091E-1   2.798005938529968E-1   4.232155382633209E-1   2.794102430343628E-1  -4.665341973304749E-1   7.078906297683716E-1  
 2.134000000000000E7    -4.661819338798523E-1   7.128515839576721E-1   4.242625534534454E-1   2.790076434612274E-1   4.238343238830566E-1   2.789396643638611E-1  -4.648365378379822E-1   7.084986567497253E-1  
 2.136000000000000E7    -4.652633070945740E-1   7.129100561141968E-1   4.248666763305664E-1   2.793141901493073E-1   4.243540465831757E-1   2.788215577602387E-1  -4.644385576248169E-1   7.085327506065369E-1  
 2.138000000000000E7    -4.644997715950012E-1   7.135910391807556E-1   4.250214993953705E-1   2.790393829345703E-1   4.250274300575256E-1   2.788097262382507E-1  -4.636145532131195E-1   7.084874510765076E-1  
 2.140000000000000E7    -4.636147618293762E-1   7.134534716606140E-1   4.264710545539856E-1   2.787072956562042E-1   4.258105754852295E-1   2.783732712268829E-1  -4.625762701034546E-1   7.086754441261292E-1  
 2.142000000000000E7    -4.627345502376556E-1   7.138015627861023E-1   4.268042445182800E-1   2.784115076065064E-1   4.266387224197388E-1   2.783244252204895E-1  -4.616442322731018E-1   7.090046405792236E-1  
 2.144000000000000E7    -4.616557657718658E-1   7.139944434165955E-1   4.277836978435516E-1   2.786888182163239E-1   4.273207783699036E-1   2.782760262489319E-1  -4.613941609859467E-1   7.098695039749146E-1  
 2.146000000000000E7    -4.606624543666840E-1   7.142276763916016E-1   4.283985197544098E-1   2.782672643661499E-1   4.277889430522919E-1   2.778402268886566E-1  -4.603902995586395E-1   7.096527814865112E-1  
 2.148000000000000E7    -4.603287875652313E-1   7.145435810089111E-1   4.285340011119843E-1   2.781776189804077E-1   4.288021922111511E-1   2.779820859432221E-1  -4.596296250820160E-1   7.097589373588562E-1  
 2.150000000000000E7    -4.593767225742340E-1   7.147800326347351E-1   4.298840463161469E-1   2.782201170921326E-1   4.290391206741333E-1   2.778231501579285E-1  -4.586062729358673E-1   7.105754017829895E-1  
 2.152000000000000E7    -4.584515988826752E-1   7.150977849960327E-1   4.300501346588135E-1   2.778927683830261E-1   4.300999343395233E-1   2.772423028945923E-1  -4.578234553337097E-1   7.098898887634277E-1  
 2.154000000000000E7    -4.579556286334992E-1   7.153823971748352E-1   4.310894608497620E-1   2.775933146476746E-1   4.307477772235870E-1   2.775587439537048E-1  -4.567805230617523E-1   7.106743454933167E-1  
 2.156000000000000E7    -4.566554725170136E-1   7.155848741531372E-1   4.308704137802124E-1   2.778612971305847E-1   4.313687980175018E-1   2.774241566658020E-1  -4.559944570064545E-1   7.107326388359070E-1  
 2.158000000000000E7    -4.561799168586731E-1   7.159450054168701E-1   4.322808086872101E-1   2.774157226085663E-1   4.320063889026642E-1   2.771960198879242E-1  -4.551571011543274E-1   7.111258506774902E-1  
 2.160000000000000E7    -4.549763202667236E-1   7.158614397048950E-1   4.329180121421814E-1   2.770988047122955E-1   4.325010180473328E-1   2.768486738204956E-1  -4.544219076633453E-1   7.114624381065369E-1  
 2.162000000000000E7    -4.541146159172058E-1   7.166512608528137E-1   4.335306584835053E-1   2.768920660018921E-1   4.330824017524719E-1   2.763000726699829E-1  -4.537878334522247E-1   7.114270329475403E-1  
 2.164000000000000E7    -4.534972310066223E-1   7.165234088897705E-1   4.342860877513886E-1   2.771084308624268E-1   4.340980052947998E-1   2.762634158134460E-1  -4.525215327739716E-1   7.119823098182678E-1  
 2.166000000000000E7    -4.522038102149963E-1   7.165922522544861E-1   4.350523948669434E-1   2.764526307582855E-1   4.349991679191589E-1   2.765308022499085E-1  -4.516883492469788E-1   7.121868729591370E-1  
 2.168000000000000E7    -4.516811668872833E-1   7.170819640159607E-1   4.353465139865875E-1   2.761332392692566E-1   4.354865550994873E-1   2.759297490119934E-1  -4.509379565715790E-1   7.124128341674805E-1  
 2.170000000000000E7    -4.507378041744232E-1   7.169049978256226E-1   4.366276264190674E-1   2.766566574573517E-1   4.359884262084961E-1   2.761636972427368E-1  -4.503471851348877E-1   7.132867574691773E-1  
 2.172000000000000E7    -4.497079551219940E-1   7.170601487159729E-1   4.368338286876679E-1   2.761812210083008E-1   4.367568492889404E-1   2.762964367866516E-1  -4.491657316684723E-1   7.130861282348633E-1  
 2.174000000000000E7    -4.489819407463074E-1   7.174041271209717E-1   4.375206232070923E-1   2.758503556251526E-1   4.373353123664856E-1   2.756812572479248E-1  -4.484359025955200E-1   7.130144238471985E-1  
 2.176000000000000E7    -4.483227729797363E-1   7.175584435462952E-1   4.387543797492981E-1   2.757604718208313E-1   4.381530582904816E-1   2.756929993629456E-1  -4.474231600761414E-1   7.132398486137390E-1  
 2.178000000000000E7    -4.472396969795227E-1   7.179428935050964E-1   4.391312003135681E-1   2.758452892303467E-1   4.389012157917023E-1   2.749926447868347E-1  -4.465523362159729E-1   7.138487100601196E-1  
 2.180000000000000E7    -4.463597834110260E-1   7.178955674171448E-1   4.396856129169464E-1   2.751585543155670E-1   4.392520785331726E-1   2.750756740570068E-1  -4.457418024539948E-1   7.137731909751892E-1  
 2.182000000000000E7    -4.457074999809265E-1   7.183139324188232E-1   4.405052661895752E-1   2.753800749778748E-1   4.398975968360901E-1   2.747246921062470E-1  -4.445253610610962E-1   7.138215899467468E-1  
 2.184000000000000E7    -4.448960721492767E-1   7.187033891677856E-1   4.412042200565338E-1   2.754284441471100E-1   4.406218230724335E-1   2.748660445213318E-1  -4.446367323398590E-1   7.138047218322754E-1  
 2.186000000000000E7    -4.439592659473419E-1   7.190744280815125E-1   4.414811730384827E-1   2.748612761497498E-1   4.411007165908814E-1   2.749533653259277E-1  -4.431153535842896E-1   7.141266465187073E-1  
 2.188000000000000E7    -4.430377781391144E-1   7.188519239425659E-1   4.423419535160065E-1   2.747619748115540E-1   4.415465295314789E-1   2.744590640068054E-1  -4.423039555549622E-1   7.147399187088013E-1  
 2.190000000000000E7    -4.419999420642853E-1   7.191501259803772E-1   4.430507123470306E-1   2.745042443275452E-1   4.427769482135773E-1   2.742071747779846E-1  -4.413112998008728E-1   7.147725820541382E-1  
 2.192000000000000E7    -4.414749145507813E-1   7.197316288948059E-1   4.439380764961243E-1   2.742681205272675E-1   4.437227547168732E-1   2.740226089954376E-1  -4.405894875526428E-1   7.148976922035217E-1  
 2.194000000000000E7    -4.403430819511414E-1   7.199879288673401E-1   4.444335103034973E-1   2.741775810718536E-1   4.442705214023590E-1   2.738178372383118E-1  -4.396916031837463E-1   7.148432135581970E-1  
 2.196000000000000E7    -4.392296969890595E-1   7.197828888893127E-1   4.449292421340942E-1   2.739526033401489E-1   4.449514448642731E-1   2.736378610134125E-1  -4.386928677558899E-1   7.157141566276550E-1  
 2.198000000000000E7    -4.386464655399323E-1   7.200571298599243E-1   4.457295238971710E-1   2.739179134368897E-1   4.452143013477325E-1   2.736746370792389E-1  -4.381859600543976E-1   7.154104113578796E-1  
 2.200000000000000E7    -4.379270672798157E-1   7.201945781707764E-1   4.468572735786438E-1   2.739355266094208E-1   4.464994966983795E-1   2.736546993255615E-1  -4.373056590557098E-1   7.156516313552856E-1  
 2.202000000000000E7    -4.370030164718628E-1   7.207953333854675E-1   4.471260309219360E-1   2.733390331268311E-1   4.469392299652100E-1   2.729789316654205E-1  -4.363839328289032E-1   7.157769203186035E-1  
 2.204000000000000E7    -4.362470209598541E-1   7.207685112953186E-1   4.477315545082092E-1   2.733784615993500E-1   4.474024772644043E-1   2.730572521686554E-1  -4.355481564998627E-1   7.161321640014648E-1  
 2.206000000000000E7    -4.353560209274292E-1   7.208848595619202E-1   4.484311640262604E-1   2.728427946567535E-1   4.480298757553101E-1   2.726794481277466E-1  -4.345397055149078E-1   7.167528271675110E-1  
 2.208000000000000E7    -4.341084063053131E-1   7.212898731231690E-1   4.491018056869507E-1   2.727731764316559E-1   4.488377571105957E-1   2.722849249839783E-1  -4.337532520294190E-1   7.163928151130676E-1  
 2.210000000000000E7    -4.338675737380981E-1   7.211802005767822E-1   4.498636722564697E-1   2.726431488990784E-1   4.496241211891174E-1   2.719845771789551E-1  -4.327787756919861E-1   7.168137431144714E-1  
 2.212000000000000E7    -4.326898157596588E-1   7.215654253959656E-1   4.500294923782349E-1   2.723042070865631E-1   4.501042068004608E-1   2.720449864864349E-1  -4.318675994873047E-1   7.168745398521423E-1  
 2.214000000000000E7    -4.313468635082245E-1   7.216007709503174E-1   4.514616429805756E-1   2.723676264286041E-1   4.513109922409058E-1   2.717826366424561E-1  -4.311576485633850E-1   7.174167037010193E-1  
 2.216000000000000E7    -4.307139813899994E-1   7.217475771903992E-1   4.520216882228851E-1   2.720597088336945E-1   4.511238932609558E-1   2.713288068771362E-1  -4.303867518901825E-1   7.173894643783569E-1  
 2.218000000000000E7    -4.294842183589935E-1   7.217752933502197E-1   4.526058435440064E-1   2.718980312347412E-1   4.524164795875549E-1   2.713606655597687E-1  -4.292805194854736E-1   7.176247835159302E-1  
 2.220000000000000E7    -4.288389682769775E-1   7.221505641937256E-1   4.533647298812866E-1   2.714046239852905E-1   4.533134698867798E-1   2.712074518203735E-1  -4.287771284580231E-1   7.179441452026367E-1  
 2.222000000000000E7    -4.281301200389862E-1   7.225610613822937E-1   4.538769125938416E-1   2.711938917636871E-1   4.536845386028290E-1   2.706371843814850E-1  -4.274243414402008E-1   7.178093194961548E-1  
 2.224000000000000E7    -4.274466633796692E-1   7.222140431404114E-1   4.545759260654450E-1   2.709856629371643E-1   4.543564319610596E-1   2.706111073493958E-1  -4.267229735851288E-1   7.179214954376221E-1  
 2.226000000000000E7    -4.262517094612122E-1   7.226380705833435E-1   4.551257491111755E-1   2.708419859409332E-1   4.547608196735382E-1   2.706033587455750E-1  -4.258599579334259E-1   7.182563543319702E-1  
 2.228000000000000E7    -4.252095222473145E-1   7.229861617088318E-1   4.557786285877228E-1   2.707811892032623E-1   4.554946422576904E-1   2.702036499977112E-1  -4.253825247287750E-1   7.180084586143494E-1  
 2.230000000000000E7    -4.246562421321869E-1   7.233591079711914E-1   4.565567970275879E-1   2.706118822097778E-1   4.561138153076172E-1   2.700986266136169E-1  -4.245028197765350E-1   7.183883190155029E-1  
 2.232000000000000E7    -4.239817261695862E-1   7.235496044158936E-1   4.573858976364136E-1   2.701684236526489E-1   4.568139016628265E-1   2.702893018722534E-1  -4.234062433242798E-1   7.188580632209778E-1  
 2.234000000000000E7    -4.233205616474152E-1   7.236586809158325E-1   4.580425918102264E-1   2.695865035057068E-1   4.577834904193878E-1   2.693971097469330E-1  -4.220956861972809E-1   7.187881469726563E-1  
 2.236000000000000E7    -4.224720895290375E-1   7.239518761634827E-1   4.585814476013184E-1   2.694993913173676E-1   4.584557116031647E-1   2.694251537322998E-1  -4.213669598102570E-1   7.191948890686035E-1  
 2.238000000000000E7    -4.215307533740997E-1   7.240229249000549E-1   4.589357078075409E-1   2.699172496795654E-1   4.591621160507202E-1   2.691184282302856E-1  -4.207783937454224E-1   7.189939022064209E-1  
 2.240000000000000E7    -4.206449389457703E-1   7.240452766418457E-1   4.598446786403656E-1   2.695361673831940E-1   4.595321416854858E-1   2.688816189765930E-1  -4.197317957878113E-1   7.193521857261658E-1  
 2.242000000000000E7    -4.195718765258789E-1   7.243807315826416E-1   4.606228470802307E-1   2.688014507293701E-1   4.605210423469544E-1   2.691268324851990E-1  -4.192461073398590E-1   7.193919420242310E-1  
 2.244000000000000E7    -4.186920225620270E-1   7.247150540351868E-1   4.611751735210419E-1   2.686235904693604E-1   4.609174728393555E-1   2.689020633697510E-1  -4.176515340805054E-1   7.195127606391907E-1  
 2.246000000000000E7    -4.181773960590363E-1   7.245834469795227E-1   4.617230892181397E-1   2.687428593635559E-1   4.618524909019470E-1   2.683488130569458E-1  -4.169527292251587E-1   7.200970649719238E-1  
 2.248000000000000E7    -4.171245396137238E-1   7.251173257827759E-1   4.625574350357056E-1   2.683114409446716E-1   4.622071683406830E-1   2.682533562183380E-1  -4.165066182613373E-1   7.202218174934387E-1  
 2.250000000000000E7    -4.159979820251465E-1   7.249218821525574E-1   4.635850191116333E-1   2.682517766952515E-1   4.629238843917847E-1   2.681074440479279E-1  -4.158027172088623E-1   7.206734418869019E-1  
 2.252000000000000E7    -4.156795144081116E-1   7.253478169441223E-1   4.635243415832520E-1   2.678799033164978E-1   4.635996222496033E-1   2.678183019161224E-1  -4.142330586910248E-1   7.206881642341614E-1  
 2.254000000000000E7    -4.145587086677551E-1   7.253915667533875E-1   4.646953344345093E-1   2.677759528160095E-1   4.644871652126312E-1   2.675506174564362E-1  -4.138969779014587E-1   7.206455469131470E-1  
 2.256000000000000E7    -4.133122265338898E-1   7.253800034523010E-1   4.651288986206055E-1   2.676592767238617E-1   4.652206301689148E-1   2.673225998878479E-1  -4.131231307983398E-1   7.208448052406311E-1  
 2.258000000000000E7    -4.128103554248810E-1   7.255663871765137E-1   4.661741852760315E-1   2.675721049308777E-1   4.656403064727783E-1   2.672325074672699E-1  -4.124431312084198E-1   7.208535671234131E-1  
 2.260000000000000E7    -4.117915928363800E-1   7.255153656005859E-1   4.666648209095001E-1   2.670732736587524E-1   4.664850533008575E-1   2.667897641658783E-1  -4.113799631595612E-1   7.211479544639587E-1  
 2.262000000000000E7    -4.108737111091614E-1   7.260404229164124E-1   4.671923816204071E-1   2.669814527034760E-1   4.672935009002686E-1   2.673327326774597E-1  -4.103329181671143E-1   7.214416265487671E-1  
 2.264000000000000E7    -4.100926518440247E-1   7.259955406188965E-1   4.680414497852325E-1   2.670043110847473E-1   4.678937792778015E-1   2.665305137634277E-1  -4.094015061855316E-1   7.214424610137940E-1  
 2.266000000000000E7    -4.088065624237061E-1   7.259396910667419E-1   4.688958823680878E-1   2.665555477142334E-1   4.686059653759003E-1   2.661913335323334E-1  -4.091279208660126E-1   7.216373682022095E-1  
 2.268000000000000E7    -4.082104265689850E-1   7.263310551643372E-1   4.695468544960022E-1   2.664639949798584E-1   4.693221151828766E-1   2.661542296409607E-1  -4.075964987277985E-1   7.219736576080322E-1  
 2.270000000000000E7    -4.073895514011383E-1   7.265725731849670E-1   4.699555039405823E-1   2.660374343395233E-1   4.696894884109497E-1   2.656480669975281E-1  -4.068903028964996E-1   7.220602631568909E-1  
 2.272000000000000E7    -4.066413640975952E-1   7.264201641082764E-1   4.707361757755280E-1   2.654030919075012E-1   4.704197347164154E-1   2.654934227466583E-1  -4.060770273208618E-1   7.219154238700867E-1  
 2.274000000000000E7    -4.056181013584137E-1   7.266442775726318E-1   4.711419045925140E-1   2.658579051494598E-1   4.709667265415192E-1   2.652158141136169E-1  -4.051805138587952E-1   7.221090793609619E-1  
 2.276000000000000E7    -4.045288264751434E-1   7.268366813659668E-1   4.716857969760895E-1   2.648673951625824E-1   4.719891250133514E-1   2.650742530822754E-1  -4.044515788555145E-1   7.223470807075501E-1  
 2.278000000000000E7    -4.033537805080414E-1   7.272390723228455E-1   4.728546142578125E-1   2.650434076786041E-1   4.725545346736908E-1   2.643080353736877E-1  -4.036307930946350E-1   7.226194739341736E-1  
 2.280000000000000E7    -4.031665921211243E-1   7.270868420600891E-1   4.735471308231354E-1   2.648572921752930E-1   4.726426005363464E-1   2.643982470035553E-1  -4.027707576751709E-1   7.228158712387085E-1  
 2.282000000000000E7    -4.024995267391205E-1   7.273182868957520E-1   4.737500250339508E-1   2.648831903934479E-1   4.737358093261719E-1   2.643999457359314E-1  -4.013887047767639E-1   7.228566408157349E-1  
 2.284000000000000E7    -4.013824164867401E-1   7.273620367050171E-1   4.747545123100281E-1   2.643188238143921E-1   4.746797084808350E-1   2.641112506389618E-1  -4.008776545524597E-1   7.231622934341431E-1  
 2.286000000000000E7    -4.002739191055298E-1   7.277204990386963E-1   4.754881560802460E-1   2.643889784812927E-1   4.749783873558044E-1   2.639102935791016E-1  -4.001578986644745E-1   7.231969237327576E-1  
 2.288000000000000E7    -3.995690643787384E-1   7.275635004043579E-1   4.761402606964111E-1   2.640669941902161E-1   4.756986796855927E-1   2.636727094650269E-1  -3.989616632461548E-1   7.234858274459839E-1  
 2.290000000000000E7    -3.989458382129669E-1   7.280510067939758E-1   4.770598411560059E-1   2.637522816658020E-1   4.764176309108734E-1   2.633883953094482E-1  -3.985233008861542E-1   7.240695357322693E-1  
 2.292000000000000E7    -3.976229131221771E-1   7.281888723373413E-1   4.775287806987763E-1   2.632107138633728E-1   4.768796563148499E-1   2.630079388618469E-1  -3.977926969528198E-1   7.237759232521057E-1  
 2.294000000000000E7    -3.970413208007813E-1   7.280676960945129E-1   4.782530367374420E-1   2.631926238536835E-1   4.777479469776154E-1   2.625857293605804E-1  -3.971445262432098E-1   7.238370776176453E-1  
 2.296000000000000E7    -3.963286876678467E-1   7.282970547676086E-1   4.788607358932495E-1   2.629134654998779E-1   4.786903262138367E-1   2.629511356353760E-1  -3.953340947628021E-1   7.241817712783814E-1  
 2.298000000000000E7    -3.955384492874146E-1   7.287144660949707E-1   4.795287847518921E-1   2.629002034664154E-1   4.792747199535370E-1   2.624233663082123E-1  -3.950069844722748E-1   7.242272496223450E-1  
 2.300000000000000E7    -3.947317600250244E-1   7.284023761749268E-1   4.800009429454804E-1   2.625998258590698E-1   4.801065325737000E-1   2.617693543434143E-1  -3.942215442657471E-1   7.244660258293152E-1  
 2.302000000000000E7    -3.937386274337769E-1   7.289190888404846E-1   4.810303151607513E-1   2.623065114021301E-1   4.804790318012238E-1   2.619679868221283E-1  -3.928282856941223E-1   7.246738672256470E-1  
 2.304000000000000E7    -3.928834199905396E-1   7.289713621139526E-1   4.816538095474243E-1   2.617550790309906E-1   4.810276925563812E-1   2.615585625171661E-1  -3.919883072376251E-1   7.246481180191040E-1  
 2.306000000000000E7    -3.917563855648041E-1   7.286790013313294E-1   4.820634424686432E-1   2.611970901489258E-1   4.819468557834625E-1   2.610652744770050E-1  -3.912344872951508E-1   7.250505685806274E-1  
 2.308000000000000E7    -3.909846544265747E-1   7.293825149536133E-1   4.826698899269104E-1   2.614635825157166E-1   4.824889600276947E-1   2.614430189132690E-1  -3.904269337654114E-1   7.249652743339539E-1  
 2.310000000000000E7    -3.903240263462067E-1   7.294560074806213E-1   4.832120537757874E-1   2.607178092002869E-1   4.832141101360321E-1   2.610210776329041E-1  -3.894755542278290E-1   7.247764468193054E-1  
 2.312000000000000E7    -3.894532918930054E-1   7.292767167091370E-1   4.838636815547943E-1   2.608846426010132E-1   4.840596318244934E-1   2.603350281715393E-1  -3.884633779525757E-1   7.249162197113037E-1  
 2.314000000000000E7    -3.882336020469666E-1   7.292928099632263E-1   4.848600924015045E-1   2.602968215942383E-1   4.846851229667664E-1   2.602285742759705E-1  -3.880168199539185E-1   7.252024412155151E-1  
 2.316000000000000E7    -3.876057267189026E-1   7.300096154212952E-1   4.855914413928986E-1   2.603949606418610E-1   4.858189523220062E-1   2.601110339164734E-1  -3.867587745189667E-1   7.253062129020691E-1  
 2.318000000000000E7    -3.863736093044281E-1   7.300378084182739E-1   4.864026010036469E-1   2.602582573890686E-1   4.861398339271545E-1   2.597674727439880E-1  -3.864310681819916E-1   7.256039381027222E-1  
 2.320000000000000E7    -3.855812549591065E-1   7.297966480255127E-1   4.869715273380280E-1   2.597237825393677E-1   4.870288074016571E-1   2.594644427299500E-1  -3.850304484367371E-1   7.255677580833435E-1  
 2.322000000000000E7    -3.850608468055725E-1   7.297760844230652E-1   4.874956905841827E-1   2.590718567371368E-1   4.872924089431763E-1   2.592230737209320E-1  -3.844547569751740E-1   7.256319522857666E-1  
 2.324000000000000E7    -3.837834000587463E-1   7.302667498588562E-1   4.884801208972931E-1   2.591519355773926E-1   4.877583682537079E-1   2.585639059543610E-1  -3.836618661880493E-1   7.258969545364380E-1  
 2.326000000000000E7    -3.828878700733185E-1   7.302379012107849E-1   4.886303544044495E-1   2.588702738285065E-1   4.884928464889526E-1   2.586579322814941E-1  -3.830261528491974E-1   7.262614965438843E-1  
 2.328000000000000E7    -3.816760778427124E-1   7.307350635528565E-1   4.892485737800598E-1   2.592333257198334E-1   4.893275201320648E-1   2.584657073020935E-1  -3.821904063224793E-1   7.260854244232178E-1  
 2.330000000000000E7    -3.813009858131409E-1   7.307646870613098E-1   4.899659454822540E-1   2.585981190204620E-1   4.899368882179260E-1   2.578074336051941E-1  -3.810022175312042E-1   7.259805798530579E-1  
 2.332000000000000E7    -3.803255259990692E-1   7.306872010231018E-1   4.905715286731720E-1   2.589116990566254E-1   4.906848669052124E-1   2.579541206359863E-1  -3.799720406532288E-1   7.262194752693176E-1  
 2.334000000000000E7    -3.793325424194336E-1   7.308197021484375E-1   4.915590286254883E-1   2.582361698150635E-1   4.911235868930817E-1   2.575057148933411E-1  -3.795251846313477E-1   7.263565063476563E-1  
 2.336000000000000E7    -3.785536885261536E-1   7.307490706443787E-1   4.921280145645142E-1   2.581087648868561E-1   4.915486276149750E-1   2.576217055320740E-1  -3.785239458084106E-1   7.267394661903381E-1  
 2.338000000000000E7    -3.777678310871124E-1   7.311364412307739E-1   4.927633702754974E-1   2.576829195022583E-1   4.926055669784546E-1   2.569435536861420E-1  -3.775052726268768E-1   7.264197468757629E-1  
 2.340000000000000E7    -3.772742450237274E-1   7.315764427185059E-1   4.933528006076813E-1   2.570524513721466E-1   4.933263957500458E-1   2.568695843219757E-1  -3.765741586685181E-1   7.265582680702210E-1  
 2.342000000000000E7    -3.763760328292847E-1   7.307993173599243E-1   4.944304525852203E-1   2.566632926464081E-1   4.938805699348450E-1   2.563799023628235E-1  -3.758001327514648E-1   7.268000841140747E-1  
 2.344000000000000E7    -3.749858438968658E-1   7.310866117477417E-1   4.952152669429779E-1   2.565643191337585E-1   4.949239194393158E-1   2.558544576168060E-1  -3.748101294040680E-1   7.271001338958740E-1  
 2.346000000000000E7    -3.743217587471008E-1   7.312359213829041E-1   4.957893192768097E-1   2.564572989940643E-1   4.948667287826538E-1   2.560313045978546E-1  -3.739615678787231E-1   7.274148464202881E-1  
 2.348000000000000E7    -3.735718131065369E-1   7.312033176422119E-1   4.960141181945801E-1   2.560258805751801E-1   4.958018064498901E-1   2.554036378860474E-1  -3.729414343833923E-1   7.272983789443970E-1  
 2.350000000000000E7    -3.726620674133301E-1   7.308839559555054E-1   4.971525967121124E-1   2.556305825710297E-1   4.963617026805878E-1   2.553748488426209E-1  -3.721241056919098E-1   7.275934815406799E-1  
 2.352000000000000E7    -3.715187609195709E-1   7.317509651184082E-1   4.974662661552429E-1   2.553348541259766E-1   4.969569444656372E-1   2.553929686546326E-1  -3.710449337959290E-1   7.273870110511780E-1  
 2.354000000000000E7    -3.704737126827240E-1   7.319005727767944E-1   4.985543191432953E-1   2.551043033599854E-1   4.977051317691803E-1   2.550938129425049E-1  -3.709319531917572E-1   7.278789877891541E-1  
 2.356000000000000E7    -3.698899149894714E-1   7.319834232330322E-1   4.988341331481934E-1   2.548233866691589E-1   4.987457394599915E-1   2.544652819633484E-1  -3.696639537811279E-1   7.277199029922485E-1  
 2.358000000000000E7    -3.690304756164551E-1   7.316473722457886E-1   4.995110929012299E-1   2.545075714588165E-1   4.991788864135742E-1   2.544424533843994E-1  -3.685397505760193E-1   7.279917001724243E-1  
 2.360000000000000E7    -3.684186935424805E-1   7.321487665176392E-1   5.004237294197083E-1   2.540474236011505E-1   5.001454949378967E-1   2.540103197097778E-1  -3.678917288780212E-1   7.279340624809265E-1  
 2.362000000000000E7    -3.676172494888306E-1   7.322182059288025E-1   5.010488629341126E-1   2.539255023002625E-1   5.012778639793396E-1   2.538020312786102E-1  -3.672684729099274E-1   7.278509736061096E-1  
 2.364000000000000E7    -3.664942383766174E-1   7.322617173194885E-1   5.015892982482910E-1   2.536956369876862E-1   5.010592341423035E-1   2.533885538578033E-1  -3.660146296024323E-1   7.280407547950745E-1  
 2.366000000000000E7    -3.657520413398743E-1   7.328376770019531E-1   5.018427968025208E-1   2.533995807170868E-1   5.018991231918335E-1   2.529851198196411E-1  -3.650654852390289E-1   7.277808189392090E-1  
 2.368000000000000E7    -3.648742735385895E-1   7.324222326278687E-1   5.030654668807983E-1   2.530790865421295E-1   5.027692914009094E-1   2.529756426811218E-1  -3.640987873077393E-1   7.281561493873596E-1  
 2.370000000000000E7    -3.641341924667358E-1   7.327472567558289E-1   5.035666823387146E-1   2.528948485851288E-1   5.033555030822754E-1   2.528297007083893E-1  -3.634546101093292E-1   7.284072637557983E-1  
 2.372000000000000E7    -3.629741966724396E-1   7.328044772148132E-1   5.043972134590149E-1   2.525825500488281E-1   5.038506388664246E-1   2.523645758628845E-1  -3.628401160240173E-1   7.282117605209351E-1  
 2.374000000000000E7    -3.617562353610992E-1   7.328858971595764E-1   5.049347281455994E-1   2.524786591529846E-1   5.048807263374329E-1   2.518967092037201E-1  -3.620717227458954E-1   7.282640933990479E-1  
 2.376000000000000E7    -3.612734377384186E-1   7.328835725784302E-1   5.057249069213867E-1   2.521552145481110E-1   5.051816701889038E-1   2.517989873886108E-1  -3.609858155250549E-1   7.284346222877502E-1  
 2.378000000000000E7    -3.603168725967407E-1   7.330028414726257E-1   5.062039494514465E-1   2.519851624965668E-1   5.061243176460266E-1   2.511261105537415E-1  -3.601710200309753E-1   7.284925580024719E-1  
 2.380000000000000E7    -3.596949577331543E-1   7.331785559654236E-1   5.072317123413086E-1   2.514181435108185E-1   5.066933631896973E-1   2.512118816375732E-1  -3.595097064971924E-1   7.288400530815125E-1  
 2.382000000000000E7    -3.587739765644074E-1   7.330564856529236E-1   5.078385472297669E-1   2.515017390251160E-1   5.077483654022217E-1   2.510810792446137E-1  -3.583205044269562E-1   7.288568615913391E-1  
 2.384000000000000E7    -3.576116263866425E-1   7.332762479782105E-1   5.081471204757690E-1   2.509089410305023E-1   5.080544352531433E-1   2.503235638141632E-1  -3.578007221221924E-1   7.291069626808167E-1  
 2.386000000000000E7    -3.568930327892304E-1   7.330126166343689E-1   5.095756649971008E-1   2.504777014255524E-1   5.091440677642822E-1   2.500093877315521E-1  -3.567510545253754E-1   7.291063666343689E-1  
 2.388000000000000E7    -3.559919297695160E-1   7.330343127250671E-1   5.094667673110962E-1   2.504585385322571E-1   5.097432732582092E-1   2.501510083675385E-1  -3.557350635528565E-1   7.289375662803650E-1  
 2.390000000000000E7    -3.550028502941132E-1   7.332536578178406E-1   5.106074213981628E-1   2.498300820589066E-1   5.103561282157898E-1   2.494664490222931E-1  -3.548762798309326E-1   7.288016676902771E-1  
 2.392000000000000E7    -3.544043302536011E-1   7.335325479507446E-1   5.112398266792297E-1   2.498354762792587E-1   5.109872221946716E-1   2.493669241666794E-1  -3.541050851345062E-1   7.292270660400391E-1  
 2.394000000000000E7    -3.537276685237885E-1   7.336949706077576E-1   5.114710927009583E-1   2.490894347429276E-1   5.113883018493652E-1   2.492248266935349E-1  -3.527268171310425E-1   7.290429472923279E-1  
 2.396000000000000E7    -3.524936437606812E-1   7.337254285812378E-1   5.123492479324341E-1   2.492409944534302E-1   5.121848583221436E-1   2.488823682069778E-1  -3.523251116275787E-1   7.293297648429871E-1  
 2.398000000000000E7    -3.517386913299561E-1   7.334113717079163E-1   5.128760933876038E-1   2.483424842357636E-1   5.129543542861939E-1   2.479149401187897E-1  -3.510449826717377E-1   7.296929955482483E-1  
 2.400000000000000E7    -3.506900668144226E-1   7.335631251335144E-1   5.136976242065430E-1   2.483244985342026E-1   5.133365392684937E-1   2.483119666576386E-1  -3.505234420299530E-1   7.297185659408569E-1  
 2.402000000000000E7    -3.500318229198456E-1   7.338482737541199E-1   5.147513747215271E-1   2.480265200138092E-1   5.141131877899170E-1   2.479673922061920E-1  -3.495493829250336E-1   7.297191619873047E-1  
 2.404000000000000E7    -3.490175008773804E-1   7.336245775222778E-1   5.151509642601013E-1   2.480529248714447E-1   5.148965716362000E-1   2.480149865150452E-1  -3.485641181468964E-1   7.298061847686768E-1  
 2.406000000000000E7    -3.480293750762940E-1   7.339962124824524E-1   5.156486034393311E-1   2.475308030843735E-1   5.156481266021729E-1   2.473243772983551E-1  -3.478176891803742E-1   7.297563552856445E-1  
 2.408000000000000E7    -3.467611074447632E-1   7.343432307243347E-1   5.161896347999573E-1   2.472335100173950E-1   5.157616734504700E-1   2.468908876180649E-1  -3.467403352260590E-1   7.297886013984680E-1  
 2.410000000000000E7    -3.462588489055634E-1   7.345050573348999E-1   5.168951153755188E-1   2.468316555023193E-1   5.171720385551453E-1   2.464365959167481E-1  -3.462717235088348E-1   7.295382618904114E-1  
 2.412000000000000E7    -3.450355827808380E-1   7.339915037155151E-1   5.178666114807129E-1   2.466380298137665E-1   5.174070596694946E-1   2.458395957946777E-1  -3.453377187252045E-1   7.300596833229065E-1  
 2.414000000000000E7    -3.442515730857849E-1   7.340367436408997E-1   5.184877514839172E-1   2.463835030794144E-1   5.185516476631165E-1   2.452786862850189E-1  -3.444465100765228E-1   7.302948832511902E-1  
 2.416000000000000E7    -3.437978029251099E-1   7.345465421676636E-1   5.195807814598084E-1   2.459802627563477E-1   5.191323757171631E-1   2.457516342401505E-1  -3.438712954521179E-1   7.304467558860779E-1  
 2.418000000000000E7    -3.430688977241516E-1   7.346867322921753E-1   5.198422670364380E-1   2.454957365989685E-1   5.197451710700989E-1   2.456120252609253E-1  -3.423955440521240E-1   7.302724719047546E-1  
 2.420000000000000E7    -3.419365286827087E-1   7.344669699668884E-1   5.206846594810486E-1   2.452684789896011E-1   5.202214121818543E-1   2.447245419025421E-1  -3.420904576778412E-1   7.307301163673401E-1  
 2.422000000000000E7    -3.409016728401184E-1   7.342718243598938E-1   5.212588310241699E-1   2.449549436569214E-1   5.211134552955627E-1   2.443896681070328E-1  -3.413593173027039E-1   7.302811145782471E-1  
 2.424000000000000E7    -3.400525152683258E-1   7.346849441528320E-1   5.219396948814392E-1   2.448040544986725E-1   5.217372179031372E-1   2.441780567169190E-1  -3.400760591030121E-1   7.303588390350342E-1  
 2.426000000000000E7    -3.393751680850983E-1   7.344523668289185E-1   5.223430991172791E-1   2.443515807390213E-1   5.217616558074951E-1   2.437445968389511E-1  -3.392513096332550E-1   7.302420139312744E-1  
 2.428000000000000E7    -3.386371433734894E-1   7.343752384185791E-1   5.229887366294861E-1   2.438688129186630E-1   5.230644345283508E-1   2.432694882154465E-1  -3.384902775287628E-1   7.302055358886719E-1  
 2.430000000000000E7    -3.378042876720429E-1   7.349069118499756E-1   5.237289667129517E-1   2.437575459480286E-1   5.233047604560852E-1   2.429637014865875E-1  -3.371262550354004E-1   7.305324673652649E-1  
 2.432000000000000E7    -3.370767533779144E-1   7.347719669342041E-1   5.244709253311157E-1   2.433810234069824E-1   5.241348743438721E-1   2.429058253765106E-1  -3.366467952728272E-1   7.303535342216492E-1  
 2.434000000000000E7    -3.359015882015228E-1   7.345822453498840E-1   5.250346064567566E-1   2.434844970703125E-1   5.242679715156555E-1   2.428855150938034E-1  -3.356787860393524E-1   7.304719686508179E-1  
 2.436000000000000E7    -3.354042768478394E-1   7.348604798316956E-1   5.258799195289612E-1   2.424961626529694E-1   5.259345769882202E-1   2.419688254594803E-1  -3.346245288848877E-1   7.306684255599976E-1  
 2.438000000000000E7    -3.342123031616211E-1   7.350540161132813E-1   5.265138149261475E-1   2.425514608621597E-1   5.260547399520874E-1   2.419437170028687E-1  -3.338482379913330E-1   7.309954166412354E-1  
 2.440000000000000E7    -3.334590792655945E-1   7.351701855659485E-1   5.273564457893372E-1   2.418130338191986E-1   5.270121097564697E-1   2.416247278451920E-1  -3.326478600502014E-1   7.305934429168701E-1  
 2.442000000000000E7    -3.328384160995483E-1   7.351036667823792E-1   5.276560783386231E-1   2.418710738420487E-1   5.274672508239746E-1   2.413824796676636E-1  -3.319379389286041E-1   7.312778234481812E-1  
 2.444000000000000E7    -3.317107856273651E-1   7.355011701583862E-1   5.283591151237488E-1   2.412562370300293E-1   5.287038087844849E-1   2.411354184150696E-1  -3.310745954513550E-1   7.307369709014893E-1  
 2.446000000000000E7    -3.306886553764343E-1   7.352868914604187E-1   5.296032428741455E-1   2.405956685543060E-1   5.293332338333130E-1   2.401337325572968E-1  -3.305188417434692E-1   7.308970093727112E-1  
 2.448000000000000E7    -3.295381069183350E-1   7.356022000312805E-1   5.302474498748779E-1   2.407608628273010E-1   5.298947691917419E-1   2.399473786354065E-1  -3.295071423053742E-1   7.309917211532593E-1  
 2.450000000000000E7    -3.288672864437103E-1   7.358459830284119E-1   5.304436683654785E-1   2.403024137020111E-1   5.303654074668884E-1   2.401386201381683E-1  -3.288703560829163E-1   7.313861846923828E-1  
 2.452000000000000E7    -3.278170228004456E-1   7.360314130783081E-1   5.310749411582947E-1   2.403229027986527E-1   5.313487052917481E-1   2.394430935382843E-1  -3.277109265327454E-1   7.311025857925415E-1  
 2.454000000000000E7    -3.271374106407166E-1   7.349666953086853E-1   5.322881340980530E-1   2.394146919250488E-1   5.318644046783447E-1   2.394072860479355E-1  -3.267267644405365E-1   7.311451435089111E-1  
 2.456000000000000E7    -3.263490498065949E-1   7.355262041091919E-1   5.327785611152649E-1   2.392270863056183E-1   5.321372747421265E-1   2.389424741268158E-1  -3.260154128074646E-1   7.312608361244202E-1  
 2.458000000000000E7    -3.251340091228485E-1   7.350678443908691E-1   5.335288047790527E-1   2.386752218008041E-1   5.329573750495911E-1   2.387254387140274E-1  -3.251576125621796E-1   7.312097549438477E-1  
 2.460000000000000E7    -3.246890306472778E-1   7.353554964065552E-1   5.341047644615173E-1   2.383856922388077E-1   5.337836146354675E-1   2.380192875862122E-1  -3.237986564636231E-1   7.309783697128296E-1  
 2.462000000000000E7    -3.234445452690125E-1   7.355462312698364E-1   5.340466499328613E-1   2.379061132669449E-1   5.339769721031189E-1   2.373053580522537E-1  -3.233829736709595E-1   7.310709953308106E-1  
 2.464000000000000E7    -3.231039643287659E-1   7.357497215270996E-1   5.350206494331360E-1   2.377073168754578E-1   5.350161790847778E-1   2.378336191177368E-1  -3.221294879913330E-1   7.313683629035950E-1  
 2.466000000000000E7    -3.217570781707764E-1   7.353861927986145E-1   5.358521938323975E-1   2.378003448247910E-1   5.354315638542175E-1   2.372643202543259E-1  -3.212518393993378E-1   7.309757471084595E-1  
 2.468000000000000E7    -3.209711909294128E-1   7.357047796249390E-1   5.364726185798645E-1   2.370138168334961E-1   5.361252427101135E-1   2.369094043970108E-1  -3.208455741405487E-1   7.314282655715942E-1  
 2.470000000000000E7    -3.202263116836548E-1   7.356057763099670E-1   5.371782183647156E-1   2.365515083074570E-1   5.365034341812134E-1   2.364485710859299E-1  -3.195850253105164E-1   7.313547730445862E-1  
 2.472000000000000E7    -3.193211853504181E-1   7.355859875679016E-1   5.378690958023071E-1   2.361849993467331E-1   5.380920767784119E-1   2.360342442989349E-1  -3.185325264930725E-1   7.311160564422607E-1  
 2.474000000000000E7    -3.184102475643158E-1   7.358222007751465E-1   5.384149551391602E-1   2.362103164196014E-1   5.379463434219360E-1   2.358279675245285E-1  -3.181635737419128E-1   7.310755848884583E-1  
 2.476000000000000E7    -3.171583414077759E-1   7.356787919998169E-1   5.390345454216003E-1   2.356308102607727E-1   5.388830900192261E-1   2.354367971420288E-1  -3.169299066066742E-1   7.311627268791199E-1  
 2.478000000000000E7    -3.166186213493347E-1   7.356956005096436E-1   5.399684906005859E-1   2.354001551866531E-1   5.395385026931763E-1   2.348641455173492E-1  -3.159392178058624E-1   7.314510345458984E-1  
 2.480000000000000E7    -3.162587583065033E-1   7.355650067329407E-1   5.407372713088989E-1   2.349623143672943E-1   5.401217937469482E-1   2.349377572536469E-1  -3.158286809921265E-1   7.319107055664063E-1  
 2.482000000000000E7    -3.150148987770081E-1   7.358378767967224E-1   5.407117605209351E-1   2.345609664916992E-1   5.408978462219238E-1   2.341200709342957E-1  -3.147791624069214E-1   7.314837574958801E-1  
 2.484000000000000E7    -3.139932751655579E-1   7.354921698570252E-1   5.419043302536011E-1   2.345445007085800E-1   5.413664579391480E-1   2.340013235807419E-1  -3.137681782245636E-1   7.318853735923767E-1  
 2.486000000000000E7    -3.134778738021851E-1   7.357725501060486E-1   5.424893498420715E-1   2.336529493331909E-1   5.423300266265869E-1   2.338096797466278E-1  -3.125343024730682E-1   7.315094470977783E-1  
 2.488000000000000E7    -3.121731877326965E-1   7.359134554862976E-1   5.432116389274597E-1   2.337531298398972E-1   5.430968999862671E-1   2.334468215703964E-1  -3.120435774326325E-1   7.316539287567139E-1  
 2.490000000000000E7    -3.111417889595032E-1   7.358992695808411E-1   5.435793995857239E-1   2.331014722585678E-1   5.435227155685425E-1   2.328689098358154E-1  -3.112896084785461E-1   7.317798733711243E-1  
 2.492000000000000E7    -3.106102943420410E-1   7.360009551048279E-1   5.445675849914551E-1   2.329141497612000E-1   5.446780920028687E-1   2.328298985958099E-1  -3.100434541702271E-1   7.317147254943848E-1  
 2.494000000000000E7    -3.094328045845032E-1   7.359760403633118E-1   5.455573797225952E-1   2.325123846530914E-1   5.451827049255371E-1   2.320886254310608E-1  -3.093295097351074E-1   7.318209409713745E-1  
 2.496000000000000E7    -3.084648251533508E-1   7.356961369514465E-1   5.460538864135742E-1   2.322202324867249E-1   5.454034209251404E-1   2.317884266376495E-1  -3.086508512496948E-1   7.315928936004639E-1  
 2.498000000000000E7    -3.078325390815735E-1   7.357798218727112E-1   5.459647774696350E-1   2.318051308393478E-1   5.459341406822205E-1   2.316573560237885E-1  -3.075900077819824E-1   7.317239046096802E-1  
 2.500000000000000E7    -3.071068525314331E-1   7.358978390693665E-1   5.468637347221375E-1   2.313389182090759E-1   5.466620922088623E-1   2.312889993190765E-1  -3.068248033523560E-1   7.315614223480225E-1  
 2.502000000000000E7    -3.061742782592773E-1   7.357100844383240E-1   5.480456352233887E-1   2.313107848167419E-1   5.474972128868103E-1   2.307576239109039E-1  -3.057847917079926E-1   7.315999865531921E-1  
 2.504000000000000E7    -3.051669001579285E-1   7.356376051902771E-1   5.480325222015381E-1   2.309525310993195E-1   5.480273365974426E-1   2.304158806800842E-1  -3.050122559070587E-1   7.313242554664612E-1  
 2.506000000000000E7    -3.045119047164917E-1   7.355202436447144E-1   5.493291020393372E-1   2.302064150571823E-1   5.486020445823669E-1   2.295841276645660E-1  -3.038859665393829E-1   7.321690320968628E-1  
 2.508000000000000E7    -3.034725487232208E-1   7.359735369682312E-1   5.499876141548157E-1   2.297111600637436E-1   5.496231913566589E-1   2.295948415994644E-1  -3.030363917350769E-1   7.315897345542908E-1  
 2.510000000000000E7    -3.024579584598541E-1   7.358745932579041E-1   5.508075356483460E-1   2.294466048479080E-1   5.504207611083984E-1   2.290419936180115E-1  -3.025754094123840E-1   7.313305139541626E-1  
 2.512000000000000E7    -3.015882670879364E-1   7.357814311981201E-1   5.511868596076965E-1   2.294334620237351E-1   5.507849454879761E-1   2.286645621061325E-1  -3.014425635337830E-1   7.318164110183716E-1  
 2.514000000000000E7    -3.009213507175446E-1   7.355806827545166E-1   5.518032312393189E-1   2.290946543216705E-1   5.517460107803345E-1   2.286267727613449E-1  -3.006522655487061E-1   7.317945361137390E-1  
 2.516000000000000E7    -3.002156913280487E-1   7.357855439186096E-1   5.526603460311890E-1   2.285722196102142E-1   5.524250864982605E-1   2.283261418342590E-1  -2.995944023132324E-1   7.316408753395081E-1  
 2.518000000000000E7    -2.990127205848694E-1   7.359458208084106E-1   5.530612468719482E-1   2.277052700519562E-1   5.525164008140564E-1   2.273785769939423E-1  -2.988002300262451E-1   7.314061522483826E-1  
 2.520000000000000E7    -2.982625961303711E-1   7.361530661582947E-1   5.536540746688843E-1   2.275161445140839E-1   5.534695386886597E-1   2.271277159452438E-1  -2.977964878082275E-1   7.317574620246887E-1  
 2.522000000000000E7    -2.976821362972260E-1   7.359414696693420E-1   5.538961887359619E-1   2.268132716417313E-1   5.541289448738098E-1   2.265096306800842E-1  -2.967201769351959E-1   7.316396236419678E-1  
 2.524000000000000E7    -2.963362038135529E-1   7.357894778251648E-1   5.552660822868347E-1   2.269188314676285E-1   5.545627474784851E-1   2.262911796569824E-1  -2.963832616806030E-1   7.317512035369873E-1  
 2.526000000000000E7    -2.952841222286224E-1   7.352405190467835E-1   5.555971264839172E-1   2.264878749847412E-1   5.552753806114197E-1   2.260986119508743E-1  -2.951837778091431E-1   7.318350076675415E-1  
 2.528000000000000E7    -2.950659692287445E-1   7.352461814880371E-1   5.564998388290405E-1   2.257596552371979E-1   5.559808611869812E-1   2.255449742078781E-1  -2.941685914993286E-1   7.316849231719971E-1  
 2.530000000000000E7    -2.937227785587311E-1   7.358301877975464E-1   5.570391416549683E-1   2.253406047821045E-1   5.566774606704712E-1   2.251524180173874E-1  -2.936996817588806E-1   7.314240932464600E-1  
 2.532000000000000E7    -2.927061021327972E-1   7.358948588371277E-1   5.577206611633301E-1   2.252608090639114E-1   5.573310256004334E-1   2.247879207134247E-1  -2.927042245864868E-1   7.315344214439392E-1  
 2.534000000000000E7    -2.916830778121948E-1   7.357253432273865E-1   5.582689046859741E-1   2.248722016811371E-1   5.580179095268250E-1   2.245346009731293E-1  -2.918461263179779E-1   7.316924929618835E-1  
 2.536000000000000E7    -2.912354767322540E-1   7.351601719856262E-1   5.589055418968201E-1   2.244491130113602E-1   5.585275292396545E-1   2.240519523620606E-1  -2.907850742340088E-1   7.315344810485840E-1  
 2.538000000000000E7    -2.904083728790283E-1   7.358058094978333E-1   5.598872303962708E-1   2.239244878292084E-1   5.590243339538574E-1   2.234309017658234E-1  -2.899195551872253E-1   7.314749360084534E-1  
 2.540000000000000E7    -2.898282706737518E-1   7.356179356575012E-1   5.604417920112610E-1   2.237194627523422E-1   5.597257614135742E-1   2.236268967390060E-1  -2.890675663948059E-1   7.317637801170349E-1  
 2.542000000000000E7    -2.887493073940277E-1   7.353198528289795E-1   5.609281063079834E-1   2.234018743038178E-1   5.607243776321411E-1   2.230313718318939E-1  -2.882379591464996E-1   7.317278981208801E-1  
 2.544000000000000E7    -2.874813377857208E-1   7.352336645126343E-1   5.615996718406677E-1   2.225977778434753E-1   5.611538887023926E-1   2.224402129650116E-1  -2.873513698577881E-1   7.313625216484070E-1  
 2.546000000000000E7    -2.868275940418243E-1   7.356064915657044E-1   5.623741745948792E-1   2.222877442836762E-1   5.620089769363403E-1   2.217630445957184E-1  -2.866425216197968E-1   7.314130067825317E-1  
 2.548000000000000E7    -2.859822511672974E-1   7.357005476951599E-1   5.628736615180969E-1   2.219611108303070E-1   5.622457861900330E-1   2.217815518379211E-1  -2.856633365154266E-1   7.318523526191711E-1  
 2.550000000000000E7    -2.849226593971252E-1   7.352995276451111E-1   5.640672445297241E-1   2.218038290739059E-1   5.631474852561951E-1   2.211296707391739E-1  -2.844531834125519E-1   7.313010096549988E-1  
 2.552000000000000E7    -2.841346263885498E-1   7.353246212005615E-1   5.642651319503784E-1   2.210515141487122E-1   5.637645721435547E-1   2.207374870777130E-1  -2.838356494903565E-1   7.313925623893738E-1  
 2.554000000000000E7    -2.830385863780975E-1   7.354088425636292E-1   5.647184252738953E-1   2.212290614843369E-1   5.643528103828430E-1   2.205991894006729E-1  -2.830724716186523E-1   7.313187718391419E-1  
 2.556000000000000E7    -2.825729548931122E-1   7.356756329536438E-1   5.655415058135986E-1   2.206039130687714E-1   5.652754306793213E-1   2.201521098613739E-1  -2.820414900779724E-1   7.311977148056030E-1  
 2.558000000000000E7    -2.814517617225647E-1   7.355467677116394E-1   5.659222602844238E-1   2.198435664176941E-1   5.655336976051331E-1   2.198425382375717E-1  -2.811040580272675E-1   7.311658859252930E-1  
 2.560000000000000E7    -2.805393934249878E-1   7.351745963096619E-1   5.670465826988220E-1   2.197176516056061E-1   5.662356019020081E-1   2.193048596382141E-1  -2.804369032382965E-1   7.313719391822815E-1  
 2.562000000000000E7    -2.798868417739868E-1   7.354411482810974E-1   5.676098465919495E-1   2.191950380802155E-1   5.669047236442566E-1   2.188023179769516E-1  -2.795331478118897E-1   7.308582067489624E-1  
 2.564000000000000E7    -2.788350582122803E-1   7.348310351371765E-1   5.682070851325989E-1   2.184324562549591E-1   5.678611993789673E-1   2.188138663768768E-1  -2.784246504306793E-1   7.315494418144226E-1  
 2.566000000000000E7    -2.780178189277649E-1   7.352979779243469E-1   5.689162015914917E-1   2.186615765094757E-1   5.688328742980957E-1   2.179880440235138E-1  -2.778697311878204E-1   7.313713431358337E-1  
 2.568000000000000E7    -2.769516408443451E-1   7.354663014411926E-1   5.690416693687439E-1   2.180995941162109E-1   5.694074034690857E-1   2.175040543079376E-1  -2.770335972309113E-1   7.308102250099182E-1  
 2.570000000000000E7    -2.763181626796722E-1   7.351381778717041E-1   5.697884559631348E-1   2.173494994640350E-1   5.694508552551270E-1   2.167473286390305E-1  -2.765172123908997E-1   7.311370372772217E-1  
 2.572000000000000E7    -2.756654024124146E-1   7.348377108573914E-1   5.707718729972839E-1   2.167442888021469E-1   5.703390836715698E-1   2.169018089771271E-1  -2.749795913696289E-1   7.314502000808716E-1  
 2.574000000000000E7    -2.743633389472961E-1   7.351918816566467E-1   5.714733004570007E-1   2.166681289672852E-1   5.709472298622131E-1   2.163728475570679E-1  -2.742760181427002E-1   7.310231924057007E-1  
 2.576000000000000E7    -2.737365961074829E-1   7.346650362014771E-1   5.720779895782471E-1   2.160685062408447E-1   5.719275474548340E-1   2.158907651901245E-1  -2.733323872089386E-1   7.312104105949402E-1  
 2.578000000000000E7    -2.725859880447388E-1   7.349996566772461E-1   5.725550651550293E-1   2.155322730541229E-1   5.722441077232361E-1   2.155329883098602E-1  -2.722694873809815E-1   7.311375737190247E-1  
 2.580000000000000E7    -2.719135582447052E-1   7.344800233840942E-1   5.732424259185791E-1   2.159600853919983E-1   5.727422833442688E-1   2.150987386703491E-1  -2.717050909996033E-1   7.311011552810669E-1  
 2.582000000000000E7    -2.709134519100189E-1   7.348464131355286E-1   5.739837288856506E-1   2.150767445564270E-1   5.737565159797669E-1   2.145056575536728E-1  -2.707289159297943E-1   7.305678129196167E-1  
 2.584000000000000E7    -2.700226306915283E-1   7.341155409812927E-1   5.750116109848023E-1   2.145626395940781E-1   5.743191242218018E-1   2.146561890840530E-1  -2.700293362140656E-1   7.312838435173035E-1  
 2.586000000000000E7    -2.691530883312225E-1   7.344485521316528E-1   5.757236480712891E-1   2.140480577945709E-1   5.753015279769898E-1   2.137310653924942E-1  -2.689258754253388E-1   7.309087514877319E-1  
 2.588000000000000E7    -2.688295245170593E-1   7.349702715873718E-1   5.758801698684692E-1   2.135811001062393E-1   5.755303502082825E-1   2.134700119495392E-1  -2.682620882987976E-1   7.305168509483337E-1  
 2.590000000000000E7    -2.673813700675964E-1   7.346397042274475E-1   5.768752098083496E-1   2.136770188808441E-1   5.765458345413208E-1   2.131097167730331E-1  -2.676310539245606E-1   7.305616736412048E-1  
 2.592000000000000E7    -2.667161524295807E-1   7.345218658447266E-1   5.774173736572266E-1   2.127580344676971E-1   5.770635604858398E-1   2.124955356121063E-1  -2.663767933845520E-1   7.307056784629822E-1  
 2.594000000000000E7    -2.659273147583008E-1   7.343804836273193E-1   5.778456926345825E-1   2.121959328651428E-1   5.775036215782166E-1   2.118912786245346E-1  -2.653866410255432E-1   7.307465076446533E-1  
 2.596000000000000E7    -2.650234401226044E-1   7.345483899116516E-1   5.786533355712891E-1   2.123017311096191E-1   5.779456496238709E-1   2.118099033832550E-1  -2.648076117038727E-1   7.306174635887146E-1  
 2.598000000000000E7    -2.640740275382996E-1   7.342033386230469E-1   5.793556571006775E-1   2.116523683071137E-1   5.791039466857910E-1   2.112832367420197E-1  -2.638119757175446E-1   7.304301857948303E-1  
 2.600000000000000E7    -2.632187008857727E-1   7.340484261512756E-1   5.800506472587585E-1   2.109618186950684E-1   5.799112915992737E-1   2.106000632047653E-1  -2.631401121616364E-1   7.306001782417297E-1  
 2.602000000000000E7    -2.624014019966126E-1   7.342965006828308E-1   5.805904269218445E-1   2.108501344919205E-1   5.804913043975830E-1   2.102381885051727E-1  -2.618040144443512E-1   7.306544780731201E-1  
 2.604000000000000E7    -2.616628110408783E-1   7.345711588859558E-1   5.810654759407044E-1   2.104960083961487E-1   5.807833075523377E-1   2.100742161273956E-1  -2.609345316886902E-1   7.303818464279175E-1  
 2.606000000000000E7    -2.607750296592712E-1   7.340851426124573E-1   5.818399190902710E-1   2.101160883903503E-1   5.818925499916077E-1   2.094427943229675E-1  -2.603023052215576E-1   7.303877472877502E-1  
 2.608000000000000E7    -2.598059177398682E-1   7.336495518684387E-1   5.828111767768860E-1   2.091712057590485E-1   5.823140740394592E-1   2.093367278575897E-1  -2.596278786659241E-1   7.300754785537720E-1  
 2.610000000000000E7    -2.590235173702240E-1   7.341452836990356E-1   5.832054018974304E-1   2.092431187629700E-1   5.827717185020447E-1   2.083690613508225E-1  -2.584030330181122E-1   7.301750779151917E-1  
 2.612000000000000E7    -2.577147483825684E-1   7.335742712020874E-1   5.840433239936829E-1   2.085952758789063E-1   5.832595825195313E-1   2.079274952411652E-1  -2.575781047344208E-1   7.301906347274780E-1  
 2.614000000000000E7    -2.570196986198425E-1   7.337164878845215E-1   5.843049287796021E-1   2.081425487995148E-1   5.844776630401611E-1   2.076708078384399E-1  -2.568664252758026E-1   7.298070788383484E-1  
 2.616000000000000E7    -2.558435201644898E-1   7.339209914207459E-1   5.850123167037964E-1   2.077277600765228E-1   5.850208401679993E-1   2.070777416229248E-1  -2.561071515083313E-1   7.293565273284912E-1  
 2.618000000000000E7    -2.553056180477142E-1   7.335547804832459E-1   5.860496759414673E-1   2.072545289993286E-1   5.854309201240540E-1   2.064048051834106E-1  -2.548193633556366E-1   7.300309538841248E-1  
 2.620000000000000E7    -2.545428872108460E-1   7.336763143539429E-1   5.862231850624085E-1   2.065145969390869E-1   5.856633186340332E-1   2.065575867891312E-1  -2.540262937545776E-1   7.296350002288818E-1  
 2.622000000000000E7    -2.538887858390808E-1   7.334675788879395E-1   5.868785977363586E-1   2.059953212738037E-1   5.865072011947632E-1   2.059206664562225E-1  -2.531575262546539E-1   7.298354506492615E-1  
 2.624000000000000E7    -2.525877952575684E-1   7.333168983459473E-1   5.876739621162415E-1   2.058481276035309E-1   5.874967575073242E-1   2.055029720067978E-1  -2.527933716773987E-1   7.294167280197144E-1  
 2.626000000000000E7    -2.520340681076050E-1   7.334598302841187E-1   5.886258482933044E-1   2.052110433578491E-1   5.881021022796631E-1   2.049720585346222E-1  -2.515013813972473E-1   7.292873859405518E-1  
 2.628000000000000E7    -2.512877583503723E-1   7.327393293380737E-1   5.892916321754456E-1   2.046527564525604E-1   5.885897278785706E-1   2.045224308967590E-1  -2.507709562778473E-1   7.298926115036011E-1  
 2.630000000000000E7    -2.505607008934021E-1   7.334077954292297E-1   5.896730422973633E-1   2.044456601142883E-1   5.891384482383728E-1   2.044163048267365E-1  -2.495421171188355E-1   7.289735674858093E-1  
 2.632000000000000E7    -2.486568689346314E-1   7.327056527137756E-1   5.902976393699646E-1   2.044780850410461E-1   5.897774100303650E-1   2.035185098648071E-1  -2.494051009416580E-1   7.290084362030029E-1  
 2.634000000000000E7    -2.484649121761322E-1   7.329581379890442E-1   5.907854437828064E-1   2.035629302263260E-1   5.906407833099365E-1   2.033464610576630E-1  -2.480554878711700E-1   7.295110225677490E-1  
 2.636000000000000E7    -2.473334223031998E-1   7.329902648925781E-1   5.917706489562988E-1   2.032392024993897E-1   5.910806655883789E-1   2.030191421508789E-1  -2.475945651531220E-1   7.292037606239319E-1  
 2.638000000000000E7    -2.467113584280014E-1   7.325986623764038E-1   5.920444726943970E-1   2.023136764764786E-1   5.917658209800720E-1   2.025161087512970E-1  -2.461599409580231E-1   7.288821339607239E-1  
 2.640000000000000E7    -2.452210187911987E-1   7.324767112731934E-1   5.927928686141968E-1   2.022932022809982E-1   5.923354625701904E-1   2.017766237258911E-1  -2.455931454896927E-1   7.290187478065491E-1  
 2.642000000000000E7    -2.447738647460938E-1   7.324735522270203E-1   5.931567549705505E-1   2.016233652830124E-1   5.931485891342163E-1   2.014962881803513E-1  -2.444532215595245E-1   7.291492819786072E-1  
 2.644000000000000E7    -2.440638244152069E-1   7.327661514282227E-1   5.939670205116272E-1   2.013332396745682E-1   5.935618877410889E-1   2.013241350650787E-1  -2.439192533493042E-1   7.287940382957459E-1  
 2.646000000000000E7    -2.429401874542236E-1   7.325825691223145E-1   5.951260924339294E-1   2.010641098022461E-1   5.942876935005188E-1   2.008984684944153E-1  -2.431844770908356E-1   7.288088202476502E-1  
 2.648000000000000E7    -2.419281452894211E-1   7.321467995643616E-1   5.954843163490295E-1   2.002362310886383E-1   5.949782729148865E-1   1.998051702976227E-1  -2.425475120544434E-1   7.284001708030701E-1  
 2.650000000000000E7    -2.410739809274674E-1   7.318241596221924E-1   5.960490107536316E-1   1.998199522495270E-1   5.952559113502502E-1   1.993675827980042E-1  -2.417722046375275E-1   7.284361720085144E-1  
 2.652000000000000E7    -2.403515875339508E-1   7.325500249862671E-1   5.963279008865356E-1   1.998642086982727E-1   5.961660146713257E-1   1.988216042518616E-1  -2.404497265815735E-1   7.282261252403259E-1  
 2.654000000000000E7    -2.399966716766357E-1   7.319745421409607E-1   5.975720882415772E-1   1.988039612770081E-1   5.968634486198425E-1   1.988961994647980E-1  -2.394920885562897E-1   7.286561727523804E-1  
 2.656000000000000E7    -2.387771606445313E-1   7.320334315299988E-1   5.975060462951660E-1   1.987755298614502E-1   5.974632501602173E-1   1.983861178159714E-1  -2.390364259481430E-1   7.282942533493042E-1  
 2.658000000000000E7    -2.378381490707398E-1   7.314434647560120E-1   5.985584855079651E-1   1.980917751789093E-1   5.981371998786926E-1   1.975696533918381E-1  -2.376877963542938E-1   7.285031080245972E-1  
 2.660000000000000E7    -2.374210357666016E-1   7.313224077224731E-1   5.990430712699890E-1   1.980594545602799E-1   5.986418128013611E-1   1.973478198051453E-1  -2.369346618652344E-1   7.281334400177002E-1  
 2.662000000000000E7    -2.362490147352219E-1   7.313979864120483E-1   5.998275279998779E-1   1.968253254890442E-1   5.992448925971985E-1   1.965625882148743E-1  -2.359278053045273E-1   7.280075550079346E-1  
 2.664000000000000E7    -2.352730631828308E-1   7.314624786376953E-1   6.005879044532776E-1   1.965624690055847E-1   6.005120277404785E-1   1.963897943496704E-1  -2.352626919746399E-1   7.274789810180664E-1  
 2.666000000000000E7    -2.343948930501938E-1   7.313162684440613E-1   6.008991599082947E-1   1.958816796541214E-1   6.003775000572205E-1   1.959363818168640E-1  -2.342660278081894E-1   7.277718782424927E-1  
 2.668000000000000E7    -2.334317266941071E-1   7.312526106834412E-1   6.014323234558106E-1   1.957598328590393E-1   6.007058620452881E-1   1.954172551631928E-1  -2.332876324653626E-1   7.276650667190552E-1  
 2.670000000000000E7    -2.324188351631165E-1   7.311254739761353E-1   6.024856567382813E-1   1.950401067733765E-1   6.018293499946594E-1   1.948453336954117E-1  -2.327589988708496E-1   7.270284295082092E-1  
 2.672000000000000E7    -2.316162139177322E-1   7.311290502548218E-1   6.031131744384766E-1   1.948690116405487E-1   6.025732159614563E-1   1.943629980087280E-1  -2.320874184370041E-1   7.269338369369507E-1  
 2.674000000000000E7    -2.310581058263779E-1   7.307065129280090E-1   6.038633584976196E-1   1.944315433502197E-1   6.030256748199463E-1   1.944522559642792E-1  -2.304544448852539E-1   7.272251248359680E-1  
 2.676000000000000E7    -2.302223443984985E-1   7.306822538375855E-1   6.041494011878967E-1   1.937606632709503E-1   6.035789847373962E-1   1.938561499118805E-1  -2.301504015922546E-1   7.270950675010681E-1  
 2.678000000000000E7    -2.296591848134995E-1   7.306351065635681E-1   6.051452755928040E-1   1.930269002914429E-1   6.043406724929810E-1   1.929808109998703E-1  -2.285425066947937E-1   7.269161343574524E-1  
 2.680000000000000E7    -2.283074557781220E-1   7.305808067321777E-1   6.054424643516541E-1   1.922145038843155E-1   6.047816872596741E-1   1.923664212226868E-1  -2.279836088418961E-1   7.267966270446777E-1  
 2.682000000000000E7    -2.272301316261292E-1   7.306481003761292E-1   6.064091324806213E-1   1.923036426305771E-1   6.055113077163696E-1   1.916729807853699E-1  -2.279426902532578E-1   7.265403866767883E-1  
 2.684000000000000E7    -2.266420572996140E-1   7.306330800056458E-1   6.072149276733398E-1   1.918811798095703E-1   6.061609983444214E-1   1.914917528629303E-1  -2.267611920833588E-1   7.266642451286316E-1  
 2.686000000000000E7    -2.256783843040466E-1   7.303090095520020E-1   6.074756383895874E-1   1.917244791984558E-1   6.065301299095154E-1   1.911587566137314E-1  -2.254965007305145E-1   7.265934944152832E-1  
 2.688000000000000E7    -2.249200940132141E-1   7.304539680480957E-1   6.079272031784058E-1   1.910710334777832E-1   6.076448559761047E-1   1.907191127538681E-1  -2.252576947212219E-1   7.260227203369141E-1  
 2.690000000000000E7    -2.241092026233673E-1   7.301141619682312E-1   6.085190773010254E-1   1.904221177101135E-1   6.081913113594055E-1   1.896572411060333E-1  -2.240734994411469E-1   7.262471318244934E-1  
 2.692000000000000E7    -2.235517799854279E-1   7.295366525650024E-1   6.092538833618164E-1   1.897632479667664E-1   6.089174747467041E-1   1.899399012327194E-1  -2.224829345941544E-1   7.261497378349304E-1  
 2.694000000000000E7    -2.225208580493927E-1   7.296313047409058E-1   6.100364923477173E-1   1.895253360271454E-1   6.092681884765625E-1   1.889836639165878E-1  -2.221199721097946E-1   7.259325981140137E-1  
 2.696000000000000E7    -2.215454578399658E-1   7.295757532119751E-1   6.105763912200928E-1   1.887217015028000E-1   6.102544665336609E-1   1.882250308990479E-1  -2.212908864021301E-1   7.257537841796875E-1  
 2.698000000000000E7    -2.206666171550751E-1   7.291896939277649E-1   6.112055182456970E-1   1.886263489723206E-1   6.104236841201782E-1   1.880038976669312E-1  -2.207498401403427E-1   7.262344360351563E-1  
 2.700000000000000E7    -2.199855744838715E-1   7.296596765518189E-1   6.112619638442993E-1   1.872659325599670E-1   6.110513806343079E-1   1.872878074645996E-1  -2.198022305965424E-1   7.255970835685730E-1  
 2.702000000000000E7    -2.189180999994278E-1   7.297194600105286E-1   6.121683120727539E-1   1.874762773513794E-1   6.122654080390930E-1   1.872258484363556E-1  -2.189326584339142E-1   7.249504327774048E-1  
 2.704000000000000E7    -2.183291018009186E-1   7.291141152381897E-1   6.132923960685730E-1   1.868066340684891E-1   6.126636862754822E-1   1.865662336349487E-1  -2.178684175014496E-1   7.254657745361328E-1  
 2.706000000000000E7    -2.177202403545380E-1   7.289892435073853E-1   6.138888597488403E-1   1.864233911037445E-1   6.133597493171692E-1   1.864986866712570E-1  -2.164969444274902E-1   7.253085970878601E-1  
 2.708000000000000E7    -2.166403234004974E-1   7.289227247238159E-1   6.146810054779053E-1   1.856523156166077E-1   6.140908002853394E-1   1.854673922061920E-1  -2.158202528953552E-1   7.251234650611877E-1  
 2.710000000000000E7    -2.154624760150909E-1   7.284079194068909E-1   6.152664422988892E-1   1.851243078708649E-1   6.143422722816467E-1   1.851122081279755E-1  -2.154634296894074E-1   7.251476645469666E-1  
 2.712000000000000E7    -2.148513495922089E-1   7.287874221801758E-1   6.160975098609924E-1   1.853424757719040E-1   6.154381036758423E-1   1.847410500049591E-1  -2.145858407020569E-1   7.249838709831238E-1  
 2.714000000000000E7    -2.139211893081665E-1   7.288876175880432E-1   6.157659292221069E-1   1.845153868198395E-1   6.154931783676148E-1   1.842275261878967E-1  -2.135670334100723E-1   7.247900962829590E-1  
 2.716000000000000E7    -2.135270237922669E-1   7.285038232803345E-1   6.168411970138550E-1   1.841329932212830E-1   6.163503527641296E-1   1.839517503976822E-1  -2.127454280853272E-1   7.243272066116333E-1  
 2.718000000000000E7    -2.119835466146469E-1   7.281674146652222E-1   6.171718835830689E-1   1.839355230331421E-1   6.171627640724182E-1   1.832958757877350E-1  -2.117933481931686E-1   7.241990566253662E-1  
 2.720000000000000E7    -2.111553847789764E-1   7.280128002166748E-1   6.182409524917603E-1   1.830205172300339E-1   6.176409125328064E-1   1.828914284706116E-1  -2.111297994852066E-1   7.243459224700928E-1  
 2.722000000000000E7    -2.108079940080643E-1   7.280094027519226E-1   6.184351444244385E-1   1.825582385063171E-1   6.178914308547974E-1   1.828326880931854E-1  -2.097114175558090E-1   7.242994308471680E-1  
 2.724000000000000E7    -2.093994319438934E-1   7.275919914245606E-1   6.191829442977905E-1   1.822313666343689E-1   6.191185116767883E-1   1.817992180585861E-1  -2.095561921596527E-1   7.238497138023377E-1  
 2.726000000000000E7    -2.091317772865295E-1   7.273837327957153E-1   6.202992200851440E-1   1.814824938774109E-1   6.191954612731934E-1   1.813333630561829E-1  -2.084970325231552E-1   7.236560583114624E-1  
 2.728000000000000E7    -2.080746740102768E-1   7.272121906280518E-1   6.206345558166504E-1   1.807819902896881E-1   6.201698184013367E-1   1.809034049510956E-1  -2.074377536773682E-1   7.238855361938477E-1  
 2.730000000000000E7    -2.069612592458725E-1   7.274933457374573E-1   6.211110353469849E-1   1.804889589548111E-1   6.206454634666443E-1   1.804007291793823E-1  -2.065373659133911E-1   7.235392928123474E-1  
 2.732000000000000E7    -2.063711881637573E-1   7.275164723396301E-1   6.216213107109070E-1   1.795542687177658E-1   6.219733357429504E-1   1.795346140861511E-1  -2.059426307678223E-1   7.229304909706116E-1  
 2.734000000000000E7    -2.059271037578583E-1   7.272025942802429E-1   6.222121119499207E-1   1.791369765996933E-1   6.214996576309204E-1   1.790559291839600E-1  -2.049833834171295E-1   7.233046889305115E-1  
 2.736000000000000E7    -2.042902112007141E-1   7.268546223640442E-1   6.226158738136292E-1   1.785927116870880E-1   6.222918629646301E-1   1.782943755388260E-1  -2.043517827987671E-1   7.235350012779236E-1  
 2.738000000000000E7    -2.034044265747070E-1   7.263397574424744E-1   6.235872507095337E-1   1.781433820724487E-1   6.230384707450867E-1   1.779381930828095E-1  -2.035530507564545E-1   7.228378653526306E-1  
 2.740000000000000E7    -2.023980021476746E-1   7.263913750648499E-1   6.244907379150391E-1   1.782029271125794E-1   6.237455010414124E-1   1.776321828365326E-1  -2.024853974580765E-1   7.225852608680725E-1  
 2.742000000000000E7    -2.021250426769257E-1   7.266581058502197E-1   6.246098875999451E-1   1.771853417158127E-1   6.243991851806641E-1   1.766854822635651E-1  -2.019505500793457E-1   7.222088575363159E-1  
 2.744000000000000E7    -2.009499669075012E-1   7.261445522308350E-1   6.257238388061523E-1   1.768744736909866E-1   6.248422861099243E-1   1.763052046298981E-1  -2.008597254753113E-1   7.224280834197998E-1  
 2.746000000000000E7    -2.001881152391434E-1   7.258067727088928E-1   6.261199116706848E-1   1.759262382984161E-1   6.255854368209839E-1   1.756739616394043E-1  -2.002252191305161E-1   7.224771380424500E-1  
 2.748000000000000E7    -1.996298134326935E-1   7.255465388298035E-1   6.270299553871155E-1   1.754503846168518E-1   6.265181899070740E-1   1.755791455507278E-1  -1.991212069988251E-1   7.217496037483215E-1  
 2.750000000000000E7    -1.985027194023132E-1   7.255790233612061E-1   6.278687715530396E-1   1.750004589557648E-1   6.273481845855713E-1   1.744064390659332E-1  -1.979907453060150E-1   7.215633988380432E-1  
 2.752000000000000E7    -1.972448527812958E-1   7.257210612297058E-1   6.280027031898499E-1   1.747682094573975E-1   6.279284358024597E-1   1.742340475320816E-1  -1.970764398574829E-1   7.212795019149780E-1  
 2.754000000000000E7    -1.964801102876663E-1   7.253735065460205E-1   6.283934712409973E-1   1.737626492977142E-1   6.280504465103149E-1   1.736475378274918E-1  -1.964056640863419E-1   7.214616537094116E-1  
 2.756000000000000E7    -1.958666443824768E-1   7.255535721778870E-1   6.290794014930725E-1   1.731616109609604E-1   6.286979913711548E-1   1.733398288488388E-1  -1.955403238534927E-1   7.213385105133057E-1  
 2.758000000000000E7    -1.949086785316467E-1   7.252678871154785E-1   6.298143267631531E-1   1.725456118583679E-1   6.295464038848877E-1   1.722201555967331E-1  -1.955192089080811E-1   7.213173508644104E-1  
 2.760000000000000E7    -1.943290829658508E-1   7.245893478393555E-1   6.306534409523010E-1   1.721001416444778E-1   6.297549605369568E-1   1.722644865512848E-1  -1.940847337245941E-1   7.212982177734375E-1  
 2.762000000000000E7    -1.934888958930969E-1   7.246016860008240E-1   6.305861473083496E-1   1.718653738498688E-1   6.300523877143860E-1   1.713839173316956E-1  -1.931148469448090E-1   7.215074896812439E-1  
 2.764000000000000E7    -1.925201714038849E-1   7.244645953178406E-1   6.319071054458618E-1   1.712086200714111E-1   6.312071084976196E-1   1.711961477994919E-1  -1.923208832740784E-1   7.209060788154602E-1  
 2.766000000000000E7    -1.914824545383453E-1   7.244388461112976E-1   6.323277354240418E-1   1.707977801561356E-1   6.318043470382690E-1   1.706445515155792E-1  -1.918135732412338E-1   7.204927206039429E-1  
 2.768000000000000E7    -1.914237439632416E-1   7.240324020385742E-1   6.327251195907593E-1   1.697627902030945E-1   6.328548192977905E-1   1.702550053596497E-1  -1.903899163007736E-1   7.203148603439331E-1  
 2.770000000000000E7    -1.896657049655914E-1   7.236788868904114E-1   6.332909464836121E-1   1.698272824287415E-1   6.328495740890503E-1   1.692098379135132E-1  -1.901007592678070E-1   7.206295728683472E-1  
 2.772000000000000E7    -1.892747879028320E-1   7.236540317535400E-1   6.338337063789368E-1   1.691070348024368E-1   6.335785984992981E-1   1.691327393054962E-1  -1.891441643238068E-1   7.202597260475159E-1  
 2.774000000000000E7    -1.888836622238159E-1   7.240034937858582E-1   6.348012685775757E-1   1.685902476310730E-1   6.340429782867432E-1   1.685277819633484E-1  -1.875971257686615E-1   7.194833159446716E-1  
 2.776000000000000E7    -1.876095533370972E-1   7.233776450157166E-1   6.350768804550171E-1   1.683353036642075E-1   6.349371671676636E-1   1.679867357015610E-1  -1.871683001518250E-1   7.190978527069092E-1  
 2.778000000000000E7    -1.867700964212418E-1   7.231817841529846E-1   6.358517408370972E-1   1.677834987640381E-1   6.355483531951904E-1   1.676991581916809E-1  -1.860029399394989E-1   7.192452549934387E-1  
 2.780000000000000E7    -1.859424114227295E-1   7.227155566215515E-1   6.371220946311951E-1   1.671177744865418E-1   6.360342502593994E-1   1.665559560060501E-1  -1.855592727661133E-1   7.194252014160156E-1  
 2.782000000000000E7    -1.848123967647553E-1   7.230579257011414E-1   6.370013356208801E-1   1.666858047246933E-1   6.362730860710144E-1   1.663120090961456E-1  -1.843862235546112E-1   7.194314002990723E-1  
 2.784000000000000E7    -1.844606399536133E-1   7.223358154296875E-1   6.380551457405090E-1   1.662526577711105E-1   6.369063258171082E-1   1.661212444305420E-1  -1.835475862026215E-1   7.194302082061768E-1  
 2.786000000000000E7    -1.830268502235413E-1   7.221907973289490E-1   6.386578083038330E-1   1.657611727714539E-1   6.377422213554382E-1   1.648290306329727E-1  -1.830358356237412E-1   7.187409996986389E-1  
 2.788000000000000E7    -1.823458224534988E-1   7.223343849182129E-1   6.389507055282593E-1   1.650727242231369E-1   6.385332942008972E-1   1.645881384611130E-1  -1.822530329227448E-1   7.190323472023010E-1  
 2.790000000000000E7    -1.818310916423798E-1   7.217093706130981E-1   6.395817399024963E-1   1.644850671291351E-1   6.386765241622925E-1   1.647330224514008E-1  -1.811859309673309E-1   7.185885310173035E-1  
 2.792000000000000E7    -1.805820316076279E-1   7.219313979148865E-1   6.404306292533875E-1   1.640505790710449E-1   6.400980949401856E-1   1.639488041400909E-1  -1.802458167076111E-1   7.183298468589783E-1  
 2.794000000000000E7    -1.800891011953354E-1   7.213530540466309E-1   6.410917639732361E-1   1.629294753074646E-1   6.401990652084351E-1   1.630998849868774E-1  -1.798477619886398E-1   7.183705568313599E-1  
 2.796000000000000E7    -1.789907515048981E-1   7.218620181083679E-1   6.415131092071533E-1   1.627135425806046E-1   6.407797336578369E-1   1.622762084007263E-1  -1.786830872297287E-1   7.175266146659851E-1  
 2.798000000000000E7    -1.784685254096985E-1   7.214843034744263E-1   6.419095993041992E-1   1.620901823043823E-1   6.416118144989014E-1   1.622029840946198E-1  -1.777443587779999E-1   7.173018455505371E-1  
 2.800000000000000E7    -1.771945953369141E-1   7.208805680274963E-1   6.427819132804871E-1   1.614110469818115E-1   6.419293880462647E-1   1.610085368156433E-1  -1.776379346847534E-1   7.179096341133118E-1  
 2.802000000000000E7    -1.765546053647995E-1   7.209880352020264E-1   6.433160305023193E-1   1.613478958606720E-1   6.424171924591065E-1   1.612088084220886E-1  -1.761347353458405E-1   7.167553305625916E-1  
 2.804000000000000E7    -1.755335032939911E-1   7.209317088127136E-1   6.439341902732849E-1   1.605198681354523E-1   6.432636976242065E-1   1.601979434490204E-1  -1.756062209606171E-1   7.172399759292603E-1  
 2.806000000000000E7    -1.748417764902115E-1   7.208045721054077E-1   6.441927552223206E-1   1.596437990665436E-1   6.437079310417175E-1   1.591887176036835E-1  -1.745559722185135E-1   7.165637612342835E-1  
 2.808000000000000E7    -1.741004884243012E-1   7.205525040626526E-1   6.451969742774963E-1   1.587968319654465E-1   6.445333957672119E-1   1.586052775382996E-1  -1.739646196365356E-1   7.167093753814697E-1  
 2.810000000000000E7    -1.729229092597961E-1   7.201216816902161E-1   6.458691358566284E-1   1.587643027305603E-1   6.449966430664063E-1   1.588593721389771E-1  -1.729168295860291E-1   7.165827751159668E-1  
 2.812000000000000E7    -1.722060143947601E-1   7.201444506645203E-1   6.455624103546143E-1   1.582481414079666E-1   6.456473469734192E-1   1.581637561321259E-1  -1.723404228687286E-1   7.164485454559326E-1  
 2.814000000000000E7    -1.717751473188400E-1   7.197086811065674E-1   6.465575098991394E-1   1.578465998172760E-1   6.464528441429138E-1   1.577603071928024E-1  -1.712802946567535E-1   7.159720063209534E-1  
 2.816000000000000E7    -1.708851903676987E-1   7.196111083030701E-1   6.469193696975708E-1   1.569551229476929E-1   6.464448571205139E-1   1.570227742195129E-1  -1.701822578907013E-1   7.161723971366882E-1  
 2.818000000000000E7    -1.698131114244461E-1   7.189764380455017E-1   6.479904651641846E-1   1.568779647350311E-1   6.471903920173645E-1   1.564674526453018E-1  -1.695149838924408E-1   7.160991430282593E-1  
 2.820000000000000E7    -1.685970872640610E-1   7.191315293312073E-1   6.487687826156616E-1   1.561703681945801E-1   6.480245590209961E-1   1.556068360805512E-1  -1.691015809774399E-1   7.153316736221314E-1  
 2.822000000000000E7    -1.677491068840027E-1   7.190662622451782E-1   6.493840217590332E-1   1.554723829030991E-1   6.488300561904907E-1   1.547736823558807E-1  -1.678802669048309E-1   7.153239846229553E-1  
 2.824000000000000E7    -1.670586913824081E-1   7.188326716423035E-1   6.495715379714966E-1   1.547359824180603E-1   6.491191387176514E-1   1.543092131614685E-1  -1.673868596553803E-1   7.154209613800049E-1  
 2.826000000000000E7    -1.666859537363052E-1   7.183133363723755E-1   6.501780748367310E-1   1.542988717556000E-1   6.495501995086670E-1   1.536040008068085E-1  -1.667669415473938E-1   7.148005962371826E-1  
 2.828000000000000E7    -1.654106974601746E-1   7.181545495986939E-1   6.511914730072022E-1   1.539234071969986E-1   6.506256461143494E-1   1.535754501819611E-1  -1.651768535375595E-1   7.146736383438110E-1  
 2.830000000000000E7    -1.648812890052795E-1   7.179781794548035E-1   6.512001156806946E-1   1.528617441654205E-1   6.508060097694397E-1   1.528449654579163E-1  -1.645810604095459E-1   7.145045399665833E-1  
 2.832000000000000E7    -1.640588492155075E-1   7.180867195129395E-1   6.516895890235901E-1   1.526591777801514E-1   6.516161561012268E-1   1.526305228471756E-1  -1.635266542434692E-1   7.140445113182068E-1  
 2.834000000000000E7    -1.629593223333359E-1   7.176097035408020E-1   6.526730656623840E-1   1.520334184169769E-1   6.525201201438904E-1   1.515904664993286E-1  -1.632320433855057E-1   7.139897346496582E-1  
 2.836000000000000E7    -1.629331111907959E-1   7.178571820259094E-1   6.529875993728638E-1   1.508215963840485E-1   6.529632806777954E-1   1.514436602592468E-1  -1.614209711551666E-1   7.133328914642334E-1  
 2.838000000000000E7    -1.612677872180939E-1   7.168822884559631E-1   6.540392637252808E-1   1.509238332509995E-1   6.535832285881043E-1   1.505664288997650E-1  -1.612673997879028E-1   7.131406664848328E-1  
 2.840000000000000E7    -1.604003906250000E-1   7.169330120086670E-1   6.544598937034607E-1   1.500857919454575E-1   6.540337204933167E-1   1.496780812740326E-1  -1.603020429611206E-1   7.129263281822205E-1  
 2.842000000000000E7    -1.604824960231781E-1   7.164946198463440E-1   6.553476452827454E-1   1.496528834104538E-1   6.547100543975830E-1   1.493103802204132E-1  -1.590926796197891E-1   7.127627730369568E-1  
 2.844000000000000E7    -1.589818000793457E-1   7.161726951599121E-1   6.556975841522217E-1   1.490292996168137E-1   6.548266410827637E-1   1.486301869153976E-1  -1.590180993080139E-1   7.133486270904541E-1  
 2.846000000000000E7    -1.585251390933991E-1   7.161565423011780E-1   6.560503840446472E-1   1.481932252645493E-1   6.554999351501465E-1   1.483122855424881E-1  -1.576238274574280E-1   7.126451134681702E-1  
 2.848000000000000E7    -1.572949588298798E-1   7.158069610595703E-1   6.574280261993408E-1   1.479429304599762E-1   6.562999486923218E-1   1.477462053298950E-1  -1.568993180990219E-1   7.126873731613159E-1  
 2.850000000000000E7    -1.561966538429260E-1   7.157329320907593E-1   6.576597690582275E-1   1.475662887096405E-1   6.570345759391785E-1   1.469443291425705E-1  -1.561876684427261E-1   7.119101881980896E-1  
 2.852000000000000E7    -1.557997465133667E-1   7.154716849327087E-1   6.581876873970032E-1   1.465519964694977E-1   6.575468182563782E-1   1.465087383985519E-1  -1.550090312957764E-1   7.121747732162476E-1  
 2.854000000000000E7    -1.547681838274002E-1   7.151369452476502E-1   6.586335897445679E-1   1.458590328693390E-1   6.578772068023682E-1   1.459423303604126E-1  -1.544892787933350E-1   7.117722034454346E-1  
 2.856000000000000E7    -1.539305597543716E-1   7.150725126266480E-1   6.591181159019470E-1   1.451781988143921E-1   6.589033007621765E-1   1.448470801115036E-1  -1.538712531328201E-1   7.116002440452576E-1  
 2.858000000000000E7    -1.527580022811890E-1   7.146498560905457E-1   6.599267125129700E-1   1.452932953834534E-1   6.589012145996094E-1   1.447122097015381E-1  -1.530430018901825E-1   7.117099165916443E-1  
 2.860000000000000E7    -1.521832346916199E-1   7.141556739807129E-1   6.605972647666931E-1   1.441345214843750E-1   6.599545478820801E-1   1.439154595136643E-1  -1.520424187183380E-1   7.115076780319214E-1  
 2.862000000000000E7    -1.514630615711212E-1   7.142714858055115E-1   6.608870625495911E-1   1.434743106365204E-1   6.599501967430115E-1   1.437394917011261E-1  -1.510378569364548E-1   7.109862565994263E-1  
 2.864000000000000E7    -1.502829790115356E-1   7.139577865600586E-1   6.616633534431458E-1   1.432041525840759E-1   6.607676148414612E-1   1.433222740888596E-1  -1.501681655645371E-1   7.108353376388550E-1  
 2.866000000000000E7    -1.497407704591751E-1   7.134097814559937E-1   6.622981429100037E-1   1.420101970434189E-1   6.614599227905273E-1   1.417573690414429E-1  -1.497987210750580E-1   7.105184793472290E-1  
 2.868000000000000E7    -1.489536762237549E-1   7.137899398803711E-1   6.625142097473145E-1   1.419520527124405E-1   6.621423363685608E-1   1.419208943843842E-1  -1.490164399147034E-1   7.099403738975525E-1  
 2.870000000000000E7    -1.482936590909958E-1   7.135915756225586E-1   6.630780696868897E-1   1.410233825445175E-1   6.628349423408508E-1   1.410224437713623E-1  -1.481584012508392E-1   7.092880606651306E-1  
 2.872000000000000E7    -1.473571062088013E-1   7.134897708892822E-1   6.638200283050537E-1   1.404298543930054E-1   6.634707450866699E-1   1.406133323907852E-1  -1.472083777189255E-1   7.093599438667297E-1  
 2.874000000000000E7    -1.463193595409393E-1   7.127125859260559E-1   6.648035645484924E-1   1.396309882402420E-1   6.635668277740479E-1   1.396562159061432E-1  -1.461297571659088E-1   7.094355225563049E-1  
 2.876000000000000E7    -1.456175595521927E-1   7.127771973609924E-1   6.648179888725281E-1   1.395955234766007E-1   6.644653677940369E-1   1.391724050045013E-1  -1.452523171901703E-1   7.092254757881165E-1  
 2.878000000000000E7    -1.451547145843506E-1   7.124074101448059E-1   6.659896969795227E-1   1.387144774198532E-1   6.652923226356506E-1   1.387489289045334E-1  -1.442992091178894E-1   7.083214521408081E-1  
 2.880000000000000E7    -1.440688073635101E-1   7.121348381042481E-1   6.659023165702820E-1   1.382835507392883E-1   6.653083562850952E-1   1.378258764743805E-1  -1.437330543994904E-1   7.081331014633179E-1  
 2.882000000000000E7    -1.429747790098190E-1   7.120640873908997E-1   6.665747761726379E-1   1.379332989454269E-1   6.660588979721069E-1   1.376795172691345E-1  -1.433136612176895E-1   7.080118656158447E-1  
 2.884000000000000E7    -1.421462446451187E-1   7.115423083305359E-1   6.672939062118530E-1   1.371830552816391E-1   6.667952537536621E-1   1.372302770614624E-1  -1.422477066516876E-1   7.080500125885010E-1  
 2.886000000000000E7    -1.417532414197922E-1   7.115640044212341E-1   6.678590178489685E-1   1.363023519515991E-1   6.672577261924744E-1   1.364357024431229E-1  -1.410935521125794E-1   7.080197334289551E-1  
 2.888000000000000E7    -1.407107710838318E-1   7.110738754272461E-1   6.684110760688782E-1   1.360126286745071E-1   6.674531102180481E-1   1.356962323188782E-1  -1.405436396598816E-1   7.079184055328369E-1  
 2.890000000000000E7    -1.403111815452576E-1   7.107949852943420E-1   6.690627932548523E-1   1.353942751884460E-1   6.684973835945129E-1   1.355554014444351E-1  -1.398149281740189E-1   7.077407240867615E-1  
 2.892000000000000E7    -1.394581049680710E-1   7.102369666099548E-1   6.697688102722168E-1   1.347320675849915E-1   6.692380309104919E-1   1.343473941087723E-1  -1.389381289482117E-1   7.068328261375427E-1  
 2.894000000000000E7    -1.380693316459656E-1   7.098787426948547E-1   6.704452633857727E-1   1.339313983917236E-1   6.693771481513977E-1   1.338755488395691E-1  -1.380009204149246E-1   7.068344354629517E-1  
 2.896000000000000E7    -1.372766345739365E-1   7.100132703781128E-1   6.711100339889526E-1   1.331685930490494E-1   6.700668334960938E-1   1.331606507301331E-1  -1.374997198581696E-1   7.064744234085083E-1  
 2.898000000000000E7    -1.365073323249817E-1   7.102254033088684E-1   6.712685823440552E-1   1.325230300426483E-1   6.709789037704468E-1   1.326040923595429E-1  -1.363811194896698E-1   7.062421441078186E-1  
 2.900000000000000E7    -1.358243077993393E-1   7.097399234771729E-1   6.715297102928162E-1   1.324269175529480E-1   6.711140275001526E-1   1.320265680551529E-1  -1.358171552419663E-1   7.059578895568848E-1  
 2.902000000000000E7    -1.346989572048187E-1   7.096057534217835E-1   6.725575923919678E-1   1.315969377756119E-1   6.719390153884888E-1   1.313415169715881E-1  -1.346380561590195E-1   7.057932019233704E-1  
 2.904000000000000E7    -1.348611712455750E-1   7.091969251632690E-1   6.727789640426636E-1   1.305340975522995E-1   6.728298664093018E-1   1.309146881103516E-1  -1.334543079137802E-1   7.055906057357788E-1  
 2.906000000000000E7    -1.333718448877335E-1   7.088994383811951E-1   6.736435890197754E-1   1.308398246765137E-1   6.731417179107666E-1   1.302836388349533E-1  -1.332395970821381E-1   7.049596309661865E-1  
 2.908000000000000E7    -1.327009946107864E-1   7.083323001861572E-1   6.744647622108460E-1   1.295422762632370E-1   6.734176278114319E-1   1.294105350971222E-1  -1.321699917316437E-1   7.048569917678833E-1  
 2.910000000000000E7    -1.318305581808090E-1   7.079068422317505E-1   6.748986840248108E-1   1.289048939943314E-1   6.738253831863403E-1   1.285420358181000E-1  -1.315863430500031E-1   7.050740122795105E-1  
 2.912000000000000E7    -1.309375315904617E-1   7.077754735946655E-1   6.754765510559082E-1   1.284911632537842E-1   6.746619343757629E-1   1.277700960636139E-1  -1.307829618453980E-1   7.045050263404846E-1  
 2.914000000000000E7    -1.301546394824982E-1   7.081406116485596E-1   6.760230064392090E-1   1.275207251310349E-1   6.755732893943787E-1   1.274918913841248E-1  -1.298495829105377E-1   7.038273811340332E-1  
 2.916000000000000E7    -1.291581243276596E-1   7.077295184135437E-1   6.767076253890991E-1   1.270039081573486E-1   6.762641072273254E-1   1.268933117389679E-1  -1.294314414262772E-1   7.032095193862915E-1  
 2.918000000000000E7    -1.292195171117783E-1   7.074220776557922E-1   6.765695214271545E-1   1.260333657264710E-1   6.767752766609192E-1   1.263685524463654E-1  -1.281602829694748E-1   7.033954858779907E-1  
 2.920000000000000E7    -1.274707913398743E-1   7.070987224578857E-1   6.775100827217102E-1   1.261039823293686E-1   6.768397688865662E-1   1.257915645837784E-1  -1.275108307600021E-1   7.033151984214783E-1  
 2.922000000000000E7    -1.268269419670105E-1   7.064988017082214E-1   6.782596707344055E-1   1.254946738481522E-1   6.779330968856812E-1   1.254542320966721E-1  -1.267713606357575E-1   7.029638290405273E-1  
 2.924000000000000E7    -1.260557323694229E-1   7.061804533004761E-1   6.785350441932678E-1   1.243862882256508E-1   6.780916452407837E-1   1.247453242540360E-1  -1.257529556751251E-1   7.024972438812256E-1  
 2.926000000000000E7    -1.254918575286865E-1   7.055533528327942E-1   6.798077821731567E-1   1.236446648836136E-1   6.786760687828064E-1   1.236970275640488E-1  -1.249531432986260E-1   7.025634646415710E-1  
 2.928000000000000E7    -1.247381865978241E-1   7.055291533470154E-1   6.800477504730225E-1   1.233061552047730E-1   6.792820096015930E-1   1.234405636787415E-1  -1.241148859262466E-1   7.021712064743042E-1  
 2.930000000000000E7    -1.237143501639366E-1   7.054803371429443E-1   6.802377700805664E-1   1.221813187003136E-1   6.796597242355347E-1   1.224414259195328E-1  -1.235363632440567E-1   7.023201584815979E-1  
 2.932000000000000E7    -1.234961301088333E-1   7.051262259483337E-1   6.808683276176453E-1   1.217968016862869E-1   6.803749203681946E-1   1.219381690025330E-1  -1.225403249263763E-1   7.017793059349060E-1  
 2.934000000000000E7    -1.220915392041206E-1   7.047432661056519E-1   6.814512610435486E-1   1.212934330105782E-1   6.805508732795715E-1   1.213856339454651E-1  -1.220295205712318E-1   7.017711997032166E-1  
 2.936000000000000E7    -1.208534240722656E-1   7.042126655578613E-1   6.824252605438232E-1   1.212094724178314E-1   6.815751194953919E-1   1.211120858788490E-1  -1.209839433431625E-1   7.012784481048584E-1  
 2.938000000000000E7    -1.206435114145279E-1   7.048124074935913E-1   6.826198101043701E-1   1.201273202896118E-1   6.823443770408630E-1   1.202080622315407E-1  -1.201975345611572E-1   7.003760933876038E-1  
 2.940000000000000E7    -1.197704970836639E-1   7.038390040397644E-1   6.837782859802246E-1   1.192901208996773E-1   6.826635599136353E-1   1.190993785858154E-1  -1.194785013794899E-1   7.005464434623718E-1  
 2.942000000000000E7    -1.186764910817146E-1   7.038734555244446E-1   6.836609840393066E-1   1.188505664467812E-1   6.836155652999878E-1   1.188322976231575E-1  -1.182864382863045E-1   7.000216245651245E-1  
 2.944000000000000E7    -1.179638057947159E-1   7.032684087753296E-1   6.845617890357971E-1   1.185437515377998E-1   6.838561892509460E-1   1.180259287357330E-1  -1.179774925112724E-1   7.003829479217529E-1  
 2.946000000000000E7    -1.167139112949371E-1   7.031760215759277E-1   6.849650144577026E-1   1.181384399533272E-1   6.841339468955994E-1   1.177546605467796E-1  -1.174600720405579E-1   6.997941732406616E-1  
 2.948000000000000E7    -1.164917796850205E-1   7.028542757034302E-1   6.851446628570557E-1   1.167655885219574E-1   6.845879554748535E-1   1.166670173406601E-1  -1.163096502423286E-1   6.991320848464966E-1  
 2.950000000000000E7    -1.152169480919838E-1   7.027088403701782E-1   6.861833930015564E-1   1.164444833993912E-1   6.856043934822083E-1   1.162871122360230E-1  -1.154783293604851E-1   6.989184617996216E-1  
 2.952000000000000E7    -1.146022602915764E-1   7.026644349098206E-1   6.863967776298523E-1   1.156204789876938E-1   6.860539913177490E-1   1.157152429223061E-1  -1.148439645767212E-1   6.987260580062866E-1  
 2.954000000000000E7    -1.138992756605148E-1   7.020609974861145E-1   6.870055794715881E-1   1.149707883596420E-1   6.868467926979065E-1   1.149972528219223E-1  -1.138296350836754E-1   6.982134580612183E-1  
 2.956000000000000E7    -1.130298823118210E-1   7.018637657165527E-1   6.877661347389221E-1   1.145456433296204E-1   6.870992779731751E-1   1.146463379263878E-1  -1.129741445183754E-1   6.984916925430298E-1  
 2.958000000000000E7    -1.125661283731461E-1   7.015117406845093E-1   6.880953907966614E-1   1.137770190834999E-1   6.871404647827148E-1   1.130851209163666E-1  -1.125885397195816E-1   6.981715559959412E-1  
 2.960000000000000E7    -1.115545704960823E-1   7.007629275321960E-1   6.890801191329956E-1   1.129996031522751E-1   6.881301403045654E-1   1.125757768750191E-1  -1.118842288851738E-1   6.979904174804688E-1  
 2.962000000000000E7    -1.106949299573898E-1   7.010810971260071E-1   6.892503499984741E-1   1.124962195754051E-1   6.886663436889648E-1   1.126249134540558E-1  -1.105725094676018E-1   6.971914172172546E-1  
 2.964000000000000E7    -1.101716905832291E-1   7.002653479576111E-1   6.899092197418213E-1   1.114448457956314E-1   6.889532804489136E-1   1.118153408169746E-1  -1.100484430789948E-1   6.972695589065552E-1  
 2.966000000000000E7    -1.098089590668678E-1   7.003812789916992E-1   6.899725198745728E-1   1.109443977475166E-1   6.895742416381836E-1   1.112310290336609E-1  -1.086493879556656E-1   6.967865228652954E-1  
 2.968000000000000E7    -1.086510270833969E-1   6.998507976531982E-1   6.912070512771606E-1   1.106183007359505E-1   6.902066469192505E-1   1.106854528188705E-1  -1.078110188245773E-1   6.964290738105774E-1  
 2.970000000000000E7    -1.078230589628220E-1   6.996226310729981E-1   6.911569833755493E-1   1.094924509525299E-1   6.907095909118652E-1   1.092047095298767E-1  -1.074700206518173E-1   6.964991688728333E-1  
 2.972000000000000E7    -1.067017838358879E-1   6.992486119270325E-1   6.915790438652039E-1   1.086439937353134E-1   6.916401386260986E-1   1.091674193739891E-1  -1.068489402532578E-1   6.958447694778442E-1  
 2.974000000000000E7    -1.059643477201462E-1   6.987644433975220E-1   6.927788257598877E-1   1.088551804423332E-1   6.919638514518738E-1   1.084198430180550E-1  -1.061075627803803E-1   6.952621340751648E-1  
 2.976000000000000E7    -1.054391786456108E-1   6.987872123718262E-1   6.930677294731140E-1   1.075538843870163E-1   6.928060650825501E-1   1.077101677656174E-1  -1.048881337046623E-1   6.950893402099609E-1  
 2.978000000000000E7    -1.041526049375534E-1   6.985927224159241E-1   6.936533451080322E-1   1.072210520505905E-1   6.931139230728149E-1   1.071567088365555E-1  -1.043801605701447E-1   6.945877075195313E-1  
 2.980000000000000E7    -1.036014556884766E-1   6.979458928108215E-1   6.940910220146179E-1   1.066815108060837E-1   6.933059692382813E-1   1.061348542571068E-1  -1.038383767008781E-1   6.948146224021912E-1  
 2.982000000000000E7    -1.026086881756783E-1   6.974645853042603E-1   6.948891282081604E-1   1.058955043554306E-1   6.942575573921204E-1   1.054564118385315E-1  -1.027021259069443E-1   6.939219832420349E-1  
 2.984000000000000E7    -1.018161848187447E-1   6.973041892051697E-1   6.953562498092651E-1   1.050598248839378E-1   6.945884227752686E-1   1.050145477056503E-1  -1.018731072545052E-1   6.942382454872131E-1  
 2.986000000000000E7    -1.016261428594589E-1   6.970242857933044E-1   6.955164670944214E-1   1.041881442070007E-1   6.955791711807251E-1   1.043631210923195E-1  -1.010609269142151E-1   6.934819817543030E-1  
 2.988000000000000E7    -1.005854606628418E-1   6.968813538551331E-1   6.960948109626770E-1   1.038596555590630E-1   6.959419250488281E-1   1.038563251495361E-1  -1.000908538699150E-1   6.932677030563355E-1  
 2.990000000000000E7    -9.928544610738754E-2   6.961526870727539E-1   6.971454024314880E-1   1.029581725597382E-1   6.961415410041809E-1   1.027227193117142E-1  -9.996210038661957E-2   6.934618949890137E-1  
 2.992000000000000E7    -9.897467494010925E-2   6.959214806556702E-1   6.976336836814880E-1   1.024059131741524E-1   6.969287395477295E-1   1.022780612111092E-1  -9.860123693943024E-2   6.923505663871765E-1  
 2.994000000000000E7    -9.794646501541138E-2   6.961573362350464E-1   6.977604627609253E-1   1.016364991664887E-1   6.972924470901489E-1   1.017054468393326E-1  -9.797131270170212E-2   6.922817826271057E-1  
 2.996000000000000E7    -9.731233119964600E-2   6.950450539588928E-1   6.986821293830872E-1   1.011671200394630E-1   6.978780031204224E-1   1.010376513004303E-1  -9.684633463621140E-2   6.923297047615051E-1  
 2.998000000000000E7    -9.687069058418274E-2   6.949119567871094E-1   6.989870071411133E-1   9.986609965562820E-2   6.981928348541260E-1   1.005063056945801E-1  -9.609559178352356E-2   6.916719675064087E-1  
 3.000000000000000E7    -9.553192555904388E-2   6.948672533035278E-1   6.991534233093262E-1   9.974376857280731E-2   6.992621421813965E-1   9.926343709230423E-2  -9.563410282135010E-2   6.911838650703430E-1  
 3.002000000000000E7    -9.514270722866058E-2   6.943286657333374E-1   6.998431086540222E-1   9.892508387565613E-2   6.994609832763672E-1   9.863777458667755E-2  -9.478737413883209E-2   6.908545494079590E-1  
 3.004000000000000E7    -9.428660571575165E-2   6.943592429161072E-1   7.002717256546021E-1   9.836357086896896E-2   6.997749209403992E-1   9.842106699943543E-2  -9.404277801513672E-2   6.909011602401733E-1  
 3.006000000000000E7    -9.288424998521805E-2   6.933740973472595E-1   7.011882662773132E-1   9.800123423337936E-2   7.002745866775513E-1   9.741353243589401E-2  -9.322940558195114E-2   6.905028820037842E-1  
 3.008000000000000E7    -9.295704960823059E-2   6.934909820556641E-1   7.013048529624939E-1   9.691966325044632E-2   7.006059288978577E-1   9.720227867364883E-2  -9.230562299489975E-2   6.902958750724793E-1  
 3.010000000000000E7    -9.237907081842423E-2   6.925618648529053E-1   7.023099660873413E-1   9.632163494825363E-2   7.011508941650391E-1   9.639807790517807E-2  -9.133103489875794E-2   6.904153823852539E-1  
 3.012000000000000E7    -9.143903851509094E-2   6.929839849472046E-1   7.026757597923279E-1   9.535270184278488E-2   7.021472454071045E-1   9.580893814563751E-2  -9.062588214874268E-2   6.893088221549988E-1  
 3.014000000000000E7    -9.051188826560974E-2   6.924347877502441E-1   7.029496431350708E-1   9.534367173910141E-2   7.027764916419983E-1   9.515127539634705E-2  -8.959446102380753E-2   6.891511678695679E-1  
 3.016000000000000E7    -8.937747031450272E-2   6.927186250686646E-1   7.036207914352417E-1   9.433589130640030E-2   7.033001184463501E-1   9.418343007564545E-2  -8.923055231571198E-2   6.884008646011353E-1  
 3.018000000000000E7    -8.894107490777969E-2   6.919440031051636E-1   7.043867111206055E-1   9.335846453905106E-2   7.039723992347717E-1   9.352093935012817E-2  -8.844467997550964E-2   6.883338689804077E-1  
 3.020000000000000E7    -8.787025511264801E-2   6.920167207717896E-1   7.048127651214600E-1   9.315923601388931E-2   7.039703130722046E-1   9.305927902460098E-2  -8.747832477092743E-2   6.880691051483154E-1  
 3.022000000000000E7    -8.710687607526779E-2   6.912699341773987E-1   7.052896022796631E-1   9.216322749853134E-2   7.044092416763306E-1   9.235255420207977E-2  -8.711947500705719E-2   6.880239844322205E-1  
 3.024000000000000E7    -8.665127307176590E-2   6.906840801239014E-1   7.058438658714294E-1   9.121394902467728E-2   7.048236727714539E-1   9.164270758628845E-2  -8.612111210823059E-2   6.876196265220642E-1  
 3.026000000000000E7    -8.557087182998657E-2   6.905800700187683E-1   7.063152790069580E-1   9.106964617967606E-2   7.056502699851990E-1   9.096815437078476E-2  -8.505498617887497E-2   6.866813302040100E-1  
 3.028000000000000E7    -8.494760096073151E-2   6.902630329132080E-1   7.067112922668457E-1   9.000609070062637E-2   7.062969207763672E-1   8.973447978496552E-2  -8.478336036205292E-2   6.865991353988648E-1  
 3.030000000000000E7    -8.417212963104248E-2   6.894379258155823E-1   7.076171636581421E-1   8.965948224067688E-2   7.069433927536011E-1   8.960752189159393E-2  -8.385397493839264E-2   6.863452792167664E-1  
 3.032000000000000E7    -8.279254287481308E-2   6.891411542892456E-1   7.077415585517883E-1   8.887161314487457E-2   7.076779007911682E-1   8.890105783939362E-2  -8.331426978111267E-2   6.857593059539795E-1  
 3.034000000000000E7    -8.227625489234924E-2   6.894354820251465E-1   7.078931927680969E-1   8.796835690736771E-2   7.077004313468933E-1   8.826112002134323E-2  -8.222635090351105E-2   6.857810616493225E-1  
 3.036000000000000E7    -8.174682408571243E-2   6.883482336997986E-1   7.090226411819458E-1   8.768349885940552E-2   7.081390023231506E-1   8.750451356172562E-2  -8.142401278018951E-2   6.854774355888367E-1  
 3.038000000000000E7    -8.104237169027329E-2   6.883126497268677E-1   7.094001173973084E-1   8.639346808195114E-2   7.092507481575012E-1   8.666286617517471E-2  -8.064769953489304E-2   6.849170327186585E-1  
 3.040000000000000E7    -7.958172261714935E-2   6.881579756736755E-1   7.100554108619690E-1   8.631633222103119E-2   7.093961834907532E-1   8.587086945772171E-2  -8.037541061639786E-2   6.843725442886353E-1  
 3.042000000000000E7    -7.961890101432800E-2   6.871019005775452E-1   7.106626629829407E-1   8.536390960216522E-2   7.099862098693848E-1   8.522711694240570E-2  -7.912120223045349E-2   6.841459870338440E-1  
 3.044000000000000E7    -7.914713770151138E-2   6.866961717605591E-1   7.115023136138916E-1   8.416201919317246E-2   7.100747823715210E-1   8.443850278854370E-2  -7.829184830188751E-2   6.843132376670837E-1  
 3.046000000000000E7    -7.795493304729462E-2   6.869273185729981E-1   7.116030454635620E-1   8.345761150121689E-2   7.111416459083557E-1   8.369890600442886E-2  -7.738751918077469E-2   6.833196878433228E-1  
 3.048000000000000E7    -7.708896696567535E-2   6.868671178817749E-1   7.118498086929321E-1   8.296608924865723E-2   7.111458778381348E-1   8.328028023242950E-2  -7.668600976467133E-2   6.833389997482300E-1  
 3.050000000000000E7    -7.671330869197846E-2   6.861103773117065E-1   7.128373384475708E-1   8.215679973363876E-2   7.114723324775696E-1   8.253473043441773E-2  -7.572829723358154E-2   6.831302046775818E-1  
 3.052000000000000E7    -7.555130869150162E-2   6.857366561889648E-1   7.131988406181335E-1   8.169683814048767E-2   7.123472094535828E-1   8.146899938583374E-2  -7.561383396387100E-2   6.826949715614319E-1  
 3.054000000000000E7    -7.454501092433929E-2   6.850306391716003E-1   7.140081524848938E-1   8.133272826671600E-2   7.129699587821960E-1   8.107597380876541E-2  -7.451552897691727E-2   6.822953224182129E-1  
 3.056000000000000E7    -7.412777841091156E-2   6.850907802581787E-1   7.141762375831604E-1   8.024566620588303E-2   7.133845686912537E-1   8.042983710765839E-2  -7.380134612321854E-2   6.816972494125366E-1  
 3.058000000000000E7    -7.341213524341583E-2   6.845633983612061E-1   7.144928574562073E-1   7.939735054969788E-2   7.136776447296143E-1   7.925367355346680E-2  -7.319969683885574E-2   6.821307539939880E-1  
 3.060000000000000E7    -7.265511900186539E-2   6.844976544380188E-1   7.152196764945984E-1   7.889977842569351E-2   7.145099043846130E-1   7.868194580078125E-2  -7.253071665763855E-2   6.810403466224670E-1  
 3.062000000000000E7    -7.217554003000259E-2   6.840746402740479E-1   7.157956361770630E-1   7.827813178300858E-2   7.152202129364014E-1   7.852850109338760E-2  -7.084327191114426E-2   6.808982491493225E-1  
 3.064000000000000E7    -7.090045511722565E-2   6.833380460739136E-1   7.165540456771851E-1   7.730928063392639E-2   7.159629464149475E-1   7.743297517299652E-2  -7.084921002388001E-2   6.798654198646545E-1  
 3.066000000000000E7    -7.001131772994995E-2   6.831507086753845E-1   7.169421315193176E-1   7.689035683870316E-2   7.160142064094544E-1   7.662737369537354E-2  -6.992163509130478E-2   6.800156235694885E-1  
 3.068000000000000E7    -6.952039152383804E-2   6.830521821975708E-1   7.171992659568787E-1   7.574473321437836E-2   7.166297435760498E-1   7.626666128635407E-2  -6.929187476634979E-2   6.796831488609314E-1  
 3.070000000000000E7    -6.883371621370316E-2   6.827328801155090E-1   7.174316048622131E-1   7.527852803468704E-2   7.170639038085938E-1   7.517133653163910E-2  -6.828253716230393E-2   6.792165040969849E-1  
 3.072000000000000E7    -6.813225895166397E-2   6.826002001762390E-1   7.179272174835205E-1   7.484584301710129E-2   7.173506021499634E-1   7.430437207221985E-2  -6.755429506301880E-2   6.790772080421448E-1  
 3.074000000000000E7    -6.741004437208176E-2   6.815519332885742E-1   7.185523509979248E-1   7.382568717002869E-2   7.180140614509583E-1   7.378382235765457E-2  -6.653128564357758E-2   6.785402894020081E-1  
 3.076000000000000E7    -6.671675294637680E-2   6.816222667694092E-1   7.191888093948364E-1   7.289405912160873E-2   7.188348174095154E-1   7.335381954908371E-2  -6.638762354850769E-2   6.777905225753784E-1  
 3.078000000000000E7    -6.584863364696503E-2   6.812111735343933E-1   7.196237444877625E-1   7.188315689563751E-2   7.188749313354492E-1   7.226188480854034E-2  -6.542649865150452E-2   6.776142120361328E-1  
 3.080000000000000E7    -6.542915105819702E-2   6.805529594421387E-1   7.198822498321533E-1   7.175546884536743E-2   7.199535369873047E-1   7.194313406944275E-2  -6.419433653354645E-2   6.770092844963074E-1  
 3.082000000000000E7    -6.395451724529266E-2   6.803855895996094E-1   7.204513549804688E-1   7.114374637603760E-2   7.203828096389771E-1   7.109209150075913E-2  -6.419735401868820E-2   6.764965057373047E-1  
 3.084000000000000E7    -6.342744082212448E-2   6.802666187286377E-1   7.211310267448425E-1   7.046226412057877E-2   7.202906608581543E-1   7.031831145286560E-2  -6.303579360246658E-2   6.763441562652588E-1  
 3.086000000000000E7    -6.260804831981659E-2   6.793829202651978E-1   7.218854427337647E-1   6.908822804689407E-2   7.207919955253601E-1   6.915074586868286E-2  -6.265645474195480E-2   6.764701604843140E-1  
 3.088000000000000E7    -6.192701309919357E-2   6.793148517608643E-1   7.219190597534180E-1   6.858242303133011E-2   7.218894362449646E-1   6.915497034788132E-2  -6.171762198209763E-2   6.756755113601685E-1  
 3.090000000000000E7    -6.142474710941315E-2   6.788684129714966E-1   7.227428555488586E-1   6.760989129543304E-2   7.223036885261536E-1   6.822530180215836E-2  -6.060064584016800E-2   6.754550933837891E-1  
 3.092000000000000E7    -5.990711599588394E-2   6.780683994293213E-1   7.236141562461853E-1   6.750251352787018E-2   7.224605679512024E-1   6.718131154775620E-2  -6.010647118091583E-2   6.753650307655335E-1  
 3.094000000000000E7    -5.994102358818054E-2   6.781841516494751E-1   7.235846519470215E-1   6.612361222505570E-2   7.229402661323547E-1   6.653557717800140E-2  -5.926501750946045E-2   6.745678186416626E-1  
 3.096000000000000E7    -5.880890786647797E-2   6.775292754173279E-1   7.240613102912903E-1   6.567532569169998E-2   7.231747508049011E-1   6.558407098054886E-2  -5.877690017223358E-2   6.746369004249573E-1  
 3.098000000000000E7    -5.805587768554688E-2   6.772241592407227E-1   7.243508696556091E-1   6.511317938566208E-2   7.239897251129150E-1   6.555631756782532E-2  -5.759444087743759E-2   6.744930744171143E-1  
 3.100000000000000E7    -5.712343752384186E-2   6.769030690193176E-1   7.252660989761353E-1   6.427738070487976E-2   7.246949076652527E-1   6.431974470615387E-2  -5.744608491659164E-2   6.738004088401794E-1  
 3.102000000000000E7    -5.606807023286820E-2   6.760276556015015E-1   7.260666489601135E-1   6.415022909641266E-2   7.250526547431946E-1   6.395515799522400E-2  -5.639434233307838E-2   6.736171245574951E-1  
 3.104000000000000E7    -5.640893802046776E-2   6.755741834640503E-1   7.267096638679504E-1   6.246783584356308E-2   7.254509925842285E-1   6.319615989923477E-2  -5.503976717591286E-2   6.728906631469727E-1  
 3.106000000000000E7    -5.485096573829651E-2   6.755710840225220E-1   7.265846729278565E-1   6.274268031120300E-2   7.258889675140381E-1   6.250976771116257E-2  -5.495614185929298E-2   6.726993918418884E-1  
 3.108000000000000E7    -5.473165214061737E-2   6.750517487525940E-1   7.270396351814270E-1   6.143318489193916E-2   7.263690233230591E-1   6.184431165456772E-2  -5.403644591569901E-2   6.722332239151001E-1  
 3.110000000000000E7    -5.381748825311661E-2   6.752015352249146E-1   7.275137305259705E-1   6.040986254811287E-2   7.271249294281006E-1   6.058700010180473E-2  -5.350007116794586E-2   6.714488267898560E-1  
 3.112000000000000E7    -5.327255278825760E-2   6.748229265213013E-1   7.279622554779053E-1   5.980406329035759E-2   7.275964617729187E-1   6.032830849289894E-2  -5.238164216279984E-2   6.714278459548950E-1  
 3.114000000000000E7    -5.185117945075035E-2   6.743513941764832E-1   7.286158204078674E-1   5.928944051265717E-2   7.279732227325440E-1   5.932663381099701E-2  -5.198051407933235E-2   6.707995533943176E-1  
 3.116000000000000E7    -5.151460692286491E-2   6.740397810935974E-1   7.287929058074951E-1   5.844222009181976E-2   7.284868359565735E-1   5.870335176587105E-2  -5.106083303689957E-2   6.703342199325562E-1  
 3.118000000000000E7    -5.086120963096619E-2   6.731332540512085E-1   7.296726107597351E-1   5.775823071599007E-2   7.286440730094910E-1   5.768548697233200E-2  -5.071198567748070E-2   6.703579425811768E-1  
 3.120000000000000E7    -4.968488961458206E-2   6.726638078689575E-1   7.300872206687927E-1   5.757968500256538E-2   7.291762232780457E-1   5.738944560289383E-2  -4.936356097459793E-2   6.696632504463196E-1  
 3.122000000000000E7    -4.936366900801659E-2   6.725035309791565E-1   7.300558090209961E-1   5.594582110643387E-2   7.296650409698486E-1   5.606173351407051E-2  -4.906485229730606E-2   6.692201495170593E-1  
 3.124000000000000E7    -4.817881062626839E-2   6.719990968704224E-1   7.309711575508118E-1   5.564230680465698E-2   7.299725413322449E-1   5.565538257360458E-2  -4.820375517010689E-2   6.690332293510437E-1  
 3.126000000000000E7    -4.770787060260773E-2   6.716952323913574E-1   7.312210798263550E-1   5.446492880582809E-2   7.309511899948120E-1   5.484552681446075E-2  -4.730410128831863E-2   6.683130264282227E-1  
 3.128000000000000E7    -4.725023359060288E-2   6.711205244064331E-1   7.319040298461914E-1   5.418425798416138E-2   7.311347126960754E-1   5.474402382969856E-2  -4.633774235844612E-2   6.686215996742249E-1  
 3.130000000000000E7    -4.625917971134186E-2   6.707299947738648E-1   7.322387099266052E-1   5.334580689668655E-2   7.316547632217407E-1   5.382333695888519E-2  -4.570314660668373E-2   6.677062511444092E-1  
 3.132000000000000E7    -4.560298472642899E-2   6.698989868164063E-1   7.332116365432739E-1   5.231959745287895E-2   7.320863008499146E-1   5.269028991460800E-2  -4.513213038444519E-2   6.674382686614990E-1  
 3.134000000000000E7    -4.501425474882126E-2   6.702970862388611E-1   7.330105304718018E-1   5.146310478448868E-2   7.323215007781982E-1   5.184527486562729E-2  -4.435448348522186E-2   6.671147942543030E-1  
 3.136000000000000E7    -4.390685260295868E-2   6.697359085083008E-1   7.340683937072754E-1   5.116811394691467E-2   7.329176068305969E-1   5.144420266151428E-2  -4.351471364498138E-2   6.665554046630859E-1  
 3.138000000000000E7    -4.273213073611260E-2   6.689687371253967E-1   7.344346046447754E-1   5.049304664134979E-2   7.328093647956848E-1   5.016332119703293E-2  -4.328432679176331E-2   6.666002273559570E-1  
 3.140000000000000E7    -4.279826954007149E-2   6.684226393699646E-1   7.348580956459045E-1   4.926110804080963E-2   7.336966395378113E-1   4.978565871715546E-2  -4.216405004262924E-2   6.660001277923584E-1  
 3.142000000000000E7    -4.217966273427010E-2   6.681455373764038E-1   7.353739738464356E-1   4.870199039578438E-2   7.346624135971069E-1   4.874457418918610E-2  -4.163959249854088E-2   6.654669642448425E-1  
 3.144000000000000E7    -4.112828522920609E-2   6.679337620735169E-1   7.355476617813110E-1   4.778203368186951E-2   7.353200316429138E-1   4.781575128436089E-2  -4.088748246431351E-2   6.647133827209473E-1  
 3.146000000000000E7    -3.993282094597817E-2   6.676967144012451E-1   7.358423471450806E-1   4.706618189811707E-2   7.352705001831055E-1   4.720200225710869E-2  -4.051911458373070E-2   6.646602749824524E-1  
 3.148000000000000E7    -3.948751464486122E-2   6.665042042732239E-1   7.370723485946655E-1   4.655705764889717E-2   7.359657287597656E-1   4.661621898412705E-2  -3.938695043325424E-2   6.646054387092590E-1  
 3.150000000000000E7    -3.885842859745026E-2   6.662541627883911E-1   7.369912862777710E-1   4.556782171130180E-2   7.364643812179565E-1   4.582601785659790E-2  -3.877224773168564E-2   6.637759804725647E-1  
 3.152000000000000E7    -3.862559795379639E-2   6.661667823791504E-1   7.375560998916626E-1   4.479956999421120E-2   7.373621463775635E-1   4.495387151837349E-2  -3.758294507861137E-2   6.632645726203919E-1  
 3.154000000000000E7    -3.741141036152840E-2   6.662299633026123E-1   7.378064393997192E-1   4.426247626543045E-2   7.375338077545166E-1   4.440903291106224E-2  -3.751867637038231E-2   6.625676155090332E-1  
 3.156000000000000E7    -3.702202066779137E-2   6.653561592102051E-1   7.386383414268494E-1   4.293248429894447E-2   7.380265593528748E-1   4.332838207483292E-2  -3.640189766883850E-2   6.623503565788269E-1  
 3.158000000000000E7    -3.581925481557846E-2   6.649108529090881E-1   7.391394376754761E-1   4.266668483614922E-2   7.381398677825928E-1   4.334239661693573E-2  -3.567363694310188E-2   6.624234914779663E-1  
 3.160000000000000E7    -3.507775813341141E-2   6.649197936058044E-1   7.392432689666748E-1   4.168013855814934E-2   7.387753725051880E-1   4.211847484111786E-2  -3.527178615331650E-2   6.614642739295960E-1  
 3.162000000000000E7    -3.457309678196907E-2   6.639482975006104E-1   7.398127913475037E-1   4.142764210700989E-2   7.393224835395813E-1   4.140225052833557E-2  -3.414652496576309E-2   6.612185835838318E-1  
 3.164000000000000E7    -3.383545577526093E-2   6.633767485618591E-1   7.405206561088562E-1   4.036913067102432E-2   7.392592430114746E-1   4.023187234997749E-2  -3.387968242168427E-2   6.612300872802734E-1  
 3.166000000000000E7    -3.289017826318741E-2   6.629958748817444E-1   7.409170269966126E-1   3.948818892240524E-2   7.401381731033325E-1   4.001433402299881E-2  -3.246100991964340E-2   6.604692339897156E-1  
 3.168000000000000E7    -3.207952529191971E-2   6.630960702896118E-1   7.410178780555725E-1   3.875637426972389E-2   7.406270503997803E-1   3.864744305610657E-2  -3.237681090831757E-2   6.597092747688294E-1  
 3.170000000000000E7    -3.149072453379631E-2   6.622219085693359E-1   7.417807579040527E-1   3.811489045619965E-2   7.406943440437317E-1   3.814039751887322E-2  -3.144365549087524E-2   6.597368121147156E-1  
 3.172000000000000E7    -3.111515194177628E-2   6.619109511375427E-1   7.419028878211975E-1   3.694267570972443E-2   7.412825226783752E-1   3.744799643754959E-2  -3.050990402698517E-2   6.594120264053345E-1  
 3.174000000000000E7    -3.028850257396698E-2   6.616715788841248E-1   7.428256869316101E-1   3.630567342042923E-2   7.420498728752136E-1   3.682803362607956E-2  -2.978976815938950E-2   6.583492159843445E-1  
 3.176000000000000E7    -2.960486337542534E-2   6.612931489944458E-1   7.427881956100464E-1   3.578858077526093E-2   7.423666715621948E-1   3.636075556278229E-2  -2.871022745966911E-2   6.581733226776123E-1  
 3.178000000000000E7    -2.856728062033653E-2   6.605831980705261E-1   7.434256672859192E-1   3.495254367589951E-2   7.428858280181885E-1   3.496613353490830E-2  -2.858958020806313E-2   6.579464077949524E-1  
 3.180000000000000E7    -2.825103327631950E-2   6.605603694915772E-1   7.439494132995606E-1   3.373047709465027E-2   7.434481978416443E-1   3.425224125385284E-2  -2.769073843955994E-2   6.569837331771851E-1  
 3.182000000000000E7    -2.695824578404427E-2   6.599545478820801E-1   7.440739870071411E-1   3.367015719413757E-2   7.435739636421204E-1   3.322795405983925E-2  -2.734144777059555E-2   6.570773720741272E-1  
 3.184000000000000E7    -2.689940109848976E-2   6.589646339416504E-1   7.447982430458069E-1   3.256661817431450E-2   7.443484663963318E-1   3.253580629825592E-2  -2.652877569198608E-2   6.568020582199097E-1  
 3.186000000000000E7    -2.577399834990501E-2   6.596314907073975E-1   7.449849247932434E-1   3.202202171087265E-2   7.450469732284546E-1   3.193581849336624E-2  -2.587378770112991E-2   6.557525992393494E-1  
 3.188000000000000E7    -2.535569295287132E-2   6.580843329429627E-1   7.460526227951050E-1   3.127223625779152E-2   7.451389431953430E-1   3.106836043298245E-2  -2.465696632862091E-2   6.556866168975830E-1  
 3.190000000000000E7    -2.431957423686981E-2   6.579778194427490E-1   7.459966540336609E-1   3.021167591214180E-2   7.454316616058350E-1   3.009038604795933E-2  -2.450893819332123E-2   6.551399827003479E-1  
 3.192000000000000E7    -2.347969636321068E-2   6.577350497245789E-1   7.468024492263794E-1   2.972239255905151E-2   7.460941076278687E-1   3.005003929138184E-2  -2.318006753921509E-2   6.547070741653442E-1  
 3.194000000000000E7    -2.265718579292297E-2   6.572788953781128E-1   7.468385696411133E-1   2.908347733318806E-2   7.459190487861633E-1   2.863270789384842E-2  -2.284051850438118E-2   6.546821594238281E-1  
 3.196000000000000E7    -2.233858406543732E-2   6.569076180458069E-1   7.471744418144226E-1   2.773251757025719E-2   7.469738125801086E-1   2.810983546078205E-2  -2.253606915473938E-2   6.537117362022400E-1  
 3.198000000000000E7    -2.122038602828980E-2   6.561192870140076E-1   7.479329705238342E-1   2.676708810031414E-2   7.478132247924805E-1   2.675366215407848E-2  -2.179437130689621E-2   6.532252430915833E-1  
 3.200000000000000E7    -2.075717225670815E-2   6.558327078819275E-1   7.483456134796143E-1   2.623593807220459E-2   7.476684451103210E-1   2.669207751750946E-2  -2.080167084932327E-2   6.527268886566162E-1  
 3.202000000000000E7    -2.030511572957039E-2   6.554671525955200E-1   7.486785650253296E-1   2.485256642103195E-2   7.483570575714111E-1   2.548208087682724E-2  -2.010120078921318E-2   6.522084474563599E-1  
 3.204000000000000E7    -1.940491050481796E-2   6.544866561889648E-1   7.494288682937622E-1   2.462067455053330E-2   7.488951086997986E-1   2.468101307749748E-2  -1.952995359897614E-2   6.521772146224976E-1  
 3.206000000000000E7    -1.866073533892632E-2   6.542438268661499E-1   7.496923804283142E-1   2.394163608551025E-2   7.492309808731079E-1   2.371133118867874E-2  -1.904120296239853E-2   6.517302393913269E-1  
 3.208000000000000E7    -1.788473501801491E-2   6.537438035011292E-1   7.502322793006897E-1   2.295562997460365E-2   7.497164607048035E-1   2.301012910902500E-2  -1.840389892458916E-2   6.511775851249695E-1  
 3.210000000000000E7    -1.700419932603836E-2   6.533246636390686E-1   7.506231665611267E-1   2.245368994772434E-2   7.498031854629517E-1   2.243044413626194E-2  -1.740140467882156E-2   6.506938338279724E-1  
 3.212000000000000E7    -1.676246896386147E-2   6.530489325523377E-1   7.505520582199097E-1   2.122270688414574E-2   7.505707144737244E-1   2.200552634894848E-2  -1.618115603923798E-2   6.505916714668274E-1  
 3.214000000000000E7    -1.601889729499817E-2   6.532773375511169E-1   7.510882616043091E-1   2.099683135747910E-2   7.503699064254761E-1   2.140726335346699E-2  -1.514432579278946E-2   6.498552560806274E-1  
 3.216000000000000E7    -1.497794315218926E-2   6.520715951919556E-1   7.516762018203735E-1   1.995065435767174E-2   7.513670325279236E-1   2.008854970335960E-2  -1.535758376121521E-2   6.496407389640808E-1  
 3.218000000000000E7    -1.506430283188820E-2   6.520123481750488E-1   7.519373893737793E-1   1.875418052077293E-2   7.515585422515869E-1   1.902429573237896E-2  -1.449007913470268E-2   6.491050720214844E-1  
 3.220000000000000E7    -1.453815400600433E-2   6.518548727035523E-1   7.523455619812012E-1   1.803015917539597E-2   7.520085573196411E-1   1.871737092733383E-2  -1.352356746792793E-2   6.482219099998474E-1  
 3.222000000000000E7    -1.330896839499474E-2   6.512117981910706E-1   7.526534199714661E-1   1.757115684449673E-2   7.520104646682739E-1   1.765409298241139E-2  -1.303064823150635E-2   6.481834053993225E-1  
 3.224000000000000E7    -1.268428564071655E-2   6.503182649612427E-1   7.535602450370789E-1   1.667754165828228E-2   7.529888153076172E-1   1.658283174037933E-2  -1.270285248756409E-2   6.474049687385559E-1  
 3.226000000000000E7    -1.167123764753342E-2   6.496480703353882E-1   7.544361948966980E-1   1.629549451172352E-2   7.532107830047607E-1   1.594798639416695E-2  -1.153251156210899E-2   6.467434167861939E-1  
 3.228000000000000E7    -1.117694005370140E-2   6.494479179382324E-1   7.544294595718384E-1   1.515773870050907E-2   7.540279626846314E-1   1.526301354169846E-2  -1.093651354312897E-2   6.467429399490356E-1  
 3.230000000000000E7    -1.094193011522293E-2   6.487034559249878E-1   7.551718950271606E-1   1.400092244148254E-2   7.547334432601929E-1   1.463830657303333E-2  -9.998995810747147E-3   6.459562778472900E-1  
 3.232000000000000E7    -9.459890425205231E-3   6.483729481697083E-1   7.552475929260254E-1   1.334556192159653E-2   7.550558447837830E-1   1.305364817380905E-2  -1.000513508915901E-2   6.453359723091126E-1  
 3.234000000000000E7    -8.875723928213120E-3   6.481384634971619E-1   7.556273341178894E-1   1.316429115831852E-2   7.547507286071777E-1   1.353725232183933E-2  -8.385386317968369E-3   6.456017494201660E-1  
 3.236000000000000E7    -8.148618042469025E-3   6.475857496261597E-1   7.562245130538940E-1   1.205659471452236E-2   7.559277415275574E-1   1.248344127088785E-2  -8.162982761859894E-3   6.446378231048584E-1  
 3.238000000000000E7    -7.640026509761810E-3   6.471468210220337E-1   7.566024661064148E-1   1.121895387768745E-2   7.558112740516663E-1   1.185845211148262E-2  -7.118459790945053E-3   6.443613767623901E-1  
 3.240000000000000E7    -7.034409791231155E-3   6.467624306678772E-1   7.572048306465149E-1   1.018518581986427E-2   7.564774751663208E-1   1.067705824971199E-2  -6.612725555896759E-3   6.439536213874817E-1  
 3.242000000000000E7    -5.909297615289688E-3   6.461502313613892E-1   7.574888467788696E-1   9.959759190678597E-3   7.569093704223633E-1   9.335154667496681E-3  -6.002224981784821E-3   6.434032917022705E-1  
 3.244000000000000E7    -5.513399839401245E-3   6.457722187042236E-1   7.579311132431030E-1   8.786233142018318E-3   7.577289938926697E-1   8.938090875744820E-3  -5.175311118364334E-3   6.426824927330017E-1  
 3.246000000000000E7    -4.375550895929337E-3   6.452452540397644E-1   7.581593394279480E-1   8.282631635665894E-3   7.581012248992920E-1   8.455649018287659E-3  -4.856195300817490E-3   6.420794129371643E-1  
 3.248000000000000E7    -4.566214978694916E-3   6.446743011474609E-1   7.585031390190125E-1   6.652042269706726E-3   7.582568526268005E-1   7.631355896592140E-3  -3.898952156305313E-3   6.420330405235291E-1  
 3.250000000000000E7    -3.177002072334290E-3   6.441532969474793E-1   7.588689923286438E-1   6.772531196475029E-3   7.586505413055420E-1   6.825579330325127E-3  -3.179416060447693E-3   6.417747735977173E-1  
 3.252000000000000E7    -2.808559685945511E-3   6.440691947937012E-1   7.593526840209961E-1   5.588592961430550E-3   7.588645815849304E-1   5.686365067958832E-3  -2.774763852357864E-3   6.412066817283630E-1  
 3.254000000000000E7    -2.109181135892868E-3   6.432251334190369E-1   7.600351572036743E-1   4.403386265039444E-3   7.592542171478272E-1   4.628445953130722E-3  -1.861277967691422E-3   6.409348845481873E-1  
 3.256000000000000E7    -1.312494277954102E-3   6.426043510437012E-1   7.604515552520752E-1   4.012051969766617E-3   7.596940994262695E-1   3.963731229305267E-3  -1.197535544633865E-3   6.401485800743103E-1  
 3.258000000000000E7    -9.671524167060852E-4   6.422436237335205E-1   7.607187628746033E-1   3.088669851422310E-3   7.601835131645203E-1   3.636296838521957E-3  -7.552243769168854E-4   6.395322680473328E-1  
 3.260000000000000E7     1.117736101150513E-4   6.422781944274902E-1   7.611210346221924E-1   2.473857253789902E-3   7.610310912132263E-1   2.441706135869026E-3   1.602806150913239E-4   6.383846998214722E-1  
 3.262000000000000E7     6.814338266849518E-4   6.420753002166748E-1   7.610039114952087E-1   1.387562602758408E-3   7.614558339118958E-1   1.669706776738167E-3   6.562843918800354E-4   6.382149457931519E-1  
 3.264000000000000E7     9.017325937747955E-4   6.411955952644348E-1   7.624114751815796E-1   4.643239371944219E-4   7.614852786064148E-1   8.535794913768768E-4   1.651495695114136E-3   6.383592486381531E-1  
 3.266000000000000E7     1.982137560844421E-3   6.409006118774414E-1   7.619699239730835E-1  -5.527211033040658E-5   7.618589997291565E-1   4.442967474460602E-4   2.579282969236374E-3   6.379047036170960E-1  
 3.268000000000000E7     2.802386879920960E-3   6.399794220924377E-1   7.624328136444092E-1  -6.757751107215881E-4   7.625222802162170E-1  -6.912648677825928E-4   2.647329121828079E-3   6.374345421791077E-1  
 3.270000000000000E7     3.545049577951431E-3   6.395680308341980E-1   7.630487680435181E-1  -1.616384834051132E-3   7.626078128814697E-1  -1.579247415065765E-3   3.655739128589630E-3   6.370953321456909E-1  
 3.272000000000000E7     3.753937780857086E-3   6.390187740325928E-1   7.635391950607300E-1  -2.939339727163315E-3   7.624647021293640E-1  -2.206005156040192E-3   4.224393516778946E-3   6.366949677467346E-1  
 3.274000000000000E7     4.802916198968887E-3   6.385032534599304E-1   7.640402317047119E-1  -3.588467836380005E-3   7.632489800453186E-1  -3.225553780794144E-3   4.716422408819199E-3   6.359350681304932E-1  
 3.276000000000000E7     5.296673625707626E-3   6.382629275321960E-1   7.644809484481812E-1  -4.414152354001999E-3   7.641100883483887E-1  -4.574757069349289E-3   5.199484527111054E-3   6.350214481353760E-1  
 3.278000000000000E7     5.866277962923050E-3   6.374815106391907E-1   7.649159431457520E-1  -5.163207650184631E-3   7.641077637672424E-1  -4.957735538482666E-3   6.231736391782761E-3   6.346571445465088E-1  
 3.280000000000000E7     6.688877940177918E-3   6.372143030166626E-1   7.648229598999023E-1  -6.037939339876175E-3   7.644807696342468E-1  -5.832847207784653E-3   6.892971694469452E-3   6.342896223068237E-1  
 3.282000000000000E7     7.606126368045807E-3   6.362348198890686E-1   7.656043171882629E-1  -6.303757429122925E-3   7.650476098060608E-1  -6.426442414522171E-3   7.587786763906479E-3   6.338959932327271E-1  
 3.284000000000000E7     7.232960313558579E-3   6.361885666847229E-1   7.658016085624695E-1  -8.282728493213654E-3   7.658424377441406E-1  -7.714502513408661E-3   8.308175951242447E-3   6.332691907882690E-1  
 3.286000000000000E7     8.644286543130875E-3   6.355714797973633E-1   7.661671042442322E-1  -8.914422243833542E-3   7.657781243324280E-1  -8.408896625041962E-3   8.361689746379852E-3   6.328644752502441E-1  
 3.288000000000000E7     9.208697825670242E-3   6.350193619728088E-1   7.665702700614929E-1  -9.220622479915619E-3   7.662103176116943E-1  -8.971411734819412E-3   9.662240743637085E-3   6.325030326843262E-1  
 3.290000000000000E7     9.932901710271835E-3   6.349822282791138E-1   7.666432261466980E-1  -1.004398614168167E-2   7.665194869041443E-1  -9.764462709426880E-3   1.039152964949608E-2   6.317861080169678E-1  
 3.292000000000000E7     1.105652749538422E-2   6.342306733131409E-1   7.673279047012329E-1  -1.089857518672943E-2   7.674091458320618E-1  -1.059319078922272E-2   1.063722372055054E-2   6.310973763465881E-1  
 3.294000000000000E7     1.184045523405075E-2   6.332582831382752E-1   7.679363489151001E-1  -1.144755631685257E-2   7.672286033630371E-1  -1.152921095490456E-2   1.137383654713631E-2   6.309580802917481E-1  
 3.296000000000000E7     1.177465170621872E-2   6.334828734397888E-1   7.682265043258667E-1  -1.305458322167397E-2   7.677800655364990E-1  -1.253217831254005E-2   1.237754151225090E-2   6.303164362907410E-1  
 3.298000000000000E7     1.243784651160240E-2   6.325091123580933E-1   7.689532041549683E-1  -1.363975554704666E-2   7.684636712074280E-1  -1.333736255764961E-2   1.302748173475266E-2   6.294890642166138E-1  
 3.300000000000000E7     1.306702569127083E-2   6.320397257804871E-1   7.693650722503662E-1  -1.435280218720436E-2   7.689228653907776E-1  -1.373161002993584E-2   1.407114043831825E-2   6.293236017227173E-1  
 3.302000000000000E7     1.417397335171700E-2   6.318104267120361E-1   7.694322466850281E-1  -1.492869481444359E-2   7.693703174591065E-1  -1.462014019489288E-2   1.425891369581223E-2   6.282209753990173E-1  
 3.304000000000000E7     1.464516296982765E-2   6.313145160675049E-1   7.695212364196777E-1  -1.608126610517502E-2   7.693244814872742E-1  -1.588468253612518E-2   1.466552168130875E-2   6.284947991371155E-1  
 3.306000000000000E7     1.535522937774658E-2   6.307205557823181E-1   7.703227400779724E-1  -1.671154052019119E-2   7.696447372436523E-1  -1.657195016741753E-2   1.532975956797600E-2   6.275574564933777E-1  
 3.308000000000000E7     1.605580747127533E-2   6.297261118888855E-1   7.703901529312134E-1  -1.749781519174576E-2   7.701644301414490E-1  -1.686247065663338E-2   1.641208678483963E-2   6.273284554481506E-1  
 3.310000000000000E7     1.703865081071854E-2   6.291508674621582E-1   7.709614634513855E-1  -1.847442984580994E-2   7.704532146453857E-1  -1.834119111299515E-2   1.679294556379318E-2   6.269500255584717E-1  
 3.312000000000000E7     1.725804060697556E-2   6.293368339538574E-1   7.712048292160034E-1  -1.915148645639420E-2   7.707284688949585E-1  -1.896690949797630E-2   1.733148843050003E-2   6.266837716102600E-1  
 3.314000000000000E7     1.770714670419693E-2   6.284061670303345E-1   7.713558673858643E-1  -2.058537304401398E-2   7.712370157241821E-1  -2.033356204628944E-2   1.790340244770050E-2   6.261134743690491E-1  
 3.316000000000000E7     1.901608705520630E-2   6.278956532478333E-1   7.719414234161377E-1  -2.109307795763016E-2   7.716058492660523E-1  -2.065453678369522E-2   1.902317628264427E-2   6.252541542053223E-1  
 3.318000000000000E7     1.980962976813316E-2   6.274765729904175E-1   7.723118066787720E-1  -2.152168005704880E-2   7.718775868415833E-1  -2.166917175054550E-2   1.927147060632706E-2   6.249356269836426E-1  
 3.320000000000000E7     1.993942633271217E-2   6.264514923095703E-1   7.730069756507874E-1  -2.286119014024735E-2   7.721393704414368E-1  -2.249478921294212E-2   2.009176462888718E-2   6.244062185287476E-1  
 3.322000000000000E7     2.059779316186905E-2   6.261849999427795E-1   7.734117507934570E-1  -2.337634190917015E-2   7.727695703506470E-1  -2.322826907038689E-2   2.073217183351517E-2   6.239103078842163E-1  
 3.324000000000000E7     2.078064531087875E-2   6.260747313499451E-1   7.732227444648743E-1  -2.469518035650253E-2   7.728667259216309E-1  -2.423992380499840E-2   2.123467996716499E-2   6.234878301620483E-1  
 3.326000000000000E7     2.253303304314613E-2   6.252904534339905E-1   7.738074660301209E-1  -2.474369108676910E-2   7.736809253692627E-1  -2.552789822220802E-2   2.148977294564247E-2   6.229560971260071E-1  
 3.328000000000000E7     2.215667068958283E-2   6.251351237297058E-1   7.740681171417236E-1  -2.617979422211647E-2   7.740561366081238E-1  -2.595660090446472E-2   2.284247428178787E-2   6.226375699043274E-1  
 3.330000000000000E7     2.288041263818741E-2   6.245112419128418E-1   7.747018337249756E-1  -2.705656737089157E-2   7.743302583694458E-1  -2.671588584780693E-2   2.307941019535065E-2   6.219393014907837E-1  
 3.332000000000000E7     2.372231706976891E-2   6.234686374664307E-1   7.751086950302124E-1  -2.777981013059616E-2   7.744666934013367E-1  -2.764762938022614E-2   2.412221208214760E-2   6.216483116149902E-1  
 3.334000000000000E7     2.490418031811714E-2   6.236401796340942E-1   7.753386497497559E-1  -2.847591042518616E-2   7.753331661224365E-1  -2.834159880876541E-2   2.431430295109749E-2   6.201987266540527E-1  
 3.336000000000000E7     2.493968978524208E-2   6.225879788398743E-1   7.759819030761719E-1  -2.985488623380661E-2   7.752933502197266E-1  -2.969935536384583E-2   2.510116621851921E-2   6.202770471572876E-1  
 3.338000000000000E7     2.614407241344452E-2   6.221567392349243E-1   7.763168811798096E-1  -3.032299131155014E-2   7.759308815002441E-1  -3.021461144089699E-2   2.562428638339043E-2   6.199843287467957E-1  
 3.340000000000000E7     2.646108716726303E-2   6.219385266304016E-1   7.765572667121887E-1  -3.100653737783432E-2   7.762883305549622E-1  -3.086774051189423E-2   2.671026065945625E-2   6.190810203552246E-1  
 3.342000000000000E7     2.666840702295303E-2   6.213520765304565E-1   7.765617370605469E-1  -3.238525241613388E-2   7.760690450668335E-1  -3.238256648182869E-2   2.701926976442337E-2   6.187178492546082E-1  
 3.344000000000000E7     2.764088660478592E-2   6.207558512687683E-1   7.770585417747498E-1  -3.293595463037491E-2   7.770315408706665E-1  -3.275914862751961E-2   2.770193666219711E-2   6.179990768432617E-1  
 3.346000000000000E7     2.867597341537476E-2   6.203882694244385E-1   7.773395776748657E-1  -3.374980390071869E-2   7.773489952087402E-1  -3.374671563506126E-2   2.782968431711197E-2   6.173732280731201E-1  
 3.348000000000000E7     2.899258211255074E-2   6.198424696922302E-1   7.779295444488525E-1  -3.457784280180931E-2   7.772726416587830E-1  -3.445190191268921E-2   2.899366617202759E-2   6.172292232513428E-1  
 3.350000000000000E7     2.983956784009934E-2   6.194822192192078E-1   7.776839733123779E-1  -3.556997701525688E-2   7.779162526130676E-1  -3.548835963010788E-2   2.931553125381470E-2   6.163561344146729E-1  
 3.352000000000000E7     2.998188883066177E-2   6.189078688621521E-1   7.783159017562866E-1  -3.626744821667671E-2   7.779946327209473E-1  -3.577468171715736E-2   3.063320182263851E-2   6.159943938255310E-1  
 3.354000000000000E7     3.147098049521446E-2   6.178777217864990E-1   7.793678641319275E-1  -3.658801317214966E-2   7.787446975708008E-1  -3.709588944911957E-2   3.081303834915161E-2   6.157137155532837E-1  
 3.356000000000000E7     3.119136020541191E-2   6.174853444099426E-1   7.792654037475586E-1  -3.816990554332733E-2   7.792764306068420E-1  -3.800899162888527E-2   3.205607086420059E-2   6.148207187652588E-1  
 3.358000000000000E7     3.210625797510147E-2   6.171471476554871E-1   7.796665430068970E-1  -3.923300281167030E-2   7.793644070625305E-1  -3.867819905281067E-2   3.238122165203095E-2   6.144318580627441E-1  
 3.360000000000000E7     3.252151980996132E-2   6.163349151611328E-1   7.799692749977112E-1  -4.010161757469177E-2   7.795649170875549E-1  -3.998327627778053E-2   3.262604027986527E-2   6.140146255493164E-1  
 3.362000000000000E7     3.313963115215302E-2   6.160032749176025E-1   7.799661755561829E-1  -4.092404991388321E-2   7.798971533775330E-1  -4.033973813056946E-2   3.353755176067352E-2   6.138398051261902E-1  
 3.364000000000000E7     3.348117321729660E-2   6.156620383262634E-1   7.803699970245361E-1  -4.161693900823593E-2   7.801664471626282E-1  -4.135580733418465E-2   3.417058661580086E-2   6.131176948547363E-1  
 3.366000000000000E7     3.471363335847855E-2   6.151015162467957E-1   7.807991504669190E-1  -4.286950826644898E-2   7.802761793136597E-1  -4.208109155297279E-2   3.482070192694664E-2   6.124371886253357E-1  
 3.368000000000000E7     3.435590118169785E-2   6.142699718475342E-1   7.815244197845459E-1  -4.357111826539040E-2   7.811536788940430E-1  -4.299879074096680E-2   3.554037958383560E-2   6.118347644805908E-1  
 3.370000000000000E7     3.608293831348419E-2   6.140368580818176E-1   7.815753817558289E-1  -4.445445165038109E-2   7.811138629913330E-1  -4.400879517197609E-2   3.567063808441162E-2   6.117898225784302E-1  
 3.372000000000000E7     3.691103681921959E-2   6.132147908210754E-1   7.824646234512329E-1  -4.479179903864861E-2   7.820390462875366E-1  -4.430561885237694E-2   3.698287904262543E-2   6.107549071311951E-1  
 3.374000000000000E7     3.732870519161224E-2   6.128312349319458E-1   7.826093435287476E-1  -4.567163437604904E-2   7.814222574234009E-1  -4.526218399405479E-2   3.756682947278023E-2   6.106926202774048E-1  
 3.376000000000000E7     3.742143139243126E-2   6.117988824844360E-1   7.828339338302612E-1  -4.726565629243851E-2   7.824510931968689E-1  -4.697492718696594E-2   3.799628466367722E-2   6.099314093589783E-1  
 3.378000000000000E7     3.860286623239517E-2   6.121876239776611E-1   7.829515337944031E-1  -4.742110893130302E-2   7.823340892791748E-1  -4.735949635505676E-2   3.857401758432388E-2   6.095030903816223E-1  
 3.380000000000000E7     3.922726213932037E-2   6.107822656631470E-1   7.839086055755615E-1  -4.851050674915314E-2   7.827228307723999E-1  -4.864306375384331E-2   3.894767165184021E-2   6.088426709175110E-1  
 3.382000000000000E7     3.981096297502518E-2   6.102810502052307E-1   7.836853265762329E-1  -4.927674680948257E-2   7.831242084503174E-1  -4.898682236671448E-2   3.974833711981773E-2   6.082174181938171E-1  
 3.384000000000000E7     4.035360366106033E-2   6.098405122756958E-1   7.843158841133118E-1  -5.020691081881523E-2   7.835493683815002E-1  -4.994149133563042E-2   4.047269746661186E-2   6.075605154037476E-1  
 3.386000000000000E7     4.082376882433891E-2   6.096516251564026E-1   7.841747403144836E-1  -5.145044624805450E-2   7.842484116554260E-1  -5.078801140189171E-2   4.101263731718063E-2   6.065973043441773E-1  
 3.388000000000000E7     4.135077819228172E-2   6.090151667594910E-1   7.845437526702881E-1  -5.227264016866684E-2   7.842102050781250E-1  -5.233348160982132E-2   4.103244841098785E-2   6.061786413192749E-1  
 3.390000000000000E7     4.228703677654266E-2   6.080405116081238E-1   7.852315306663513E-1  -5.289340019226074E-2   7.853380441665649E-1  -5.298722535371780E-2   4.214562103152275E-2   6.053075790405273E-1  
 3.392000000000000E7     4.258760064840317E-2   6.081568598747253E-1   7.851465940475464E-1  -5.401802808046341E-2   7.850817441940308E-1  -5.344273149967194E-2   4.235666990280151E-2   6.051212549209595E-1  
 3.394000000000000E7     4.337216168642044E-2   6.073170304298401E-1   7.855912446975708E-1  -5.470703914761543E-2   7.852779626846314E-1  -5.436868593096733E-2   4.336106777191162E-2   6.047572493553162E-1  
 3.396000000000000E7     4.389018565416336E-2   6.064557433128357E-1   7.859150767326355E-1  -5.540434271097183E-2   7.857335805892944E-1  -5.525095015764237E-2   4.417788982391357E-2   6.041417717933655E-1  
 3.398000000000000E7     4.434815794229507E-2   6.063511371612549E-1   7.862392067909241E-1  -5.616737902164459E-2   7.859174609184265E-1  -5.610704794526100E-2   4.502004757523537E-2   6.037779450416565E-1  
 3.400000000000000E7     4.515183717012405E-2   6.056023240089417E-1   7.864556908607483E-1  -5.727444961667061E-2   7.864417433738709E-1  -5.719037726521492E-2   4.492497444152832E-2   6.029593944549561E-1  
 3.402000000000000E7     4.661544412374497E-2   6.051614284515381E-1   7.867793440818787E-1  -5.797827616333962E-2   7.867304682731628E-1  -5.789887160062790E-2   4.601222276687622E-2   6.023625731468201E-1  
 3.404000000000000E7     4.640197381377220E-2   6.046566963195801E-1   7.867592573165894E-1  -5.909369140863419E-2   7.867527008056641E-1  -5.885546281933785E-2   4.659640043973923E-2   6.018503308296204E-1  
 3.406000000000000E7     4.702229797840118E-2   6.040971875190735E-1   7.869132161140442E-1  -5.966781079769135E-2   7.869214415550232E-1  -5.993556231260300E-2   4.703340679407120E-2   6.017239093780518E-1  
 3.408000000000000E7     4.750287905335426E-2   6.029809713363648E-1   7.879841923713684E-1  -6.087179854512215E-2   7.874894142150879E-1  -6.063633039593697E-2   4.822308570146561E-2   6.011862754821777E-1  
 3.410000000000000E7     4.807489365339279E-2   6.023502349853516E-1   7.882782816886902E-1  -6.204968690872192E-2   7.875331640243530E-1  -6.140570342540741E-2   4.891791194677353E-2   6.006935834884644E-1  
 3.412000000000000E7     4.909304156899452E-2   6.019902825355530E-1   7.884700894355774E-1  -6.248950958251953E-2   7.880007624626160E-1  -6.273289024829865E-2   4.833988100290299E-2   6.002299785614014E-1  
 3.414000000000000E7     4.922456294298172E-2   6.012381315231323E-1   7.888751626014710E-1  -6.364865601062775E-2   7.881149053573608E-1  -6.315684318542481E-2   4.956892505288124E-2   5.995609760284424E-1  
 3.416000000000000E7     4.966210573911667E-2   6.010597944259644E-1   7.885956168174744E-1  -6.441736221313477E-2   7.883281111717224E-1  -6.431372463703156E-2   5.082445964217186E-2   5.991213321685791E-1  
 3.418000000000000E7     5.093253031373024E-2   6.005400419235230E-1   7.891864776611328E-1  -6.528618931770325E-2   7.889569401741028E-1  -6.554329395294190E-2   5.061320960521698E-2   5.980973839759827E-1  
 3.420000000000000E7     5.070953443646431E-2   5.999592542648315E-1   7.893170714378357E-1  -6.648065149784088E-2   7.893636226654053E-1  -6.603349745273590E-2   5.165852233767510E-2   5.974457859992981E-1  
 3.422000000000000E7     5.150010064244270E-2   5.989145636558533E-1   7.897323966026306E-1  -6.734994798898697E-2   7.893021106719971E-1  -6.720369309186935E-2   5.177399516105652E-2   5.971532464027405E-1  
 3.424000000000000E7     5.235948786139488E-2   5.987367033958435E-1   7.898293733596802E-1  -6.795523315668106E-2   7.901970148086548E-1  -6.805403530597687E-2   5.252637714147568E-2   5.962968468666077E-1  
 3.426000000000000E7     5.298937857151032E-2   5.987079143524170E-1   7.901795506477356E-1  -6.909584999084473E-2   7.902993559837341E-1  -6.897214800119400E-2   5.284797400236130E-2   5.956379771232605E-1  
 3.428000000000000E7     5.353605002164841E-2   5.971612334251404E-1   7.907496094703674E-1  -7.020749151706696E-2   7.904316186904907E-1  -7.023142278194428E-2   5.342490226030350E-2   5.956297516822815E-1  
 3.430000000000000E7     5.491074919700623E-2   5.965854525566101E-1   7.911292314529419E-1  -7.030992209911346E-2   7.911847233772278E-1  -7.060639560222626E-2   5.407018586993218E-2   5.944913625717163E-1  
 3.432000000000000E7     5.505770444869995E-2   5.962193608283997E-1   7.914643883705139E-1  -7.167421281337738E-2   7.914896607398987E-1  -7.162627577781677E-2   5.510104820132256E-2   5.939662456512451E-1  
 3.434000000000000E7     5.530442297458649E-2   5.961673855781555E-1   7.914308309555054E-1  -7.250946760177612E-2   7.915045022964478E-1  -7.248059660196304E-2   5.572980642318726E-2   5.934759378433228E-1  
 3.436000000000000E7     5.568096786737442E-2   5.956499576568604E-1   7.913868427276611E-1  -7.298567146062851E-2   7.917840480804443E-1  -7.302621006965637E-2   5.665263161063194E-2   5.930923819541931E-1  
 3.438000000000000E7     5.633480846881867E-2   5.946439504623413E-1   7.925680875778198E-1  -7.461932301521301E-2   7.921522855758667E-1  -7.477326691150665E-2   5.691399052739143E-2   5.925109982490540E-1  
 3.440000000000000E7     5.704161152243614E-2   5.947991609573364E-1   7.920625805854797E-1  -7.503661513328552E-2   7.927215695381165E-1  -7.462137937545776E-2   5.787039920687676E-2   5.914044380187988E-1  
 3.442000000000000E7     5.753326788544655E-2   5.937467813491821E-1   7.925792932510376E-1  -7.630075514316559E-2   7.926004528999329E-1  -7.599665224552155E-2   5.848854035139084E-2   5.914839506149292E-1  
 3.444000000000000E7     5.814384669065476E-2   5.927540659904480E-1   7.933369874954224E-1  -7.722724229097366E-2   7.928093075752258E-1  -7.678684592247009E-2   5.855025351047516E-2   5.909335613250732E-1  
 3.446000000000000E7     5.902822315692902E-2   5.924913287162781E-1   7.938753962516785E-1  -7.754745334386826E-2   7.936868071556091E-1  -7.767385989427567E-2   5.953132361173630E-2   5.899171233177185E-1  
 3.448000000000000E7     5.956429615616798E-2   5.915079712867737E-1   7.937422990798950E-1  -7.892881333827972E-2   7.933185100555420E-1  -7.851161062717438E-2   5.989333987236023E-2   5.898674726486206E-1  
 3.450000000000000E7     6.060860306024551E-2   5.915735363960266E-1   7.937332391738892E-1  -7.963025569915772E-2   7.933716177940369E-1  -7.934555411338806E-2   5.971274524927139E-2   5.894867777824402E-1  
 3.452000000000000E7     6.057584285736084E-2   5.905783176422119E-1   7.940442562103272E-1  -8.022658526897430E-2   7.943251132965088E-1  -8.092654496431351E-2   6.033778935670853E-2   5.884001255035400E-1  
 3.454000000000000E7     6.154562532901764E-2   5.903263688087463E-1   7.946932911872864E-1  -8.139055222272873E-2   7.947710156440735E-1  -8.166418969631195E-2   6.120363622903824E-2   5.875120759010315E-1  
 3.456000000000000E7     6.154552102088928E-2   5.891816616058350E-1   7.949684858322144E-1  -8.223824203014374E-2   7.944399118423462E-1  -8.202226459980011E-2   6.209953129291534E-2   5.877094864845276E-1  
 3.458000000000000E7     6.215526163578033E-2   5.888680219650269E-1   7.949411273002625E-1  -8.307361602783203E-2   7.947998046875000E-1  -8.307744562625885E-2   6.274595111608505E-2   5.868741273880005E-1  
 3.460000000000000E7     6.307732313871384E-2   5.879259705543518E-1   7.952806949615479E-1  -8.441926538944244E-2   7.948774099349976E-1  -8.425478637218475E-2   6.335347890853882E-2   5.865938663482666E-1  
 3.462000000000000E7     6.359156221151352E-2   5.877769589424133E-1   7.956627011299133E-1  -8.509447425603867E-2   7.959101796150208E-1  -8.475919812917709E-2   6.436465680599213E-2   5.859439969062805E-1  
 3.464000000000000E7     6.433036923408508E-2   5.874590277671814E-1   7.959272861480713E-1  -8.560431003570557E-2   7.957637310028076E-1  -8.565880358219147E-2   6.464298069477081E-2   5.849591493606567E-1  
 3.466000000000000E7     6.470956653356552E-2   5.866253972053528E-1   7.964236140251160E-1  -8.694012463092804E-2   7.955145239830017E-1  -8.654478192329407E-2   6.497832387685776E-2   5.847678780555725E-1  
 3.468000000000000E7     6.487827003002167E-2   5.856163501739502E-1   7.965361475944519E-1  -8.841396868228912E-2   7.969022989273071E-1  -8.778642117977142E-2   6.515900045633316E-2   5.838279128074646E-1  
 3.470000000000000E7     6.562051922082901E-2   5.856997966766357E-1   7.968977689743042E-1  -8.908505737781525E-2   7.972724437713623E-1  -8.829928934574127E-2   6.611799448728561E-2   5.830203890800476E-1  
 3.472000000000000E7     6.662210077047348E-2   5.848162770271301E-1   7.972005605697632E-1  -8.940882980823517E-2   7.969871759414673E-1  -8.963488042354584E-2   6.636586785316467E-2   5.827343463897705E-1  
 3.474000000000000E7     6.742963194847107E-2   5.844677090644836E-1   7.975362539291382E-1  -9.033283591270447E-2   7.973038554191589E-1  -9.030807018280029E-2   6.690353900194168E-2   5.816795825958252E-1  
 3.476000000000000E7     6.714823842048645E-2   5.835619568824768E-1   7.976074218750000E-1  -9.155652672052383E-2   7.975550293922424E-1  -9.128309786319733E-2   6.767185032367706E-2   5.816887021064758E-1  
 3.478000000000000E7     6.751234084367752E-2   5.835219025611877E-1   7.980405688285828E-1  -9.277197718620300E-2   7.972950935363770E-1  -9.208889305591583E-2   6.786330789327622E-2   5.809800624847412E-1  
 3.480000000000000E7     6.841079890727997E-2   5.823037028312683E-1   7.983880043029785E-1  -9.344042837619782E-2   7.979412674903870E-1  -9.305697679519653E-2   6.872461736202240E-2   5.805721879005432E-1  
 3.482000000000000E7     6.876789778470993E-2   5.817686915397644E-1   7.985320091247559E-1  -9.441579133272171E-2   7.983648180961609E-1  -9.376266598701477E-2   6.966660171747208E-2   5.795254111289978E-1  
 3.484000000000000E7     6.955279409885407E-2   5.812516212463379E-1   7.988048791885376E-1  -9.498091042041779E-2   7.989350557327271E-1  -9.496022015810013E-2   6.970065832138062E-2   5.785266160964966E-1  
 3.486000000000000E7     7.076968997716904E-2   5.798645615577698E-1   7.995641231536865E-1  -9.620335698127747E-2   7.988536953926086E-1  -9.601207822561264E-2   7.042283564805985E-2   5.786858797073364E-1  
 3.488000000000000E7     7.088669389486313E-2   5.799739956855774E-1   7.991812229156494E-1  -9.751572459936142E-2   7.992088794708252E-1  -9.685578942298889E-2   7.046737521886826E-2   5.779451131820679E-1  
 3.490000000000000E7     7.191367447376251E-2   5.792884826660156E-1   7.993385195732117E-1  -9.713847190141678E-2   7.988619804382324E-1  -9.749296307563782E-2   7.118383049964905E-2   5.778878927230835E-1  
 3.492000000000000E7     7.210657000541687E-2   5.786283612251282E-1   8.000638484954834E-1  -9.897243976593018E-2   8.000243306159973E-1  -9.866693615913391E-2   7.207609713077545E-2   5.764946341514587E-1  
 3.494000000000000E7     7.205180823802948E-2   5.788602232933044E-1   7.995977997779846E-1  -1.000886410474777E-1   8.001704812049866E-1  -9.911566972732544E-2   7.322539389133453E-2   5.758891701698303E-1  
 3.496000000000000E7     7.322521507740021E-2   5.775060653686523E-1   8.003981709480286E-1  -1.008115857839584E-1   8.004640340805054E-1  -1.009074002504349E-1   7.275160402059555E-2   5.752332210540772E-1  
 3.498000000000000E7     7.357510179281235E-2   5.771079063415527E-1   8.005595207214356E-1  -1.017724126577377E-1   8.005826473236084E-1  -1.012648567557335E-1   7.436496019363403E-2   5.747495889663696E-1  
 3.500000000000000E7     7.415698468685150E-2   5.766357779502869E-1   8.007962703704834E-1  -1.024708300828934E-1   8.007508516311646E-1  -1.029129773378372E-1   7.415251433849335E-2   5.743570923805237E-1  
 3.502000000000000E7     7.462031394243240E-2   5.760905742645264E-1   8.013162612915039E-1  -1.035337001085281E-1   8.010495305061340E-1  -1.037181168794632E-1   7.480157911777496E-2   5.737299323081970E-1  
 3.504000000000000E7     7.515947520732880E-2   5.752290487289429E-1   8.012905716896057E-1  -1.044188737869263E-1   8.011009693145752E-1  -1.042669266462326E-1   7.529814541339874E-2   5.729224085807800E-1  
 3.506000000000000E7     7.579219341278076E-2   5.746665000915527E-1   8.014426827430725E-1  -1.052996590733528E-1   8.013576269149780E-1  -1.054608523845673E-1   7.538369297981262E-2   5.730392932891846E-1  
 3.508000000000000E7     7.725406438112259E-2   5.740037560462952E-1   8.019168376922607E-1  -1.057683080434799E-1   8.015432357788086E-1  -1.059160232543945E-1   7.667175680398941E-2   5.720338821411133E-1  
 3.510000000000000E7     7.695233076810837E-2   5.731874108314514E-1   8.021831512451172E-1  -1.069058179855347E-1   8.021526336669922E-1  -1.067339330911636E-1   7.737363129854202E-2   5.714526176452637E-1  
 3.512000000000000E7     7.714695483446121E-2   5.730233192443848E-1   8.021090030670166E-1  -1.080861315131187E-1   8.023280501365662E-1  -1.080607622861862E-1   7.786541432142258E-2   5.704943537712097E-1  
 3.514000000000000E7     7.801926136016846E-2   5.719364285469055E-1   8.028794527053833E-1  -1.090526804327965E-1   8.028336763381958E-1  -1.089096888899803E-1   7.845281064510346E-2   5.700075030326843E-1  
 3.516000000000000E7     7.870956510305405E-2   5.721237659454346E-1   8.029933571815491E-1  -1.097453013062477E-1   8.028989434242249E-1  -1.095636785030365E-1   7.891667634248734E-2   5.694164037704468E-1  
 3.518000000000000E7     7.854329049587250E-2   5.709612965583801E-1   8.033754229545593E-1  -1.109468638896942E-1   8.034510612487793E-1  -1.108515337109566E-1   7.959616929292679E-2   5.683997273445129E-1  
 3.520000000000000E7     7.984444499015808E-2   5.709657073020935E-1   8.030044436454773E-1  -1.114057376980782E-1   8.033467531204224E-1  -1.110533848404884E-1   7.997953146696091E-2   5.680034160614014E-1  
 3.522000000000000E7     7.980675995349884E-2   5.697504878044128E-1   8.036436438560486E-1  -1.126236468553543E-1   8.035948276519775E-1  -1.129872798919678E-1   8.042681217193604E-2   5.677015185356140E-1  
 3.524000000000000E7     8.092872798442841E-2   5.695243477821350E-1   8.038302659988403E-1  -1.133999079465866E-1   8.037207126617432E-1  -1.134541332721710E-1   8.076010644435883E-2   5.669565796852112E-1  
 3.526000000000000E7     8.154620230197907E-2   5.684047937393189E-1   8.039882183074951E-1  -1.142340004444122E-1   8.041862249374390E-1  -1.143345162272453E-1   8.146382868289948E-2   5.666270852088928E-1  
 3.528000000000000E7     8.134529739618301E-2   5.680943131446838E-1   8.045036196708679E-1  -1.154866516590118E-1   8.040709495544434E-1  -1.150660440325737E-1   8.180508017539978E-2   5.659961104393005E-1  
 3.530000000000000E7     8.278337121009827E-2   5.674161911010742E-1   8.048104047775269E-1  -1.156940013170242E-1   8.045927882194519E-1  -1.160897463560104E-1   8.260236680507660E-2   5.644873976707459E-1  
 3.532000000000000E7     8.318857848644257E-2   5.670395493507385E-1   8.046186566352844E-1  -1.176234185695648E-1   8.047308325767517E-1  -1.170917898416519E-1   8.256109803915024E-2   5.646983981132507E-1  
 3.534000000000000E7     8.398693799972534E-2   5.662866830825806E-1   8.049117326736450E-1  -1.180013269186020E-1   8.052605986595154E-1  -1.180810779333115E-1   8.359328657388687E-2   5.636300444602966E-1  
 3.536000000000000E7     8.356726169586182E-2   5.658600330352783E-1   8.052821159362793E-1  -1.197324171662331E-1   8.048896789550781E-1  -1.188172101974487E-1   8.439291268587112E-2   5.634898543357849E-1  
 3.538000000000000E7     8.497148752212524E-2   5.650253891944885E-1   8.056774735450745E-1  -1.195038706064224E-1   8.054408431053162E-1  -1.201495081186295E-1   8.479954302310944E-2   5.626752376556397E-1  
 3.540000000000000E7     8.495623618364334E-2   5.645011067390442E-1   8.053952455520630E-1  -1.210909038782120E-1   8.056198358535767E-1  -1.212774068117142E-1   8.465065807104111E-2   5.625712871551514E-1  
 3.542000000000000E7     8.506933599710465E-2   5.634808540344238E-1   8.058883547782898E-1  -1.222046762704849E-1   8.055493831634522E-1  -1.219366788864136E-1   8.574807643890381E-2   5.614672899246216E-1  
 3.544000000000000E7     8.593297004699707E-2   5.633885860443115E-1   8.058306574821472E-1  -1.229683533310890E-1   8.059195280075073E-1  -1.227541640400887E-1   8.648280799388886E-2   5.609834790229797E-1  
 3.546000000000000E7     8.663765341043472E-2   5.623338222503662E-1   8.065142035484314E-1  -1.236722320318222E-1   8.064380884170532E-1  -1.235826537013054E-1   8.712342381477356E-2   5.603739619255066E-1  
 3.548000000000000E7     8.725076913833618E-2   5.616053938865662E-1   8.067116737365723E-1  -1.246415972709656E-1   8.066830635070801E-1  -1.247361451387405E-1   8.735024929046631E-2   5.601288676261902E-1  
 3.550000000000000E7     8.737415820360184E-2   5.608860850334168E-1   8.071413636207581E-1  -1.255806088447571E-1   8.066482543945313E-1  -1.257603019475937E-1   8.778585493564606E-2   5.594062805175781E-1  
 3.552000000000000E7     8.872644603252411E-2   5.610994100570679E-1   8.066801428794861E-1  -1.260423511266708E-1   8.070218563079834E-1  -1.267660856246948E-1   8.833216130733490E-2   5.586413741111755E-1  
 3.554000000000000E7     8.864927291870117E-2   5.596986413002014E-1   8.073709607124329E-1  -1.274746358394623E-1   8.073986172676086E-1  -1.274846196174622E-1   8.889086544513702E-2   5.578409433364868E-1  
 3.556000000000000E7     8.869012445211411E-2   5.594380497932434E-1   8.075429797172546E-1  -1.290931999683380E-1   8.074664473533630E-1  -1.282913088798523E-1   8.933701366186142E-2   5.573528409004211E-1  
 3.558000000000000E7     8.943235874176025E-2   5.588355660438538E-1   8.077545762062073E-1  -1.294216662645340E-1   8.077726960182190E-1  -1.295547187328339E-1   8.987214416265488E-2   5.566266179084778E-1  
 3.560000000000000E7     9.056933969259262E-2   5.579304099082947E-1   8.077338933944702E-1  -1.299148499965668E-1   8.076246380805969E-1  -1.303124725818634E-1   9.028492867946625E-2   5.564081668853760E-1  
 3.562000000000000E7     9.098981320858002E-2   5.579273700714111E-1   8.079293966293335E-1  -1.314090192317963E-1   8.080486655235291E-1  -1.313625425100327E-1   9.062652289867401E-2   5.556241273880005E-1  
 3.564000000000000E7     9.112388640642166E-2   5.566591024398804E-1   8.087133765220642E-1  -1.326207518577576E-1   8.080948591232300E-1  -1.322155445814133E-1   9.123940765857697E-2   5.546899437904358E-1  
 3.566000000000000E7     9.187852591276169E-2   5.565122365951538E-1   8.085567951202393E-1  -1.333577185869217E-1   8.086195588111877E-1  -1.331687718629837E-1   9.199093282222748E-2   5.536819696426392E-1  
 3.568000000000000E7     9.211014211177826E-2   5.562486648559570E-1   8.083672523498535E-1  -1.340057402849197E-1   8.088475465774536E-1  -1.338775008916855E-1   9.300038963556290E-2   5.532809495925903E-1  
 3.570000000000000E7     9.309127926826477E-2   5.553753972053528E-1   8.086383938789368E-1  -1.349419206380844E-1   8.087909817695618E-1  -1.346503049135208E-1   9.309779107570648E-2   5.532604455947876E-1  
 3.572000000000000E7     9.319216012954712E-2   5.545872449874878E-1   8.090126514434815E-1  -1.360207796096802E-1   8.092487454414368E-1  -1.357550173997879E-1   9.345625340938568E-2   5.521639585494995E-1  
 3.574000000000000E7     9.348759055137634E-2   5.529679059982300E-1   8.099767565727234E-1  -1.371694505214691E-1   8.100081086158752E-1  -1.368211656808853E-1   9.419329464435577E-2   5.514381527900696E-1  
 3.576000000000000E7     9.429199248552322E-2   5.535061955451965E-1   8.092915415763855E-1  -1.376909315586090E-1   8.099891543388367E-1  -1.375814825296402E-1   9.495302289724350E-2   5.503534674644470E-1  
 3.578000000000000E7     9.456326067447662E-2   5.520006418228149E-1   8.099343776702881E-1  -1.391947865486145E-1   8.097226619720459E-1  -1.388359814882278E-1   9.545138478279114E-2   5.503573417663574E-1  
 3.580000000000000E7     9.543923288583756E-2   5.517064332962036E-1   8.099954724311829E-1  -1.395568549633026E-1   8.101624250411987E-1  -1.396394968032837E-1   9.563226997852325E-2   5.496485829353333E-1  
 3.582000000000000E7     9.587727487087250E-2   5.515147447586060E-1   8.100464940071106E-1  -1.409172415733337E-1   8.099761605262756E-1  -1.404252350330353E-1   9.593558311462402E-2   5.494298934936523E-1  
 3.584000000000000E7     9.613925218582153E-2   5.508816838264465E-1   8.098374009132385E-1  -1.418000012636185E-1   8.105802536010742E-1  -1.418285071849823E-1   9.622085094451904E-2   5.487329959869385E-1  
 3.586000000000000E7     9.670655429363251E-2   5.502080917358398E-1   8.106094002723694E-1  -1.425628066062927E-1   8.105813860893250E-1  -1.424818634986877E-1   9.687697887420654E-2   5.477853417396545E-1  
 3.588000000000000E7     9.789442270994186E-2   5.491209626197815E-1   8.109157085418701E-1  -1.430584341287613E-1   8.110170364379883E-1  -1.437304168939591E-1   9.743416309356690E-2   5.476304888725281E-1  
 3.590000000000000E7     9.796588122844696E-2   5.485251545906067E-1   8.111929893493652E-1  -1.443211734294891E-1   8.113769292831421E-1  -1.443995535373688E-1   9.845561534166336E-2   5.462397336959839E-1  
 3.592000000000000E7     9.814144670963287E-2   5.478394627571106E-1   8.111992478370667E-1  -1.455479264259338E-1   8.107418417930603E-1  -1.454294919967651E-1   9.886875003576279E-2   5.464100241661072E-1  
 3.594000000000000E7     9.886145591735840E-2   5.470848679542542E-1   8.121373653411865E-1  -1.468049734830856E-1   8.115574121475220E-1  -1.464275866746903E-1   9.873922169208527E-2   5.451094508171082E-1  
 3.596000000000000E7     9.967053681612015E-2   5.466955900192261E-1   8.118482828140259E-1  -1.473115384578705E-1   8.120803833007813E-1  -1.475930064916611E-1   9.949069470167160E-2   5.443190932273865E-1  
 3.598000000000000E7     9.998100250959396E-2   5.463942885398865E-1   8.117051720619202E-1  -1.481909155845642E-1   8.122516870498657E-1  -1.483196616172791E-1   1.003334671258926E-1   5.436818599700928E-1  
 3.600000000000000E7     1.006056964397430E-1   5.454000830650330E-1   8.120649456977844E-1  -1.493175923824310E-1   8.123037219047546E-1  -1.495198011398315E-1   1.004489213228226E-1   5.430271625518799E-1  
 3.602000000000000E7     1.008014753460884E-1   5.444671511650085E-1   8.128502964973450E-1  -1.504383534193039E-1   8.128420710563660E-1  -1.504305154085159E-1   1.006804555654526E-1   5.426868796348572E-1  
 3.604000000000000E7     1.013383939862251E-1   5.444987416267395E-1   8.128483295440674E-1  -1.510907113552094E-1   8.126837611198425E-1  -1.512467265129089E-1   1.013367846608162E-1   5.420970916748047E-1  
 3.606000000000000E7     1.018852367997170E-1   5.432399511337280E-1   8.131905198097229E-1  -1.521736532449722E-1   8.124588727951050E-1  -1.521667242050171E-1   1.017528101801872E-1   5.421859025955200E-1  
 3.608000000000000E7     1.025748401880264E-1   5.427837967872620E-1   8.131647706031799E-1  -1.532210707664490E-1   8.133279085159302E-1  -1.529533416032791E-1   1.022349894046783E-1   5.407137274742127E-1  
 3.610000000000000E7     1.031047701835632E-1   5.422182679176331E-1   8.132970929145813E-1  -1.536510884761810E-1   8.131064176559448E-1  -1.539550423622131E-1   1.022587418556213E-1   5.403087139129639E-1  
 3.612000000000000E7     1.035874113440514E-1   5.417250394821167E-1   8.133283853530884E-1  -1.547953635454178E-1   8.133381009101868E-1  -1.548475027084351E-1   1.037209928035736E-1   5.398905873298645E-1  
 3.614000000000000E7     1.041027456521988E-1   5.406160354614258E-1   8.138529658317566E-1  -1.559751182794571E-1   8.135085105895996E-1  -1.561065465211868E-1   1.032791882753372E-1   5.391268134117127E-1  
 3.616000000000000E7     1.044418066740036E-1   5.401110649108887E-1   8.140208125114441E-1  -1.568589061498642E-1   8.134383559226990E-1  -1.573440730571747E-1   1.039954423904419E-1   5.389800071716309E-1  
 3.618000000000000E7     1.047750785946846E-1   5.397260189056397E-1   8.142877817153931E-1  -1.577819585800171E-1   8.143071532249451E-1  -1.579748690128326E-1   1.046250015497208E-1   5.370742678642273E-1  
 3.620000000000000E7     1.052946597337723E-1   5.388277769088745E-1   8.143688440322876E-1  -1.588740199804306E-1   8.143284320831299E-1  -1.592476963996887E-1   1.047451868653297E-1   5.374535322189331E-1  
 3.622000000000000E7     1.055747121572495E-1   5.384227037429810E-1   8.145550489425659E-1  -1.598288714885712E-1   8.142323493957520E-1  -1.601063907146454E-1   1.057095676660538E-1   5.364941954612732E-1  
 3.624000000000000E7     1.058944463729858E-1   5.376850962638855E-1   8.147628903388977E-1  -1.609480530023575E-1   8.144934177398682E-1  -1.610914468765259E-1   1.058166325092316E-1   5.356864333152771E-1  
 3.626000000000000E7     1.069441586732864E-1   5.371322035789490E-1   8.148707747459412E-1  -1.615152955055237E-1   8.145261406898499E-1  -1.619058996438980E-1   1.062146872282028E-1   5.352277159690857E-1  
 3.628000000000000E7     1.073829531669617E-1   5.363491177558899E-1   8.148338198661804E-1  -1.625834405422211E-1   8.149726986885071E-1  -1.626405864953995E-1   1.073288172483444E-1   5.346121788024902E-1  
 3.630000000000000E7     1.074851900339127E-1   5.357106328010559E-1   8.153651952743530E-1  -1.635152846574783E-1   8.146774768829346E-1  -1.634626537561417E-1   1.079787462949753E-1   5.340787172317505E-1  
 3.632000000000000E7     1.080239564180374E-1   5.343729853630066E-1   8.157848715782166E-1  -1.649036705493927E-1   8.148663043975830E-1  -1.643637269735336E-1   1.082864850759506E-1   5.332265496253967E-1  
 3.634000000000000E7     1.084391549229622E-1   5.342030525207520E-1   8.155935406684876E-1  -1.653893589973450E-1   8.149369359016419E-1  -1.655697971582413E-1   1.084792837500572E-1   5.332679748535156E-1  
 3.636000000000000E7     1.085848212242127E-1   5.335260629653931E-1   8.156809210777283E-1  -1.667361408472061E-1   8.152980804443359E-1  -1.664175689220429E-1   1.093207448720932E-1   5.320488810539246E-1  
 3.638000000000000E7     1.100112795829773E-1   5.333507061004639E-1   8.159359693527222E-1  -1.672539114952087E-1   8.157698512077332E-1  -1.674679368734360E-1   1.090056002140045E-1   5.315289497375488E-1  
 3.640000000000000E7     1.099171638488770E-1   5.323473811149597E-1   8.165843486785889E-1  -1.684230715036392E-1   8.156027197837830E-1  -1.682809591293335E-1   1.101034954190254E-1   5.308275222778320E-1  
 3.642000000000000E7     1.107884794473648E-1   5.325608253479004E-1   8.163572549819946E-1  -1.690934300422669E-1   8.160051107406616E-1  -1.694341003894806E-1   1.103397235274315E-1   5.295735001564026E-1  
 3.644000000000000E7     1.110996082425118E-1   5.312324762344360E-1   8.168638348579407E-1  -1.704769283533096E-1   8.160945177078247E-1  -1.697468906641007E-1   1.110327243804932E-1   5.292409658432007E-1  
 3.646000000000000E7     1.115153953433037E-1   5.308966040611267E-1   8.166180253028870E-1  -1.712060272693634E-1   8.160142302513123E-1  -1.711998879909515E-1   1.112050339579582E-1   5.291639566421509E-1  
 3.648000000000000E7     1.116231307387352E-1   5.298363566398621E-1   8.168608546257019E-1  -1.724296212196350E-1   8.162745833396912E-1  -1.723972558975220E-1   1.117803603410721E-1   5.279618501663208E-1  
 3.650000000000000E7     1.118513345718384E-1   5.291591882705689E-1   8.170633912086487E-1  -1.734459102153778E-1   8.163126111030579E-1  -1.730246990919113E-1   1.126658767461777E-1   5.274281501770020E-1  
 3.652000000000000E7     1.128107085824013E-1   5.289018750190735E-1   8.169182538986206E-1  -1.740061640739441E-1   8.168061971664429E-1  -1.739112734794617E-1   1.131975501775742E-1   5.268329977989197E-1  
 3.654000000000000E7     1.132593303918839E-1   5.281665921211243E-1   8.167667388916016E-1  -1.750839650630951E-1   8.166918158531189E-1  -1.750117838382721E-1   1.136060208082199E-1   5.264456272125244E-1  
 3.656000000000000E7     1.137577667832375E-1   5.277085900306702E-1   8.171830177307129E-1  -1.761413365602493E-1   8.175996541976929E-1  -1.760788857936859E-1   1.137603521347046E-1   5.247253179550171E-1  
 3.658000000000000E7     1.142042875289917E-1   5.268373489379883E-1   8.174058198928833E-1  -1.769928634166718E-1   8.170502781867981E-1  -1.773481369018555E-1   1.139268800616264E-1   5.243685245513916E-1  
 3.660000000000000E7     1.152024194598198E-1   5.256522297859192E-1   8.177797794342041E-1  -1.778359115123749E-1   8.172874450683594E-1  -1.782758682966232E-1   1.142284870147705E-1   5.241662263870239E-1  
 3.662000000000000E7     1.150804981589317E-1   5.251464843750000E-1   8.180209994316101E-1  -1.789219975471497E-1   8.173077106475830E-1  -1.791201531887054E-1   1.151800155639648E-1   5.235556960105896E-1  
 3.664000000000000E7     1.156039834022522E-1   5.244221687316895E-1   8.180428147315979E-1  -1.800476014614105E-1   8.175004720687866E-1  -1.802550852298737E-1   1.153110638260841E-1   5.227484107017517E-1  
 3.666000000000000E7     1.158104538917542E-1   5.236942172050476E-1   8.183869123458862E-1  -1.812413781881332E-1   8.178009986877441E-1  -1.805298626422882E-1   1.162673532962799E-1   5.220175981521606E-1  
 3.668000000000000E7     1.164008527994156E-1   5.232001543045044E-1   8.182936310768127E-1  -1.824032515287399E-1   8.178786039352417E-1  -1.816351413726807E-1   1.162592694163322E-1   5.214450955390930E-1  
 3.670000000000000E7     1.173341423273087E-1   5.229669809341431E-1   8.180043697357178E-1  -1.829287409782410E-1   8.185672163963318E-1  -1.829429417848587E-1   1.163583770394325E-1   5.198203921318054E-1  
 3.672000000000000E7     1.177610382437706E-1   5.219776630401611E-1   8.185572624206543E-1  -1.838968545198441E-1   8.183442950248718E-1  -1.838745474815369E-1   1.171115040779114E-1   5.200205445289612E-1  
 3.674000000000000E7     1.178548038005829E-1   5.212501883506775E-1   8.184527158737183E-1  -1.850196421146393E-1   8.180955648422241E-1  -1.848514974117279E-1   1.176085323095322E-1   5.194200873374939E-1  
 3.676000000000000E7     1.180365309119225E-1   5.207726359367371E-1   8.182165622711182E-1  -1.859020888805389E-1   8.184280991554260E-1  -1.861215680837631E-1   1.178234368562698E-1   5.186452865600586E-1  
 3.678000000000000E7     1.184872090816498E-1   5.196893811225891E-1   8.189781904220581E-1  -1.872277259826660E-1   8.187221884727478E-1  -1.869149208068848E-1   1.182306930422783E-1   5.179927349090576E-1  
 3.680000000000000E7     1.192295700311661E-1   5.190166831016541E-1   8.189489841461182E-1  -1.877150386571884E-1   8.184593319892883E-1  -1.877321749925613E-1   1.189865767955780E-1   5.180214047431946E-1  
 3.682000000000000E7     1.197812408208847E-1   5.189431309700012E-1   8.191603422164917E-1  -1.888837963342667E-1   8.192084431648254E-1  -1.891424506902695E-1   1.187766641378403E-1   5.159920454025269E-1  
 3.684000000000000E7     1.200292035937309E-1   5.180557370185852E-1   8.192988634109497E-1  -1.898284107446671E-1   8.189691305160523E-1  -1.898137331008911E-1   1.197556108236313E-1   5.157860517501831E-1  
 3.686000000000000E7     1.207102537155151E-1   5.173877477645874E-1   8.191540241241455E-1  -1.908847391605377E-1   8.187686204910278E-1  -1.907743811607361E-1   1.201215162873268E-1   5.158104896545410E-1  
 3.688000000000000E7     1.211608499288559E-1   5.170642733573914E-1   8.195398449897766E-1  -1.918714195489883E-1   8.191132545471191E-1  -1.921641826629639E-1   1.207675933837891E-1   5.143513083457947E-1  
 3.690000000000000E7     1.215721219778061E-1   5.158424973487854E-1   8.194598555564880E-1  -1.925144791603088E-1   8.192142248153687E-1  -1.928388774394989E-1   1.213328093290329E-1   5.141233801841736E-1  
 3.692000000000000E7     1.216898560523987E-1   5.152063369750977E-1   8.199463486671448E-1  -1.939155608415604E-1   8.191324472427368E-1  -1.937781572341919E-1   1.218210011720657E-1   5.135669708251953E-1  
 3.694000000000000E7     1.219884008169174E-1   5.145911574363709E-1   8.199820518493652E-1  -1.946921944618225E-1   8.197842240333557E-1  -1.943824887275696E-1   1.222878620028496E-1   5.128627419471741E-1  
 3.696000000000000E7     1.227619946002960E-1   5.138779282569885E-1   8.198434114456177E-1  -1.958000212907791E-1   8.198904991149902E-1  -1.956713497638702E-1   1.228166371583939E-1   5.120592117309570E-1  
 3.698000000000000E7     1.237541586160660E-1   5.130327939987183E-1   8.202272057533264E-1  -1.965398192405701E-1   8.197732567787170E-1  -1.968467831611633E-1   1.224938929080963E-1   5.117190480232239E-1  
 3.700000000000000E7     1.236086487770081E-1   5.127472281455994E-1   8.200005888938904E-1  -1.975882500410080E-1   8.199599385261536E-1  -1.982109695672989E-1   1.230373680591583E-1   5.106394886970520E-1  
 3.702000000000000E7     1.239639893174171E-1   5.119031667709351E-1   8.205153942108154E-1  -1.987617313861847E-1   8.201744556427002E-1  -1.984813660383225E-1   1.240041032433510E-1   5.101196765899658E-1  
 3.704000000000000E7     1.238170266151428E-1   5.109303593635559E-1   8.205944299697876E-1  -2.000909745693207E-1   8.198379278182983E-1  -1.997242271900177E-1   1.241316348314285E-1   5.098611116409302E-1  
 3.706000000000000E7     1.248512268066406E-1   5.106045603752136E-1   8.206354975700378E-1  -2.006701529026032E-1   8.204016089439392E-1  -2.007025629281998E-1   1.244654804468155E-1   5.088565349578857E-1  
 3.708000000000000E7     1.253186613321304E-1   5.101420283317566E-1   8.205670118331909E-1  -2.013947069644928E-1   8.204010128974915E-1  -2.019517272710800E-1   1.253223419189453E-1   5.078613162040710E-1  
 3.710000000000000E7     1.254998743534088E-1   5.085802078247070E-1   8.212181329727173E-1  -2.029198706150055E-1   8.206000328063965E-1  -2.026554495096207E-1   1.255742907524109E-1   5.072992444038391E-1  
 3.712000000000000E7     1.257124096155167E-1   5.084951519966126E-1   8.208166360855103E-1  -2.040778696537018E-1   8.204649090766907E-1  -2.038074582815170E-1   1.258340775966644E-1   5.063260197639465E-1  
 3.714000000000000E7     1.262831538915634E-1   5.074299573898315E-1   8.213858604431152E-1  -2.048839330673218E-1   8.203460574150085E-1  -2.044539898633957E-1   1.261605024337769E-1   5.064218640327454E-1  
 3.716000000000000E7     1.272343397140503E-1   5.067764520645142E-1   8.214420676231384E-1  -2.058354020118713E-1   8.208240270614624E-1  -2.056733369827271E-1   1.263819783926010E-1   5.056278705596924E-1  
 3.718000000000000E7     1.268533468246460E-1   5.068073272705078E-1   8.208655714988709E-1  -2.069987952709198E-1   8.209384679794312E-1  -2.066536098718643E-1   1.277156472206116E-1   5.045946240425110E-1  
 3.720000000000000E7     1.279593110084534E-1   5.057259798049927E-1   8.216508030891419E-1  -2.075664103031158E-1   8.208336830139160E-1  -2.078833580017090E-1   1.276434957981110E-1   5.038973689079285E-1  
 3.722000000000000E7     1.286692768335342E-1   5.051213502883911E-1   8.215927481651306E-1  -2.085173428058624E-1   8.210625648498535E-1  -2.084775418043137E-1   1.277133673429489E-1   5.033109188079834E-1  
 3.724000000000000E7     1.284912675619125E-1   5.039949417114258E-1   8.216497898101807E-1  -2.096648663282394E-1   8.211412429809570E-1  -2.095900774002075E-1   1.286320686340332E-1   5.025961399078369E-1  
 3.726000000000000E7     1.292567402124405E-1   5.034924745559692E-1   8.215854167938232E-1  -2.104948461055756E-1   8.210839033126831E-1  -2.108326852321625E-1   1.286799907684326E-1   5.022861957550049E-1  
 3.728000000000000E7     1.291484534740448E-1   5.034570693969727E-1   8.213356733322144E-1  -2.118390053510666E-1   8.213434815406799E-1  -2.115118205547333E-1   1.292248070240021E-1   5.015689730644226E-1  
 3.730000000000000E7     1.291392743587494E-1   5.025647878646851E-1   8.217352032661438E-1  -2.129446715116501E-1   8.215430974960327E-1  -2.124169021844864E-1   1.296684145927429E-1   5.007179379463196E-1  
 3.732000000000000E7     1.297558993101120E-1   5.017973780632019E-1   8.217125535011292E-1  -2.137898355722427E-1   8.219552040100098E-1  -2.135031670331955E-1   1.300650537014008E-1   4.999820291996002E-1  
 3.734000000000000E7     1.304619908332825E-1   5.009416341781616E-1   8.219146728515625E-1  -2.149726450443268E-1   8.222627639770508E-1  -2.147024869918823E-1   1.299310475587845E-1   4.986496567726135E-1  
 3.736000000000000E7     1.307345926761627E-1   5.002192258834839E-1   8.223069310188294E-1  -2.161296010017395E-1   8.210648298263550E-1  -2.157460749149323E-1   1.305574476718903E-1   4.993253350257874E-1  
 3.738000000000000E7     1.313735842704773E-1   4.993539750576019E-1   8.224675655364990E-1  -2.163402587175369E-1   8.221243619918823E-1  -2.164197713136673E-1   1.310322433710098E-1   4.979087710380554E-1  
 3.740000000000000E7     1.317286491394043E-1   4.983562231063843E-1   8.224865198135376E-1  -2.174568623304367E-1   8.214909434318543E-1  -2.176388204097748E-1   1.314463764429092E-1   4.978775978088379E-1  
 3.742000000000000E7     1.325606703758240E-1   4.983947873115540E-1   8.222296237945557E-1  -2.183243185281754E-1   8.217336535453796E-1  -2.186771780252457E-1   1.318257004022598E-1   4.968102574348450E-1  
 3.744000000000000E7     1.323295980691910E-1   4.970115423202515E-1   8.222509026527405E-1  -2.197766900062561E-1   8.217992782592773E-1  -2.196553647518158E-1   1.321585178375244E-1   4.960035979747772E-1  
 3.746000000000000E7     1.328313797712326E-1   4.968219995498657E-1   8.226734995841980E-1  -2.208954095840454E-1   8.221477866172791E-1  -2.207938134670258E-1   1.323575377464294E-1   4.947056770324707E-1  
 3.748000000000000E7     1.330385506153107E-1   4.957689046859741E-1   8.224164843559265E-1  -2.215238213539124E-1   8.220851421356201E-1  -2.213425934314728E-1   1.331230700016022E-1   4.944478571414948E-1  
 3.750000000000000E7     1.335020214319229E-1   4.953090846538544E-1   8.225386142730713E-1  -2.223226279020309E-1   8.223651647567749E-1  -2.225799858570099E-1   1.341847330331802E-1   4.939128458499908E-1  
 3.752000000000000E7     1.343846619129181E-1   4.948606193065643E-1   8.226539492607117E-1  -2.235941290855408E-1   8.225515484809876E-1  -2.235399335622788E-1   1.341604143381119E-1   4.930438101291657E-1  
 3.754000000000000E7     1.344094574451447E-1   4.941653907299042E-1   8.229889869689941E-1  -2.245711088180542E-1   8.224949836730957E-1  -2.243513166904450E-1   1.346472948789597E-1   4.919532537460327E-1  
 3.756000000000000E7     1.348992735147476E-1   4.933159649372101E-1   8.226956725120544E-1  -2.254276871681213E-1   8.223881721496582E-1  -2.250445485115051E-1   1.351130604743958E-1   4.915763735771179E-1  
 3.758000000000000E7     1.357133835554123E-1   4.925435483455658E-1   8.231147527694702E-1  -2.263416200876236E-1   8.225510120391846E-1  -2.267766445875168E-1   1.351808458566666E-1   4.911117851734161E-1  
 3.760000000000000E7     1.356250345706940E-1   4.922331869602203E-1   8.228452205657959E-1  -2.276330739259720E-1   8.229078054428101E-1  -2.274840325117111E-1   1.356584429740906E-1   4.902131557464600E-1  
 3.762000000000000E7     1.361178457736969E-1   4.912127852439880E-1   8.228587508201599E-1  -2.285841107368469E-1   8.225210309028626E-1  -2.287167906761169E-1   1.360554993152618E-1   4.895054996013641E-1  
 3.764000000000000E7     1.364748924970627E-1   4.906682670116425E-1   8.229460716247559E-1  -2.294998168945313E-1   8.228284120559692E-1  -2.296110838651657E-1   1.361313909292221E-1   4.888403117656708E-1  
 3.766000000000000E7     1.370502710342407E-1   4.895254671573639E-1   8.236206173896790E-1  -2.303577363491058E-1   8.227860927581787E-1  -2.306024432182312E-1   1.367071121931076E-1   4.884376823902130E-1  
 3.768000000000000E7     1.373734474182129E-1   4.887650907039642E-1   8.235544562339783E-1  -2.314041852951050E-1   8.226316571235657E-1  -2.310977876186371E-1   1.377571076154709E-1   4.877531528472900E-1  
 3.770000000000000E7     1.377333998680115E-1   4.881761074066162E-1   8.235386610031128E-1  -2.325780987739563E-1   8.234768509864807E-1  -2.323325872421265E-1   1.375350952148438E-1   4.862399697303772E-1  
 3.772000000000000E7     1.382353305816650E-1   4.875399172306061E-1   8.236654400825501E-1  -2.334205806255341E-1   8.233160972595215E-1  -2.335331439971924E-1   1.376570314168930E-1   4.864710569381714E-1  
 3.774000000000000E7     1.381054222583771E-1   4.867661893367767E-1   8.238821625709534E-1  -2.346536517143250E-1   8.235501050949097E-1  -2.343099564313889E-1   1.386502534151077E-1   4.853138327598572E-1  
 3.776000000000000E7     1.387835443019867E-1   4.867536425590515E-1   8.233906626701355E-1  -2.353434264659882E-1   8.230854272842407E-1  -2.354030311107636E-1   1.386679410934448E-1   4.850808084011078E-1  
 3.778000000000000E7     1.391702294349670E-1   4.853952229022980E-1   8.237624764442444E-1  -2.368254363536835E-1   8.234880566596985E-1  -2.368614971637726E-1   1.389804780483246E-1   4.839587807655335E-1  
 3.780000000000000E7     1.398938149213791E-1   4.848664402961731E-1   8.240061998367310E-1  -2.374613136053085E-1   8.234176039695740E-1  -2.370281070470810E-1   1.400775462388992E-1   4.833992719650269E-1  
 3.782000000000000E7     1.400929093360901E-1   4.842132627964020E-1   8.241375684738159E-1  -2.383427172899246E-1   8.235942125320435E-1  -2.384240031242371E-1   1.396161019802094E-1   4.822221398353577E-1  
 3.784000000000000E7     1.405009329319000E-1   4.828483462333679E-1   8.240732550621033E-1  -2.392962872982025E-1   8.236386179924011E-1  -2.393875122070313E-1   1.403344422578812E-1   4.817916452884674E-1  
 3.786000000000000E7     1.406523287296295E-1   4.827425777912140E-1   8.239408135414124E-1  -2.405566722154617E-1   8.233750462532044E-1  -2.405576109886169E-1   1.407957673072815E-1   4.812018275260925E-1  
 3.788000000000000E7     1.412799656391144E-1   4.813889861106873E-1   8.245270252227783E-1  -2.412350773811340E-1   8.235077261924744E-1  -2.414242327213287E-1   1.409428566694260E-1   4.807029962539673E-1  
 3.790000000000000E7     1.416492313146591E-1   4.811075329780579E-1   8.239744901657105E-1  -2.424288094043732E-1   8.239801526069641E-1  -2.422306388616562E-1   1.416527181863785E-1   4.798207283020020E-1  
 3.792000000000000E7     1.418070048093796E-1   4.809330403804779E-1   8.237990736961365E-1  -2.433885335922241E-1   8.240402340888977E-1  -2.434192448854446E-1   1.414344608783722E-1   4.787667989730835E-1  
 3.794000000000000E7     1.426419764757156E-1   4.797289967536926E-1   8.240485787391663E-1  -2.442915290594101E-1   8.241809010505676E-1  -2.447355240583420E-1   1.419588625431061E-1   4.779673516750336E-1  
 3.796000000000000E7     1.422512680292130E-1   4.790425300598145E-1   8.243771791458130E-1  -2.457934916019440E-1   8.237038850784302E-1  -2.458596527576447E-1   1.415615081787109E-1   4.781121611595154E-1  
 3.798000000000000E7     1.433445513248444E-1   4.779555201530457E-1   8.245574831962585E-1  -2.466352581977844E-1   8.237731456756592E-1  -2.470321059226990E-1   1.420542895793915E-1   4.773796796798706E-1  
 3.800000000000000E7     1.434625685214996E-1   4.771861135959625E-1   8.243658542633057E-1  -2.472963333129883E-1   8.238196372985840E-1  -2.477693557739258E-1   1.428854912519455E-1   4.765588641166687E-1  
 3.802000000000000E7     1.435593366622925E-1   4.767668545246124E-1   8.245260715484619E-1  -2.491723895072937E-1   8.238545060157776E-1  -2.487745285034180E-1   1.429820507764816E-1   4.756873250007629E-1  
 3.804000000000000E7     1.440324932336807E-1   4.762131571769714E-1   8.240510821342468E-1  -2.495779097080231E-1   8.234173059463501E-1  -2.494207322597504E-1   1.438241600990295E-1   4.756141901016235E-1  
 3.806000000000000E7     1.443804651498795E-1   4.751712083816528E-1   8.244687318801880E-1  -2.503499388694763E-1   8.239757418632507E-1  -2.505767345428467E-1   1.439468860626221E-1   4.746062457561493E-1  
 3.808000000000000E7     1.444558203220367E-1   4.750075340270996E-1   8.244789838790894E-1  -2.517478466033936E-1   8.243771195411682E-1  -2.515698373317719E-1   1.446650177240372E-1   4.732291698455811E-1  
 3.810000000000000E7     1.445209830999374E-1   4.738871455192566E-1   8.246039152145386E-1  -2.528666257858276E-1   8.244792222976685E-1  -2.525262534618378E-1   1.449351906776428E-1   4.721776843070984E-1  
 3.812000000000000E7     1.446003466844559E-1   4.729539155960083E-1   8.246707916259766E-1  -2.538906633853912E-1   8.243837952613831E-1  -2.534328103065491E-1   1.453069597482681E-1   4.716521501541138E-1  
 3.814000000000000E7     1.454990655183792E-1   4.724824726581574E-1   8.245844841003418E-1  -2.549127042293549E-1   8.240735530853272E-1  -2.547799944877625E-1   1.451806277036667E-1   4.716005325317383E-1  
 3.816000000000000E7     1.464612185955048E-1   4.714272320270538E-1   8.248071074485779E-1  -2.555848956108093E-1   8.240210413932800E-1  -2.558214962482452E-1   1.452917307615280E-1   4.704559743404388E-1  
 3.818000000000000E7     1.465158164501190E-1   4.710124731063843E-1   8.248167634010315E-1  -2.569137513637543E-1   8.241564035415649E-1  -2.563310563564301E-1   1.461589932441711E-1   4.692504107952118E-1  
 3.820000000000000E7     1.471182554960251E-1   4.701462984085083E-1   8.252009153366089E-1  -2.576416432857513E-1   8.245632648468018E-1  -2.576463818550110E-1   1.464424133300781E-1   4.683774709701538E-1  
 3.822000000000000E7     1.471073329448700E-1   4.700802564620972E-1   8.245116472244263E-1  -2.587931752204895E-1   8.239206671714783E-1  -2.586580514907837E-1   1.470391750335693E-1   4.683630168437958E-1  
 3.824000000000000E7     1.477274298667908E-1   4.686635732650757E-1   8.250856399536133E-1  -2.597110569477081E-1   8.242570161819458E-1  -2.596808671951294E-1   1.473180055618286E-1   4.678815007209778E-1  
 3.826000000000000E7     1.476551294326782E-1   4.683243036270142E-1   8.245190978050232E-1  -2.608551084995270E-1   8.241065144538879E-1  -2.605489492416382E-1   1.476999521255493E-1   4.671131074428558E-1  
 3.828000000000000E7     1.477436274290085E-1   4.673872590065002E-1   8.247767090797424E-1  -2.617207169532776E-1   8.242293000221252E-1  -2.622505128383637E-1   1.477156579494476E-1   4.664199948310852E-1  
 3.830000000000000E7     1.490059792995453E-1   4.667105078697205E-1   8.248028755187988E-1  -2.626647353172302E-1   8.246785402297974E-1  -2.626583576202393E-1   1.482328474521637E-1   4.652147889137268E-1  
 3.832000000000000E7     1.489494889974594E-1   4.661528170108795E-1   8.247787356376648E-1  -2.641272842884064E-1   8.239986896514893E-1  -2.636338174343109E-1   1.483178138732910E-1   4.649078249931335E-1  
 3.834000000000000E7     1.490796953439713E-1   4.646671414375305E-1   8.251145482063294E-1  -2.651526629924774E-1   8.250226974487305E-1  -2.652127742767334E-1   1.488792598247528E-1   4.638456106185913E-1  
 3.836000000000000E7     1.495431661605835E-1   4.648441672325134E-1   8.248972892761231E-1  -2.657290697097778E-1   8.242372274398804E-1  -2.659767270088196E-1   1.496220380067825E-1   4.634065628051758E-1  
 3.838000000000000E7     1.494733989238739E-1   4.640207886695862E-1   8.246826529502869E-1  -2.668599784374237E-1   8.241664171218872E-1  -2.668024301528931E-1   1.495526731014252E-1   4.626592397689819E-1  
 3.840000000000000E7     1.502464413642883E-1   4.630940258502960E-1   8.250980377197266E-1  -2.677062749862671E-1   8.243440389633179E-1  -2.680214941501617E-1   1.497495472431183E-1   4.619187116622925E-1  
 3.842000000000000E7     1.505264639854431E-1   4.618248045444489E-1   8.251625299453735E-1  -2.688221335411072E-1   8.245185017585754E-1  -2.686673700809479E-1   1.499897092580795E-1   4.612945318222046E-1  
 3.844000000000000E7     1.503443717956543E-1   4.619786739349365E-1   8.247743844985962E-1  -2.701953947544098E-1   8.246381282806397E-1  -2.699198126792908E-1   1.502304375171661E-1   4.602853953838348E-1  
 3.846000000000000E7     1.513490825891495E-1   4.609381258487701E-1   8.247491121292114E-1  -2.704787850379944E-1   8.243905305862427E-1  -2.708370089530945E-1   1.507607698440552E-1   4.600094258785248E-1  
 3.848000000000000E7     1.514596641063690E-1   4.603896439075470E-1   8.253841400146484E-1  -2.717598080635071E-1   8.246745467185974E-1  -2.720206081867218E-1   1.507090628147125E-1   4.590857028961182E-1  
 3.850000000000000E7     1.519711762666702E-1   4.596314430236816E-1   8.250741958618164E-1  -2.726482450962067E-1   8.240687847137451E-1  -2.734106183052063E-1   1.511403918266296E-1   4.589248299598694E-1  
 3.852000000000000E7     1.519722938537598E-1   4.589420855045319E-1   8.247418999671936E-1  -2.742109298706055E-1   8.246742486953735E-1  -2.737087607383728E-1   1.515340059995651E-1   4.574722647666931E-1  
 3.854000000000000E7     1.525279879570007E-1   4.577744603157044E-1   8.251629471778870E-1  -2.750383913516998E-1   8.244013190269470E-1  -2.750168740749359E-1   1.521607339382172E-1   4.570500254631043E-1  
 3.856000000000000E7     1.529711782932282E-1   4.571923017501831E-1   8.249257802963257E-1  -2.756047546863556E-1   8.245432972908020E-1  -2.760941684246063E-1   1.522837877273560E-1   4.563437700271606E-1  
 3.858000000000000E7     1.533588171005249E-1   4.568791985511780E-1   8.250543475151062E-1  -2.767936587333679E-1   8.248637318611145E-1  -2.771480679512024E-1   1.530600786209106E-1   4.551075398921967E-1  
 3.860000000000000E7     1.536583155393601E-1   4.560193419456482E-1   8.246366381645203E-1  -2.781146764755249E-1   8.244396448135376E-1  -2.781791090965271E-1   1.529130488634110E-1   4.551027119159699E-1  
 3.862000000000000E7     1.541149318218231E-1   4.551708400249481E-1   8.248455524444580E-1  -2.784034311771393E-1   8.241872191429138E-1  -2.788912653923035E-1   1.531174629926682E-1   4.544920325279236E-1  
 3.864000000000000E7     1.543244868516922E-1   4.544492065906525E-1   8.249518871307373E-1  -2.795740962028503E-1   8.243873715400696E-1  -2.800081968307495E-1   1.537767201662064E-1   4.534576833248138E-1  
 3.866000000000000E7     1.542928963899612E-1   4.538087844848633E-1   8.248670101165772E-1  -2.813112139701843E-1   8.242444396018982E-1  -2.809663712978363E-1   1.538479626178742E-1   4.526035189628601E-1  
 3.868000000000000E7     1.549631953239441E-1   4.530991613864899E-1   8.249112367630005E-1  -2.817021012306213E-1   8.242989182472229E-1  -2.820629477500916E-1   1.540624201297760E-1   4.514627158641815E-1  
 3.870000000000000E7     1.549746692180634E-1   4.524283111095429E-1   8.246918916702271E-1  -2.830454707145691E-1   8.241648674011231E-1  -2.831160128116608E-1   1.548015624284744E-1   4.516316652297974E-1  
 3.872000000000000E7     1.550039350986481E-1   4.511835575103760E-1   8.246642947196960E-1  -2.843438088893890E-1   8.245800137519836E-1  -2.840343415737152E-1   1.550859063863754E-1   4.506407678127289E-1  
 3.874000000000000E7     1.558057963848114E-1   4.506576955318451E-1   8.248021602630615E-1  -2.852437496185303E-1   8.244669437408447E-1  -2.850386500358582E-1   1.552792340517044E-1   4.494317471981049E-1  
 3.876000000000000E7     1.559703350067139E-1   4.499765634536743E-1   8.248820900917053E-1  -2.864063382148743E-1   8.242582082748413E-1  -2.861512303352356E-1   1.557344645261765E-1   4.492557346820831E-1  
 3.878000000000000E7     1.567001193761826E-1   4.495788514614105E-1   8.247684240341187E-1  -2.871026694774628E-1   8.239997029304504E-1  -2.873112857341766E-1   1.561810076236725E-1   4.484946131706238E-1  
 3.880000000000000E7     1.562653332948685E-1   4.488400220870972E-1   8.245126605033875E-1  -2.882634699344635E-1   8.240576982498169E-1  -2.883143424987793E-1   1.562104523181915E-1   4.477753043174744E-1  
 3.882000000000000E7     1.569428741931915E-1   4.473026692867279E-1   8.250288367271423E-1  -2.895565629005432E-1   8.243229389190674E-1  -2.895466685295105E-1   1.566506028175354E-1   4.468822479248047E-1  
 3.884000000000000E7     1.574205458164215E-1   4.471639394760132E-1   8.247376680374146E-1  -2.901960909366608E-1   8.245026469230652E-1  -2.901782691478729E-1   1.567953228950501E-1   4.454561471939087E-1  
 3.886000000000000E7     1.571702808141708E-1   4.462370276451111E-1   8.247374296188355E-1  -2.914772331714630E-1   8.242909908294678E-1  -2.912940084934235E-1   1.570408046245575E-1   4.453450441360474E-1  
 3.888000000000000E7     1.576285809278488E-1   4.456037282943726E-1   8.245660066604614E-1  -2.923746109008789E-1   8.243880867958069E-1  -2.922858297824860E-1   1.570672988891602E-1   4.445689916610718E-1  
 3.890000000000000E7     1.587893664836884E-1   4.448608160018921E-1   8.244623541831970E-1  -2.928870320320129E-1   8.243633508682251E-1  -2.934120893478394E-1   1.577937602996826E-1   4.435494840145111E-1  
 3.892000000000000E7     1.585090160369873E-1   4.439930021762848E-1   8.246919512748718E-1  -2.941207289695740E-1   8.242887258529663E-1  -2.944451570510864E-1   1.580515801906586E-1   4.433709979057312E-1  
 3.894000000000000E7     1.586702018976212E-1   4.434867501258850E-1   8.247551321983337E-1  -2.955856323242188E-1   8.241007328033447E-1  -2.953603565692902E-1   1.581657230854034E-1   4.424898028373718E-1  
 3.896000000000000E7     1.593519598245621E-1   4.425193965435028E-1   8.245583772659302E-1  -2.961592674255371E-1   8.242375254631043E-1  -2.967663407325745E-1   1.584887802600861E-1   4.416192173957825E-1  
 3.898000000000000E7     1.595219969749451E-1   4.421101510524750E-1   8.242911696434021E-1  -2.973558902740479E-1   8.242322206497192E-1  -2.975069880485535E-1   1.586548984050751E-1   4.414218962192535E-1  
 3.900000000000000E7     1.592677384614945E-1   4.407703876495361E-1   8.250076174736023E-1  -2.987065613269806E-1   8.240983486175537E-1  -2.986203730106354E-1   1.589103490114212E-1   4.403226971626282E-1  
 3.902000000000000E7     1.595527976751328E-1   4.402488470077515E-1   8.246620297431946E-1  -2.994893491268158E-1   8.239069581031799E-1  -2.994520366191864E-1   1.594863533973694E-1   4.394944608211517E-1  
 3.904000000000000E7     1.607712656259537E-1   4.393750429153442E-1   8.244217038154602E-1  -3.003458678722382E-1   8.244918584823608E-1  -3.005862534046173E-1   1.593987643718720E-1   4.386095404624939E-1  
 3.906000000000000E7     1.601694226264954E-1   4.388441145420075E-1   8.244385719299316E-1  -3.018788099288940E-1   8.240756392478943E-1  -3.020592629909515E-1   1.593272238969803E-1   4.378934204578400E-1  
 3.908000000000000E7     1.603036522865295E-1   4.383656382560730E-1   8.243657350540161E-1  -3.027773499488831E-1   8.238927125930786E-1  -3.021871447563171E-1   1.604495197534561E-1   4.371853470802307E-1  
 3.910000000000000E7     1.610294580459595E-1   4.381048381328583E-1   8.240418434143066E-1  -3.033913671970367E-1   8.237720131874085E-1  -3.039643466472626E-1   1.600356996059418E-1   4.363197386264801E-1  
 3.912000000000000E7     1.609217226505280E-1   4.368190169334412E-1   8.244185447692871E-1  -3.046374320983887E-1   8.239572048187256E-1  -3.045962750911713E-1   1.612404584884644E-1   4.355376362800598E-1  
 3.914000000000000E7     1.620746552944183E-1   4.358427822589874E-1   8.241977691650391E-1  -3.053895533084869E-1   8.237850666046143E-1  -3.055942654609680E-1   1.609668284654617E-1   4.351692795753479E-1  
 3.916000000000000E7     1.624296456575394E-1   4.348696768283844E-1   8.241719007492065E-1  -3.064429163932800E-1   8.236718177795410E-1  -3.069027364253998E-1   1.610846221446991E-1   4.341844320297241E-1  
 3.918000000000000E7     1.617349237203598E-1   4.342631101608276E-1   8.241298198699951E-1  -3.080731630325317E-1   8.236488103866577E-1  -3.075642585754395E-1   1.615759581327438E-1   4.332640469074249E-1  
 3.920000000000000E7     1.628569513559341E-1   4.342809319496155E-1   8.236531019210815E-1  -3.087359368801117E-1   8.234193325042725E-1  -3.086016178131104E-1   1.620113104581833E-1   4.332975745201111E-1  
 3.922000000000000E7     1.622622311115265E-1   4.329381287097931E-1   8.238815665245056E-1  -3.100693821907044E-1   8.235248923301697E-1  -3.095946311950684E-1   1.622456312179565E-1   4.317077696323395E-1  
 3.924000000000000E7     1.623473316431046E-1   4.324188828468323E-1   8.239158987998962E-1  -3.114464282989502E-1   8.233794569969177E-1  -3.111202716827393E-1   1.621462106704712E-1   4.310464859008789E-1  
 3.926000000000000E7     1.632901579141617E-1   4.313979744911194E-1   8.239758014678955E-1  -3.116861879825592E-1   8.233311772346497E-1  -3.116354942321777E-1   1.629089564085007E-1   4.303012788295746E-1  
 3.928000000000000E7     1.636038571596146E-1   4.308016002178192E-1   8.235795497894287E-1  -3.127542138099670E-1   8.232702016830444E-1  -3.130368888378143E-1   1.628593504428864E-1   4.298731684684753E-1  
 3.930000000000000E7     1.639269888401032E-1   4.301614165306091E-1   8.237003087997437E-1  -3.136691451072693E-1   8.234702944755554E-1  -3.138374388217926E-1   1.628508865833283E-1   4.285732805728912E-1  
 3.932000000000000E7     1.639802157878876E-1   4.299620985984802E-1   8.233720064163208E-1  -3.146413266658783E-1   8.231788277626038E-1  -3.149848580360413E-1   1.631297767162323E-1   4.283327162265778E-1  
 3.934000000000000E7     1.647399067878723E-1   4.283066987991333E-1   8.238497972488403E-1  -3.157378137111664E-1   8.231874108314514E-1  -3.159027397632599E-1   1.640224456787109E-1   4.280182421207428E-1  
 3.936000000000000E7     1.639735698699951E-1   4.278278350830078E-1   8.235720992088318E-1  -3.171645104885101E-1   8.228089213371277E-1  -3.172348737716675E-1   1.636562794446945E-1   4.273990988731384E-1  
 3.938000000000000E7     1.643703579902649E-1   4.268904924392700E-1   8.237025737762451E-1  -3.179498016834259E-1   8.229444026947022E-1  -3.179224133491516E-1   1.650589853525162E-1   4.261867403984070E-1  
 3.940000000000000E7     1.649945229291916E-1   4.267643392086029E-1   8.232670426368713E-1  -3.189904093742371E-1   8.228111863136292E-1  -3.191947340965271E-1   1.648401916027069E-1   4.256602227687836E-1  
 3.942000000000000E7     1.652023047208786E-1   4.259115457534790E-1   8.233754634857178E-1  -3.202748000621796E-1   8.230358958244324E-1  -3.200380504131317E-1   1.648984551429749E-1   4.248204231262207E-1  
 3.944000000000000E7     1.653419584035873E-1   4.248629212379456E-1   8.235788941383362E-1  -3.215293288230896E-1   8.227582573890686E-1  -3.208988308906555E-1   1.653312146663666E-1   4.242354035377502E-1  
 3.946000000000000E7     1.654265075922012E-1   4.239617586135864E-1   8.232122659683228E-1  -3.223081827163696E-1   8.225211501121521E-1  -3.219129741191864E-1   1.659123897552490E-1   4.231980443000794E-1  
 3.948000000000000E7     1.660797297954559E-1   4.235453605651856E-1   8.230888247489929E-1  -3.235606253147125E-1   8.226912021636963E-1  -3.237855136394501E-1   1.655912101268768E-1   4.224604070186615E-1  
 3.950000000000000E7     1.660820692777634E-1   4.227860569953919E-1   8.229799270629883E-1  -3.243299126625061E-1   8.224791884422302E-1  -3.244242966175079E-1   1.657850295305252E-1   4.216107428073883E-1  
 3.952000000000000E7     1.662721633911133E-1   4.222021698951721E-1   8.230642676353455E-1  -3.256345987319946E-1   8.224549293518066E-1  -3.252040445804596E-1   1.657658666372299E-1   4.209470748901367E-1  
 3.954000000000000E7     1.665396988391876E-1   4.213745594024658E-1   8.228582143783569E-1  -3.262249231338501E-1   8.224363327026367E-1  -3.265453577041626E-1   1.657887995243073E-1   4.198809266090393E-1  
 3.956000000000000E7     1.670915484428406E-1   4.207005798816681E-1   8.229943513870239E-1  -3.270946741104126E-1   8.222580552101135E-1  -3.270045518875122E-1   1.670601069927216E-1   4.194422662258148E-1  
 3.958000000000000E7     1.670301556587219E-1   4.191705882549286E-1   8.231679201126099E-1  -3.284037411212921E-1   8.222812414169312E-1  -3.283372819423676E-1   1.667926609516144E-1   4.190501570701599E-1  
 3.960000000000000E7     1.672870963811874E-1   4.190703034400940E-1   8.226864933967590E-1  -3.296020925045013E-1   8.222582340240479E-1  -3.293307721614838E-1   1.668680608272553E-1   4.177275598049164E-1  
 3.962000000000000E7     1.678577959537506E-1   4.172802865505219E-1   8.229699730873108E-1  -3.304861783981323E-1   8.221706748008728E-1  -3.307360112667084E-1   1.670487523078919E-1   4.174143373966217E-1  
 3.964000000000000E7     1.681460738182068E-1   4.175054728984833E-1   8.223960995674133E-1  -3.311909735202789E-1   8.219237923622131E-1  -3.313562273979187E-1   1.669563502073288E-1   4.166994094848633E-1  
 3.966000000000000E7     1.684371978044510E-1   4.170224666595459E-1   8.220542669296265E-1  -3.322309851646423E-1   8.217816352844238E-1  -3.326654434204102E-1   1.672499775886536E-1   4.162720739841461E-1  
 3.968000000000000E7     1.684205085039139E-1   4.156842827796936E-1   8.225159049034119E-1  -3.333480060100555E-1   8.219249248504639E-1  -3.331065177917481E-1   1.685297787189484E-1   4.149762988090515E-1  
 3.970000000000000E7     1.684922277927399E-1   4.150322675704956E-1   8.220806121826172E-1  -3.348146378993988E-1   8.218562602996826E-1  -3.345894515514374E-1   1.680921167135239E-1   4.148692488670349E-1  
 3.972000000000000E7     1.690362989902496E-1   4.140479564666748E-1   8.219149708747864E-1  -3.356489837169647E-1   8.216782212257385E-1  -3.355385065078735E-1   1.682263165712357E-1   4.132937788963318E-1  
 3.974000000000000E7     1.694850027561188E-1   4.134376645088196E-1   8.221370577812195E-1  -3.364031314849854E-1   8.215100169181824E-1  -3.365094363689423E-1   1.688353121280670E-1   4.128432869911194E-1  
 3.976000000000000E7     1.691891551017761E-1   4.128904938697815E-1   8.218509554862976E-1  -3.378304243087769E-1   8.212915062904358E-1  -3.374972045421600E-1   1.691066622734070E-1   4.123696684837341E-1  
 3.978000000000000E7     1.697749197483063E-1   4.119439125061035E-1   8.216378092765808E-1  -3.387166261672974E-1   8.213651180267334E-1  -3.385169208049774E-1   1.685862392187119E-1   4.115824997425079E-1  
 3.980000000000000E7     1.699168384075165E-1   4.110716879367828E-1   8.217737674713135E-1  -3.398481011390686E-1   8.215622901916504E-1  -3.398503363132477E-1   1.692939847707748E-1   4.104530811309815E-1  
 3.982000000000000E7     1.698976010084152E-1   4.103188514709473E-1   8.217623829841614E-1  -3.410595953464508E-1   8.213508725166321E-1  -3.406736850738525E-1   1.692261993885040E-1   4.100992977619171E-1  
 3.984000000000000E7     1.701071560382843E-1   4.102447926998138E-1   8.214869499206543E-1  -3.419279158115387E-1   8.207976222038269E-1  -3.415994048118591E-1   1.700646430253983E-1   4.090583324432373E-1  
 3.986000000000000E7     1.703960448503494E-1   4.094104468822479E-1   8.208482861518860E-1  -3.428360819816589E-1   8.206943273544312E-1  -3.427156507968903E-1   1.697532683610916E-1   4.087564945220947E-1  
 3.988000000000000E7     1.705795675516129E-1   4.084811210632324E-1   8.213632106781006E-1  -3.434157967567444E-1   8.206703662872315E-1  -3.440705239772797E-1   1.695569753646851E-1   4.074262976646423E-1  
 3.990000000000000E7     1.711343824863434E-1   4.075430631637573E-1   8.211419582366943E-1  -3.449258506298065E-1   8.204898834228516E-1  -3.449676632881165E-1   1.708454787731171E-1   4.072078466415405E-1  
 3.992000000000000E7     1.712712645530701E-1   4.070524275302887E-1   8.210180997848511E-1  -3.459996879100800E-1   8.203904032707214E-1  -3.459014892578125E-1   1.708261370658875E-1   4.061416685581207E-1  
 3.994000000000000E7     1.717130243778229E-1   4.063291847705841E-1   8.210185170173645E-1  -3.469420969486237E-1   8.202843666076660E-1  -3.467561304569244E-1   1.713363081216812E-1   4.056265950202942E-1  
 3.996000000000000E7     1.715391278266907E-1   4.048857986927033E-1   8.210545182228088E-1  -3.480575382709503E-1   8.202540278434753E-1  -3.482823073863983E-1   1.707868874073029E-1   4.043517112731934E-1  
 3.998000000000000E7     1.723226457834244E-1   4.044139981269836E-1   8.204045891761780E-1  -3.489994704723358E-1   8.202182650566101E-1  -3.486058712005615E-1   1.713133007287979E-1   4.042966067790985E-1  
 4.000000000000000E7     1.720284074544907E-1   4.036213159561157E-1   8.202358484268189E-1  -3.502168357372284E-1   8.199291825294495E-1  -3.501855432987213E-1   1.717858612537384E-1   4.035961627960205E-1  
 4.002000000000000E7     1.722018718719482E-1   4.026212692260742E-1   8.205459117889404E-1  -3.514068424701691E-1   8.199976086616516E-1  -3.507309556007385E-1   1.721837222576141E-1   4.025629758834839E-1  
 4.004000000000000E7     1.727206110954285E-1   4.020709991455078E-1   8.200699687004089E-1  -3.522126972675324E-1   8.197899460792542E-1  -3.523485958576202E-1   1.718823611736298E-1   4.019069373607636E-1  
 4.006000000000000E7     1.720956414937973E-1   4.015127718448639E-1   8.203352689743042E-1  -3.534246385097504E-1   8.196473121643066E-1  -3.531907200813294E-1   1.722639203071594E-1   4.010124504566193E-1  
 4.008000000000000E7     1.724553406238556E-1   4.011018276214600E-1   8.198876380920410E-1  -3.546188771724701E-1   8.195656538009644E-1  -3.542477786540985E-1   1.718606948852539E-1   4.000113606452942E-1  
 4.010000000000000E7     1.726910322904587E-1   4.002249836921692E-1   8.200407028198242E-1  -3.554075956344605E-1   8.194233775138855E-1  -3.549617826938629E-1   1.725825518369675E-1   3.992907404899597E-1  
 4.012000000000000E7     1.737746298313141E-1   3.990795910358429E-1   8.202080130577087E-1  -3.563556969165802E-1   8.190910220146179E-1  -3.563127517700195E-1   1.728392839431763E-1   3.988575637340546E-1  
 4.014000000000000E7     1.736221909523010E-1   3.981770873069763E-1   8.196503520011902E-1  -3.570291101932526E-1   8.190131187438965E-1  -3.573062121868134E-1   1.730233728885651E-1   3.980638682842255E-1  
 4.016000000000000E7     1.739979684352875E-1   3.975943028926849E-1   8.195270895957947E-1  -3.581388294696808E-1   8.188044428825378E-1  -3.582207858562470E-1   1.733012050390244E-1   3.977602422237396E-1  
 4.018000000000000E7     1.740208268165588E-1   3.965838849544525E-1   8.195691108703613E-1  -3.591125607490540E-1   8.183486461639404E-1  -3.594917654991150E-1   1.733525395393372E-1   3.968310952186585E-1  
 4.020000000000000E7     1.739273965358734E-1   3.958728611469269E-1   8.195338249206543E-1  -3.607341647148132E-1   8.187164664268494E-1  -3.608318269252777E-1   1.731748878955841E-1   3.957136273384094E-1  
 4.022000000000000E7     1.744306534528732E-1   3.955041468143463E-1   8.189391493797302E-1  -3.616445660591126E-1   8.191171884536743E-1  -3.615636825561523E-1   1.733571290969849E-1   3.946660161018372E-1  
 4.024000000000000E7     1.744479387998581E-1   3.948677778244019E-1   8.190492391586304E-1  -3.624576628208160E-1   8.186597824096680E-1  -3.624501526355743E-1   1.744644045829773E-1   3.942049145698547E-1  
 4.026000000000000E7     1.749121844768524E-1   3.944368064403534E-1   8.184232711791992E-1  -3.633458912372589E-1   8.182324767112732E-1  -3.634567856788635E-1   1.736630946397781E-1   3.934930562973023E-1  
 4.028000000000000E7     1.747709065675736E-1   3.929975032806397E-1   8.189592361450195E-1  -3.645328581333160E-1   8.182805180549622E-1  -3.645443022251129E-1   1.741942316293716E-1   3.928598463535309E-1  
 4.030000000000000E7     1.750797033309937E-1   3.916868269443512E-1   8.188397288322449E-1  -3.657445609569550E-1   8.180329203605652E-1  -3.656062185764313E-1   1.746166497468948E-1   3.918432593345642E-1  
 4.032000000000000E7     1.750732064247131E-1   3.918966054916382E-1   8.183827996253967E-1  -3.670209050178528E-1   8.180526494979858E-1  -3.665074110031128E-1   1.747061014175415E-1   3.904833793640137E-1  
 4.034000000000000E7     1.758621484041214E-1   3.907393813133240E-1   8.183658719062805E-1  -3.674032390117645E-1   8.180363774299622E-1  -3.679287433624268E-1   1.743588298559189E-1   3.904098570346832E-1  
 4.036000000000000E7     1.762216240167618E-1   3.907113075256348E-1   8.180669546127319E-1  -3.691249489784241E-1   8.174680471420288E-1  -3.687634170055389E-1   1.744801253080368E-1   3.892889618873596E-1  
 4.038000000000000E7     1.760398596525192E-1   3.892944753170013E-1   8.177391290664673E-1  -3.697247803211212E-1   8.173443078994751E-1  -3.697457909584045E-1   1.753619462251663E-1   3.888443112373352E-1  
 4.040000000000000E7     1.756350547075272E-1   3.889336884021759E-1   8.177661895751953E-1  -3.710337877273560E-1   8.170707225799561E-1  -3.707336783409119E-1   1.756370216608048E-1   3.884897828102112E-1  
 4.042000000000000E7     1.760101318359375E-1   3.878473937511444E-1   8.179256319999695E-1  -3.723818659782410E-1   8.171575665473938E-1  -3.715543448925018E-1   1.757894307374954E-1   3.873409032821655E-1  
 4.044000000000000E7     1.770043373107910E-1   3.870115876197815E-1   8.176351189613342E-1  -3.727725744247437E-1   8.169990777969360E-1  -3.729969263076782E-1   1.754716038703919E-1   3.866655826568604E-1  
 4.046000000000000E7     1.768660545349121E-1   3.859519660472870E-1   8.174276947975159E-1  -3.740292191505432E-1   8.173179030418396E-1  -3.736609816551209E-1   1.763256341218948E-1   3.856536149978638E-1  
 4.048000000000000E7     1.771232485771179E-1   3.859449028968811E-1   8.170590996742249E-1  -3.749448060989380E-1   8.169443607330322E-1  -3.753670454025269E-1   1.756853461265564E-1   3.843612968921661E-1  
 4.050000000000000E7     1.770735234022141E-1   3.850980401039124E-1   8.170133829116821E-1  -3.760090768337250E-1   8.165745139122009E-1  -3.758076131343842E-1   1.766452491283417E-1   3.841708004474640E-1  
 4.052000000000000E7     1.766967624425888E-1   3.841271698474884E-1   8.172860145568848E-1  -3.773694932460785E-1   8.161277770996094E-1  -3.770689368247986E-1   1.763616055250168E-1   3.838121294975281E-1  
 4.054000000000000E7     1.772899627685547E-1   3.834218680858612E-1   8.168182373046875E-1  -3.781484663486481E-1   8.162359595298767E-1  -3.781496286392212E-1   1.760762631893158E-1   3.825348317623138E-1  
 4.056000000000000E7     1.777779757976532E-1   3.818716406822205E-1   8.169654607772827E-1  -3.788687586784363E-1   8.158702850341797E-1  -3.791489303112030E-1   1.769558489322662E-1   3.820815682411194E-1  
 4.058000000000000E7     1.775465905666351E-1   3.815789818763733E-1   8.166759014129639E-1  -3.803051412105560E-1   8.160187005996704E-1  -3.799501657485962E-1   1.772858202457428E-1   3.810576796531677E-1  
 4.060000000000000E7     1.782229840755463E-1   3.805864453315735E-1   8.163014054298401E-1  -3.814950883388519E-1   8.156949877738953E-1  -3.809389472007752E-1   1.770610511302948E-1   3.805538415908814E-1  
 4.062000000000000E7     1.776555180549622E-1   3.804202675819397E-1   8.160077929496765E-1  -3.822724819183350E-1   8.155640363693237E-1  -3.820883333683014E-1   1.776461750268936E-1   3.800507485866547E-1  
 4.064000000000000E7     1.786910295486450E-1   3.792119026184082E-1   8.157765269279480E-1  -3.831783533096314E-1   8.157182335853577E-1  -3.832649588584900E-1   1.773763298988342E-1   3.788679838180542E-1  
 4.066000000000000E7     1.784570813179016E-1   3.784159123897553E-1   8.157740831375122E-1  -3.842441439628601E-1   8.151396512985230E-1  -3.843815624713898E-1   1.776816248893738E-1   3.783079981803894E-1  
 4.068000000000000E7     1.787166297435761E-1   3.779012858867645E-1   8.156450390815735E-1  -3.852788209915161E-1   8.149505853652954E-1  -3.851386904716492E-1   1.779285669326782E-1   3.776834011077881E-1  
 4.070000000000000E7     1.784905791282654E-1   3.767500221729279E-1   8.154835104942322E-1  -3.864100575447083E-1   8.152727484703064E-1  -3.864269852638245E-1   1.779491305351257E-1   3.762522637844086E-1  
 4.072000000000000E7     1.788028776645660E-1   3.758156597614288E-1   8.155065774917603E-1  -3.874754011631012E-1   8.147471547126770E-1  -3.874361217021942E-1   1.782984584569931E-1   3.758708834648132E-1  
 4.074000000000000E7     1.791750937700272E-1   3.755743503570557E-1   8.153981566429138E-1  -3.883590698242188E-1   8.148936629295349E-1  -3.887356519699097E-1   1.780971139669418E-1   3.748225569725037E-1  
 4.076000000000000E7     1.794221103191376E-1   3.743102550506592E-1   8.150691986083984E-1  -3.892950117588043E-1   8.143147826194763E-1  -3.896319270133972E-1   1.783224195241928E-1   3.744446039199829E-1  
 4.078000000000000E7     1.789704412221909E-1   3.743616044521332E-1   8.144785165786743E-1  -3.909240365028381E-1   8.139280676841736E-1  -3.906780481338501E-1   1.783824563026428E-1   3.735139966011047E-1  
 4.080000000000000E7     1.795908510684967E-1   3.731421828269959E-1   8.146929144859314E-1  -3.919359147548676E-1   8.139360547065735E-1  -3.912211358547211E-1   1.791740208864212E-1   3.730538487434387E-1  
 4.082000000000000E7     1.795567125082016E-1   3.721146583557129E-1   8.147036433219910E-1  -3.928491473197937E-1   8.139868378639221E-1  -3.924099504947662E-1   1.788627505302429E-1   3.717626333236694E-1  
 4.084000000000000E7     1.804176717996597E-1   3.718260228633881E-1   8.139914274215698E-1  -3.935360908508301E-1   8.137617111206055E-1  -3.939388394355774E-1   1.790328174829483E-1   3.712696135044098E-1  
 4.086000000000000E7     1.802372038364410E-1   3.709768652915955E-1   8.137893676757813E-1  -3.945243358612061E-1   8.132235407829285E-1  -3.949144184589386E-1   1.788532286882401E-1   3.706033229827881E-1  
 4.088000000000000E7     1.798819750547409E-1   3.701034784317017E-1   8.140259385108948E-1  -3.958418667316437E-1   8.129008412361145E-1  -3.953197896480560E-1   1.791210919618607E-1   3.699430823326111E-1  
 4.090000000000000E7     1.799739599227905E-1   3.694755434989929E-1   8.137564659118652E-1  -3.965212702751160E-1   8.129783868789673E-1  -3.965389430522919E-1   1.792824417352676E-1   3.688296973705292E-1  
 4.092000000000000E7     1.804857254028320E-1   3.687847554683685E-1   8.133147358894348E-1  -3.978354632854462E-1   8.125047087669373E-1  -3.977321386337280E-1   1.796312034130096E-1   3.684989809989929E-1  
 4.094000000000000E7     1.802106201648712E-1   3.680194020271301E-1   8.130245208740234E-1  -3.991538584232330E-1   8.123602867126465E-1  -3.987031877040863E-1   1.797397285699844E-1   3.678920865058899E-1  
 4.096000000000000E7     1.806151419878006E-1   3.668033778667450E-1   8.131170868873596E-1  -3.999386429786682E-1   8.123919963836670E-1  -3.997429609298706E-1   1.802414357662201E-1   3.673895001411438E-1  
 4.098000000000000E7     1.810397207736969E-1   3.664979934692383E-1   8.126391768455505E-1  -4.011689722537994E-1   8.123074769973755E-1  -4.009412825107575E-1   1.797704398632050E-1   3.661492168903351E-1  
 4.100000000000000E7     1.812660545110703E-1   3.655714094638825E-1   8.128451704978943E-1  -4.019507467746735E-1   8.118116259574890E-1  -4.022401571273804E-1   1.800161153078079E-1   3.652162253856659E-1  
 4.102000000000000E7     1.810703724622726E-1   3.651919960975647E-1   8.121261000633240E-1  -4.031765162944794E-1   8.116458654403687E-1  -4.033274948596954E-1   1.800760775804520E-1   3.647166490554810E-1  
 4.104000000000000E7     1.814820915460587E-1   3.640078008174896E-1   8.120969533920288E-1  -4.041073620319367E-1   8.117192387580872E-1  -4.040515124797821E-1   1.805197000503540E-1   3.635111451148987E-1  
 4.106000000000000E7     1.806942969560623E-1   3.633987903594971E-1   8.118373155593872E-1  -4.052577912807465E-1   8.112997412681580E-1  -4.049170911312103E-1   1.805984675884247E-1   3.637245893478394E-1  
 4.108000000000000E7     1.812144070863724E-1   3.618811964988709E-1   8.117209076881409E-1  -4.062753915786743E-1   8.112427592277527E-1  -4.059867262840271E-1   1.810191720724106E-1   3.621968030929565E-1  
 4.110000000000000E7     1.813613772392273E-1   3.618981838226318E-1   8.113404512405396E-1  -4.072856903076172E-1   8.107435703277588E-1  -4.071927070617676E-1   1.809737980365753E-1   3.614275753498077E-1  
 4.112000000000000E7     1.814912706613541E-1   3.613951206207275E-1   8.109959363937378E-1  -4.087083339691162E-1   8.109109401702881E-1  -4.079654216766357E-1   1.813144683837891E-1   3.608368635177612E-1  
 4.114000000000000E7     1.822389364242554E-1   3.603284657001495E-1   8.112068176269531E-1  -4.090728163719177E-1   8.105283975601196E-1  -4.088852107524872E-1   1.813170611858368E-1   3.601882755756378E-1  
 4.116000000000000E7     1.819127798080444E-1   3.598900437355042E-1   8.110592961311340E-1  -4.103027880191803E-1   8.102654218673706E-1  -4.101286530494690E-1   1.810116916894913E-1   3.590871691703796E-1  
 4.118000000000000E7     1.817613691091538E-1   3.587124645709992E-1   8.106068372726440E-1  -4.117552340030670E-1   8.100349307060242E-1  -4.112859964370728E-1   1.816186606884003E-1   3.586626648902893E-1  
 4.120000000000000E7     1.824380010366440E-1   3.575342297554016E-1   8.106093406677246E-1  -4.124180376529694E-1   8.100068569183350E-1  -4.120398461818695E-1   1.817261278629303E-1   3.574618995189667E-1  
 4.122000000000000E7     1.819824874401093E-1   3.569581508636475E-1   8.099874258041382E-1  -4.138618707656860E-1   8.100513219833374E-1  -4.132797420024872E-1   1.813737303018570E-1   3.563686609268189E-1  
 4.124000000000000E7     1.827752292156220E-1   3.557466268539429E-1   8.102569580078125E-1  -4.147927165031433E-1   8.092662096023560E-1  -4.144966304302216E-1   1.811450272798538E-1   3.564684689044952E-1  
 4.126000000000000E7     1.823535710573196E-1   3.551653921604157E-1   8.101676702499390E-1  -4.154160618782044E-1   8.093595504760742E-1  -4.153078496456146E-1   1.818950772285461E-1   3.551037907600403E-1  
 4.128000000000000E7     1.824250221252441E-1   3.544973433017731E-1   8.094807267189026E-1  -4.167575240135193E-1   8.089122772216797E-1  -4.163614809513092E-1   1.822146922349930E-1   3.551142215728760E-1  
 4.130000000000000E7     1.831166148185730E-1   3.544906973838806E-1   8.092273473739624E-1  -4.175055325031281E-1   8.088067770004273E-1  -4.174756407737732E-1   1.824206113815308E-1   3.537130653858185E-1  
 4.132000000000000E7     1.826153546571732E-1   3.532072305679321E-1   8.091050386428833E-1  -4.185994863510132E-1   8.081120848655701E-1  -4.183520376682282E-1   1.823223978281021E-1   3.536678850650787E-1  
 4.134000000000000E7     1.828065961599350E-1   3.522027730941773E-1   8.089486360549927E-1  -4.196619689464569E-1   8.081435561180115E-1  -4.196385741233826E-1   1.824298650026321E-1   3.527509272098541E-1  
 4.136000000000000E7     1.832769960165024E-1   3.512352705001831E-1   8.085185289382935E-1  -4.207451641559601E-1   8.078965544700623E-1  -4.206274449825287E-1   1.825892180204392E-1   3.516198694705963E-1  
 4.138000000000000E7     1.836003214120865E-1   3.512688279151917E-1   8.083038330078125E-1  -4.216386675834656E-1   8.076707124710083E-1  -4.219071269035339E-1   1.816714406013489E-1   3.508575856685638E-1  
 4.140000000000000E7     1.834399402141571E-1   3.497718274593353E-1   8.082935214042664E-1  -4.231111407279968E-1   8.076430559158325E-1  -4.225384294986725E-1   1.827564686536789E-1   3.500233292579651E-1  
 4.142000000000000E7     1.836403906345367E-1   3.494728803634644E-1   8.074605464935303E-1  -4.238675236701965E-1   8.073560595512390E-1  -4.236746728420258E-1   1.824655234813690E-1   3.495284318923950E-1  
 4.144000000000000E7     1.840053051710129E-1   3.489091396331787E-1   8.073282241821289E-1  -4.250164628028870E-1   8.072621226310730E-1  -4.245075881481171E-1   1.830867379903793E-1   3.485819101333618E-1  
 4.146000000000000E7     1.837382167577744E-1   3.476762175559998E-1   8.072830438613892E-1  -4.257493615150452E-1   8.069020509719849E-1  -4.256945252418518E-1   1.831875890493393E-1   3.479028046131134E-1  
 4.148000000000000E7     1.836173385381699E-1   3.468171358108521E-1   8.073580265045166E-1  -4.269908070564270E-1   8.065319657325745E-1  -4.270010888576508E-1   1.832705736160278E-1   3.471260666847229E-1  
 4.150000000000000E7     1.835957616567612E-1   3.464298844337463E-1   8.071511983871460E-1  -4.283626377582550E-1   8.065947890281677E-1  -4.279606938362122E-1   1.829154044389725E-1   3.455781936645508E-1  
 4.152000000000000E7     1.840704530477524E-1   3.454796969890595E-1   8.066871166229248E-1  -4.292480051517487E-1   8.059101700782776E-1  -4.286777973175049E-1   1.834741234779358E-1   3.454164564609528E-1  
 4.154000000000000E7     1.839011311531067E-1   3.446095883846283E-1   8.062466979026794E-1  -4.301517903804779E-1   8.058151006698608E-1  -4.299178123474121E-1   1.832212060689926E-1   3.447428345680237E-1  
 4.156000000000000E7     1.846595108509064E-1   3.438400626182556E-1   8.061479926109314E-1  -4.308805167675018E-1   8.056355118751526E-1  -4.312116205692291E-1   1.830562800168991E-1   3.439264297485352E-1  
 4.158000000000000E7     1.841752380132675E-1   3.430972695350647E-1   8.061469197273254E-1  -4.322147071361542E-1   8.053209185600281E-1  -4.321204721927643E-1   1.833840459585190E-1   3.433405160903931E-1  
 4.160000000000000E7     1.842554360628128E-1   3.421328961849213E-1   8.055774569511414E-1  -4.333776533603668E-1   8.053085803985596E-1  -4.329276680946350E-1   1.834962368011475E-1   3.422135114669800E-1  
 4.162000000000000E7     1.843826025724411E-1   3.414298892021179E-1   8.056607842445374E-1  -4.343177080154419E-1   8.046405315399170E-1  -4.341044127941132E-1   1.841562837362289E-1   3.416119217872620E-1  
 4.164000000000000E7     1.838218420743942E-1   3.403412401676178E-1   8.055399656295776E-1  -4.355484843254089E-1   8.047299385070801E-1  -4.351106882095337E-1   1.843532621860504E-1   3.411765396595001E-1  
 4.166000000000000E7     1.847837120294571E-1   3.409172296524048E-1   8.046503663063049E-1  -4.362012147903442E-1   8.041964173316956E-1  -4.361414015293121E-1   1.839650273323059E-1   3.400957286357880E-1  
 4.168000000000000E7     1.847819983959198E-1   3.397732675075531E-1   8.047692179679871E-1  -4.373231530189514E-1   8.042142391204834E-1  -4.374687373638153E-1   1.837712973356247E-1   3.390325307846069E-1  
 4.170000000000000E7     1.847609877586365E-1   3.385493755340576E-1   8.042653203010559E-1  -4.385943114757538E-1   8.039407134056091E-1  -4.383735060691834E-1   1.838819533586502E-1   3.387173414230347E-1  
 4.172000000000000E7     1.853230297565460E-1   3.375613391399384E-1   8.041225075721741E-1  -4.396035373210907E-1   8.035224080085754E-1  -4.391634464263916E-1   1.843857914209366E-1   3.383900225162506E-1  
 4.174000000000000E7     1.848469525575638E-1   3.366485238075256E-1   8.036733269691467E-1  -4.404011666774750E-1   8.036195039749146E-1  -4.398801326751709E-1   1.842494010925293E-1   3.366342186927795E-1  
 4.176000000000000E7     1.848657280206680E-1   3.361413478851318E-1   8.035350441932678E-1  -4.416171312332153E-1   8.031775355339050E-1  -4.413285553455353E-1   1.842102408409119E-1   3.363832831382752E-1  
 4.178000000000000E7     1.856815665960312E-1   3.350876569747925E-1   8.033545017242432E-1  -4.423347115516663E-1   8.027860522270203E-1  -4.427114427089691E-1   1.843042820692062E-1   3.354901671409607E-1  
 4.180000000000000E7     1.856290400028229E-1   3.340467810630798E-1   8.030098676681519E-1  -4.435680806636810E-1   8.027395606040955E-1  -4.430837035179138E-1   1.846792995929718E-1   3.347539305686951E-1  
 4.182000000000000E7     1.852153241634369E-1   3.340491354465485E-1   8.029593229293823E-1  -4.448425173759460E-1   8.021047115325928E-1  -4.443250894546509E-1   1.845846772193909E-1   3.342787027359009E-1  
 4.184000000000000E7     1.852790415287018E-1   3.326151669025421E-1   8.026103377342224E-1  -4.458916187286377E-1   8.016602396965027E-1  -4.455193877220154E-1   1.854043453931809E-1   3.335174024105072E-1  
 4.186000000000000E7     1.857791990041733E-1   3.325846791267395E-1   8.023260235786438E-1  -4.467004239559174E-1   8.014736175537109E-1  -4.468597471714020E-1   1.845047622919083E-1   3.324888944625855E-1  
 4.188000000000000E7     1.855775713920593E-1   3.309547603130341E-1   8.021762967109680E-1  -4.480203986167908E-1   8.013098835945129E-1  -4.475140571594238E-1   1.849947422742844E-1   3.314187228679657E-1  
 4.190000000000000E7     1.858452260494232E-1   3.301865458488464E-1   8.015924096107483E-1  -4.491880834102631E-1   8.014015555381775E-1  -4.488909840583801E-1   1.844020932912827E-1   3.306666016578674E-1  
 4.192000000000000E7     1.862264126539230E-1   3.295112252235413E-1   8.016611337661743E-1  -4.500893056392670E-1   8.007346391677856E-1  -4.499461054801941E-1   1.849916428327560E-1   3.305208086967468E-1  
 4.194000000000000E7     1.854196190834045E-1   3.287198841571808E-1   8.009185791015625E-1  -4.512232244014740E-1   8.005022406578064E-1  -4.506810009479523E-1   1.851709932088852E-1   3.291553854942322E-1  
 4.196000000000000E7     1.855816692113876E-1   3.281008005142212E-1   8.007088303565979E-1  -4.522140026092529E-1   8.005156517028809E-1  -4.517486989498138E-1   1.849522292613983E-1   3.283928036689758E-1  
 4.198000000000000E7     1.853825896978378E-1   3.267871141433716E-1   8.009184002876282E-1  -4.533790647983551E-1   7.999046444892883E-1  -4.529173672199249E-1   1.849949657917023E-1   3.275435268878937E-1  
 4.200000000000000E7     1.853859424591065E-1   3.262127041816711E-1   7.999734878540039E-1  -4.543784260749817E-1   7.998791337013245E-1  -4.537435472011566E-1   1.851245164871216E-1   3.269364833831787E-1  
 4.202000000000000E7     1.853824406862259E-1   3.258375823497772E-1   7.997316718101502E-1  -4.554215371608734E-1   7.994325160980225E-1  -4.556100666522980E-1   1.844122558832169E-1   3.263411521911621E-1  
 4.204000000000000E7     1.855502128601074E-1   3.247922062873840E-1   7.997391819953919E-1  -4.562390446662903E-1   7.990182042121887E-1  -4.561604559421539E-1   1.850829273462296E-1   3.251744806766510E-1  
 4.206000000000000E7     1.857912093400955E-1   3.245010972023010E-1   7.991490364074707E-1  -4.572579860687256E-1   7.990016937255859E-1  -4.567854702472687E-1   1.857237219810486E-1   3.244470357894898E-1  
 4.208000000000000E7     1.865225136280060E-1   3.230966329574585E-1   7.991840839385986E-1  -4.579393565654755E-1   7.988732457160950E-1  -4.581089615821838E-1   1.854350417852402E-1   3.241713047027588E-1  
 4.210000000000000E7     1.859186887741089E-1   3.228038549423218E-1   7.988457679748535E-1  -4.596126675605774E-1   7.985236644744873E-1  -4.590708613395691E-1   1.854180693626404E-1   3.231747746467590E-1  
 4.212000000000000E7     1.863900870084763E-1   3.215905427932739E-1   7.987391352653503E-1  -4.604288637638092E-1   7.978995442390442E-1  -4.605653285980225E-1   1.848497688770294E-1   3.220431208610535E-1  
 4.214000000000000E7     1.859733462333679E-1   3.215322494506836E-1   7.978874444961548E-1  -4.613772630691528E-1   7.975806593894959E-1  -4.613095819950104E-1   1.858175992965698E-1   3.214848041534424E-1  
 4.216000000000000E7     1.856670081615448E-1   3.199934363365173E-1   7.983556389808655E-1  -4.626318514347076E-1   7.970582246780396E-1  -4.621070027351379E-1   1.858647316694260E-1   3.209506273269653E-1  
 4.218000000000000E7     1.862500905990601E-1   3.198360800743103E-1   7.975695729255676E-1  -4.635365009307861E-1   7.969294786453247E-1  -4.633214473724365E-1   1.857651174068451E-1   3.201179504394531E-1  
 4.220000000000000E7     1.864895373582840E-1   3.187398612499237E-1   7.974697351455689E-1  -4.646590352058411E-1   7.964796423912048E-1  -4.643956124782562E-1   1.858187019824982E-1   3.194056153297424E-1  
 4.222000000000000E7     1.865586936473846E-1   3.182258605957031E-1   7.966145277023315E-1  -4.654591083526611E-1   7.960711121559143E-1  -4.653805494308472E-1   1.854972988367081E-1   3.191828131675720E-1  
 4.224000000000000E7     1.866818666458130E-1   3.176221549510956E-1   7.967395782470703E-1  -4.667959809303284E-1   7.959831953048706E-1  -4.661746323108673E-1   1.853169500827789E-1   3.177212178707123E-1  
 4.226000000000000E7     1.862880289554596E-1   3.162879943847656E-1   7.963468432426453E-1  -4.678635001182556E-1   7.957931756973267E-1  -4.671061933040619E-1   1.857185661792755E-1   3.168694674968720E-1  
 4.228000000000000E7     1.867357045412064E-1   3.154661655426025E-1   7.963911294937134E-1  -4.686049818992615E-1   7.954127192497253E-1  -4.684986472129822E-1   1.854796558618546E-1   3.158153295516968E-1  
 4.230000000000000E7     1.862785965204239E-1   3.150384426116943E-1   7.954909205436707E-1  -4.699131250381470E-1   7.950379848480225E-1  -4.696377217769623E-1   1.852902919054031E-1   3.156296014785767E-1  
 4.232000000000000E7     1.864881217479706E-1   3.139376044273377E-1   7.953913807868958E-1  -4.709958434104919E-1   7.946878075599670E-1  -4.703098833560944E-1   1.859014183282852E-1   3.142008781433106E-1  
 4.234000000000000E7     1.863218098878861E-1   3.130478858947754E-1   7.952007055282593E-1  -4.719857871532440E-1   7.942434549331665E-1  -4.713281989097595E-1   1.859475970268250E-1   3.143097758293152E-1  
 4.236000000000000E7     1.867960989475250E-1   3.126524686813355E-1   7.948854565620422E-1  -4.730079770088196E-1   7.940844297409058E-1  -4.727496802806854E-1   1.861329376697540E-1   3.132382035255432E-1  
 4.238000000000000E7     1.866599619388580E-1   3.120369315147400E-1   7.943910956382752E-1  -4.739909172058106E-1   7.937228679656982E-1  -4.736984968185425E-1   1.857162117958069E-1   3.119042515754700E-1  
 4.240000000000000E7     1.858727335929871E-1   3.106940388679504E-1   7.941591143608093E-1  -4.752454161643982E-1   7.934151291847229E-1  -4.744150340557098E-1   1.859324425458908E-1   3.118036091327667E-1  
 4.242000000000000E7     1.860177665948868E-1   3.099542856216431E-1   7.935252785682678E-1  -4.761108458042145E-1   7.933337092399597E-1  -4.753255546092987E-1   1.867163181304932E-1   3.104538321495056E-1  
 4.244000000000000E7     1.864196062088013E-1   3.089619576931000E-1   7.935733795166016E-1  -4.768424034118652E-1   7.929717302322388E-1  -4.768653213977814E-1   1.856296807527542E-1   3.096541762351990E-1  
 4.246000000000000E7     1.865163594484329E-1   3.084827065467835E-1   7.929581999778748E-1  -4.780383408069611E-1   7.923399806022644E-1  -4.776693880558014E-1   1.857924163341522E-1   3.098792135715485E-1  
 4.248000000000000E7     1.866224855184555E-1   3.076870441436768E-1   7.928574681282044E-1  -4.790641069412231E-1   7.923175692558289E-1  -4.787530601024628E-1   1.861835420131683E-1   3.086160123348236E-1  
 4.250000000000000E7     1.869084835052490E-1   3.077002167701721E-1   7.922433614730835E-1  -4.799887835979462E-1   7.918367385864258E-1  -4.800562858581543E-1   1.852361261844635E-1   3.074809908866882E-1  
 4.252000000000000E7     1.867985129356384E-1   3.065809607505798E-1   7.920464873313904E-1  -4.813480973243713E-1   7.914173603057861E-1  -4.811444580554962E-1   1.854166388511658E-1   3.071380853652954E-1  
 4.254000000000000E7     1.874792575836182E-1   3.062080740928650E-1   7.912510037422180E-1  -4.818968176841736E-1   7.913662195205689E-1  -4.820597171783447E-1   1.860256195068359E-1   3.063514828681946E-1  
 4.256000000000000E7     1.870276182889938E-1   3.048580884933472E-1   7.914848923683167E-1  -4.828982055187225E-1   7.906424403190613E-1  -4.830180406570435E-1   1.860313117504120E-1   3.057554066181183E-1  
 4.258000000000000E7     1.871674656867981E-1   3.040967285633087E-1   7.911959886550903E-1  -4.840138554573059E-1   7.903770804405212E-1  -4.835958778858185E-1   1.864592581987381E-1   3.043575584888458E-1  
 4.260000000000000E7     1.866629123687744E-1   3.033492565155029E-1   7.905515432357788E-1  -4.852207601070404E-1   7.903630733489990E-1  -4.847766757011414E-1   1.863119304180145E-1   3.036926388740540E-1  
 4.262000000000000E7     1.866547912359238E-1   3.024018406867981E-1   7.904032468795776E-1  -4.864683449268341E-1   7.899399399757385E-1  -4.860730767250061E-1   1.861105561256409E-1   3.030364811420441E-1  
 4.264000000000000E7     1.868197321891785E-1   3.013128042221069E-1   7.900747060775757E-1  -4.874875545501709E-1   7.894577980041504E-1  -4.867861270904541E-1   1.867725700139999E-1   3.020988702774048E-1  
 4.266000000000000E7     1.866724193096161E-1   3.012725412845612E-1   7.894537448883057E-1  -4.884040653705597E-1   7.889149785041809E-1  -4.883715510368347E-1   1.853387355804443E-1   3.015507757663727E-1  
 4.268000000000000E7     1.865794062614441E-1   2.999644279479981E-1   7.895572781562805E-1  -4.896201193332672E-1   7.889682054519653E-1  -4.887548089027405E-1   1.868397295475006E-1   3.010815978050232E-1  
 4.270000000000000E7     1.866532862186432E-1   2.997000515460968E-1   7.889476418495178E-1  -4.905322790145874E-1   7.884265780448914E-1  -4.894698858261108E-1   1.867472678422928E-1   2.996835708618164E-1  
 4.272000000000000E7     1.863441020250320E-1   2.985837757587433E-1   7.887953519821167E-1  -4.916575551033020E-1   7.879104018211365E-1  -4.908680915832520E-1   1.868426948785782E-1   2.992054522037506E-1  
 4.274000000000000E7     1.869198083877564E-1   2.981576621532440E-1   7.879204750061035E-1  -4.925312995910645E-1   7.877584695816040E-1  -4.921704828739166E-1   1.857797801494598E-1   2.983656525611877E-1  
 4.276000000000000E7     1.867073476314545E-1   2.974950671195984E-1   7.879212498664856E-1  -4.934254288673401E-1   7.873237729072571E-1  -4.931902885437012E-1   1.868118196725845E-1   2.973981201648712E-1  
 4.278000000000000E7     1.868741959333420E-1   2.964857220649719E-1   7.875974774360657E-1  -4.944472610950470E-1   7.867984175682068E-1  -4.944131970405579E-1   1.860668361186981E-1   2.975472509860992E-1  
 4.280000000000000E7     1.867045164108276E-1   2.956534922122955E-1   7.872343659400940E-1  -4.956965446472168E-1   7.866470217704773E-1  -4.949524104595184E-1   1.864045560359955E-1   2.963693439960480E-1  
 4.282000000000000E7     1.872127801179886E-1   2.951080799102783E-1   7.869226932525635E-1  -4.963306188583374E-1   7.862170934677124E-1  -4.962267279624939E-1   1.863992065191269E-1   2.951650917530060E-1  
 4.284000000000000E7     1.863317936658859E-1   2.936123907566071E-1   7.866296768188477E-1  -4.981860816478729E-1   7.859429121017456E-1  -4.969699382781982E-1   1.860528290271759E-1   2.948036193847656E-1  
 4.286000000000000E7     1.868953257799149E-1   2.930535674095154E-1   7.864757180213928E-1  -4.984522461891174E-1   7.853438854217529E-1  -4.983383715152741E-1   1.860248297452927E-1   2.937103509902954E-1  
 4.288000000000000E7     1.864521950483322E-1   2.920767068862915E-1   7.857984900474548E-1  -4.996428191661835E-1   7.852182388305664E-1  -4.995510578155518E-1   1.857382357120514E-1   2.930935323238373E-1  
 4.290000000000000E7     1.868915557861328E-1   2.919409573078156E-1   7.852286100387573E-1  -5.007092952728272E-1   7.847386002540588E-1  -5.004146695137024E-1   1.856970340013504E-1   2.931091189384460E-1  
 4.292000000000000E7     1.871455609798431E-1   2.909811437129974E-1   7.848733663558960E-1  -5.015175938606262E-1   7.844471931457520E-1  -5.013271570205689E-1   1.858741939067841E-1   2.923053205013275E-1  
 4.294000000000000E7     1.864872276782990E-1   2.895934283733368E-1   7.849030494689941E-1  -5.027934312820435E-1   7.840434908866882E-1  -5.024746656417847E-1   1.859193742275238E-1   2.905790805816650E-1  
 4.296000000000000E7     1.865135431289673E-1   2.898985147476196E-1   7.842829227447510E-1  -5.034606456756592E-1   7.838330268859863E-1  -5.034657716751099E-1   1.867042183876038E-1   2.900659739971161E-1  
 4.298000000000000E7     1.867800205945969E-1   2.881907820701599E-1   7.838837504386902E-1  -5.047044157981873E-1   7.836338281631470E-1  -5.042579770088196E-1   1.861627101898193E-1   2.892823517322540E-1  
 4.300000000000000E7     1.860533505678177E-1   2.880662679672241E-1   7.833753824234009E-1  -5.056242942810059E-1   7.829041481018066E-1  -5.053820610046387E-1   1.861084103584290E-1   2.885364890098572E-1  
 4.302000000000000E7     1.869263350963593E-1   2.879403531551361E-1   7.828600406646729E-1  -5.068820118904114E-1   7.831315398216248E-1  -5.063742399215698E-1   1.855062395334244E-1   2.878811359405518E-1  
 4.304000000000000E7     1.865869611501694E-1   2.860656380653381E-1   7.827843427658081E-1  -5.077603459358215E-1   7.822757959365845E-1  -5.074229240417481E-1   1.859520673751831E-1   2.867831587791443E-1  
 4.306000000000000E7     1.871805191040039E-1   2.853615283966065E-1   7.827358245849609E-1  -5.086352229118347E-1   7.815980315208435E-1  -5.084622502326965E-1   1.862472295761108E-1   2.866696119308472E-1  
 4.308000000000000E7     1.868596673011780E-1   2.847605347633362E-1   7.820393443107605E-1  -5.096963047981262E-1   7.814826369285584E-1  -5.094530582427979E-1   1.859130263328552E-1   2.859544754028320E-1  
 4.310000000000000E7     1.864300221204758E-1   2.839083373546600E-1   7.815396189689636E-1  -5.109878778457642E-1   7.809970974922180E-1  -5.107297897338867E-1   1.859136670827866E-1   2.855114340782166E-1  
 4.312000000000000E7     1.871587038040161E-1   2.837147712707520E-1   7.812402844429016E-1  -5.116621255874634E-1   7.804688215255737E-1  -5.114939212799072E-1   1.858252584934235E-1   2.841775119304657E-1  
 4.314000000000000E7     1.865031421184540E-1   2.821731269359589E-1   7.808836102485657E-1  -5.130071043968201E-1   7.801817059516907E-1  -5.124431252479553E-1   1.858286708593369E-1   2.830517888069153E-1  
 4.316000000000000E7     1.871020793914795E-1   2.813956141471863E-1   7.805196046829224E-1  -5.135415792465210E-1   7.797041535377502E-1  -5.132752656936646E-1   1.860055029392242E-1   2.827682197093964E-1  
 4.318000000000000E7     1.865315735340118E-1   2.811293005943298E-1   7.796807885169983E-1  -5.152108073234558E-1   7.797514200210571E-1  -5.144591927528381E-1   1.854924857616425E-1   2.816953659057617E-1  
 4.320000000000000E7     1.863991320133209E-1   2.801555991172791E-1   7.795532345771790E-1  -5.162020921707153E-1   7.792101502418518E-1  -5.154760479927063E-1   1.856401860713959E-1   2.813001573085785E-1  
 4.322000000000000E7     1.868376582860947E-1   2.789601683616638E-1   7.792750597000122E-1  -5.168444514274597E-1   7.787362337112427E-1  -5.163198709487915E-1   1.856616735458374E-1   2.802063524723053E-1  
 4.324000000000000E7     1.863868683576584E-1   2.787377536296845E-1   7.789195775985718E-1  -5.182823538780212E-1   7.780160307884216E-1  -5.174169540405273E-1   1.854287683963776E-1   2.797152400016785E-1  
 4.326000000000000E7     1.862912774085999E-1   2.780881226062775E-1   7.782996892929077E-1  -5.190379619598389E-1   7.780408859252930E-1  -5.185253024101257E-1   1.855867803096771E-1   2.790768146514893E-1  
 4.328000000000000E7     1.867021620273590E-1   2.776010036468506E-1   7.779080867767334E-1  -5.198878049850464E-1   7.770957946777344E-1  -5.194250345230103E-1   1.857361942529678E-1   2.779635190963745E-1  
 4.330000000000000E7     1.863233745098114E-1   2.765734195709229E-1   7.776666283607483E-1  -5.209826231002808E-1   7.771109938621521E-1  -5.207265615463257E-1   1.855918765068054E-1   2.770003676414490E-1  
 4.332000000000000E7     1.855317950248718E-1   2.754808664321899E-1   7.771843671798706E-1  -5.222901105880737E-1   7.765776515007019E-1  -5.215866565704346E-1   1.853725314140320E-1   2.763091921806335E-1  
 4.334000000000000E7     1.858580410480499E-1   2.750697433948517E-1   7.766625881195068E-1  -5.230758190155029E-1   7.765827178955078E-1  -5.224929451942444E-1   1.853755563497543E-1   2.749037444591522E-1  
 4.336000000000000E7     1.866025626659393E-1   2.745153903961182E-1   7.762047052383423E-1  -5.239894390106201E-1   7.758933901786804E-1  -5.237260460853577E-1   1.854718029499054E-1   2.745691537857056E-1  
 4.338000000000000E7     1.856168061494827E-1   2.734967768192291E-1   7.757553458213806E-1  -5.251651406288147E-1   7.752503752708435E-1  -5.246822237968445E-1   1.853473782539368E-1   2.749347686767578E-1  
 4.340000000000000E7     1.861019730567932E-1   2.724224627017975E-1   7.755970954895020E-1  -5.261460542678833E-1   7.748842239379883E-1  -5.257595181465149E-1   1.855117082595825E-1   2.737542092800140E-1  
 4.342000000000000E7     1.863427758216858E-1   2.717883288860321E-1   7.750798463821411E-1  -5.269656777381897E-1   7.748570442199707E-1  -5.267622470855713E-1   1.848584562540054E-1   2.721717655658722E-1  
 4.344000000000000E7     1.856871694326401E-1   2.714772820472717E-1   7.749375700950623E-1  -5.279264450073242E-1   7.742426395416260E-1  -5.280238389968872E-1   1.846601665019989E-1   2.716949880123138E-1  
 4.346000000000000E7     1.856441497802734E-1   2.702164649963379E-1   7.744086384773254E-1  -5.292689800262451E-1   7.736918926239014E-1  -5.284799933433533E-1   1.853785812854767E-1   2.713278830051422E-1  
 4.348000000000000E7     1.859385371208191E-1   2.694076895713806E-1   7.739256620407105E-1  -5.300425291061401E-1   7.736529111862183E-1  -5.301944613456726E-1   1.851859092712402E-1   2.702774703502655E-1  
 4.350000000000000E7     1.862069666385651E-1   2.681954503059387E-1   7.738124728202820E-1  -5.312027931213379E-1   7.731767296791077E-1  -5.307642221450806E-1   1.847276091575623E-1   2.694381773471832E-1  
 4.352000000000000E7     1.856225132942200E-1   2.680036425590515E-1   7.731028199195862E-1  -5.321507453918457E-1   7.726500034332275E-1  -5.321156978607178E-1   1.846101880073547E-1   2.688595950603485E-1  
 4.354000000000000E7     1.853941977024078E-1   2.675172686576843E-1   7.726115584373474E-1  -5.332041978836060E-1   7.721515297889710E-1  -5.326431989669800E-1   1.846547722816467E-1   2.680865526199341E-1  
 4.356000000000000E7     1.854187548160553E-1   2.666032314300537E-1   7.724534273147583E-1  -5.344090461730957E-1   7.716953754425049E-1  -5.338628292083740E-1   1.844867169857025E-1   2.679283618927002E-1  
 4.358000000000000E7     1.852005422115326E-1   2.653893530368805E-1   7.718926668167114E-1  -5.352267026901245E-1   7.714378833770752E-1  -5.346014499664307E-1   1.844079196453095E-1   2.665953338146210E-1  
 4.360000000000000E7     1.853792369365692E-1   2.644934058189392E-1   7.711251974105835E-1  -5.361953973770142E-1   7.710763216018677E-1  -5.357135534286499E-1   1.846535652875900E-1   2.656645774841309E-1  
 4.362000000000000E7     1.853913962841034E-1   2.639056146144867E-1   7.711915969848633E-1  -5.373445749282837E-1   7.703851461410523E-1  -5.366135239601135E-1   1.847421824932098E-1   2.652744352817535E-1  
 4.364000000000000E7     1.849777400493622E-1   2.633715271949768E-1   7.705244421958923E-1  -5.380982160568237E-1   7.701937556266785E-1  -5.379452705383301E-1   1.843999624252319E-1   2.640695273876190E-1  
 4.366000000000000E7     1.845166087150574E-1   2.625505626201630E-1   7.702972292900085E-1  -5.394700169563294E-1   7.694901227951050E-1  -5.385318994522095E-1   1.842917799949646E-1   2.631725668907166E-1  
 4.368000000000000E7     1.853313744068146E-1   2.618264853954315E-1   7.697212100028992E-1  -5.401498675346375E-1   7.693424224853516E-1  -5.396722555160523E-1   1.842335313558579E-1   2.625155448913574E-1  
 4.370000000000000E7     1.845160573720932E-1   2.611451745033264E-1   7.689860463142395E-1  -5.412280559539795E-1   7.687070965766907E-1  -5.405724644660950E-1   1.847890019416809E-1   2.622724473476410E-1  
 4.372000000000000E7     1.850458979606628E-1   2.595654726028442E-1   7.692238092422485E-1  -5.422201752662659E-1   7.683328986167908E-1  -5.417371988296509E-1   1.847731471061707E-1   2.610369920730591E-1  
 4.374000000000000E7     1.845366358757019E-1   2.595771551132202E-1   7.683603167533875E-1  -5.436320304870606E-1   7.677655816078186E-1  -5.427423715591431E-1   1.838172823190689E-1   2.606072425842285E-1  
 4.376000000000000E7     1.847383677959442E-1   2.591465711593628E-1   7.680429816246033E-1  -5.442842841148377E-1   7.674953937530518E-1  -5.441029667854309E-1   1.844070255756378E-1   2.599351406097412E-1  
 4.378000000000000E7     1.849052906036377E-1   2.579021453857422E-1   7.675194144248962E-1  -5.453289747238159E-1   7.669112682342529E-1  -5.448390841484070E-1   1.843480318784714E-1   2.589275538921356E-1  
 4.380000000000000E7     1.846162974834442E-1   2.573743462562561E-1   7.671676278114319E-1  -5.462415218353272E-1   7.664898037910461E-1  -5.460041165351868E-1   1.838596165180206E-1   2.579617798328400E-1  
 4.382000000000000E7     1.838693916797638E-1   2.560835182666779E-1   7.668748497962952E-1  -5.474977493286133E-1   7.660211920738220E-1  -5.466698408126831E-1   1.835785508155823E-1   2.575287818908691E-1  
 4.384000000000000E7     1.838297098875046E-1   2.554534971714020E-1   7.661654949188232E-1  -5.484648346900940E-1   7.656801939010620E-1  -5.478091835975647E-1   1.840969324111939E-1   2.563005983829498E-1  
 4.386000000000000E7     1.844037622213364E-1   2.546159625053406E-1   7.659797668457031E-1  -5.494151115417481E-1   7.651973366737366E-1  -5.488269329071045E-1   1.838663220405579E-1   2.557301223278046E-1  
 4.388000000000000E7     1.836096048355103E-1   2.539439797401428E-1   7.654122114181519E-1  -5.503767728805542E-1   7.648451924324036E-1  -5.497495532035828E-1   1.840931624174118E-1   2.554191052913666E-1  
 4.390000000000000E7     1.840043962001801E-1   2.536481022834778E-1   7.646939754486084E-1  -5.515950918197632E-1   7.642966508865356E-1  -5.509117245674133E-1   1.837495267391205E-1   2.548573315143585E-1  
 4.392000000000000E7     1.841420531272888E-1   2.521707415580750E-1   7.645457983016968E-1  -5.522205829620361E-1   7.639148831367493E-1  -5.517171025276184E-1   1.829943805932999E-1   2.536264955997467E-1  
 4.394000000000000E7     1.836702227592468E-1   2.521915435791016E-1   7.634754180908203E-1  -5.533120632171631E-1   7.636136412620544E-1  -5.530269742012024E-1   1.831789016723633E-1   2.531090676784515E-1  
 4.396000000000000E7     1.839804649353027E-1   2.506692409515381E-1   7.634997367858887E-1  -5.541908740997315E-1   7.628185153007507E-1  -5.540590882301331E-1   1.834228187799454E-1   2.523643374443054E-1  
 4.398000000000000E7     1.840699911117554E-1   2.504456937313080E-1   7.629076838493347E-1  -5.550897717475891E-1   7.624819278717041E-1  -5.552546977996826E-1   1.829134523868561E-1   2.515372335910797E-1  
 4.400000000000000E7     1.838481724262238E-1   2.497357726097107E-1   7.622472643852234E-1  -5.563328266143799E-1   7.622503042221069E-1  -5.557779669761658E-1   1.833878457546234E-1   2.508819997310638E-1  
 4.402000000000000E7     1.834030300378799E-1   2.489252537488937E-1   7.619717121124268E-1  -5.572593808174133E-1   7.615808844566345E-1  -5.570911765098572E-1   1.827065646648407E-1   2.499390691518784E-1  
 4.404000000000000E7     1.836131662130356E-1   2.483198940753937E-1   7.617034316062927E-1  -5.583291053771973E-1   7.611711025238037E-1  -5.580741763114929E-1   1.823003292083740E-1   2.490285336971283E-1  
 4.406000000000000E7     1.833388954401016E-1   2.466842234134674E-1   7.615128755569458E-1  -5.594045519828796E-1   7.603960633277893E-1  -5.586982965469360E-1   1.825591623783112E-1   2.487518936395645E-1  
 4.408000000000000E7     1.828880608081818E-1   2.467014342546463E-1   7.606956958770752E-1  -5.603003501892090E-1   7.601131200790405E-1  -5.598285794258118E-1   1.820191740989685E-1   2.479617297649384E-1  
 4.410000000000000E7     1.833360195159912E-1   2.459203600883484E-1   7.601982355117798E-1  -5.612972378730774E-1   7.601003050804138E-1  -5.608813166618347E-1   1.820490658283234E-1   2.469073385000229E-1  
 4.412000000000000E7     1.826418042182922E-1   2.451273500919342E-1   7.597662210464478E-1  -5.625180602073669E-1   7.593356370925903E-1  -5.619104504585266E-1   1.815651357173920E-1   2.464108169078827E-1  
 4.414000000000000E7     1.833046376705170E-1   2.441854029893875E-1   7.592196464538574E-1  -5.629799962043762E-1   7.588948011398315E-1  -5.626413226127625E-1   1.819985359907150E-1   2.454465776681900E-1  
 4.416000000000000E7     1.828779429197311E-1   2.432521283626556E-1   7.588450908660889E-1  -5.643508434295654E-1   7.583264112472534E-1  -5.633308291435242E-1   1.830219626426697E-1   2.442707717418671E-1  
 4.418000000000000E7     1.828517913818359E-1   2.425378710031509E-1   7.582585811614990E-1  -5.650195479393005E-1   7.576242089271545E-1  -5.650096535682678E-1   1.820065677165985E-1   2.436751425266266E-1  
 4.420000000000000E7     1.827143132686615E-1   2.423167824745178E-1   7.576914429664612E-1  -5.663086175918579E-1   7.574734091758728E-1  -5.657678246498108E-1   1.821317672729492E-1   2.425444722175598E-1  
 4.422000000000000E7     1.821130812168121E-1   2.412814944982529E-1   7.575529813766480E-1  -5.673696994781494E-1   7.569479942321777E-1  -5.668503642082214E-1   1.815274655818939E-1   2.424330562353134E-1  
 4.424000000000000E7     1.822892725467682E-1   2.403544783592224E-1   7.567732334136963E-1  -5.683401823043823E-1   7.566815018653870E-1  -5.677842497825623E-1   1.815149486064911E-1   2.413249909877777E-1  
 4.426000000000000E7     1.822751164436340E-1   2.395483255386353E-1   7.566539049148560E-1  -5.693506598472595E-1   7.558526992797852E-1  -5.685067772865295E-1   1.820923388004303E-1   2.411389052867889E-1  
 4.428000000000000E7     1.822957992553711E-1   2.388600111007690E-1   7.562035322189331E-1  -5.701455473899841E-1   7.552953958511353E-1  -5.698889493942261E-1   1.810044348239899E-1   2.400004118680954E-1  
 4.430000000000000E7     1.814770400524139E-1   2.372204959392548E-1   7.557421326637268E-1  -5.711273550987244E-1   7.549418210983276E-1  -5.708801746368408E-1   1.817921549081802E-1   2.391852587461472E-1  
 4.432000000000000E7     1.818968951702118E-1   2.376983016729355E-1   7.548207044601440E-1  -5.723401308059692E-1   7.541486620903015E-1  -5.718493461608887E-1   1.814027428627014E-1   2.396354675292969E-1  
 4.434000000000000E7     1.811941266059876E-1   2.367112934589386E-1   7.541927099227905E-1  -5.733999013900757E-1   7.542315125465393E-1  -5.728402137756348E-1   1.810101568698883E-1   2.378985881805420E-1  
 4.436000000000000E7     1.822735369205475E-1   2.364988476037979E-1   7.539251446723938E-1  -5.740284323692322E-1   7.533826231956482E-1  -5.739310979843140E-1   1.806560009717941E-1   2.374041974544525E-1  
 4.438000000000000E7     1.811425536870956E-1   2.346962243318558E-1   7.533791065216065E-1  -5.753128528594971E-1   7.530149221420288E-1  -5.746100544929504E-1   1.807196140289307E-1   2.364173531532288E-1  
 4.440000000000000E7     1.812750697135925E-1   2.341073751449585E-1   7.530306577682495E-1  -5.761877298355103E-1   7.523965239524841E-1  -5.754121541976929E-1   1.805487573146820E-1   2.357564270496368E-1  
 4.442000000000000E7     1.808516681194305E-1   2.339151799678803E-1   7.520509958267212E-1  -5.773769617080689E-1   7.518922090530396E-1  -5.763931870460510E-1   1.811262071132660E-1   2.352851629257202E-1  
 4.444000000000000E7     1.806481182575226E-1   2.325861901044846E-1   7.516183853149414E-1  -5.783172249794006E-1   7.515437602996826E-1  -5.775428414344788E-1   1.804944276809692E-1   2.341323196887970E-1  
 4.446000000000000E7     1.815595477819443E-1   2.318355888128281E-1   7.515283226966858E-1  -5.791332721710205E-1   7.508473992347717E-1  -5.787067413330078E-1   1.803662478923798E-1   2.337658703327179E-1  
 4.448000000000000E7     1.804827600717545E-1   2.318592071533203E-1   7.507427334785461E-1  -5.801624655723572E-1   7.504295110702515E-1  -5.798032283782959E-1   1.807155013084412E-1   2.325678318738937E-1  
 4.450000000000000E7     1.803134381771088E-1   2.305669784545898E-1   7.505237460136414E-1  -5.813090801239014E-1   7.499821186065674E-1  -5.808120369911194E-1   1.798778474330902E-1   2.321562618017197E-1  
 4.452000000000000E7     1.806700974702835E-1   2.300877720117569E-1   7.497326731681824E-1  -5.818367600440979E-1   7.494849562644959E-1  -5.819573402404785E-1   1.802717745304108E-1   2.309383153915405E-1  
 4.454000000000000E7     1.797690540552139E-1   2.297045439481735E-1   7.493588924407959E-1  -5.833842754364014E-1   7.490210533142090E-1  -5.827264189720154E-1   1.794299930334091E-1   2.305577397346497E-1  
 4.456000000000000E7     1.804421246051788E-1   2.289041131734848E-1   7.486069798469544E-1  -5.839146971702576E-1   7.484483122825623E-1  -5.837172269821167E-1   1.801801621913910E-1   2.294898629188538E-1  
 4.458000000000000E7     1.800414621829987E-1   2.279362529516220E-1   7.483830451965332E-1  -5.848333239555359E-1   7.481026649475098E-1  -5.849955677986145E-1   1.795521080493927E-1   2.287938147783279E-1  
 4.460000000000000E7     1.794952005147934E-1   2.268319725990295E-1   7.479453682899475E-1  -5.862114429473877E-1   7.474259138107300E-1  -5.858256816864014E-1   1.785890609025955E-1   2.279347926378250E-1  
 4.462000000000000E7     1.798437386751175E-1   2.264119684696198E-1   7.474575638771057E-1  -5.872974395751953E-1   7.468746900558472E-1  -5.867360234260559E-1   1.791158765554428E-1   2.278863340616226E-1  
 4.464000000000000E7     1.796140372753143E-1   2.254547178745270E-1   7.466905117034912E-1  -5.882924199104309E-1   7.463157773017883E-1  -5.875027179718018E-1   1.791377216577530E-1   2.268278598785400E-1  
 4.466000000000000E7     1.792996674776077E-1   2.242983579635620E-1   7.462719082832336E-1  -5.886486768722534E-1   7.459837198257446E-1  -5.887984037399292E-1   1.788507997989655E-1   2.257742881774902E-1  
 4.468000000000000E7     1.792015731334686E-1   2.243623435497284E-1   7.458917498588562E-1  -5.902332663536072E-1   7.453295588493347E-1  -5.897719860076904E-1   1.790311932563782E-1   2.254122048616409E-1  
 4.470000000000000E7     1.788375377655029E-1   2.231262177228928E-1   7.452608346939087E-1  -5.909293889999390E-1   7.449380755424500E-1  -5.903165936470032E-1   1.784861981868744E-1   2.242567986249924E-1  
 4.472000000000000E7     1.789792925119400E-1   2.225476503372192E-1   7.446291446685791E-1  -5.919900536537170E-1   7.444137334823608E-1  -5.917688012123108E-1   1.785510480403900E-1   2.243243902921677E-1  
 4.474000000000000E7     1.787938922643662E-1   2.222310900688171E-1   7.442693710327148E-1  -5.929924249649048E-1   7.440100312232971E-1  -5.926998853683472E-1   1.781270503997803E-1   2.227810025215149E-1  
 4.476000000000000E7     1.785494089126587E-1   2.207427620887756E-1   7.439717650413513E-1  -5.938779115676880E-1   7.431450486183167E-1  -5.936759114265442E-1   1.786690950393677E-1   2.225427329540253E-1  
 4.478000000000000E7     1.791232675313950E-1   2.199793905019760E-1   7.432957291603088E-1  -5.944113135337830E-1   7.427954077720642E-1  -5.945755839347839E-1   1.779211163520813E-1   2.220055758953095E-1  
 4.480000000000000E7     1.776960790157318E-1   2.192112058401108E-1   7.425017356872559E-1  -5.961636900901794E-1   7.423158288002014E-1  -5.953638553619385E-1   1.785462498664856E-1   2.209787219762802E-1  
 4.482000000000000E7     1.779924631118774E-1   2.186515778303146E-1   7.422269582748413E-1  -5.968657732009888E-1   7.418168783187866E-1  -5.967214107513428E-1   1.771772801876068E-1   2.203137576580048E-1  
 4.484000000000000E7     1.776814013719559E-1   2.182462215423584E-1   7.413738965988159E-1  -5.980309844017029E-1   7.412938475608826E-1  -5.972775220870972E-1   1.778360158205032E-1   2.197659611701965E-1  
 4.486000000000000E7     1.776133775711060E-1   2.178448885679245E-1   7.408884167671204E-1  -5.990935564041138E-1   7.408696413040161E-1  -5.984832048416138E-1   1.769215762615204E-1   2.188324332237244E-1  
 4.488000000000000E7     1.772955656051636E-1   2.161665558815002E-1   7.407948374748230E-1  -6.000062823295593E-1   7.401139140129089E-1  -5.990372300148010E-1   1.776546388864517E-1   2.182901054620743E-1  
 4.490000000000000E7     1.772587895393372E-1   2.159944772720337E-1   7.400993108749390E-1  -6.007252335548401E-1   7.394896149635315E-1  -6.003417372703552E-1   1.766820549964905E-1   2.172530889511108E-1  
 4.492000000000000E7     1.778865605592728E-1   2.148026973009110E-1   7.397589087486267E-1  -6.014438271522522E-1   7.387259602546692E-1  -6.013625860214233E-1   1.767161637544632E-1   2.169084250926971E-1  
 4.494000000000000E7     1.769425272941589E-1   2.141220122575760E-1   7.390907406806946E-1  -6.028059720993042E-1   7.382419109344482E-1  -6.024425625801086E-1   1.762924790382385E-1   2.154701501131058E-1  
 4.496000000000000E7     1.773189455270767E-1   2.131956666707993E-1   7.385715246200562E-1  -6.035888791084290E-1   7.378069162368774E-1  -6.031455397605896E-1   1.762915253639221E-1   2.151709198951721E-1  
 4.498000000000000E7     1.764503866434097E-1   2.125070244073868E-1   7.379794716835022E-1  -6.047961711883545E-1   7.375230789184570E-1  -6.039202809333801E-1   1.761391162872315E-1   2.136094272136688E-1  
 4.500000000000000E7     1.767674386501312E-1   2.122392207384110E-1   7.372210621833801E-1  -6.055253148078919E-1   7.367078065872192E-1  -6.052745580673218E-1   1.758925616741180E-1   2.138247936964035E-1  
 4.502000000000000E7     1.763147711753845E-1   2.117676883935928E-1   7.365443706512451E-1  -6.065948009490967E-1   7.362365126609802E-1  -6.064670085906982E-1   1.758290976285934E-1   2.128573060035706E-1  
 4.504000000000000E7     1.757532954216003E-1   2.108035236597061E-1   7.362613677978516E-1  -6.077766418457031E-1   7.357694506645203E-1  -6.067560911178589E-1   1.761634647846222E-1   2.118071466684341E-1  
 4.506000000000000E7     1.756546795368195E-1   2.102697193622589E-1   7.355764508247376E-1  -6.087782979011536E-1   7.350965142250061E-1  -6.080241203308106E-1   1.756420582532883E-1   2.115960121154785E-1  
 4.508000000000000E7     1.762786656618118E-1   2.095340490341187E-1   7.351421713829041E-1  -6.093209981918335E-1   7.347985506057739E-1  -6.092088222503662E-1   1.752028912305832E-1   2.101679593324661E-1  
 4.510000000000000E7     1.754188388586044E-1   2.085602283477783E-1   7.347829341888428E-1  -6.106217503547669E-1   7.339635491371155E-1  -6.099290847778320E-1   1.756466031074524E-1   2.101299762725830E-1  
 4.512000000000000E7     1.752035021781921E-1   2.080148756504059E-1   7.340056896209717E-1  -6.117229461669922E-1   7.337663769721985E-1  -6.112388968467712E-1   1.751852929592133E-1   2.089159339666367E-1  
 4.514000000000000E7     1.753010451793671E-1   2.067815065383911E-1   7.336271405220032E-1  -6.123603582382202E-1   7.327461242675781E-1  -6.123299598693848E-1   1.739000529050827E-1   2.086982578039169E-1  
 4.516000000000000E7     1.751770824193955E-1   2.062620371580124E-1   7.326239943504334E-1  -6.135525703430176E-1   7.322288751602173E-1  -6.129369139671326E-1   1.749664843082428E-1   2.078192681074143E-1  
 4.518000000000000E7     1.746912449598312E-1   2.064163386821747E-1   7.321453094482422E-1  -6.145218014717102E-1   7.316542863845825E-1  -6.137674450874329E-1   1.747798472642899E-1   2.071418762207031E-1  
 4.520000000000000E7     1.748461872339249E-1   2.046098709106445E-1   7.317805290222168E-1  -6.151927709579468E-1   7.314533591270447E-1  -6.149851083755493E-1   1.739944815635681E-1   2.063579559326172E-1  
 4.522000000000000E7     1.753103435039520E-1   2.042133659124374E-1   7.311850190162659E-1  -6.162309646606445E-1   7.305282950401306E-1  -6.162946224212647E-1   1.736155152320862E-1   2.055301219224930E-1  
 4.524000000000000E7     1.741039752960205E-1   2.032902538776398E-1   7.307942509651184E-1  -6.172103881835938E-1   7.301207780838013E-1  -6.170352101325989E-1   1.736927181482315E-1   2.051287293434143E-1  
 4.526000000000000E7     1.740087568759918E-1   2.020635604858398E-1   7.299138903617859E-1  -6.185137033462524E-1   7.295755147933960E-1  -6.178483963012695E-1   1.731248199939728E-1   2.047328948974609E-1  
 4.528000000000000E7     1.739292293787003E-1   2.016526162624359E-1   7.291854023933411E-1  -6.194655895233154E-1   7.291053533554077E-1  -6.185707449913025E-1   1.735612899065018E-1   2.034778147935867E-1  
 4.530000000000000E7     1.731683015823364E-1   2.006706893444061E-1   7.288470268249512E-1  -6.201639771461487E-1   7.283334136009216E-1  -6.198700666427612E-1   1.734147071838379E-1   2.030321210622788E-1  
 4.532000000000000E7     1.731919944286346E-1   2.002496719360352E-1   7.280789017677307E-1  -6.212080121040344E-1   7.277020215988159E-1  -6.209797859191895E-1   1.727162599563599E-1   2.027990818023682E-1  
 4.534000000000000E7     1.736999452114105E-1   1.996894627809525E-1   7.277309298515320E-1  -6.219021677970886E-1   7.272611856460571E-1  -6.217722892761231E-1   1.726343631744385E-1   2.016586959362030E-1  
 4.536000000000000E7     1.732267737388611E-1   1.986710131168366E-1   7.273374199867249E-1  -6.230397224426270E-1   7.265071272850037E-1  -6.224921941757202E-1   1.730452626943588E-1   2.009970247745514E-1  
 4.538000000000000E7     1.729528307914734E-1   1.979633122682571E-1   7.265404462814331E-1  -6.242635846138001E-1   7.262834310531616E-1  -6.232266426086426E-1   1.721941530704498E-1   1.997903734445572E-1  
 4.540000000000000E7     1.725837886333466E-1   1.975959837436676E-1   7.259927392005920E-1  -6.249037981033325E-1   7.255720496177673E-1  -6.244834661483765E-1   1.719931513071060E-1   1.988466680049896E-1  
 4.542000000000000E7     1.718766391277313E-1   1.965126842260361E-1   7.254801392555237E-1  -6.258835792541504E-1   7.251929640769959E-1  -6.254158616065979E-1   1.723061501979828E-1   1.978611797094345E-1  
 4.544000000000000E7     1.724359095096588E-1   1.960908770561218E-1   7.247515916824341E-1  -6.267819404602051E-1   7.243907451629639E-1  -6.262544393539429E-1   1.721223145723343E-1   1.974647492170334E-1  
 4.546000000000000E7     1.720947474241257E-1   1.954470872879028E-1   7.242726683616638E-1  -6.279938817024231E-1   7.238268256187439E-1  -6.274831295013428E-1   1.714050769805908E-1   1.973741352558136E-1  
 4.548000000000000E7     1.715184748172760E-1   1.947371959686279E-1   7.238002419471741E-1  -6.289463043212891E-1   7.232002019882202E-1  -6.285709738731384E-1   1.708959192037582E-1   1.962395012378693E-1  
 4.550000000000000E7     1.720078140497208E-1   1.938304454088211E-1   7.230752110481262E-1  -6.296443939208984E-1   7.226349711418152E-1  -6.295548081398010E-1   1.708227992057800E-1   1.956988871097565E-1  
 4.552000000000000E7     1.708197295665741E-1   1.933040320873261E-1   7.225323915481567E-1  -6.307491660118103E-1   7.220537662506104E-1  -6.304108500480652E-1   1.705023199319840E-1   1.948802620172501E-1  
 4.554000000000000E7     1.712732762098312E-1   1.928620338439941E-1   7.221869230270386E-1  -6.315420269966126E-1   7.212353348731995E-1  -6.315039396286011E-1   1.707177758216858E-1   1.938145458698273E-1  
 4.556000000000000E7     1.707182824611664E-1   1.917511820793152E-1   7.213290929794312E-1  -6.328446865081787E-1   7.205683588981628E-1  -6.321827173233032E-1   1.705484390258789E-1   1.931988894939423E-1  
 4.558000000000000E7     1.705009341239929E-1   1.914330720901489E-1   7.206869721412659E-1  -6.334638595581055E-1   7.203369140625000E-1  -6.332998871803284E-1   1.701384931802750E-1   1.922960281372070E-1  
 4.560000000000000E7     1.701748371124268E-1   1.902597993612289E-1   7.202211022377014E-1  -6.345633268356323E-1   7.195800542831421E-1  -6.341538429260254E-1   1.701766103506088E-1   1.917591243982315E-1  
 4.562000000000000E7     1.703578680753708E-1   1.891630887985230E-1   7.197397351264954E-1  -6.354123353958130E-1   7.190122604370117E-1  -6.349557638168335E-1   1.694362163543701E-1   1.913454979658127E-1  
 4.564000000000000E7     1.700550317764282E-1   1.888488233089447E-1   7.187610268592835E-1  -6.364180445671082E-1   7.184314131736755E-1  -6.357833743095398E-1   1.696690618991852E-1   1.903240233659744E-1  
 4.566000000000000E7     1.701927930116653E-1   1.879889667034149E-1   7.181911468505859E-1  -6.373378634452820E-1   7.180314064025879E-1  -6.368248462677002E-1   1.690967679023743E-1   1.890352964401245E-1  
 4.568000000000000E7     1.698147356510162E-1   1.876247078180313E-1   7.178441286087036E-1  -6.383987665176392E-1   7.170952558517456E-1  -6.378448605537415E-1   1.693468689918518E-1   1.896655559539795E-1  
 4.570000000000000E7     1.694160103797913E-1   1.859962046146393E-1   7.175418734550476E-1  -6.391367316246033E-1   7.165728211402893E-1  -6.387642025947571E-1   1.685439348220825E-1   1.885394752025604E-1  
 4.572000000000000E7     1.689829528331757E-1   1.861354559659958E-1   7.164672613143921E-1  -6.400144696235657E-1   7.162870168685913E-1  -6.399332880973816E-1   1.686134934425354E-1   1.874907612800598E-1  
 4.574000000000000E7     1.691319644451141E-1   1.845491230487824E-1   7.161987423896790E-1  -6.408624053001404E-1   7.154287099838257E-1  -6.404789686203003E-1   1.686093360185623E-1   1.873705387115479E-1  
 4.576000000000000E7     1.685138344764710E-1   1.843486279249191E-1   7.155812382698059E-1  -6.422265768051148E-1   7.146340608596802E-1  -6.417682766914368E-1   1.678239554166794E-1   1.867859959602356E-1  
 4.578000000000000E7     1.686043441295624E-1   1.838424056768417E-1   7.144498825073242E-1  -6.427431702613831E-1   7.147583365440369E-1  -6.425266265869141E-1   1.680305153131485E-1   1.849438250064850E-1  
 4.580000000000000E7     1.684482693672180E-1   1.836967766284943E-1   7.139652371406555E-1  -6.437234878540039E-1   7.137685418128967E-1  -6.435291767120361E-1   1.673585325479507E-1   1.840419769287109E-1  
 4.582000000000000E7     1.689278185367584E-1   1.826254725456238E-1   7.134994268417358E-1  -6.443542838096619E-1   7.129030823707581E-1  -6.446788907051086E-1   1.670190989971161E-1   1.843945980072022E-1  
 4.584000000000000E7     1.679740697145462E-1   1.812778413295746E-1   7.133057117462158E-1  -6.456105113029480E-1   7.122047543525696E-1  -6.455743312835693E-1   1.673294007778168E-1   1.833465099334717E-1  
 4.586000000000000E7     1.675245016813278E-1   1.809673905372620E-1   7.121093869209290E-1  -6.467478275299072E-1   7.120643258094788E-1  -6.460802555084229E-1   1.671545952558518E-1   1.823472827672958E-1  
 4.588000000000000E7     1.672198623418808E-1   1.803928613662720E-1   7.115594744682312E-1  -6.475589871406555E-1   7.115129828453064E-1  -6.472375392913818E-1   1.664030104875565E-1   1.816851496696472E-1  
 4.590000000000000E7     1.669991612434387E-1   1.792620718479157E-1   7.111330628395081E-1  -6.488320827484131E-1   7.104082107543945E-1  -6.479529142379761E-1   1.663174629211426E-1   1.815273463726044E-1  
 4.592000000000000E7     1.666255891323090E-1   1.784674525260925E-1   7.103011012077332E-1  -6.494290232658386E-1   7.101700305938721E-1  -6.493551135063171E-1   1.660918891429901E-1   1.805876940488815E-1  
 4.594000000000000E7     1.657125800848007E-1   1.779547333717346E-1   7.098930478096008E-1  -6.506605148315430E-1   7.095410227775574E-1  -6.498985290527344E-1   1.659325510263443E-1   1.800502687692642E-1  
 4.596000000000000E7     1.663151681423187E-1   1.776004731655121E-1   7.090718150138855E-1  -6.516721844673157E-1   7.088182568550110E-1  -6.507820487022400E-1   1.658847928047180E-1   1.787447482347488E-1  
 4.598000000000000E7     1.661731451749802E-1   1.761207431554794E-1   7.086852192878723E-1  -6.524434089660645E-1   7.079920172691345E-1  -6.518549323081970E-1   1.650626957416534E-1   1.787046343088150E-1  
 4.600000000000000E7     1.654731631278992E-1   1.757367104291916E-1   7.079187631607056E-1  -6.534211039543152E-1   7.075671553611755E-1  -6.527040600776672E-1   1.650088876485825E-1   1.774492114782333E-1  
 4.602000000000000E7     1.652438789606094E-1   1.749760210514069E-1   7.071272730827332E-1  -6.542187929153442E-1   7.070078253746033E-1  -6.536896824836731E-1   1.650746017694473E-1   1.768856942653656E-1  
 4.604000000000000E7     1.650205254554749E-1   1.742195338010788E-1   7.067273855209351E-1  -6.550989151000977E-1   7.063091993331909E-1  -6.548082232475281E-1   1.648683398962021E-1   1.760251969099045E-1  
 4.606000000000000E7     1.652126014232636E-1   1.734175533056259E-1   7.061758041381836E-1  -6.558458209037781E-1   7.054036259651184E-1  -6.555941700935364E-1   1.640315502882004E-1   1.752884536981583E-1  
 4.608000000000000E7     1.644565910100937E-1   1.733611077070236E-1   7.053396701812744E-1  -6.570155024528503E-1   7.049720287322998E-1  -6.567060947418213E-1   1.644903570413590E-1   1.749820858240128E-1  
 4.610000000000000E7     1.642695367336273E-1   1.722143739461899E-1   7.046054601669312E-1  -6.580946445465088E-1   7.045916914939880E-1  -6.574336886405945E-1   1.642794013023377E-1   1.739537715911865E-1  
 4.612000000000000E7     1.640330106019974E-1   1.717801541090012E-1   7.040690779685974E-1  -6.590235829353333E-1   7.037115693092346E-1  -6.586255431175232E-1   1.636918783187866E-1   1.731555759906769E-1  
 4.614000000000000E7     1.634883731603622E-1   1.706079542636871E-1   7.035174369812012E-1  -6.599105000495911E-1   7.029511928558350E-1  -6.592636108398438E-1   1.632082015275955E-1   1.737579554319382E-1  
 4.616000000000000E7     1.636954247951508E-1   1.699135005474091E-1   7.028401494026184E-1  -6.607541441917419E-1   7.022992372512817E-1  -6.600773930549622E-1   1.630876660346985E-1   1.720244884490967E-1  
 4.618000000000000E7     1.629493385553360E-1   1.701030284166336E-1   7.018214464187622E-1  -6.615856885910034E-1   7.017473578453064E-1  -6.610271334648132E-1   1.635092645883560E-1   1.708322167396545E-1  
 4.620000000000000E7     1.626648455858231E-1   1.688812524080277E-1   7.012514472007752E-1  -6.625759005546570E-1   7.011178135871887E-1  -6.621005535125732E-1   1.626850366592407E-1   1.707118749618530E-1  
 4.622000000000000E7     1.620576232671738E-1   1.678344756364822E-1   7.009429335594177E-1  -6.636825799942017E-1   7.003550529479981E-1  -6.631336212158203E-1   1.624186336994171E-1   1.704968363046646E-1  
 4.624000000000000E7     1.628847718238831E-1   1.675935238599777E-1   7.000780701637268E-1  -6.643674969673157E-1   6.997491121292114E-1  -6.641161441802979E-1   1.620835512876511E-1   1.690719127655029E-1  
 4.626000000000000E7     1.618755161762238E-1   1.657715737819672E-1   6.998304128646851E-1  -6.653643250465393E-1   6.990501880645752E-1  -6.649152636528015E-1   1.614071130752564E-1   1.684989333152771E-1  
 4.628000000000000E7     1.617017090320587E-1   1.655296385288239E-1   6.988801956176758E-1  -6.663976311683655E-1   6.985369920730591E-1  -6.658542156219482E-1   1.617339253425598E-1   1.678398251533508E-1  
 4.630000000000000E7     1.617676168680191E-1   1.652204096317291E-1   6.979208588600159E-1  -6.672993898391724E-1   6.979052424430847E-1  -6.667102575302124E-1   1.617318689823151E-1   1.672348827123642E-1  
 4.632000000000000E7     1.615165919065476E-1   1.644960790872574E-1   6.977947354316711E-1  -6.682690978050232E-1   6.969581246376038E-1  -6.677700877189636E-1   1.607744693756104E-1   1.669096201658249E-1  
 4.634000000000000E7     1.608809679746628E-1   1.636207401752472E-1   6.973138451576233E-1  -6.690221428871155E-1   6.964948177337647E-1  -6.684610843658447E-1   1.604483425617218E-1   1.658156216144562E-1  
 4.636000000000000E7     1.603873968124390E-1   1.630211919546127E-1   6.963977217674255E-1  -6.700260639190674E-1   6.956689357757568E-1  -6.696004867553711E-1   1.602708250284195E-1   1.653738170862198E-1  
 4.638000000000000E7     1.607999354600906E-1   1.628694236278534E-1   6.957027912139893E-1  -6.706997752189636E-1   6.953288912773132E-1  -6.704812645912170E-1   1.602817028760910E-1   1.637012660503388E-1  
 4.640000000000000E7     1.605086922645569E-1   1.617165207862854E-1   6.948920488357544E-1  -6.717226505279541E-1   6.945745944976807E-1  -6.715027689933777E-1   1.601293981075287E-1   1.633408367633820E-1  
 4.642000000000000E7     1.598976850509644E-1   1.613679230213165E-1   6.942961215972900E-1  -6.727562546730042E-1   6.936907768249512E-1  -6.724133491516113E-1   1.592938899993897E-1   1.629684269428253E-1  
 4.644000000000000E7     1.595403552055359E-1   1.601250916719437E-1   6.935290098190308E-1  -6.735113859176636E-1   6.933699846267700E-1  -6.733264923095703E-1   1.586389988660812E-1   1.624661087989807E-1  
 4.646000000000000E7     1.594891101121903E-1   1.594517379999161E-1   6.931287646293640E-1  -6.745189428329468E-1   6.924310922622681E-1  -6.737838387489319E-1   1.587272882461548E-1   1.615045070648193E-1  
 4.648000000000000E7     1.586817055940628E-1   1.588728129863739E-1   6.923030614852905E-1  -6.754304766654968E-1   6.918887495994568E-1  -6.750274896621704E-1   1.588299125432968E-1   1.612492054700851E-1  
 4.650000000000000E7     1.586012542247772E-1   1.584687232971191E-1   6.917214989662170E-1  -6.764358878135681E-1   6.911066174507141E-1  -6.758861541748047E-1   1.582463979721069E-1   1.605767309665680E-1  
 4.652000000000000E7     1.581422388553619E-1   1.576660126447678E-1   6.908079981803894E-1  -6.773115992546082E-1   6.904675960540772E-1  -6.769312620162964E-1   1.584174782037735E-1   1.599376648664475E-1  
 4.654000000000000E7     1.584250926971436E-1   1.571990549564362E-1   6.902231574058533E-1  -6.780974864959717E-1   6.895300149917603E-1  -6.777881979942322E-1   1.579642295837402E-1   1.595237404108048E-1  
 4.656000000000000E7     1.577410846948624E-1   1.562672704458237E-1   6.892993450164795E-1  -6.790347695350647E-1   6.893060207366943E-1  -6.785218715667725E-1   1.569663286209106E-1   1.581104695796967E-1  
 4.658000000000000E7     1.574275195598602E-1   1.556578874588013E-1   6.887829899787903E-1  -6.802129149436951E-1   6.885908246040344E-1  -6.795156598091126E-1   1.572456955909729E-1   1.577281206846237E-1  
 4.660000000000000E7     1.576620340347290E-1   1.552945524454117E-1   6.881859898567200E-1  -6.807720661163330E-1   6.871967911720276E-1  -6.802619695663452E-1   1.570835262537003E-1   1.570971310138702E-1  
 4.662000000000000E7     1.566995978355408E-1   1.542913615703583E-1   6.877937316894531E-1  -6.819154620170593E-1   6.870826482772827E-1  -6.813297867774963E-1   1.567348986864090E-1   1.561345607042313E-1  
 4.664000000000000E7     1.571134328842163E-1   1.537708044052124E-1   6.870750188827515E-1  -6.825261712074280E-1   6.861924529075623E-1  -6.822357177734375E-1   1.561000645160675E-1   1.559984087944031E-1  
 4.666000000000000E7     1.567391455173492E-1   1.528653353452683E-1   6.861493587493897E-1  -6.833869218826294E-1   6.856088042259216E-1  -6.830892562866211E-1   1.563595384359360E-1   1.550422906875610E-1  
 4.668000000000000E7     1.558938175439835E-1   1.522348076105118E-1   6.856775283813477E-1  -6.845024824142456E-1   6.848545670509338E-1  -6.843965053558350E-1   1.546830236911774E-1   1.538944095373154E-1  
 4.670000000000000E7     1.556070148944855E-1   1.520399898290634E-1   6.846334934234619E-1  -6.856052875518799E-1   6.844797134399414E-1  -6.848102807998657E-1   1.550996154546738E-1   1.535014659166336E-1  
 4.672000000000000E7     1.549491584300995E-1   1.507583558559418E-1   6.842007637023926E-1  -6.863990426063538E-1   6.836540699005127E-1  -6.859048008918762E-1   1.552714258432388E-1   1.524911373853684E-1  
 4.674000000000000E7     1.544355303049088E-1   1.504260301589966E-1   6.835501194000244E-1  -6.871672272682190E-1   6.829546093940735E-1  -6.867107748985291E-1   1.543289721012116E-1   1.522072553634644E-1  
 4.676000000000000E7     1.544527709484100E-1   1.493553370237351E-1   6.829957365989685E-1  -6.881267428398132E-1   6.823320388793945E-1  -6.877948045730591E-1   1.542328298091888E-1   1.515823006629944E-1  
 4.678000000000000E7     1.541449725627899E-1   1.494459509849548E-1   6.817365884780884E-1  -6.891501545906067E-1   6.816585063934326E-1  -6.889894008636475E-1   1.538088321685791E-1   1.502447724342346E-1  
 4.680000000000000E7     1.538280546665192E-1   1.484070569276810E-1   6.814295053482056E-1  -6.900717616081238E-1   6.810448765754700E-1  -6.893153786659241E-1   1.544462144374847E-1   1.499520093202591E-1  
 4.682000000000000E7     1.537345796823502E-1   1.476199477910996E-1   6.805456280708313E-1  -6.908738017082214E-1   6.801458597183228E-1  -6.904771327972412E-1   1.534029990434647E-1   1.500365734100342E-1  
 4.684000000000000E7     1.531801968812943E-1   1.467674076557159E-1   6.800968647003174E-1  -6.919252276420593E-1   6.793872714042664E-1  -6.912407875061035E-1   1.531647443771362E-1   1.485452502965927E-1  
 4.686000000000000E7     1.527265161275864E-1   1.463298648595810E-1   6.796314716339111E-1  -6.929696202278137E-1   6.784623265266419E-1  -6.921391487121582E-1   1.528292596340179E-1   1.482421159744263E-1  
 4.688000000000000E7     1.527288854122162E-1   1.445069760084152E-1   6.788554191589356E-1  -6.935428380966187E-1   6.780576109886169E-1  -6.929981708526611E-1   1.524110585451126E-1   1.471604853868485E-1  
 4.690000000000000E7     1.530801504850388E-1   1.444673538208008E-1   6.780302524566650E-1  -6.942878365516663E-1   6.773562431335449E-1  -6.941516995429993E-1   1.518128514289856E-1   1.464565545320511E-1  
 4.692000000000000E7     1.515010446310043E-1   1.435245722532272E-1   6.770924925804138E-1  -6.954714655876160E-1   6.766228675842285E-1  -6.946526765823364E-1   1.519050747156143E-1   1.454028785228729E-1  
 4.694000000000000E7     1.512089967727661E-1   1.434265077114105E-1   6.768257617950440E-1  -6.964148879051209E-1   6.759237647056580E-1  -6.959078907966614E-1   1.519231796264648E-1   1.456489413976669E-1  
 4.696000000000000E7     1.514239609241486E-1   1.426556110382080E-1   6.757164597511292E-1  -6.970847249031067E-1   6.753665804862976E-1  -6.965429186820984E-1   1.505309641361237E-1   1.448595225811005E-1  
 4.698000000000000E7     1.510304212570190E-1   1.416836977005005E-1   6.750351786613464E-1  -6.978458166122437E-1   6.747313141822815E-1  -6.972942352294922E-1   1.508366018533707E-1   1.433545351028442E-1  
 4.700000000000000E7     1.508658826351166E-1   1.414910107851028E-1   6.741981506347656E-1  -6.988317370414734E-1   6.738848686218262E-1  -6.985195875167847E-1   1.504729241132736E-1   1.431019604206085E-1  
 4.702000000000000E7     1.505237817764282E-1   1.409703791141510E-1   6.735901236534119E-1  -6.996647715568543E-1   6.732384562492371E-1  -6.993617415428162E-1   1.498856246471405E-1   1.418608427047730E-1  
 4.704000000000000E7     1.497810333967209E-1   1.399020999670029E-1   6.731100678443909E-1  -7.009109854698181E-1   6.725128293037415E-1  -7.003731131553650E-1   1.491064727306366E-1   1.415317058563232E-1  
 4.706000000000000E7     1.498009562492371E-1   1.386841833591461E-1   6.724589467048645E-1  -7.016581892967224E-1   6.717128157615662E-1  -7.009311318397522E-1   1.493023782968521E-1   1.411131322383881E-1  
 4.708000000000000E7     1.491842269897461E-1   1.381773352622986E-1   6.716541051864624E-1  -7.026438713073731E-1   6.709418296813965E-1  -7.018965482711792E-1   1.495655179023743E-1   1.407450735569000E-1  
 4.710000000000000E7     1.493705660104752E-1   1.377820372581482E-1   6.707303524017334E-1  -7.033438086509705E-1   6.703788042068481E-1  -7.028809189796448E-1   1.486269980669022E-1   1.403477936983109E-1  
 4.712000000000000E7     1.491838693618774E-1   1.370505541563034E-1   6.702505350112915E-1  -7.041916847229004E-1   6.696166992187500E-1  -7.036752700805664E-1   1.484308987855911E-1   1.390206217765808E-1  
 4.714000000000000E7     1.483317315578461E-1   1.368890553712845E-1   6.693817973136902E-1  -7.049360871315002E-1   6.689868569374085E-1  -7.048122286796570E-1   1.478220224380493E-1   1.381020545959473E-1  
 4.716000000000000E7     1.475932002067566E-1   1.355772316455841E-1   6.687561869621277E-1  -7.061878442764282E-1   6.681818366050720E-1  -7.053536772727966E-1   1.472903341054916E-1   1.377248018980026E-1  
 4.718000000000000E7     1.478381752967835E-1   1.353816986083984E-1   6.681131720542908E-1  -7.067468166351318E-1   6.673649549484253E-1  -7.063377499580383E-1   1.473895311355591E-1   1.371064484119415E-1  
 4.720000000000000E7     1.474749445915222E-1   1.346396505832672E-1   6.671048998832703E-1  -7.077689170837402E-1   6.671688556671143E-1  -7.071263790130615E-1   1.475171446800232E-1   1.359918415546417E-1  
 4.722000000000000E7     1.466035842895508E-1   1.336002349853516E-1   6.667034626007080E-1  -7.085149884223938E-1   6.660477519035339E-1  -7.082262635231018E-1   1.472877413034439E-1   1.360270828008652E-1  
 4.724000000000000E7     1.464515328407288E-1   1.332019418478012E-1   6.656750440597534E-1  -7.093561887741089E-1   6.653447747230530E-1  -7.090665698051453E-1   1.468269228935242E-1   1.346984505653381E-1  
 4.726000000000000E7     1.466733813285828E-1   1.319590955972672E-1   6.654306650161743E-1  -7.102692127227783E-1   6.642627120018005E-1  -7.099610567092896E-1   1.460392624139786E-1   1.351763606071472E-1  
 4.728000000000000E7     1.454564332962036E-1   1.319214999675751E-1   6.641892790794373E-1  -7.112625241279602E-1   6.638420820236206E-1  -7.107424736022949E-1   1.454225182533264E-1   1.337709426879883E-1  
 4.730000000000000E7     1.454692482948303E-1   1.310734152793884E-1   6.637855768203735E-1  -7.119423747062683E-1   6.630082130432129E-1  -7.117378115653992E-1   1.450314372777939E-1   1.330327391624451E-1  
 4.732000000000000E7     1.452762186527252E-1   1.295438408851624E-1   6.627853512763977E-1  -7.126370668411255E-1   6.624705195426941E-1  -7.124906182289124E-1   1.455191373825073E-1   1.320392638444901E-1  
 4.734000000000000E7     1.446598768234253E-1   1.302735507488251E-1   6.621023416519165E-1  -7.137914896011353E-1   6.617732644081116E-1  -7.133240103721619E-1   1.446490287780762E-1   1.318070292472839E-1  
 4.736000000000000E7     1.447700262069702E-1   1.290099918842316E-1   6.614424586296082E-1  -7.147563695907593E-1   6.609925031661987E-1  -7.140579819679260E-1   1.441717743873596E-1   1.311310380697250E-1  
 4.738000000000000E7     1.441527903079987E-1   1.289541274309158E-1   6.608364582061768E-1  -7.156249284744263E-1   6.601034998893738E-1  -7.152716517448425E-1   1.442982107400894E-1   1.309180855751038E-1  
 4.740000000000000E7     1.428622603416443E-1   1.275036782026291E-1   6.598953008651733E-1  -7.168561816215515E-1   6.592712402343750E-1  -7.160288691520691E-1   1.437464356422424E-1   1.306720823049545E-1  
 4.742000000000000E7     1.435967385768890E-1   1.272286921739578E-1   6.591328978538513E-1  -7.172853946685791E-1   6.587257981300354E-1  -7.167798876762390E-1   1.435129493474960E-1   1.289710551500320E-1  
 4.744000000000000E7     1.428015977144241E-1   1.268107742071152E-1   6.583260297775269E-1  -7.183680534362793E-1   6.579194068908691E-1  -7.177001833915710E-1   1.426378339529038E-1   1.287843137979507E-1  
 4.746000000000000E7     1.427044868469238E-1   1.252914965152741E-1   6.577702164649963E-1  -7.191538214683533E-1   6.573538184165955E-1  -7.185984849929810E-1   1.425246596336365E-1   1.272114068269730E-1  
 4.748000000000000E7     1.417289972305298E-1   1.255303025245667E-1   6.568917632102966E-1  -7.200646400451660E-1   6.565721035003662E-1  -7.192192077636719E-1   1.425774395465851E-1   1.270730942487717E-1  
 4.750000000000000E7     1.420787274837494E-1   1.254158318042755E-1   6.563354730606079E-1  -7.208482623100281E-1   6.556152105331421E-1  -7.202776074409485E-1   1.413259953260422E-1   1.269053220748901E-1  
 4.752000000000000E7     1.415228843688965E-1   1.242856234312058E-1   6.552680730819702E-1  -7.216605544090271E-1   6.550894379615784E-1  -7.211213111877441E-1   1.413898020982742E-1   1.252093017101288E-1  
 4.754000000000000E7     1.410024762153626E-1   1.234866380691528E-1   6.544444561004639E-1  -7.225320339202881E-1   6.543601155281067E-1  -7.221930027008057E-1   1.414051949977875E-1   1.251396983861923E-1  
 4.756000000000000E7     1.414904594421387E-1   1.219349950551987E-1   6.540069580078125E-1  -7.232577800750732E-1   6.533002853393555E-1  -7.228876948356628E-1   1.404509842395783E-1   1.253733634948731E-1  
 4.758000000000000E7     1.404316574335098E-1   1.223203614354134E-1   6.528962254524231E-1  -7.242528796195984E-1   6.528618931770325E-1  -7.237610220909119E-1   1.403101235628128E-1   1.237174943089485E-1  
 4.760000000000000E7     1.396534889936447E-1   1.215659976005554E-1   6.522816419601440E-1  -7.251665592193604E-1   6.518176794052124E-1  -7.245582342147827E-1   1.397177129983902E-1   1.234097257256508E-1  
 4.762000000000000E7     1.395613402128220E-1   1.205838918685913E-1   6.518706083297730E-1  -7.258858084678650E-1   6.509358286857605E-1  -7.253584861755371E-1   1.393264830112457E-1   1.235507652163506E-1  
 4.764000000000000E7     1.394203901290894E-1   1.200315356254578E-1   6.509549617767334E-1  -7.266458868980408E-1   6.502190828323364E-1  -7.263017892837524E-1   1.391451358795166E-1   1.222307160496712E-1  
 4.766000000000000E7     1.388894915580750E-1   1.200627461075783E-1   6.503084301948547E-1  -7.276381850242615E-1   6.495673656463623E-1  -7.271688580513001E-1   1.385535299777985E-1   1.217494606971741E-1  
 4.768000000000000E7     1.382372379302979E-1   1.193171292543411E-1   6.492093205451965E-1  -7.283003330230713E-1   6.489471197128296E-1  -7.280958890914917E-1   1.382397711277008E-1   1.208493262529373E-1  
 4.770000000000000E7     1.380383074283600E-1   1.183170080184937E-1   6.485990881919861E-1  -7.293586134910584E-1   6.483842730522156E-1  -7.286878228187561E-1   1.383072137832642E-1   1.204835921525955E-1  
 4.772000000000000E7     1.381783187389374E-1   1.171080619096756E-1   6.478829383850098E-1  -7.299290895462036E-1   6.473960876464844E-1  -7.296111583709717E-1   1.374639868736267E-1   1.197349056601524E-1  
 4.774000000000000E7     1.368332058191299E-1   1.172752305865288E-1   6.468508839607239E-1  -7.310833930969238E-1   6.467862725257874E-1  -7.305748462677002E-1   1.372464150190353E-1   1.190513074398041E-1  
 4.776000000000000E7     1.370716094970703E-1   1.159208565950394E-1   6.463198661804199E-1  -7.318067550659180E-1   6.457183957099915E-1  -7.312384247779846E-1   1.369203329086304E-1   1.183368265628815E-1  
 4.778000000000000E7     1.361506283283234E-1   1.151524260640144E-1   6.454371809959412E-1  -7.329088449478149E-1   6.451458930969238E-1  -7.319595813751221E-1   1.364924758672714E-1   1.181364804506302E-1  
 4.780000000000000E7     1.357115805149078E-1   1.152176260948181E-1   6.448472738265991E-1  -7.335764169692993E-1   6.443293690681458E-1  -7.331736087799072E-1   1.361199617385864E-1   1.171769797801971E-1  
 4.782000000000000E7     1.351158916950226E-1   1.146887317299843E-1   6.439066529273987E-1  -7.345403432846069E-1   6.438514590263367E-1  -7.335667610168457E-1   1.363317668437958E-1   1.162063777446747E-1  
 4.784000000000000E7     1.350651085376740E-1   1.139009520411491E-1   6.432778239250183E-1  -7.352808117866516E-1   6.427119374275208E-1  -7.347539067268372E-1   1.355037242174149E-1   1.160015240311623E-1  
 4.786000000000000E7     1.351657211780548E-1   1.128059402108192E-1   6.424991488456726E-1  -7.359433770179749E-1   6.423205733299255E-1  -7.355576753616333E-1   1.349498331546783E-1   1.149434372782707E-1  
 4.788000000000000E7     1.347593069076538E-1   1.126448288559914E-1   6.418036222457886E-1  -7.366968989372253E-1   6.408795714378357E-1  -7.365250587463379E-1   1.342320293188095E-1   1.146968528628349E-1  
 4.790000000000000E7     1.340558379888535E-1   1.120620891451836E-1   6.409091353416443E-1  -7.377759218215942E-1   6.401622891426086E-1  -7.373999357223511E-1   1.342419087886810E-1   1.139234751462936E-1  
 4.792000000000000E7     1.335912197828293E-1   1.109055057168007E-1   6.402990818023682E-1  -7.384465932846069E-1   6.398303508758545E-1  -7.384526729583740E-1   1.331943273544312E-1   1.130665838718414E-1  
 4.794000000000000E7     1.335314065217972E-1   1.113711595535278E-1   6.392332911491394E-1  -7.395837306976318E-1   6.388204693794251E-1  -7.390309572219849E-1   1.334803402423859E-1   1.132813394069672E-1  
 4.796000000000000E7     1.327328681945801E-1   1.100848615169525E-1   6.385866403579712E-1  -7.404516935348511E-1   6.380918025970459E-1  -7.399163842201233E-1   1.329285502433777E-1   1.119385808706284E-1  
 4.798000000000000E7     1.324038505554199E-1   1.092788130044937E-1   6.378407478332520E-1  -7.412443161010742E-1   6.373057365417481E-1  -7.404881715774536E-1   1.327232271432877E-1   1.113584637641907E-1  
 4.800000000000000E7     1.318395435810089E-1   1.087518706917763E-1   6.371872425079346E-1  -7.420569658279419E-1   6.364796757698059E-1  -7.413638830184937E-1   1.317510604858398E-1   1.107289493083954E-1  
 4.802000000000000E7     1.311647444963455E-1   1.076164096593857E-1   6.364961862564087E-1  -7.430685162544251E-1   6.356622576713562E-1  -7.421258091926575E-1   1.315024942159653E-1   1.108008548617363E-1  
 4.804000000000000E7     1.310735642910004E-1   1.079887449741364E-1   6.355468034744263E-1  -7.436757087707520E-1   6.348181962966919E-1  -7.431344389915466E-1   1.311671733856201E-1   1.099365353584290E-1  
 4.806000000000000E7     1.310889571905136E-1   1.067768782377243E-1   6.347075104713440E-1  -7.444778680801392E-1   6.341615319252014E-1  -7.441016435623169E-1   1.304594576358795E-1   1.088002324104309E-1  
 4.808000000000000E7     1.300720274448395E-1   1.065425127744675E-1   6.334639787673950E-1  -7.455995678901672E-1   6.334750056266785E-1  -7.447367310523987E-1   1.309668570756912E-1   1.085316836833954E-1  
 4.810000000000000E7     1.297064274549484E-1   1.058538630604744E-1   6.331140995025635E-1  -7.462101578712463E-1   6.323090195655823E-1  -7.455990314483643E-1   1.299487501382828E-1   1.076758727431297E-1  
 4.812000000000000E7     1.293026208877564E-1   1.055592969059944E-1   6.321470737457275E-1  -7.468886375427246E-1   6.320399045944214E-1  -7.466397881507874E-1   1.297910213470459E-1   1.069633662700653E-1  
 4.814000000000000E7     1.296004652976990E-1   1.036980673670769E-1   6.315374970436096E-1  -7.476494908332825E-1   6.306933760643005E-1  -7.473904490470886E-1   1.286329776048660E-1   1.069342494010925E-1  
 4.816000000000000E7     1.285401880741119E-1   1.042739301919937E-1   6.305314302444458E-1  -7.484413385391235E-1   6.303360462188721E-1  -7.483185529708862E-1   1.284144818782806E-1   1.063576489686966E-1  
 4.818000000000000E7     1.281571984291077E-1   1.021198108792305E-1   6.300013661384583E-1  -7.496778368949890E-1   6.293590068817139E-1  -7.487744092941284E-1   1.286808103322983E-1   1.053615957498550E-1  
 4.820000000000000E7     1.279639303684235E-1   1.027568802237511E-1   6.291452050209045E-1  -7.500204443931580E-1   6.286510229110718E-1  -7.498731017112732E-1   1.273545324802399E-1   1.042073592543602E-1  
 4.822000000000000E7     1.273224949836731E-1   1.012640967965126E-1   6.282174587249756E-1  -7.511746287345886E-1   6.279780864715576E-1  -7.505571842193604E-1   1.277745366096497E-1   1.041375473141670E-1  
 4.824000000000000E7     1.267037987709045E-1   1.015573218464851E-1   6.274611353874207E-1  -7.519062161445618E-1   6.271329522132874E-1  -7.514262795448303E-1   1.274757534265518E-1   1.028192862868309E-1  
 4.826000000000000E7     1.269987225532532E-1   1.002330929040909E-1   6.264645457267761E-1  -7.523615360260010E-1   6.263377070426941E-1  -7.521827220916748E-1   1.270337849855423E-1   1.019434109330177E-1  
 4.828000000000000E7     1.263126879930496E-1   1.003805175423622E-1   6.256498098373413E-1  -7.533560991287231E-1   6.256542801856995E-1  -7.531831264495850E-1   1.263447701931000E-1   1.018363535404205E-1  
 4.830000000000000E7     1.257611960172653E-1   9.953334927558899E-2   6.248438358306885E-1  -7.542802095413208E-1   6.245029568672180E-1  -7.540628314018250E-1   1.259087920188904E-1   1.017845422029495E-1  
 4.832000000000000E7     1.254015415906906E-1   9.871787577867508E-2   6.240686178207398E-1  -7.551441192626953E-1   6.237837672233582E-1  -7.544285058975220E-1   1.258769929409027E-1   1.012471392750740E-1  
 4.834000000000000E7     1.247355490922928E-1   9.786069393157959E-2   6.235231161117554E-1  -7.557224631309509E-1   6.229218244552612E-1  -7.556616663932800E-1   1.245579421520233E-1   9.996186196804047E-2  
 4.836000000000000E7     1.243733242154121E-1   9.753088653087616E-2   6.224533319473267E-1  -7.569008469581604E-1   6.221712827682495E-1  -7.561751008033752E-1   1.246994584798813E-1   1.000234633684158E-1  
 4.838000000000000E7     1.234029829502106E-1   9.721826016902924E-2   6.217682361602783E-1  -7.579083442687988E-1   6.214243173599243E-1  -7.570667266845703E-1   1.242466568946838E-1   9.912107884883881E-2  
 4.840000000000000E7     1.236229836940765E-1   9.667307138442993E-2   6.209461092948914E-1  -7.583646178245544E-1   6.206048727035523E-1  -7.580901980400085E-1   1.232215389609337E-1   9.794102609157562E-2  
 4.842000000000000E7     1.229748576879501E-1   9.633340686559677E-2   6.202177405357361E-1  -7.595016956329346E-1   6.195148825645447E-1  -7.584900259971619E-1   1.238875612616539E-1   9.790770709514618E-2  
 4.844000000000000E7     1.227319911122322E-1   9.495675563812256E-2   6.194864511489868E-1  -7.601164579391480E-1   6.186414957046509E-1  -7.594491243362427E-1   1.229222714900971E-1   9.725278615951538E-2  
 4.846000000000000E7     1.221198514103890E-1   9.431200474500656E-2   6.186293363571167E-1  -7.609103322029114E-1   6.179695129394531E-1  -7.602185010910034E-1   1.223554611206055E-1   9.685732424259186E-2  
 4.848000000000000E7     1.221183687448502E-1   9.427735954523087E-2   6.176836490631104E-1  -7.615153193473816E-1   6.175036430358887E-1  -7.614049315452576E-1   1.218462139368057E-1   9.577320516109467E-2  
 4.850000000000000E7     1.212009340524674E-1   9.351472556591034E-2   6.171072721481323E-1  -7.622467875480652E-1   6.163663268089294E-1  -7.623425722122192E-1   1.215474009513855E-1   9.605500847101212E-2  
 4.852000000000000E7     1.213286146521568E-1   9.281364828348160E-2   6.162158846855164E-1  -7.631704211235046E-1   6.154865622520447E-1  -7.628579139709473E-1   1.211093217134476E-1   9.488710016012192E-2  
 4.854000000000000E7     1.208609491586685E-1   9.168837964534760E-2   6.153063774108887E-1  -7.643284797668457E-1   6.148385405540466E-1  -7.633420228958130E-1   1.202985867857933E-1   9.450391680002213E-2  
 4.856000000000000E7     1.198423951864243E-1   9.171234816312790E-2   6.148794293403626E-1  -7.648673057556152E-1   6.136733293533325E-1  -7.645724415779114E-1   1.195999607443810E-1   9.366508573293686E-2  
 4.858000000000000E7     1.188478618860245E-1   9.153421968221664E-2   6.137658953666687E-1  -7.656243443489075E-1   6.132569313049316E-1  -7.653355002403259E-1   1.192179247736931E-1   9.314191341400147E-2  
 4.860000000000000E7     1.190124526619911E-1   9.057936817407608E-2   6.130596399307251E-1  -7.665036320686340E-1   6.122248768806458E-1  -7.659233808517456E-1   1.189959570765495E-1   9.223793447017670E-2  
 4.862000000000000E7     1.186738088726997E-1   8.999064564704895E-2   6.123538613319397E-1  -7.672828435897827E-1   6.113869547843933E-1  -7.667524814605713E-1   1.184019967913628E-1   9.164644032716751E-2  
 4.864000000000000E7     1.183509901165962E-1   8.906660974025726E-2   6.110553145408630E-1  -7.678804397583008E-1   6.107599139213562E-1  -7.674962878227234E-1   1.185087934136391E-1   9.161770343780518E-2  
 4.866000000000000E7     1.175042688846588E-1   8.808267861604691E-2   6.104017496109009E-1  -7.691400051116943E-1   6.097824573516846E-1  -7.681176066398621E-1   1.178520321846008E-1   9.090811759233475E-2  
 4.868000000000000E7     1.171112656593323E-1   8.772840350866318E-2   6.095399856567383E-1  -7.698092460632324E-1   6.091713309288025E-1  -7.691106796264648E-1   1.174325495958328E-1   9.011188894510269E-2  
 4.870000000000000E7     1.167222335934639E-1   8.725911378860474E-2   6.085053086280823E-1  -7.703491449356079E-1   6.083575487136841E-1  -7.696642279624939E-1   1.174777224659920E-1   8.919589966535568E-2  
 4.872000000000000E7     1.167605295777321E-1   8.643160015344620E-2   6.079124808311462E-1  -7.712846398353577E-1   6.075503230094910E-1  -7.707287669181824E-1   1.165572702884674E-1   8.878937363624573E-2  
 4.874000000000000E7     1.163326576352119E-1   8.637429028749466E-2   6.068871617317200E-1  -7.719771862030029E-1   6.067725419998169E-1  -7.713693380355835E-1   1.160722523927689E-1   8.787287771701813E-2  
 4.876000000000000E7     1.150537729263306E-1   8.524369448423386E-2   6.061102151870728E-1  -7.731475830078125E-1   6.057376861572266E-1  -7.720019817352295E-1   1.156176701188088E-1   8.738620579242706E-2  
 4.878000000000000E7     1.143353879451752E-1   8.488606661558151E-2   6.053240299224854E-1  -7.736155986785889E-1   6.050038337707520E-1  -7.731760740280151E-1   1.158088371157646E-1   8.762612938880920E-2  
 4.880000000000000E7     1.145111098885536E-1   8.459245413541794E-2   6.040937900543213E-1  -7.744229435920715E-1   6.042579412460327E-1  -7.738330364227295E-1   1.146413236856461E-1   8.661243319511414E-2  
 4.882000000000000E7     1.143658533692360E-1   8.375153690576553E-2   6.035783290863037E-1  -7.749142050743103E-1   6.030831933021545E-1  -7.746426463127136E-1   1.146257296204567E-1   8.541090786457062E-2  
 4.884000000000000E7     1.131711229681969E-1   8.352378010749817E-2   6.025875210762024E-1  -7.759628295898438E-1   6.024333238601685E-1  -7.754314541816711E-1   1.132477149367333E-1   8.502068370580673E-2  
 4.886000000000000E7     1.131288185715675E-1   8.290918916463852E-2   6.018757820129395E-1  -7.765319943428040E-1   6.015205979347229E-1  -7.760351896286011E-1   1.139443963766098E-1   8.471560478210449E-2  
 4.888000000000000E7     1.129350215196610E-1   8.164293318986893E-2   6.011979579925537E-1  -7.774916291236877E-1   6.007564067840576E-1  -7.771556973457336E-1   1.122514903545380E-1   8.454422652721405E-2  
 4.890000000000000E7     1.118034496903420E-1   8.183713257312775E-2   6.004355549812317E-1  -7.782437801361084E-1   5.997710227966309E-1  -7.779349684715271E-1   1.121826320886612E-1   8.381401002407074E-2  
 4.892000000000000E7     1.116426438093185E-1   8.143233507871628E-2   5.993908047676086E-1  -7.791255116462708E-1   5.988698601722717E-1  -7.785093784332275E-1   1.123155802488327E-1   8.357387036085129E-2  
 4.894000000000000E7     1.107985377311707E-1   8.074397593736649E-2   5.985806584358215E-1  -7.798232436180115E-1   5.980680584907532E-1  -7.794067263603210E-1   1.114091053605080E-1   8.233281970024109E-2  
 4.896000000000000E7     1.109144240617752E-1   7.997094094753265E-2   5.976821184158325E-1  -7.804810404777527E-1   5.971560478210449E-1  -7.802497744560242E-1   1.110888570547104E-1   8.235633373260498E-2  
 4.898000000000000E7     1.101621463894844E-1   7.927695661783218E-2   5.968937873840332E-1  -7.812819480895996E-1   5.963735580444336E-1  -7.806762456893921E-1   1.104328855872154E-1   8.138770610094070E-2  
 4.900000000000000E7     1.104511916637421E-1   7.812368124723434E-2   5.961214303970337E-1  -7.820789813995361E-1   5.951809287071228E-1  -7.815759181976318E-1   1.097590997815132E-1   8.073011040687561E-2  
 4.902000000000000E7     1.087149605154991E-1   7.858643680810928E-2   5.952687859535217E-1  -7.830237746238709E-1   5.946706533432007E-1  -7.822934985160828E-1   1.097828522324562E-1   8.007046580314636E-2  
 4.904000000000000E7     1.085837408900261E-1   7.767232507467270E-2   5.940853953361511E-1  -7.834211587905884E-1   5.937377810478210E-1  -7.832306027412415E-1   1.089235395193100E-1   7.928558439016342E-2  
 4.906000000000000E7     1.082878783345223E-1   7.739616930484772E-2   5.934259295463562E-1  -7.847029566764832E-1   5.926305651664734E-1  -7.839562892913818E-1   1.086029186844826E-1   7.951274514198303E-2  
 4.908000000000000E7     1.079275310039520E-1   7.596807181835175E-2   5.926510095596314E-1  -7.856058478355408E-1   5.919851660728455E-1  -7.845610976219177E-1   1.083846613764763E-1   7.874996215105057E-2  
 4.910000000000000E7     1.071653068065643E-1   7.600360363721848E-2   5.912965536117554E-1  -7.858370542526245E-1   5.912657976150513E-1  -7.855557799339294E-1   1.081713438034058E-1   7.788780331611633E-2  
 4.912000000000000E7     1.062368154525757E-1   7.592394948005676E-2   5.906494259834290E-1  -7.868493199348450E-1   5.904670953750610E-1  -7.861341238021851E-1   1.077624410390854E-1   7.725567370653153E-2  
 4.914000000000000E7     1.063205227255821E-1   7.456919550895691E-2   5.899596214294434E-1  -7.876380085945129E-1   5.894600749015808E-1  -7.869276404380798E-1   1.072684451937676E-1   7.650435715913773E-2  
 4.916000000000000E7     1.059588715434074E-1   7.403794676065445E-2   5.892107486724854E-1  -7.884517312049866E-1   5.884557962417603E-1  -7.877779603004456E-1   1.061751395463944E-1   7.650382816791534E-2  
 4.918000000000000E7     1.050985902547836E-1   7.433427125215530E-2   5.882868766784668E-1  -7.892144918441773E-1   5.876668691635132E-1  -7.886776924133301E-1   1.050697714090347E-1   7.609529048204422E-2  
 4.920000000000000E7     1.054915115237236E-1   7.290310412645340E-2   5.873627066612244E-1  -7.899773120880127E-1   5.866973996162415E-1  -7.889714241027832E-1   1.054639369249344E-1   7.529390603303909E-2  
 4.922000000000000E7     1.041899025440216E-1   7.234376668930054E-2   5.865503549575806E-1  -7.905015349388123E-1   5.857880711555481E-1  -7.900846004486084E-1   1.049369201064110E-1   7.470830529928207E-2  
 4.924000000000000E7     1.043529361486435E-1   7.150697708129883E-2   5.857710838317871E-1  -7.912031412124634E-1   5.850089192390442E-1  -7.908575534820557E-1   1.045790538191795E-1   7.408475130796433E-2  
 4.926000000000000E7     1.036673784255981E-1   7.092348486185074E-2   5.846821069717407E-1  -7.919428348541260E-1   5.842909812927246E-1  -7.917287945747376E-1   1.036999821662903E-1   7.371494174003601E-2  
 4.928000000000000E7     1.027225330471993E-1   7.119227200746536E-2   5.838865637779236E-1  -7.927761673927307E-1   5.835014581680298E-1  -7.923318743705750E-1   1.038797199726105E-1   7.257300615310669E-2  
 4.930000000000000E7     1.020668372511864E-1   6.992587447166443E-2   5.827887058258057E-1  -7.936670780181885E-1   5.826282501220703E-1  -7.930552959442139E-1   1.027994006872177E-1   7.241764664649963E-2  
 4.932000000000000E7     1.017091944813728E-1   6.995458900928497E-2   5.823876857757568E-1  -7.942437529563904E-1   5.815585255622864E-1  -7.938324809074402E-1   1.022121235728264E-1   7.166352123022080E-2  
 4.934000000000000E7     1.017514318227768E-1   6.887027621269226E-2   5.812805891036987E-1  -7.950687408447266E-1   5.807232856750488E-1  -7.943758368492127E-1   1.019645333290100E-1   7.130277156829834E-2  
 4.936000000000000E7     1.013197973370552E-1   6.880495697259903E-2   5.801378488540649E-1  -7.960452437400818E-1   5.801233053207398E-1  -7.952424883842468E-1   1.011746749281883E-1   7.134549319744110E-2  
 4.938000000000000E7     1.007972657680512E-1   6.818567961454392E-2   5.795811414718628E-1  -7.967519164085388E-1   5.789646506309509E-1  -7.957429885864258E-1   1.014388054609299E-1   6.985340267419815E-2  
 4.940000000000000E7     9.937030822038651E-2   6.771510839462280E-2   5.785136222839356E-1  -7.972996830940247E-1   5.785095095634460E-1  -7.967906594276428E-1   1.012259125709534E-1   6.950644403696060E-2  
 4.942000000000000E7     9.980461746454239E-2   6.679498404264450E-2   5.778307914733887E-1  -7.978779673576355E-1   5.773144960403442E-1  -7.977946996688843E-1   9.994938969612122E-2   6.892208755016327E-2  
 4.944000000000000E7     9.911696612834930E-2   6.674726307392120E-2   5.768042802810669E-1  -7.988322377204895E-1   5.761697888374329E-1  -7.981081604957581E-1   9.920203685760498E-2   6.924436986446381E-2  
 4.946000000000000E7     9.854477643966675E-2   6.613983213901520E-2   5.760280489921570E-1  -7.994700670242310E-1   5.753678679466248E-1  -7.988865971565247E-1   9.884548932313919E-2   6.791292876005173E-2  
 4.948000000000000E7     9.764851629734039E-2   6.601339578628540E-2   5.750367045402527E-1  -8.002953529357910E-1   5.746269226074219E-1  -7.998403906822205E-1   9.799621254205704E-2   6.723748147487640E-2  
 4.950000000000000E7     9.722626209259033E-2   6.482900679111481E-2   5.742857456207275E-1  -8.012840151786804E-1   5.736648440361023E-1  -8.003113865852356E-1   9.760279953479767E-2   6.652826815843582E-2  
 4.952000000000000E7     9.699713438749313E-2   6.479354202747345E-2   5.731004476547241E-1  -8.015982508659363E-1   5.729584693908691E-1  -8.016374111175537E-1   9.722781181335449E-2   6.608253717422485E-2  
 4.954000000000000E7     9.668133407831192E-2   6.435705721378326E-2   5.724724531173706E-1  -8.024533987045288E-1   5.717802047729492E-1  -8.021574020385742E-1   9.674244374036789E-2   6.562194228172302E-2  
 4.956000000000000E7     9.557014703750610E-2   6.306049227714539E-2   5.714514255523682E-1  -8.033121228218079E-1   5.711652040481567E-1  -8.025115132331848E-1   9.668865799903870E-2   6.578752398490906E-2  
 4.958000000000000E7     9.469391405582428E-2   6.258913874626160E-2   5.706422328948975E-1  -8.038889169692993E-1   5.700523853302002E-1  -8.034583330154419E-1   9.633868187665939E-2   6.444594264030457E-2  
 4.960000000000000E7     9.494908899068832E-2   6.163571774959564E-2   5.696837306022644E-1  -8.045092821121216E-1   5.691984891891480E-1  -8.038748502731323E-1   9.567188471555710E-2   6.394440680742264E-2  
 4.962000000000000E7     9.433069825172424E-2   6.084799021482468E-2   5.691298246383667E-1  -8.054313659667969E-1   5.682591199874878E-1  -8.049705028533936E-1   9.410608559846878E-2   6.391607969999313E-2  
 4.964000000000000E7     9.453275799751282E-2   6.126727163791657E-2   5.679090619087219E-1  -8.058007359504700E-1   5.675315856933594E-1  -8.056569695472717E-1   9.427523612976074E-2   6.264840066432953E-2  
 4.966000000000000E7     9.338717162609100E-2   6.065460667014122E-2   5.671163201332092E-1  -8.069630265235901E-1   5.664264559745789E-1  -8.064804077148438E-1   9.386962652206421E-2   6.226815283298492E-2  
 4.968000000000000E7     9.322565793991089E-2   6.006389856338501E-2   5.662086009979248E-1  -8.073698282241821E-1   5.656379461288452E-1  -8.070254325866699E-1   9.301517903804779E-2   6.173823028802872E-2  
 4.970000000000000E7     9.265007823705673E-2   5.952945351600647E-2   5.653077363967896E-1  -8.083870410919190E-1   5.647589564323425E-1  -8.075650930404663E-1   9.269735217094421E-2   6.161402910947800E-2  
 4.972000000000000E7     9.195864200592041E-2   5.876265466213226E-2   5.643523931503296E-1  -8.089993000030518E-1   5.637279152870178E-1  -8.084419965744019E-1   9.218757599592209E-2   6.107620894908905E-2  
 4.974000000000000E7     9.147740155458450E-2   5.814994499087334E-2   5.634397268295288E-1  -8.095690608024597E-1   5.631099939346314E-1  -8.093028068542481E-1   9.111996740102768E-2   6.033165380358696E-2  
 4.976000000000000E7     9.059463441371918E-2   5.789705365896225E-2   5.626123547554016E-1  -8.105296492576599E-1   5.621697306632996E-1  -8.098697662353516E-1   9.074196219444275E-2   5.942683294415474E-2  
 4.978000000000000E7     9.023655951023102E-2   5.729798600077629E-2   5.616335272789002E-1  -8.114342689514160E-1   5.612871646881104E-1  -8.106858134269714E-1   9.057994186878204E-2   5.961537733674049E-2  
 4.980000000000000E7     9.015871584415436E-2   5.623291432857513E-2   5.609096884727478E-1  -8.119770884513855E-1   5.601461529731751E-1  -8.112519383430481E-1   9.006219357252121E-2   5.810869485139847E-2  
 4.982000000000000E7     8.906621485948563E-2   5.641832202672958E-2   5.596116185188294E-1  -8.124086260795593E-1   5.592795610427856E-1  -8.121649026870728E-1   8.927875757217407E-2   5.861318483948708E-2  
 4.984000000000000E7     8.869998902082443E-2   5.568931996822357E-2   5.588268041610718E-1  -8.132204413414002E-1   5.585052967071533E-1  -8.129920959472656E-1   8.843046426773071E-2   5.766888707876205E-2  
 4.986000000000000E7     8.742417395114899E-2   5.542154237627983E-2   5.582531690597534E-1  -8.141412734985352E-1   5.576469898223877E-1  -8.132988214492798E-1   8.851063996553421E-2   5.709011852741242E-2  
 4.988000000000000E7     8.737658709287643E-2   5.464032664895058E-2   5.573474764823914E-1  -8.148792386054993E-1   5.564516186714172E-1  -8.140672445297241E-1   8.805341273546219E-2   5.713710933923721E-2  
 4.990000000000000E7     8.706983923912048E-2   5.363958701491356E-2   5.561139583587647E-1  -8.155608177185059E-1   5.556355118751526E-1  -8.148440122604370E-1   8.726619184017181E-2   5.626425147056580E-2  
 4.992000000000000E7     8.636388182640076E-2   5.410345643758774E-2   5.552617907524109E-1  -8.162705898284912E-1   5.549210906028748E-1  -8.154521584510803E-1   8.745957911014557E-2   5.588459596037865E-2  
 4.994000000000000E7     8.598569035530090E-2   5.313540995121002E-2   5.545408725738525E-1  -8.168061971664429E-1   5.538862347602844E-1  -8.166063427925110E-1   8.675039559602737E-2   5.537901073694229E-2  
 4.996000000000000E7     8.586603403091431E-2   5.322251841425896E-2   5.531840920448303E-1  -8.177750706672669E-1   5.530043840408325E-1  -8.171343207359314E-1   8.587679266929627E-2   5.490240454673767E-2  
 4.998000000000000E7     8.476437628269196E-2   5.152675136923790E-2   5.525349378585815E-1  -8.184351921081543E-1   5.520866513252258E-1  -8.175297975540161E-1   8.484326303005219E-2   5.368018895387650E-2  
 5.000000000000000E7     8.384685963392258E-2   5.144930630922318E-2   5.514643192291260E-1  -8.189792037010193E-1   5.511167049407959E-1  -8.184964656829834E-1   8.519335836172104E-2   5.385965108871460E-2  
 5.002000000000000E7     8.354789018630981E-2   5.107681080698967E-2   5.506346225738525E-1  -8.198814392089844E-1   5.501641631126404E-1  -8.193478584289551E-1   8.413222432136536E-2   5.340673774480820E-2  
 5.004000000000000E7     8.347812294960022E-2   5.022765696048737E-2   5.499504804611206E-1  -8.204972147941589E-1   5.493289828300476E-1  -8.198136687278748E-1   8.350676298141480E-2   5.261997878551483E-2  
 5.006000000000000E7     8.283004909753799E-2   4.985131323337555E-2   5.487338900566101E-1  -8.214567303657532E-1   5.484143495559692E-1  -8.204206824302673E-1   8.332378417253494E-2   5.194040015339851E-2  
 5.008000000000000E7     8.253397047519684E-2   4.966672509908676E-2   5.476340651512146E-1  -8.217946290969849E-1   5.475947856903076E-1  -8.213138580322266E-1   8.245460689067841E-2   5.187079682946205E-2  
 5.010000000000000E7     8.130999654531479E-2   4.938558116555214E-2   5.469750165939331E-1  -8.226155042648315E-1   5.465739965438843E-1  -8.219237923622131E-1   8.175699412822723E-2   5.145615339279175E-2  
 5.012000000000000E7     8.159947395324707E-2   4.835477098822594E-2   5.461843013763428E-1  -8.232353925704956E-1   5.455149412155151E-1  -8.225940465927124E-1   8.084255456924439E-2   4.994896054267883E-2  
 5.014000000000000E7     8.078049123287201E-2   4.722674563527107E-2   5.452898144721985E-1  -8.239082694053650E-1   5.444946289062500E-1  -8.230845928192139E-1   8.083232492208481E-2   4.981555789709091E-2  
 5.016000000000000E7     8.049619197845459E-2   4.716830328106880E-2   5.443343520164490E-1  -8.246626257896423E-1   5.435992479324341E-1  -8.239849209785461E-1   8.044412732124329E-2   4.988122358918190E-2  
 5.018000000000000E7     7.944170385599136E-2   4.676731303334236E-2   5.433666110038757E-1  -8.253237009048462E-1   5.426881313323975E-1  -8.247162103652954E-1   8.002120256423950E-2   4.845448583364487E-2  
 5.020000000000000E7     7.912217080593109E-2   4.690334573388100E-2   5.423400402069092E-1  -8.258552551269531E-1   5.419600009918213E-1  -8.255700469017029E-1   7.907547056674957E-2   4.864070937037468E-2  
 5.022000000000000E7     7.782323658466339E-2   4.554530233144760E-2   5.417033433914185E-1  -8.269553184509277E-1   5.408963561058044E-1  -8.259845376014710E-1   7.925242185592651E-2   4.763194546103478E-2  
 5.024000000000000E7     7.743203639984131E-2   4.494020715355873E-2   5.404577851295471E-1  -8.275862932205200E-1   5.399475693702698E-1  -8.266516327857971E-1   7.871982455253601E-2   4.767033457756043E-2  
 5.026000000000000E7     7.701897621154785E-2   4.444576054811478E-2   5.396023988723755E-1  -8.282875418663025E-1   5.391549468040466E-1  -8.272469043731690E-1   7.747766375541687E-2   4.690437391400337E-2  
 5.028000000000000E7     7.624676823616028E-2   4.486908763647080E-2   5.385888814926148E-1  -8.288029432296753E-1   5.382752418518066E-1  -8.281573057174683E-1   7.675738632678986E-2   4.639679938554764E-2  
 5.030000000000000E7     7.527178525924683E-2   4.360712692141533E-2   5.378201603889465E-1  -8.296681046485901E-1   5.372664332389832E-1  -8.287085294723511E-1   7.679767906665802E-2   4.599113017320633E-2  
 5.032000000000000E7     7.532222568988800E-2   4.365236312150955E-2   5.367670655250549E-1  -8.302285075187683E-1   5.364612936973572E-1  -8.293933272361755E-1   7.651118934154511E-2   4.577311128377914E-2  
 5.034000000000000E7     7.488192617893219E-2   4.336201399564743E-2   5.357328653335571E-1  -8.309485912322998E-1   5.355967879295349E-1  -8.304434418678284E-1   7.549577206373215E-2   4.479839652776718E-2  
 5.036000000000000E7     7.373635470867157E-2   4.181166738271713E-2   5.347100496292114E-1  -8.317031264305115E-1   5.345440506935120E-1  -8.304463028907776E-1   7.509621232748032E-2   4.477798938751221E-2  
 5.038000000000000E7     7.372871786355972E-2   4.172722995281220E-2   5.340812206268311E-1  -8.321785926818848E-1   5.333976745605469E-1  -8.314219117164612E-1   7.420503348112106E-2   4.406614974141121E-2  
 5.040000000000000E7     7.316651940345764E-2   4.143217206001282E-2   5.330743193626404E-1  -8.330194950103760E-1   5.324337482452393E-1  -8.321106433868408E-1   7.368934154510498E-2   4.366458952426910E-2  
 5.042000000000000E7     7.381609082221985E-2   4.131411015987396E-2   5.321379899978638E-1  -8.335716128349304E-1   5.314813852310181E-1  -8.327419757843018E-1   7.314711809158325E-2   4.300112277269363E-2  
 5.044000000000000E7     7.220203429460526E-2   4.053578153252602E-2   5.310727357864380E-1  -8.343651294708252E-1   5.304936170578003E-1  -8.334679007530212E-1   7.330873608589172E-2   4.305535927414894E-2  
 5.046000000000000E7     7.185546308755875E-2   4.063221067190170E-2   5.300395488739014E-1  -8.347082734107971E-1   5.298582911491394E-1  -8.343676924705505E-1   7.180967926979065E-2   4.279582202434540E-2  
 5.048000000000000E7     7.120788097381592E-2   4.025560989975929E-2   5.289842486381531E-1  -8.352735638618469E-1   5.288487076759338E-1  -8.351519107818604E-1   7.224190235137940E-2   4.232252389192581E-2  
 5.050000000000000E7     7.086457312107086E-2   3.966310992836952E-2   5.282386541366577E-1  -8.360410928726196E-1   5.276719927787781E-1  -8.354172706604004E-1   7.150197029113770E-2   4.095112532377243E-2  
 5.052000000000000E7     7.002776116132736E-2   3.810266777873039E-2   5.271826982498169E-1  -8.369876146316528E-1   5.268949866294861E-1  -8.359275460243225E-1   7.006192207336426E-2   4.095159098505974E-2  
 5.054000000000000E7     6.940902769565582E-2   3.816978633403778E-2   5.262513160705566E-1  -8.376483321189880E-1   5.260925292968750E-1  -8.368704319000244E-1   7.045298069715500E-2   4.039120301604271E-2  
 5.056000000000000E7     6.867162883281708E-2   3.810670226812363E-2   5.254693031311035E-1  -8.381327986717224E-1   5.247783064842224E-1  -8.376013636589050E-1   6.981907039880753E-2   3.939414769411087E-2  
 5.058000000000000E7     6.802676618099213E-2   3.716757148504257E-2   5.243209004402161E-1  -8.387511968612671E-1   5.240764617919922E-1  -8.380330801010132E-1   6.866525113582611E-2   3.907265141606331E-2  
 5.060000000000000E7     6.766172498464584E-2   3.704989701509476E-2   5.233366489410400E-1  -8.396134972572327E-1   5.229369997978210E-1  -8.391017913818359E-1   6.823106855154038E-2   3.899952024221420E-2  
 5.062000000000000E7     6.709587574005127E-2   3.636042028665543E-2   5.224083065986633E-1  -8.403780460357666E-1   5.221506953239441E-1  -8.393123149871826E-1   6.717006862163544E-2   3.826272487640381E-2  
 5.064000000000000E7     6.633787602186203E-2   3.597502410411835E-2   5.216263532638550E-1  -8.405560255050659E-1   5.209248065948486E-1  -8.403038978576660E-1   6.686273962259293E-2   3.760796040296555E-2  
 5.066000000000000E7     6.573994457721710E-2   3.562116622924805E-2   5.206487178802490E-1  -8.417822122573853E-1   5.199726819992065E-1  -8.406263589859009E-1   6.655025482177734E-2   3.783977031707764E-2  
 5.068000000000000E7     6.501550227403641E-2   3.527051955461502E-2   5.196548700332642E-1  -8.420721888542175E-1   5.192422270774841E-1  -8.414930105209351E-1   6.568456441164017E-2   3.722829371690750E-2  
 5.070000000000000E7     6.448499113321304E-2   3.455357998609543E-2   5.188047289848328E-1  -8.425102829933167E-1   5.181308984756470E-1  -8.423033356666565E-1   6.537179648876190E-2   3.620162233710289E-2  
 5.072000000000000E7     6.337110698223114E-2   3.351335972547531E-2   5.178724527359009E-1  -8.437228202819824E-1   5.174123048782349E-1  -8.425254225730896E-1   6.481003761291504E-2   3.616504743695259E-2  
 5.074000000000000E7     6.344667822122574E-2   3.334219753742218E-2   5.166134238243103E-1  -8.442177176475525E-1   5.165047049522400E-1  -8.430743813514710E-1   6.437584757804871E-2   3.611966967582703E-2  
 5.076000000000000E7     6.195683032274246E-2   3.344462811946869E-2   5.158292651176453E-1  -8.446280360221863E-1   5.154895186424255E-1  -8.441438674926758E-1   6.393154710531235E-2   3.567629307508469E-2  
 5.078000000000000E7     6.227141618728638E-2   3.253176808357239E-2   5.149218440055847E-1  -8.452185392379761E-1   5.146602988243103E-1  -8.448583483695984E-1   6.196083128452301E-2   3.430835157632828E-2  
 5.080000000000000E7     6.117162480950356E-2   3.185848891735077E-2   5.141956806182861E-1  -8.458642363548279E-1   5.132720470428467E-1  -8.453558683395386E-1   6.158129870891571E-2   3.383043408393860E-2  
 5.082000000000000E7     6.094955280423164E-2   3.151128441095352E-2   5.131379961967468E-1  -8.465044498443604E-1   5.123675465583801E-1  -8.461279273033142E-1   6.202404573559761E-2   3.392673283815384E-2  
 5.084000000000000E7     6.041913479566574E-2   3.154868632555008E-2   5.121609568595886E-1  -8.472845554351807E-1   5.114150047302246E-1  -8.466570973396301E-1   6.146391853690147E-2   3.359029442071915E-2  
 5.086000000000000E7     6.018328666687012E-2   3.047262132167816E-2   5.112664699554443E-1  -8.479423522949219E-1   5.105233192443848E-1  -8.471933603286743E-1   6.108690425753593E-2   3.274659812450409E-2  
 5.088000000000000E7     5.943513661623001E-2   3.029285371303558E-2   5.098806619644165E-1  -8.485969305038452E-1   5.098290443420410E-1  -8.476572632789612E-1   6.038087606430054E-2   3.238253295421600E-2  
 5.090000000000000E7     5.918932333588600E-2   3.006639331579208E-2   5.092540383338928E-1  -8.490488529205322E-1   5.085313916206360E-1  -8.484150767326355E-1   5.952624231576920E-2   3.181861340999603E-2  
 5.092000000000000E7     5.810187011957169E-2   3.010124713182449E-2   5.080147981643677E-1  -8.498352766036987E-1   5.078176856040955E-1  -8.491610884666443E-1   5.849326401948929E-2   3.106837719678879E-2  
 5.094000000000000E7     5.765022337436676E-2   2.911216020584106E-2   5.073817372322083E-1  -8.504910469055176E-1   5.067547559738159E-1  -8.500785827636719E-1   5.798051878809929E-2   3.086273372173309E-2  
 5.096000000000000E7     5.653749033808708E-2   2.814335376024246E-2   5.062298774719238E-1  -8.509657382965088E-1   5.056951045989990E-1  -8.504108190536499E-1   5.769727379083633E-2   3.063183277845383E-2  
 5.098000000000000E7     5.619732290506363E-2   2.811089158058167E-2   5.050352215766907E-1  -8.518642187118530E-1   5.048964619636536E-1  -8.509619235992432E-1   5.669432878494263E-2   3.029764443635941E-2  
 5.100000000000000E7     5.568536370992661E-2   2.757105231285095E-2   5.040674805641174E-1  -8.524367809295654E-1   5.035580992698669E-1  -8.517193198204041E-1   5.654789134860039E-2   2.992091327905655E-2  
 5.102000000000000E7     5.476383864879608E-2   2.706957608461380E-2   5.033333301544190E-1  -8.529850840568543E-1   5.026599168777466E-1  -8.523011207580566E-1   5.603278800845146E-2   2.856970578432083E-2  
 5.104000000000000E7     5.462480336427689E-2   2.620606124401093E-2   5.023552775382996E-1  -8.537307381629944E-1   5.016258955001831E-1  -8.528320193290710E-1   5.475459247827530E-2   2.928960323333740E-2  
 5.106000000000000E7     5.410713702440262E-2   2.678094804286957E-2   5.011346936225891E-1  -8.542745709419251E-1   5.006215572357178E-1  -8.535705804824829E-1   5.553750321269035E-2   2.885089814662933E-2  
 5.108000000000000E7     5.357344076037407E-2   2.588142454624176E-2   5.001854300498962E-1  -8.549829125404358E-1   4.997228682041168E-1  -8.540483713150024E-1   5.432224646210671E-2   2.801599353551865E-2  
 5.110000000000000E7     5.326219275593758E-2   2.605792880058289E-2   4.990574717521668E-1  -8.557437062263489E-1   4.986863136291504E-1  -8.547426462173462E-1   5.332538485527039E-2   2.767117321491242E-2  
 5.112000000000000E7     5.256889760494232E-2   2.480749040842056E-2   4.984950125217438E-1  -8.558552861213684E-1   4.977599382400513E-1  -8.554520010948181E-1   5.260356515645981E-2   2.721036970615387E-2  
 5.114000000000000E7     5.117084830999374E-2   2.455408126115799E-2   4.973161220550537E-1  -8.569883108139038E-1   4.969018101692200E-1  -8.558166027069092E-1   5.210939049720764E-2   2.682907879352570E-2  
 5.116000000000000E7     5.110277235507965E-2   2.477910369634628E-2   4.963765740394592E-1  -8.573934435844421E-1   4.958841502666473E-1  -8.565496802330017E-1   5.167419463396072E-2   2.584662288427353E-2  
 5.118000000000000E7     5.035497248172760E-2   2.381152659654617E-2   4.954448640346527E-1  -8.578426837921143E-1   4.949336051940918E-1  -8.570886850357056E-1   5.135014280676842E-2   2.545547485351563E-2  
 5.120000000000000E7     4.962943866848946E-2   2.403932064771652E-2   4.944134354591370E-1  -8.586810231208801E-1   4.939905703067780E-1  -8.578551411628723E-1   5.099399015307427E-2   2.573835849761963E-2  
 5.122000000000000E7     4.900665208697319E-2   2.288180589675903E-2   4.935930967330933E-1  -8.593595027923584E-1   4.928488433361054E-1  -8.581500053405762E-1   4.976612329483032E-2   2.512009441852570E-2  
 5.124000000000000E7     4.857380315661430E-2   2.282886207103729E-2   4.922746121883392E-1  -8.599300980567932E-1   4.919899404048920E-1  -8.589686155319214E-1   4.937008395791054E-2   2.470391243696213E-2  
 5.126000000000000E7     4.819338396191597E-2   2.222640067338944E-2   4.913552403450012E-1  -8.604590892791748E-1   4.909965991973877E-1  -8.595606684684753E-1   4.932831227779388E-2   2.393553406000137E-2  
 5.128000000000000E7     4.767524078488350E-2   2.204443514347076E-2   4.904164671897888E-1  -8.610366582870483E-1   4.899797141551971E-1  -8.602420091629028E-1   4.785029590129852E-2   2.363252639770508E-2  
 5.130000000000000E7     4.735167697072029E-2   2.192624658346176E-2   4.892353713512421E-1  -8.616129755973816E-1   4.890952110290527E-1  -8.608592748641968E-1   4.740871116518974E-2   2.333053201436997E-2  
 5.132000000000000E7     4.659707099199295E-2   2.119418233633041E-2   4.884694218635559E-1  -8.623098134994507E-1   4.878817796707153E-1  -8.612647056579590E-1   4.706092923879623E-2   2.314202487468720E-2  
 5.134000000000000E7     4.526881501078606E-2   1.974623650312424E-2   4.873941838741303E-1  -8.629571795463562E-1   4.870191216468811E-1  -8.617615103721619E-1   4.647012427449226E-2   2.236092090606690E-2  
 5.136000000000000E7     4.458143189549446E-2   2.016733586788178E-2   4.863638877868652E-1  -8.634464740753174E-1   4.858988523483276E-1  -8.628355264663696E-1   4.536235705018044E-2   2.304736524820328E-2  
 5.138000000000000E7     4.393778368830681E-2   1.913508772850037E-2   4.857373833656311E-1  -8.642780184745789E-1   4.849763810634613E-1  -8.631544709205627E-1   4.547968134284020E-2   2.201757580041885E-2  
 5.140000000000000E7     4.272564128041267E-2   1.870647072792053E-2   4.845662415027618E-1  -8.646709918975830E-1   4.839927554130554E-1  -8.639160394668579E-1   4.462769255042076E-2   2.168188989162445E-2  
 5.142000000000000E7     4.289858788251877E-2   1.938830316066742E-2   4.835652709007263E-1  -8.652085065841675E-1   4.829491376876831E-1  -8.646863102912903E-1   4.366207495331764E-2   2.050177752971649E-2  
 5.144000000000000E7     4.201719537377358E-2   1.825209707021713E-2   4.823198020458221E-1  -8.658480048179627E-1   4.819969832897186E-1  -8.649317026138306E-1   4.316855594515801E-2   2.056561410427094E-2  
 5.146000000000000E7     4.149904847145081E-2   1.756409555673599E-2   4.814147353172302E-1  -8.667703270912170E-1   4.813032150268555E-1  -8.652842044830322E-1   4.289441928267479E-2   2.006252855062485E-2  
 5.148000000000000E7     4.142335057258606E-2   1.756365597248077E-2   4.804344773292542E-1  -8.669574856758118E-1   4.800257384777069E-1  -8.660594820976257E-1   4.265685006976128E-2   1.960486173629761E-2  
 5.150000000000000E7     3.971717879176140E-2   1.700248569250107E-2   4.794005155563355E-1  -8.675429224967957E-1   4.793610572814941E-1  -8.668700456619263E-1   4.130915924906731E-2   1.908596605062485E-2  
 5.152000000000000E7     3.983941674232483E-2   1.694400608539581E-2   4.785760045051575E-1  -8.683212399482727E-1   4.779943823814392E-1  -8.675346374511719E-1   4.043661803007126E-2   1.863558590412140E-2  
 5.154000000000000E7     3.960269317030907E-2   1.672372221946716E-2   4.775919914245606E-1  -8.684161901473999E-1   4.770512580871582E-1  -8.682541847229004E-1   3.956386819481850E-2   1.855140924453735E-2  
 5.156000000000000E7     3.870660439133644E-2   1.569111645221710E-2   4.766627550125122E-1  -8.695086836814880E-1   4.759827256202698E-1  -8.682875633239746E-1   3.831598535180092E-2   1.813282817602158E-2  
 5.158000000000000E7     3.812971711158752E-2   1.586522161960602E-2   4.755037724971771E-1  -8.699893951416016E-1   4.749818742275238E-1  -8.690900802612305E-1   3.847733512520790E-2   1.735366880893707E-2  
 5.160000000000000E7     3.709910064935684E-2   1.503226161003113E-2   4.744225740432739E-1  -8.707836866378784E-1   4.741656482219696E-1  -8.696841001510620E-1   3.872403502464294E-2   1.677552610635757E-2  
 5.162000000000000E7     3.629688546061516E-2   1.480000466108322E-2   4.734986126422882E-1  -8.712400197982788E-1   4.729343354701996E-1  -8.700886368751526E-1   3.713418915867806E-2   1.685869693756104E-2  
 5.164000000000000E7     3.582019358873367E-2   1.422747969627380E-2   4.723819494247437E-1  -8.719274401664734E-1   4.722956418991089E-1  -8.707593679428101E-1   3.678443282842636E-2   1.624902337789536E-2  
 5.166000000000000E7     3.526579961180687E-2   1.413109898567200E-2   4.712818861007690E-1  -8.722490668296814E-1   4.712325930595398E-1  -8.713743686676025E-1   3.617144376039505E-2   1.541701704263687E-2  
 5.168000000000000E7     3.519311919808388E-2   1.339155435562134E-2   4.703418016433716E-1  -8.730090260505676E-1   4.700194597244263E-1  -8.718170523643494E-1   3.573482856154442E-2   1.614120602607727E-2  
 5.170000000000000E7     3.386594355106354E-2   1.301610469818115E-2   4.693707525730133E-1  -8.735131621360779E-1   4.688764214515686E-1  -8.725180625915527E-1   3.487370908260346E-2   1.544118672609329E-2  
 5.172000000000000E7     3.323506191372871E-2   1.312761753797531E-2   4.678428769111633E-1  -8.740367293357849E-1   4.682519435882568E-1  -8.731133937835693E-1   3.492658585309982E-2   1.472367346286774E-2  
 5.174000000000000E7     3.300308808684349E-2   1.195154339075089E-2   4.675321280956268E-1  -8.744962215423584E-1   4.668167531490326E-1  -8.739128112792969E-1   3.391266614198685E-2   1.424022763967514E-2  
 5.176000000000000E7     3.204802423715591E-2   1.158238947391510E-2   4.666224718093872E-1  -8.751611113548279E-1   4.656468927860260E-1  -8.744140863418579E-1   3.248425573110580E-2   1.391483098268509E-2  
 5.178000000000000E7     3.165672346949577E-2   1.178200542926788E-2   4.652413129806519E-1  -8.757337927818298E-1   4.650052785873413E-1  -8.747257590293884E-1   3.228965029120445E-2   1.319962739944458E-2  
 5.180000000000000E7     3.081589005887508E-2   1.097250729799271E-2   4.643046855926514E-1  -8.759589791297913E-1   4.639577269554138E-1  -8.756904006004334E-1   3.217174112796783E-2   1.292549818754196E-2  
 5.182000000000000E7     3.048867173492909E-2   1.115124672651291E-2   4.632197618484497E-1  -8.770576119422913E-1   4.631654024124146E-1  -8.759018182754517E-1   3.116614557802677E-2   1.259934902191162E-2  
 5.184000000000000E7     3.027054294943810E-2   1.031304895877838E-2   4.622671306133270E-1  -8.774824738502502E-1   4.620365798473358E-1  -8.763494491577148E-1   3.057719767093658E-2   1.231712102890015E-2  
 5.186000000000000E7     2.942143753170967E-2   1.067956537008286E-2   4.613554179668427E-1  -8.779205679893494E-1   4.607017338275909E-1  -8.770651817321777E-1   3.010167926549912E-2   1.233340054750443E-2  
 5.188000000000000E7     2.853140234947205E-2   9.710617363452911E-3   4.600735306739807E-1  -8.786551952362061E-1   4.600120782852173E-1  -8.777078986167908E-1   2.967161685228348E-2   1.171517372131348E-2  
 5.190000000000000E7     2.808607928454876E-2   9.447976946830750E-3   4.591525197029114E-1  -8.792122006416321E-1   4.588254988193512E-1  -8.782634735107422E-1   2.945303544402123E-2   1.142375916242600E-2  
 5.192000000000000E7     2.731520310044289E-2   8.922316133975983E-3   4.582418799400330E-1  -8.796211481094360E-1   4.578471183776856E-1  -8.789654970169067E-1   2.851459383964539E-2   1.132317632436752E-2  
 5.194000000000000E7     2.661063522100449E-2   8.064813911914825E-3   4.570643305778503E-1  -8.802216649055481E-1   4.567311704158783E-1  -8.792545795440674E-1   2.777818590402603E-2   1.067230105400085E-2  
 5.196000000000000E7     2.507585845887661E-2   8.544802665710449E-3   4.561671614646912E-1  -8.808625936508179E-1   4.558642506599426E-1  -8.796720504760742E-1   2.699933759868145E-2   1.082007586956024E-2  
 5.198000000000000E7     2.461598068475723E-2   7.621310651302338E-3   4.553491175174713E-1  -8.811146020889282E-1   4.548157751560211E-1  -8.807965517044067E-1   2.573871426284313E-2   9.750179946422577E-3  
 5.200000000000000E7     2.397364377975464E-2   8.135512471199036E-3   4.539416134357452E-1  -8.817955851554871E-1   4.537746608257294E-1  -8.808397650718689E-1   2.562578581273556E-2   9.417444467544556E-3  
 5.202000000000000E7     2.414375729858875E-2   6.785191595554352E-3   4.531738460063934E-1  -8.823655843734741E-1   4.527932107448578E-1  -8.813517689704895E-1   2.533399686217308E-2   9.049229323863983E-3  
 5.204000000000000E7     2.274904772639275E-2   6.736196577548981E-3   4.519874453544617E-1  -8.828377723693848E-1   4.516177773475647E-1  -8.822039365768433E-1   2.430273592472076E-2   9.162604808807373E-3  
 5.206000000000000E7     2.264155820012093E-2   6.180115044116974E-3   4.509514868259430E-1  -8.833273649215698E-1   4.508572816848755E-1  -8.825101256370544E-1   2.353560552001000E-2   8.190728724002838E-3  
 5.208000000000000E7     2.231659367680550E-2   5.846500396728516E-3   4.500631093978882E-1  -8.840898871421814E-1   4.496660232543945E-1  -8.830080032348633E-1   2.291770279407501E-2   8.364364504814148E-3  
 5.210000000000000E7     2.185810729861260E-2   5.890436470508575E-3   4.492362439632416E-1  -8.848773241043091E-1   4.485042393207550E-1  -8.833907842636108E-1   2.275223657488823E-2   7.944107055664063E-3  
 5.212000000000000E7     2.071895822882652E-2   5.947567522525787E-3   4.481419026851654E-1  -8.850473761558533E-1   4.475546181201935E-1  -8.842560052871704E-1   2.175976336002350E-2   7.260635495185852E-3  
 5.214000000000000E7     1.972840912640095E-2   5.247175693511963E-3   4.471116960048676E-1  -8.857498168945313E-1   4.465001225471497E-1  -8.849559426307678E-1   2.181578800082207E-2   6.941728293895721E-3  
 5.216000000000000E7     1.874476484954357E-2   4.712529480457306E-3   4.460810124874115E-1  -8.859447240829468E-1   4.454061090946198E-1  -8.852794766426086E-1   2.004047855734825E-2   6.615824997425079E-3  
 5.218000000000000E7     1.822748035192490E-2   4.577897489070892E-3   4.448397755622864E-1  -8.864808082580566E-1   4.445496797561646E-1  -8.860692381858826E-1   1.961506903171539E-2   6.294719874858856E-3  
 5.220000000000000E7     1.800985448062420E-2   3.871671855449677E-3   4.438920915126801E-1  -8.871509432792664E-1   4.433537423610687E-1  -8.864312767982483E-1   1.890542358160019E-2   6.027027964591980E-3  
 5.222000000000000E7     1.760431192815304E-2   3.783777356147766E-3   4.427275061607361E-1  -8.879756927490234E-1   4.422793686389923E-1  -8.868287801742554E-1   1.894240453839302E-2   5.953565239906311E-3  
 5.224000000000000E7     1.647541113197804E-2   3.583483397960663E-3   4.419391155242920E-1  -8.882037401199341E-1   4.413242638111115E-1  -8.877267837524414E-1   1.687972992658615E-2   5.443215370178223E-3  
 5.226000000000000E7     1.633109897375107E-2   3.065004944801331E-3   4.405407905578613E-1  -8.888683319091797E-1   4.403856396675110E-1  -8.878197669982910E-1   1.744853705167770E-2   4.725039005279541E-3  
 5.228000000000000E7     1.554604619741440E-2   2.647094428539276E-3   4.395225942134857E-1  -8.891959786415100E-1   4.393909573554993E-1  -8.885435461997986E-1   1.606072857975960E-2   4.435919225215912E-3  
 5.230000000000000E7     1.463802158832550E-2   1.950599253177643E-3   4.385502338409424E-1  -8.899586796760559E-1   4.384859502315521E-1  -8.889678120613098E-1   1.566821895539761E-2   3.911644220352173E-3  
 5.232000000000000E7     1.424378529191017E-2   1.919440925121307E-3   4.377340376377106E-1  -8.901247978210449E-1   4.370848834514618E-1  -8.894764184951782E-1   1.615740917623043E-2   4.037238657474518E-3  
 5.234000000000000E7     1.358375046402216E-2   1.987546682357788E-3   4.367161691188812E-1  -8.905494809150696E-1   4.359652101993561E-1  -8.901481628417969E-1   1.462652720510960E-2   2.997972071170807E-3  
 5.236000000000000E7     1.313170790672302E-2   1.299075782299042E-3   4.354906082153320E-1  -8.916172385215759E-1   4.352613985538483E-1  -8.904448747634888E-1   1.375240460038185E-2   3.585286438465118E-3  
 5.238000000000000E7     1.209871284663677E-2   1.417748630046845E-3   4.344832003116608E-1  -8.918513059616089E-1   4.338932037353516E-1  -8.911125659942627E-1   1.312064472585917E-2   3.134608268737793E-3  
 5.240000000000000E7     1.093898154795170E-2   1.238316297531128E-3   4.335092306137085E-1  -8.923360109329224E-1   4.331220686435700E-1  -8.920029401779175E-1   1.276420149952173E-2   2.109184861183167E-3  
 5.242000000000000E7     1.066044718027115E-2   2.675652503967285E-4   4.320530593395233E-1  -8.927801847457886E-1   4.321999549865723E-1  -8.920580744743347E-1   1.271464489400387E-2   1.915149390697479E-3  
 5.244000000000000E7     1.004929188638926E-2  -1.137703657150269E-4   4.311947226524353E-1  -8.934405446052551E-1   4.310589134693146E-1  -8.923299908638001E-1   1.144405454397202E-2   1.855000853538513E-3  
 5.246000000000000E7     9.997695684432983E-3  -7.112100720405579E-4   4.302448034286499E-1  -8.940770626068115E-1   4.298878908157349E-1  -8.932213187217712E-1   1.063663698732853E-2   1.526370644569397E-3  
 5.248000000000000E7     9.413601830601692E-3  -7.978081703186035E-5   4.294318854808807E-1  -8.945515751838684E-1   4.285640716552734E-1  -8.934803605079651E-1   1.027360372245312E-2   1.293689012527466E-3  
 5.250000000000000E7     8.077787235379219E-3  -1.039452850818634E-3   4.277691543102264E-1  -8.948129415512085E-1   4.280570149421692E-1  -8.942747116088867E-1   9.405325166881084E-3   1.325406134128571E-3  
 5.252000000000000E7     7.440315559506416E-3  -2.076104283332825E-3   4.270904958248138E-1  -8.953838348388672E-1   4.269214868545532E-1  -8.945748209953308E-1   8.330829441547394E-3   4.122108221054077E-4  
 5.254000000000000E7     7.096659392118454E-3  -1.285172998905182E-3   4.261506199836731E-1  -8.957962393760681E-1   4.257093966007233E-1  -8.954062461853027E-1   8.233886212110519E-3   1.161210238933563E-3  
 5.256000000000000E7     5.915220826864243E-3  -2.067685127258301E-3   4.249070882797241E-1  -8.968233466148377E-1   4.245095849037170E-1  -8.957371115684509E-1   7.518237456679344E-3   2.511739730834961E-4  
 5.258000000000000E7     5.262492224574089E-3  -2.202458679676056E-3   4.238978326320648E-1  -8.970059752464294E-1   4.236062467098236E-1  -8.961570262908936E-1   6.110955029726028E-3  -3.854855895042419E-4  
 5.260000000000000E7     4.933360964059830E-3  -3.002151846885681E-3   4.231860637664795E-1  -8.974052071571350E-1   4.223997890949249E-1  -8.968166708946228E-1   6.055584177374840E-3  -6.947219371795654E-4  
 5.262000000000000E7     3.620726987719536E-3  -3.126189112663269E-3   4.220539033412933E-1  -8.980321288108826E-1   4.215444028377533E-1  -8.972142338752747E-1   4.895593971014023E-3  -8.593052625656128E-4  
 5.264000000000000E7     3.708614036440849E-3  -3.211177885532379E-3   4.206267595291138E-1  -8.985120058059692E-1   4.206833243370056E-1  -8.977168202400208E-1   4.998177289962769E-3  -1.334555447101593E-3  
 5.266000000000000E7     2.827992662787437E-3  -3.749683499336243E-3   4.196715652942658E-1  -8.988859057426453E-1   4.195327758789063E-1  -8.981440067291260E-1   4.287032410502434E-3  -1.691654324531555E-3  
 5.268000000000000E7     2.223575487732887E-3  -3.768116235733032E-3   4.188972115516663E-1  -8.992614746093750E-1   4.182102978229523E-1  -8.988482356071472E-1   3.069551661610603E-3  -1.792602241039276E-3  
 5.270000000000000E7     7.730349898338318E-4  -4.286304116249085E-3   4.175420105457306E-1  -9.002267122268677E-1   4.173635244369507E-1  -8.988962173461914E-1   2.463487908244133E-3  -2.155333757400513E-3  
 5.272000000000000E7     6.091035902500153E-4  -4.481591284275055E-3   4.163128137588501E-1  -9.003825783729553E-1   4.163670837879181E-1  -8.996047973632813E-1   2.085713669657707E-3  -2.973966300487518E-3  
 5.274000000000000E7     4.850588738918304E-4  -5.048945546150208E-3   4.154832959175110E-1  -9.010890126228333E-1   4.150618016719818E-1  -8.997528553009033E-1   3.772880882024765E-4  -2.689063549041748E-3  
 5.276000000000000E7    -1.498535275459290E-4  -5.270667374134064E-3   4.145924150943756E-1  -9.014761447906494E-1   4.141100347042084E-1  -9.004335999488831E-1   8.038338273763657E-4  -3.533005714416504E-3  
 5.278000000000000E7    -1.290779560804367E-3  -5.103312432765961E-3   4.134674668312073E-1  -9.018108248710632E-1   4.131052494049072E-1  -9.010515809059143E-1   2.909079194068909E-4  -4.044339060783386E-3  
 5.280000000000000E7    -1.428131014108658E-3  -5.045622587203980E-3   4.123625159263611E-1  -9.024980068206787E-1   4.118818342685700E-1  -9.017004966735840E-1  -1.482788473367691E-3  -2.969428896903992E-3  
 5.282000000000000E7    -2.216994762420654E-3  -6.263867020606995E-3   4.113884866237640E-1  -9.029337167739868E-1   4.109336137771606E-1  -9.022312760353088E-1  -2.045746892690659E-3  -4.056386649608612E-3  
 5.284000000000000E7    -2.638772130012512E-3  -6.576813757419586E-3   4.099836647510529E-1  -9.034772515296936E-1   4.102258384227753E-1  -9.023103713989258E-1  -2.375997602939606E-3  -4.479177296161652E-3  
 5.286000000000000E7    -4.213403910398483E-3  -7.478147745132446E-3   4.092756509780884E-1  -9.037163257598877E-1   4.090010523796082E-1  -9.028429985046387E-1  -2.655807882547379E-3  -4.733026027679443E-3  
 5.288000000000000E7    -4.693761467933655E-3  -6.208285689353943E-3   4.081211090087891E-1  -9.045063257217407E-1   4.075825810432434E-1  -9.034454226493835E-1  -3.523152321577072E-3  -4.707068204879761E-3  
 5.290000000000000E7    -5.968429148197174E-3  -7.714241743087769E-3   4.072988033294678E-1  -9.047390818595886E-1   4.066600203514099E-1  -9.038603901863098E-1  -4.208564758300781E-3  -5.010090768337250E-3  
 5.292000000000000E7    -6.453111767768860E-3  -7.809564471244812E-3   4.058865904808044E-1  -9.051402211189270E-1   4.060505926609039E-1  -9.045298695564270E-1  -5.045197904109955E-3  -5.081072449684143E-3  
 5.294000000000000E7    -6.988238543272018E-3  -7.566466927528381E-3   4.051080644130707E-1  -9.057226777076721E-1   4.046052992343903E-1  -9.046949744224548E-1  -5.761362612247467E-3  -5.267836153507233E-3  
 5.296000000000000E7    -7.487930357456207E-3  -7.855787873268127E-3   4.039767384529114E-1  -9.064558148384094E-1   4.034759700298309E-1  -9.050870537757874E-1  -6.497338414192200E-3  -6.341107189655304E-3  
 5.298000000000000E7    -7.596254348754883E-3  -8.177287876605988E-3   4.028924107551575E-1  -9.068415164947510E-1   4.020769298076630E-1  -9.055994749069214E-1  -6.677489727735519E-3  -6.206199526786804E-3  
 5.300000000000000E7    -8.331526070833206E-3  -8.522376418113709E-3   4.014733135700226E-1  -9.070186614990234E-1   4.015666246414185E-1  -9.062267541885376E-1  -7.613349705934525E-3  -6.489060819149017E-3  
 5.302000000000000E7    -8.291542530059815E-3  -9.231053292751312E-3   4.003576040267944E-1  -9.075199365615845E-1   4.005396068096161E-1  -9.066900014877319E-1  -7.638994604349136E-3  -6.656602025032044E-3  
 5.304000000000000E7    -1.011462509632111E-2  -9.325511753559113E-3   3.994887769222260E-1  -9.082097411155701E-1   3.991485238075256E-1  -9.069070219993591E-1  -9.049750864505768E-3  -7.001444697380066E-3  
 5.306000000000000E7    -1.075171306729317E-2  -9.575068950653076E-3   3.984432518482208E-1  -9.083007574081421E-1   3.984327316284180E-1  -9.074903130531311E-1  -9.950250387191773E-3  -7.163673639297485E-3  
 5.308000000000000E7    -1.249490305781364E-2  -1.115099340677261E-2   3.973173797130585E-1  -9.091764688491821E-1   3.973388671875000E-1  -9.079115986824036E-1  -1.048066467046738E-2  -7.708348333835602E-3  
 5.310000000000000E7    -1.198090985417366E-2  -1.013723760843277E-2   3.967232704162598E-1  -9.096220135688782E-1   3.958206474781036E-1  -9.084021449089050E-1  -1.114044710993767E-2  -8.008584380149841E-3  
 5.312000000000000E7    -1.264165714383125E-2  -9.979814291000366E-3   3.955079019069672E-1  -9.098367094993591E-1   3.950122594833374E-1  -9.089629054069519E-1  -1.151650771498680E-2  -7.920384407043457E-3  
 5.314000000000000E7    -1.378395408391953E-2  -1.015458256006241E-2   3.941755294799805E-1  -9.101425409317017E-1   3.940113782882690E-1  -9.093658924102783E-1  -1.240365207195282E-2  -8.826248347759247E-3  
 5.316000000000000E7    -1.445271074771881E-2  -1.108927279710770E-2   3.931774199008942E-1  -9.106845855712891E-1   3.928647637367249E-1  -9.097741842269898E-1  -1.351719722151756E-2  -9.436994791030884E-3  
 5.318000000000000E7    -1.488058269023895E-2  -1.109469681978226E-2   3.920612931251526E-1  -9.113990664482117E-1   3.916082978248596E-1  -9.103886485099793E-1  -1.397534459829330E-2  -8.433669805526733E-3  
 5.320000000000000E7    -1.588816568255425E-2  -1.186294853687286E-2   3.907291889190674E-1  -9.115176200866699E-1   3.908905982971191E-1  -9.107739925384522E-1  -1.348698139190674E-2  -9.055219590663910E-3  
 5.322000000000000E7    -1.575419306755066E-2  -1.178269833326340E-2   3.900507688522339E-1  -9.119247198104858E-1   3.894596993923187E-1  -9.113177061080933E-1  -1.519512757658958E-2  -9.862951934337616E-3  
 5.324000000000000E7    -1.634138822555542E-2  -1.214196532964706E-2   3.889758288860321E-1  -9.125500917434692E-1   3.886068165302277E-1  -9.115776419639587E-1  -1.529455184936523E-2  -9.727559983730316E-3  
 5.326000000000000E7    -1.705332100391388E-2  -1.241323351860046E-2   3.877642452716827E-1  -9.126978516578674E-1   3.877340853214264E-1  -9.122264981269836E-1  -1.662041246891022E-2  -1.055014133453369E-2  
 5.328000000000000E7    -1.799510791897774E-2  -1.190602779388428E-2   3.867495357990265E-1  -9.135541319847107E-1   3.864547014236450E-1  -9.124228358268738E-1  -1.722820475697517E-2  -1.039361208677292E-2  
 5.330000000000000E7    -1.936722919344902E-2  -1.260501891374588E-2   3.854830265045166E-1  -9.140964746475220E-1   3.856562972068787E-1  -9.129385948181152E-1  -1.721283048391342E-2  -1.037821173667908E-2  
 5.332000000000000E7    -1.947065070271492E-2  -1.331274211406708E-2   3.845854997634888E-1  -9.140886664390564E-1   3.843303024768829E-1  -9.133481979370117E-1  -1.843820512294769E-2  -1.109798252582550E-2  
 5.334000000000000E7    -2.071488648653030E-2  -1.421422511339188E-2   3.835640549659729E-1  -9.146476387977600E-1   3.832472264766693E-1  -9.139173030853272E-1  -1.922649145126343E-2  -1.136583834886551E-2  
 5.336000000000000E7    -2.102060243487358E-2  -1.351217180490494E-2   3.825695812702179E-1  -9.151454567909241E-1   3.818928301334381E-1  -9.140703678131104E-1  -1.986771821975708E-2  -1.162753254175186E-2  
 5.338000000000000E7    -2.203940600156784E-2  -1.331770420074463E-2   3.814131617546082E-1  -9.155104160308838E-1   3.808779716491699E-1  -9.147270321846008E-1  -2.057853713631630E-2  -1.187692582607269E-2  
 5.340000000000000E7    -2.289683744311333E-2  -1.445648819208145E-2   3.801862895488739E-1  -9.160693287849426E-1   3.800944685935974E-1  -9.150305390357971E-1  -2.125708758831024E-2  -1.191939413547516E-2  
 5.342000000000000E7    -2.279109135270119E-2  -1.451011747121811E-2   3.790361285209656E-1  -9.165202379226685E-1   3.787480592727661E-1  -9.154632687568665E-1  -2.206076681613922E-2  -1.210735738277435E-2  
 5.344000000000000E7    -2.359135448932648E-2  -1.490037143230438E-2   3.779945075511932E-1  -9.166534543037415E-1   3.777781128883362E-1  -9.161272644996643E-1  -2.287578582763672E-2  -1.285279542207718E-2  
 5.346000000000000E7    -2.430649101734161E-2  -1.490302383899689E-2   3.768700063228607E-1  -9.174209237098694E-1   3.768928945064545E-1  -9.162976741790772E-1  -2.328333258628845E-2  -1.335678994655609E-2  
 5.348000000000000E7    -2.581837028264999E-2  -1.487234234809876E-2   3.759421706199646E-1  -9.174648523330689E-1   3.755764365196228E-1  -9.170318245887756E-1  -2.454480528831482E-2  -1.259434968233109E-2  
 5.350000000000000E7    -2.638226747512817E-2  -1.470896601676941E-2   3.750492930412293E-1  -9.181937575340271E-1   3.744506537914276E-1  -9.171916842460632E-1  -2.508016675710678E-2  -1.368313282728195E-2  
 5.352000000000000E7    -2.671162039041519E-2  -1.515586674213409E-2   3.737432360649109E-1  -9.186567068099976E-1   3.735007047653198E-1  -9.176011681556702E-1  -2.544235065579414E-2  -1.343706995248795E-2  
 5.354000000000000E7    -2.714306488633156E-2  -1.569523662328720E-2   3.724943697452545E-1  -9.188894033432007E-1   3.723546862602234E-1  -9.179606437683106E-1  -2.635242044925690E-2  -1.436492800712585E-2  
 5.356000000000000E7    -2.787947654724121E-2  -1.628818362951279E-2   3.715723454952240E-1  -9.194656610488892E-1   3.712540268898010E-1  -9.184046983718872E-1  -2.693983167409897E-2  -1.405054330825806E-2  
 5.358000000000000E7    -2.865494787693024E-2  -1.576210558414459E-2   3.706030249595642E-1  -9.197126626968384E-1   3.702454566955566E-1  -9.187870621681213E-1  -2.757103741168976E-2  -1.414664834737778E-2  
 5.360000000000000E7    -2.947649359703064E-2  -1.628463715314865E-2   3.692527115345001E-1  -9.203479290008545E-1   3.690861463546753E-1  -9.194062352180481E-1  -2.830953150987625E-2  -1.473697274923325E-2  
 5.362000000000000E7    -3.001513704657555E-2  -1.619651913642883E-2   3.680858314037323E-1  -9.206953048706055E-1   3.680643737316132E-1  -9.196267724037170E-1  -2.877743914723396E-2  -1.514910161495209E-2  
 5.364000000000000E7    -3.069123998284340E-2  -1.768042892217636E-2   3.670425713062286E-1  -9.212777614593506E-1   3.670049011707306E-1  -9.198925495147705E-1  -2.954895049333572E-2  -1.432126015424728E-2  
 5.366000000000000E7    -3.159781172871590E-2  -1.671467721462250E-2   3.660198152065277E-1  -9.214473962783814E-1   3.657600581645966E-1  -9.204828739166260E-1  -2.975661307573319E-2  -1.490238308906555E-2  
 5.368000000000000E7    -3.218539804220200E-2  -1.738049089908600E-2   3.652649819850922E-1  -9.217650294303894E-1   3.646814823150635E-1  -9.209436178207398E-1  -3.130102157592773E-2  -1.505351066589356E-2  
 5.370000000000000E7    -3.269320353865624E-2  -1.770237088203430E-2   3.637948632240295E-1  -9.221872091293335E-1   3.634655177593231E-1  -9.212005734443665E-1  -3.204568475484848E-2  -1.566338539123535E-2  
 5.372000000000000E7    -3.374259173870087E-2  -1.703985035419464E-2   3.625617027282715E-1  -9.226011633872986E-1   3.625850379467011E-1  -9.216704964637756E-1  -3.221820667386055E-2  -1.620544493198395E-2  
 5.374000000000000E7    -3.485504537820816E-2  -1.770866662263870E-2   3.614937663078308E-1  -9.231348633766174E-1   3.615949451923370E-1  -9.217726588249207E-1  -3.299825638532639E-2  -1.653067022562027E-2  
 5.376000000000000E7    -3.547180444002152E-2  -1.815832406282425E-2   3.607658445835114E-1  -9.233847856521606E-1   3.602924048900604E-1  -9.223678112030029E-1  -3.389172255992889E-2  -1.547493040561676E-2  
 5.378000000000000E7    -3.608148545026779E-2  -1.821471005678177E-2   3.596492707729340E-1  -9.237782955169678E-1   3.591488003730774E-1  -9.229287505149841E-1  -3.490888327360153E-2  -1.697000861167908E-2  
 5.380000000000000E7    -3.652344644069672E-2  -1.863911747932434E-2   3.583165705204010E-1  -9.241425991058350E-1   3.582608103752136E-1  -9.230872988700867E-1  -3.539067879319191E-2  -1.667972654104233E-2  
 5.382000000000000E7    -3.793089091777802E-2  -1.885572075843811E-2   3.570443689823151E-1  -9.246395230293274E-1   3.572353422641754E-1  -9.235754013061523E-1  -3.589390218257904E-2  -1.677863299846649E-2  
 5.384000000000000E7    -3.855286911129952E-2  -1.899763941764832E-2   3.561876416206360E-1  -9.250015020370483E-1   3.561037778854370E-1  -9.239097833633423E-1  -3.652107715606690E-2  -1.699931919574738E-2  
 5.386000000000000E7    -3.879507631063461E-2  -1.913481950759888E-2   3.550089299678803E-1  -9.251936078071594E-1   3.550775051116943E-1  -9.244945049285889E-1  -3.767861425876617E-2  -1.765439659357071E-2  
 5.388000000000000E7    -3.990283980965614E-2  -1.939363032579422E-2   3.541891574859619E-1  -9.257984757423401E-1   3.536044061183929E-1  -9.248312115669251E-1  -3.778851777315140E-2  -1.701057702302933E-2  
 5.390000000000000E7    -4.047370702028275E-2  -2.021243423223496E-2   3.529783189296722E-1  -9.260711669921875E-1   3.525988459587097E-1  -9.253416061401367E-1  -3.930245712399483E-2  -1.751016825437546E-2  
 5.392000000000000E7    -4.142221808433533E-2  -1.989870518445969E-2   3.520216643810272E-1  -9.265456795692444E-1   3.516177535057068E-1  -9.258387684822083E-1  -3.936084732413292E-2  -1.772130280733109E-2  
 5.394000000000000E7    -4.183769226074219E-2  -1.986322551965714E-2   3.505883812904358E-1  -9.266921877861023E-1   3.506616652011871E-1  -9.260799288749695E-1  -3.996830433607101E-2  -1.852311193943024E-2  
 5.396000000000000E7    -4.254151135683060E-2  -1.990186423063278E-2   3.497231006622315E-1  -9.274194836616516E-1   3.495492637157440E-1  -9.264042973518372E-1  -4.103429615497589E-2  -1.839478313922882E-2  
 5.398000000000000E7    -4.322966188192368E-2  -2.061242610216141E-2   3.482537567615509E-1  -9.275194406509399E-1   3.485893905162811E-1  -9.268534779548645E-1  -4.160366952419281E-2  -1.859447360038757E-2  
 5.400000000000000E7    -4.401136189699173E-2  -2.054610848426819E-2   3.474759161472321E-1  -9.278536438941956E-1   3.474279642105103E-1  -9.270191192626953E-1  -4.196474701166153E-2  -1.891172677278519E-2  
 5.402000000000000E7    -4.450371861457825E-2  -2.159637212753296E-2   3.462593257427216E-1  -9.283817410469055E-1   3.462770581245422E-1  -9.273489117622376E-1  -4.232145845890045E-2  -1.917961984872818E-2  
 5.404000000000000E7    -4.489503800868988E-2  -2.129566669464111E-2   3.452042937278748E-1  -9.290903806686401E-1   3.451251685619354E-1  -9.274705648422241E-1  -4.376141354441643E-2  -1.902480423450470E-2  
 5.406000000000000E7    -4.586981236934662E-2  -2.093208581209183E-2   3.441751003265381E-1  -9.290580749511719E-1   3.440403640270233E-1  -9.282571077346802E-1  -4.436903446912766E-2  -1.939421147108078E-2  
 5.408000000000000E7    -4.622190445661545E-2  -2.180676907300949E-2   3.432899713516235E-1  -9.295262098312378E-1   3.425627052783966E-1  -9.285985231399536E-1  -4.497198015451431E-2  -1.998982578516007E-2  
 5.410000000000000E7    -4.723995923995972E-2  -2.134034037590027E-2   3.420494198799133E-1  -9.301856756210327E-1   3.417779207229614E-1  -9.289402961730957E-1  -4.605696350336075E-2  -2.004346251487732E-2  
 5.412000000000000E7    -4.786407202482224E-2  -2.214081585407257E-2   3.408471643924713E-1  -9.303010702133179E-1   3.405674993991852E-1  -9.290432929992676E-1  -4.641237854957581E-2  -2.030197530984879E-2  
 5.414000000000000E7    -4.885024577379227E-2  -2.156177163124085E-2   3.396404087543488E-1  -9.305580258369446E-1   3.395262360572815E-1  -9.297544360160828E-1  -4.730439931154251E-2  -2.067790925502777E-2  
 5.416000000000000E7    -4.979719221591950E-2  -2.265229821205139E-2   3.384306430816650E-1  -9.309227466583252E-1   3.383256494998932E-1  -9.298461675643921E-1  -4.786520451307297E-2  -2.061745524406433E-2  
 5.418000000000000E7    -5.031863600015640E-2  -2.219144999980927E-2   3.375764489173889E-1  -9.310664534568787E-1   3.373050689697266E-1  -9.303564429283142E-1  -4.879890382289887E-2  -2.113898843526840E-2  
 5.420000000000000E7    -5.091699957847595E-2  -2.212268114089966E-2   3.362309038639069E-1  -9.318175911903381E-1   3.364189267158508E-1  -9.306756258010864E-1  -4.998368769884110E-2  -2.096039056777954E-2  
 5.422000000000000E7    -5.155703425407410E-2  -2.219917625188828E-2   3.356179296970367E-1  -9.319645166397095E-1   3.349313735961914E-1  -9.311778545379639E-1  -5.005194991827011E-2  -2.129112184047699E-2  
 5.424000000000000E7    -5.212563276290894E-2  -2.266332507133484E-2   3.343201279640198E-1  -9.323056936264038E-1   3.337998986244202E-1  -9.315066933631897E-1  -5.056936293840408E-2  -2.152188867330551E-2  
 5.426000000000000E7    -5.307672917842865E-2  -2.336172759532929E-2   3.329934775829315E-1  -9.329617023468018E-1   3.327879309654236E-1  -9.316967129707336E-1  -5.169641971588135E-2  -2.149894088506699E-2  
 5.428000000000000E7    -5.375699698925018E-2  -2.302446216344833E-2   3.319402337074280E-1  -9.331260323524475E-1   3.315805196762085E-1  -9.322280287742615E-1  -5.242880433797836E-2  -2.133047580718994E-2  
 5.430000000000000E7    -5.480410158634186E-2  -2.323558181524277E-2   3.306898772716522E-1  -9.334468841552734E-1   3.308188021183014E-1  -9.325270652770996E-1  -5.302494019269943E-2  -2.220338582992554E-2  
 5.432000000000000E7    -5.509803444147110E-2  -2.386911213397980E-2   3.299743533134460E-1  -9.339303970336914E-1   3.294159173965454E-1  -9.330168962478638E-1  -5.372045189142227E-2  -2.171447873115540E-2  
 5.434000000000000E7    -5.632357299327850E-2  -2.442543953657150E-2   3.288394510746002E-1  -9.340903759002686E-1   3.283543586730957E-1  -9.332332611083984E-1  -5.481669306755066E-2  -2.145513147115707E-2  
 5.436000000000000E7    -5.751532316207886E-2  -2.457367628812790E-2   3.275676369667053E-1  -9.342038631439209E-1   3.272555768489838E-1  -9.335326552391052E-1  -5.492011457681656E-2  -2.261338382959366E-2  
 5.438000000000000E7    -5.723786354064941E-2  -2.426785230636597E-2   3.262225389480591E-1  -9.349740147590637E-1   3.262447118759155E-1  -9.336079359054565E-1  -5.565540492534638E-2  -2.245362102985382E-2  
 5.440000000000000E7    -5.749147385358810E-2  -2.423663437366486E-2   3.252376019954681E-1  -9.352840185165405E-1   3.249453902244568E-1  -9.343556761741638E-1  -5.665419995784760E-2  -2.289504557847977E-2  
 5.442000000000000E7    -5.906052142381668E-2  -2.468150109052658E-2   3.240036666393280E-1  -9.353019595146179E-1   3.240535557270050E-1  -9.344913363456726E-1  -5.760922282934189E-2  -2.306313067674637E-2  
 5.444000000000000E7    -5.955958366394043E-2  -2.507153153419495E-2   3.230041861534119E-1  -9.359096884727478E-1   3.229126930236816E-1  -9.347625374794006E-1  -5.809833109378815E-2  -2.278035134077072E-2  
 5.446000000000000E7    -6.064116954803467E-2  -2.540676295757294E-2   3.218600451946259E-1  -9.360440373420715E-1   3.217675387859345E-1  -9.351397156715393E-1  -5.895795673131943E-2  -2.393443882465363E-2  
 5.448000000000000E7    -6.153433024883270E-2  -2.508512884378433E-2   3.209037780761719E-1  -9.362314939498901E-1   3.204857409000397E-1  -9.354774951934815E-1  -5.946706235408783E-2  -2.358825504779816E-2  
 5.450000000000000E7    -6.120891124010086E-2  -2.506306767463684E-2   3.196127712726593E-1  -9.370707869529724E-1   3.195799887180328E-1  -9.358093738555908E-1  -6.034339964389801E-2  -2.362859249114990E-2  
 5.452000000000000E7    -6.203845143318176E-2  -2.501709014177322E-2   3.183589577674866E-1  -9.371623992919922E-1   3.186833560466766E-1  -9.359401464462280E-1  -6.131597608327866E-2  -2.329955250024796E-2  
 5.454000000000000E7    -6.245346367359161E-2  -2.563544362783432E-2   3.177537918090820E-1  -9.375376105308533E-1   3.171729445457459E-1  -9.364723563194275E-1  -6.187210232019424E-2  -2.394539862871170E-2  
 5.456000000000000E7    -6.391146034002304E-2  -2.543897926807404E-2   3.163047134876251E-1  -9.377270936965942E-1   3.163343667984009E-1  -9.368510842323303E-1  -6.262268871068955E-2  -2.353285253047943E-2  
 5.458000000000000E7    -6.386318057775497E-2  -2.572406083345413E-2   3.154303431510925E-1  -9.383704066276550E-1   3.150808811187744E-1  -9.370040893554688E-1  -6.296413391828537E-2  -2.356455475091934E-2  
 5.460000000000000E7    -6.539429724216461E-2  -2.627210319042206E-2   3.139138519763947E-1  -9.382075071334839E-1   3.141309618949890E-1  -9.375173449516296E-1  -6.306876242160797E-2  -2.410271018743515E-2  
 5.462000000000000E7    -6.578400731086731E-2  -2.595154941082001E-2   3.129409551620483E-1  -9.388266205787659E-1   3.128795921802521E-1  -9.377254247665405E-1  -6.485867500305176E-2  -2.399501204490662E-2  
 5.464000000000000E7    -6.668678671121597E-2  -2.533461153507233E-2   3.117540478706360E-1  -9.392639398574829E-1   3.118515610694885E-1  -9.378169178962708E-1  -6.528852134943008E-2  -2.418132871389389E-2  
 5.466000000000000E7    -6.762191653251648E-2  -2.628213167190552E-2   3.107996881008148E-1  -9.394477605819702E-1   3.107049465179443E-1  -9.379974603652954E-1  -6.641340255737305E-2  -2.424148470163345E-2  
 5.468000000000000E7    -6.807361543178558E-2  -2.613237500190735E-2   3.096976876258850E-1  -9.397374987602234E-1   3.093473315238953E-1  -9.383925795555115E-1  -6.725957989692688E-2  -2.513286471366882E-2  
 5.470000000000000E7    -6.870482116937637E-2  -2.682943642139435E-2   3.087645769119263E-1  -9.398962855339050E-1   3.082078099250794E-1  -9.390386939048767E-1  -6.779000908136368E-2  -2.435429394245148E-2  
 5.472000000000000E7    -7.019037008285523E-2  -2.769009023904800E-2   3.072625994682312E-1  -9.401510953903198E-1   3.073701560497284E-1  -9.394340515136719E-1  -6.771276891231537E-2  -2.464630454778671E-2  
 5.474000000000000E7    -7.038802653551102E-2  -2.691336721181870E-2   3.062992095947266E-1  -9.405087828636169E-1   3.060614168643951E-1  -9.396281242370606E-1  -6.900378316640854E-2  -2.528472244739533E-2  
 5.476000000000000E7    -7.092288881540299E-2  -2.682445198297501E-2   3.050912022590637E-1  -9.409312605857849E-1   3.049075603485107E-1  -9.396743178367615E-1  -6.969936937093735E-2  -2.565223723649979E-2  
 5.478000000000000E7    -7.201567292213440E-2  -2.703794836997986E-2   3.037985265254974E-1  -9.410970211029053E-1   3.037850558757782E-1  -9.402445554733276E-1  -7.073841989040375E-2  -2.538093179464340E-2  
 5.480000000000000E7    -7.231308519840241E-2  -2.676633000373840E-2   3.028811216354370E-1  -9.416958093643189E-1   3.025452494621277E-1  -9.405285120010376E-1  -7.069998979568481E-2  -2.573750168085098E-2  
 5.482000000000000E7    -7.352440804243088E-2  -2.773414552211762E-2   3.017258644104004E-1  -9.418776035308838E-1   3.014941811561585E-1  -9.409375786781311E-1  -7.250857353210449E-2  -2.595932781696320E-2  
 5.484000000000000E7    -7.403734326362610E-2  -2.811905741691589E-2   3.007197678089142E-1  -9.420684576034546E-1   3.006252646446228E-1  -9.412193894386292E-1  -7.193744927644730E-2  -2.612932771444321E-2  
 5.486000000000000E7    -7.479359209537506E-2  -2.733626961708069E-2   2.997067868709564E-1  -9.424108266830444E-1   2.993271350860596E-1  -9.411579370498657E-1  -7.290756702423096E-2  -2.631831914186478E-2  
 5.488000000000000E7    -7.542538642883301E-2  -2.772127836942673E-2   2.986101508140564E-1  -9.428639411926270E-1   2.981915175914764E-1  -9.415483474731445E-1  -7.358264923095703E-2  -2.653507143259049E-2  
 5.490000000000000E7    -7.596677541732788E-2  -2.771236002445221E-2   2.971668541431427E-1  -9.431513547897339E-1   2.972353100776672E-1  -9.417725801467896E-1  -7.448022812604904E-2  -2.623075991868973E-2  
 5.492000000000000E7    -7.706397771835327E-2  -2.813678234815598E-2   2.962634563446045E-1  -9.433537721633911E-1   2.960191369056702E-1  -9.424246549606323E-1  -7.549209892749786E-2  -2.602904289960861E-2  
 5.494000000000000E7    -7.763161510229111E-2  -2.796772867441177E-2   2.951280772686005E-1  -9.433350563049316E-1   2.950046658515930E-1  -9.428026080131531E-1  -7.654797285795212E-2  -2.680830657482147E-2  
 5.496000000000000E7    -7.844671607017517E-2  -2.775769680738449E-2   2.937870621681213E-1  -9.437605738639832E-1   2.938344478607178E-1  -9.430848360061646E-1  -7.646235078573227E-2  -2.721679955720902E-2  
 5.498000000000000E7    -7.985442876815796E-2  -2.806554734706879E-2   2.929824888706207E-1  -9.442484974861145E-1   2.927486598491669E-1  -9.431070685386658E-1  -7.807297259569168E-2  -2.725633233785629E-2  
 5.500000000000000E7    -7.904789596796036E-2  -2.829616516828537E-2   2.915818989276886E-1  -9.444410800933838E-1   2.915300726890564E-1  -9.436087608337402E-1  -7.834053784608841E-2  -2.683855593204498E-2  
 5.502000000000000E7    -8.092863857746124E-2  -2.814496308565140E-2   2.908256351947784E-1  -9.447174072265625E-1   2.903477549552918E-1  -9.440450072288513E-1  -7.957443594932556E-2  -2.717389166355133E-2  
 5.504000000000000E7    -8.145471662282944E-2  -2.879890054464340E-2   2.896022200584412E-1  -9.449201822280884E-1   2.892597913742065E-1  -9.441024065017700E-1  -7.953249663114548E-2  -2.675922214984894E-2  
 5.506000000000000E7    -8.230384439229965E-2  -2.853127941489220E-2   2.883895337581635E-1  -9.450811743736267E-1   2.881109714508057E-1  -9.444385766983032E-1  -8.007200062274933E-2  -2.724173665046692E-2  
 5.508000000000000E7    -8.322433382272720E-2  -2.825027704238892E-2   2.872326374053955E-1  -9.455463886260986E-1   2.871184349060059E-1  -9.446488022804260E-1  -8.152735233306885E-2  -2.693096920847893E-2  
 5.510000000000000E7    -8.391998708248138E-2  -2.893120050430298E-2   2.859786748886108E-1  -9.457341432571411E-1   2.857480645179749E-1  -9.448143839836121E-1  -8.154994994401932E-2  -2.785632759332657E-2  
 5.512000000000000E7    -8.465246111154556E-2  -2.886209636926651E-2   2.849974930286408E-1  -9.460054039955139E-1   2.847183644771576E-1  -9.453525543212891E-1  -8.232329040765762E-2  -2.726865559816361E-2  
 5.514000000000000E7    -8.570766448974609E-2  -2.893792465329170E-2   2.838743031024933E-1  -9.462273716926575E-1   2.838456630706787E-1  -9.455468654632568E-1  -8.373699337244034E-2  -2.713027596473694E-2  
 5.516000000000000E7    -8.620889484882355E-2  -2.912664413452148E-2   2.827927768230438E-1  -9.468584060668945E-1   2.826028466224670E-1  -9.453650116920471E-1  -8.428823947906494E-2  -2.758944407105446E-2  
 5.518000000000000E7    -8.633439242839813E-2  -2.913420647382736E-2   2.817148268222809E-1  -9.468880891799927E-1   2.812988162040710E-1  -9.456343650817871E-1  -8.487379550933838E-2  -2.822901308536530E-2  
 5.520000000000000E7    -8.702983707189560E-2  -2.920342609286308E-2   2.805324494838715E-1  -9.472469091415405E-1   2.802740931510925E-1  -9.464361667633057E-1  -8.509366214275360E-2  -2.755833044648171E-2  
 5.522000000000000E7    -8.776707202196121E-2  -2.920768782496452E-2   2.792572379112244E-1  -9.474561810493469E-1   2.791902422904968E-1  -9.465870261192322E-1  -8.653977513313294E-2  -2.753166481852531E-2  
 5.524000000000000E7    -8.957926928997040E-2  -3.001143783330917E-2   2.780786752700806E-1  -9.473545551300049E-1   2.783716619014740E-1  -9.470854401588440E-1  -8.655163645744324E-2  -2.777323871850967E-2  
 5.526000000000000E7    -9.002599865198135E-2  -2.983622252941132E-2   2.770453989505768E-1  -9.477933049201965E-1   2.768524289131165E-1  -9.471698999404907E-1  -8.768916130065918E-2  -2.861283347010613E-2  
 5.528000000000000E7    -9.004423022270203E-2  -2.986124157905579E-2   2.756003439426422E-1  -9.482125043869019E-1   2.759370207786560E-1  -9.472289681434631E-1  -8.810316026210785E-2  -2.793647348880768E-2  
 5.530000000000000E7    -9.153259545564652E-2  -3.001191839575768E-2   2.749605476856232E-1  -9.483022689819336E-1   2.745510637760162E-1  -9.474399089813232E-1  -8.944404870271683E-2  -2.853090316057205E-2  
 5.532000000000000E7    -9.156268090009689E-2  -2.995107322931290E-2   2.735710442066193E-1  -9.485800862312317E-1   2.734788954257965E-1  -9.478841423988342E-1  -8.999744057655335E-2  -2.838936448097229E-2  
 5.534000000000000E7    -9.212853014469147E-2  -2.983590215444565E-2   2.723462879657745E-1  -9.489174485206604E-1   2.722475230693817E-1  -9.480746984481812E-1  -9.165204316377640E-2  -2.780114859342575E-2  
 5.536000000000000E7    -9.293172508478165E-2  -2.964085713028908E-2   2.713285088539124E-1  -9.490748643875122E-1   2.714193761348724E-1  -9.485319256782532E-1  -9.102034568786621E-2  -2.848056703805924E-2  
 5.538000000000000E7    -9.398352354764938E-2  -3.043902665376663E-2   2.699865996837616E-1  -9.496192336082459E-1   2.702665030956268E-1  -9.484508037567139E-1  -9.303768724203110E-2  -2.886532247066498E-2  
 5.540000000000000E7    -9.464859217405319E-2  -2.963100746273994E-2   2.691338956356049E-1  -9.496195912361145E-1   2.691383957862854E-1  -9.489117860794067E-1  -9.278775006532669E-2  -2.856289967894554E-2  
 5.542000000000000E7    -9.588870406150818E-2  -2.991322055459023E-2   2.680197656154633E-1  -9.498959779739380E-1   2.677764892578125E-1  -9.491044878959656E-1  -9.379160404205322E-2  -2.863826602697372E-2  
 5.544000000000000E7    -9.571202099323273E-2  -3.001846745610237E-2   2.669566273689270E-1  -9.502840042114258E-1   2.666701078414917E-1  -9.493064880371094E-1  -9.395989775657654E-2  -2.840437740087509E-2  
 5.546000000000000E7    -9.662781655788422E-2  -3.048900514841080E-2   2.655288875102997E-1  -9.504702091217041E-1   2.656210362911224E-1  -9.494257569313049E-1  -9.504820406436920E-2  -2.856164425611496E-2  
 5.548000000000000E7    -9.770638495683670E-2  -3.046570345759392E-2   2.647580504417419E-1  -9.507036805152893E-1   2.645612657070160E-1  -9.497918486595154E-1  -9.528108686208725E-2  -2.846281230449677E-2  
 5.550000000000000E7    -9.849057346582413E-2  -3.099544346332550E-2   2.634510099887848E-1  -9.506991505622864E-1   2.634356021881104E-1  -9.498353004455566E-1  -9.639998525381088E-2  -2.931773662567139E-2  
 5.552000000000000E7    -9.911176562309265E-2  -3.076931089162827E-2   2.622993290424347E-1  -9.511355757713318E-1   2.621095180511475E-1  -9.501743316650391E-1  -9.697305411100388E-2  -2.951154112815857E-2  
 5.554000000000000E7    -9.964714199304581E-2  -3.096563369035721E-2   2.612394690513611E-1  -9.515022039413452E-1   2.609256207942963E-1  -9.505719542503357E-1  -9.762950241565704E-2  -2.931166440248489E-2  
 5.556000000000000E7    -1.001760214567184E-1  -3.067249804735184E-2   2.600598037242889E-1  -9.516525864601135E-1   2.598901987075806E-1  -9.506312012672424E-1  -9.890374541282654E-2  -2.965313196182251E-2  
 5.558000000000000E7    -1.011778488755226E-1  -3.079649060964584E-2   2.588951885700226E-1  -9.519919753074646E-1   2.586542069911957E-1  -9.509344100952148E-1  -9.950391203165054E-2  -2.900326251983643E-2  
 5.560000000000000E7    -1.024197190999985E-1  -3.049151599407196E-2   2.576609253883362E-1  -9.522003531455994E-1   2.579869329929352E-1  -9.508416652679443E-1  -1.002274751663208E-1  -2.888066321611404E-2  
 5.562000000000000E7    -1.023432239890099E-1  -3.092128038406372E-2   2.566559016704559E-1  -9.523879289627075E-1   2.565720677375794E-1  -9.513872265815735E-1  -1.014502868056297E-1  -2.942507714033127E-2  
 5.564000000000000E7    -1.037905141711235E-1  -3.072989732027054E-2   2.555764317512512E-1  -9.526167511940002E-1   2.552798390388489E-1  -9.512794017791748E-1  -1.020151898264885E-1  -2.952261269092560E-2  
 5.566000000000000E7    -1.042282357811928E-1  -3.104525804519653E-2   2.543573975563049E-1  -9.527364969253540E-1   2.542943954467773E-1  -9.515499472618103E-1  -1.027018278837204E-1  -3.016878664493561E-2  
 5.568000000000000E7    -1.044638082385063E-1  -3.168876096606255E-2   2.530300617218018E-1  -9.530575275421143E-1   2.532914876937866E-1  -9.516454339027405E-1  -1.031836047768593E-1  -3.011106699705124E-2  
 5.570000000000000E7    -1.061890944838524E-1  -3.117271512746811E-2   2.522055506706238E-1  -9.533275365829468E-1   2.519584298133850E-1  -9.522387981414795E-1  -1.042918562889099E-1  -2.965446561574936E-2  
 5.572000000000000E7    -1.067528575658798E-1  -3.142739087343216E-2   2.506891191005707E-1  -9.535018205642700E-1   2.509264051914215E-1  -9.523650407791138E-1  -1.048990115523338E-1  -2.946059405803680E-2  
 5.574000000000000E7    -1.072263270616531E-1  -3.129464387893677E-2   2.497957199811935E-1  -9.533545970916748E-1   2.496042698621750E-1  -9.527146220207214E-1  -1.056552752852440E-1  -2.998639643192291E-2  
 5.576000000000000E7    -1.079319715499878E-1  -3.069434314966202E-2   2.489366084337235E-1  -9.540256261825562E-1   2.487468123435974E-1  -9.524996280670166E-1  -1.057997867465019E-1  -2.948713302612305E-2  
 5.578000000000000E7    -1.080672964453697E-1  -3.095339238643646E-2   2.476295828819275E-1  -9.541540741920471E-1   2.474736720323563E-1  -9.530376791954041E-1  -1.067998111248016E-1  -3.031056746840477E-2  
 5.580000000000000E7    -1.091850772500038E-1  -3.175901621580124E-2   2.464174926280975E-1  -9.544259905815125E-1   2.461615204811096E-1  -9.532103538513184E-1  -1.079393774271011E-1  -3.023566305637360E-2  
 5.582000000000000E7    -1.099148392677307E-1  -3.129410743713379E-2   2.452789694070816E-1  -9.542973041534424E-1   2.450465410947800E-1  -9.536508321762085E-1  -1.080010831356049E-1  -3.040535748004913E-2  
 5.584000000000000E7    -1.112551093101502E-1  -3.139853850007057E-2   2.440676093101502E-1  -9.544609785079956E-1   2.442679107189179E-1  -9.538183808326721E-1  -1.092505902051926E-1  -2.979380637407303E-2  
 5.586000000000000E7    -1.117979735136032E-1  -3.083754330873489E-2   2.429124712944031E-1  -9.550706148147583E-1   2.428400516510010E-1  -9.537721872329712E-1  -1.099922582507134E-1  -2.871309965848923E-2  
 5.588000000000000E7    -1.124551370739937E-1  -3.166686743497849E-2   2.417880147695541E-1  -9.548375010490418E-1   2.417346537113190E-1  -9.541399478912354E-1  -1.107378974556923E-1  -2.977683022618294E-2  
 5.590000000000000E7    -1.129355207085609E-1  -3.176892548799515E-2   2.405630052089691E-1  -9.551963210105896E-1   2.405252605676651E-1  -9.544222950935364E-1  -1.115453541278839E-1  -3.010112792253494E-2  
 5.592000000000000E7    -1.142019033432007E-1  -3.169704228639603E-2   2.397031933069229E-1  -9.554961323738098E-1   2.392471283674240E-1  -9.543346762657166E-1  -1.123697683215141E-1  -3.080222755670548E-2  
 5.594000000000000E7    -1.148007363080978E-1  -3.146136552095413E-2   2.383998185396195E-1  -9.557989835739136E-1   2.382177412509918E-1  -9.546391963958740E-1  -1.127923727035523E-1  -2.961985394358635E-2  
 5.596000000000000E7    -1.157328709959984E-1  -3.200222551822662E-2   2.370571047067642E-1  -9.556132555007935E-1   2.373601049184799E-1  -9.551488757133484E-1  -1.134007275104523E-1  -2.984374761581421E-2  
 5.598000000000000E7    -1.155751198530197E-1  -3.126345574855804E-2   2.358351349830627E-1  -9.561775326728821E-1   2.361836582422257E-1  -9.551068544387817E-1  -1.143080219626427E-1  -2.943297848105431E-2  
 5.600000000000000E7    -1.171297207474709E-1  -3.158739954233170E-2   2.350580543279648E-1  -9.560217261314392E-1   2.349416464567184E-1  -9.554016590118408E-1  -1.148310005664825E-1  -3.049845993518829E-2  
 5.602000000000000E7    -1.180155128240585E-1  -3.202754259109497E-2   2.337764501571655E-1  -9.563846588134766E-1   2.335914522409439E-1  -9.554697275161743E-1  -1.152120232582092E-1  -3.013850748538971E-2  
 5.604000000000000E7    -1.182739511132240E-1  -3.182093799114227E-2   2.327238172292709E-1  -9.562560915946960E-1   2.323832660913467E-1  -9.557973146438599E-1  -1.160714775323868E-1  -3.025227785110474E-2  
 5.606000000000000E7    -1.188019365072250E-1  -3.194501250982285E-2   2.315359413623810E-1  -9.570180773735046E-1   2.314273118972778E-1  -9.558228254318237E-1  -1.171707808971405E-1  -3.063145279884338E-2  
 5.608000000000000E7    -1.193419173359871E-1  -3.117780014872551E-2   2.303265780210495E-1  -9.568778276443481E-1   2.303010672330856E-1  -9.559040069580078E-1  -1.181833893060684E-1  -3.055333346128464E-2  
 5.610000000000000E7    -1.206515580415726E-1  -3.120787441730499E-2   2.294453382492065E-1  -9.571969509124756E-1   2.290925532579422E-1  -9.560702443122864E-1  -1.191096752882004E-1  -3.009274229407311E-2  
 5.612000000000000E7    -1.210936531424522E-1  -3.195339813828468E-2   2.279499620199204E-1  -9.572197198867798E-1   2.280929088592529E-1  -9.562536478042603E-1  -1.198232620954514E-1  -3.042280673980713E-2  
 5.614000000000000E7    -1.212691441178322E-1  -3.184629604220390E-2   2.270024567842484E-1  -9.575673341751099E-1   2.269579023122788E-1  -9.563549757003784E-1  -1.204739138484001E-1  -2.996933460235596E-2  
 5.616000000000000E7    -1.225370541214943E-1  -3.276322036981583E-2   2.254329323768616E-1  -9.579518437385559E-1   2.260341942310333E-1  -9.562909603118897E-1  -1.204443648457527E-1  -3.025671839714050E-2  
 5.618000000000000E7    -1.236169189214706E-1  -3.137037158012390E-2   2.247251868247986E-1  -9.577330350875855E-1   2.242858260869980E-1  -9.567154645919800E-1  -1.214218288660049E-1  -3.053860366344452E-2  
 5.620000000000000E7    -1.242417395114899E-1  -3.218251839280129E-2   2.234444320201874E-1  -9.581896066665649E-1   2.236505895853043E-1  -9.568067789077759E-1  -1.231510490179062E-1  -3.056828677654266E-2  
 5.622000000000000E7    -1.250234544277191E-1  -3.150919824838638E-2   2.223454266786575E-1  -9.582933187484741E-1   2.223593592643738E-1  -9.570901393890381E-1  -1.233989819884300E-1  -2.982442826032639E-2  
 5.624000000000000E7    -1.248516216874123E-1  -3.217425942420960E-2   2.211464494466782E-1  -9.582549929618835E-1   2.212799042463303E-1  -9.573254585266113E-1  -1.235248148441315E-1  -3.015841916203499E-2  
 5.626000000000000E7    -1.264104843139648E-1  -3.260192647576332E-2   2.200271487236023E-1  -9.585949778556824E-1   2.201356887817383E-1  -9.575037360191345E-1  -1.247378289699554E-1  -3.052790090441704E-2  
 5.628000000000000E7    -1.281802952289581E-1  -3.167186677455902E-2   2.189381420612335E-1  -9.586454033851624E-1   2.187967747449875E-1  -9.577278494834900E-1  -1.255863308906555E-1  -3.067050129175186E-2  
 5.630000000000000E7    -1.282166093587875E-1  -3.223428502678871E-2   2.176730334758759E-1  -9.588195085525513E-1   2.176125198602676E-1  -9.579306244850159E-1  -1.255529969930649E-1  -3.091580420732498E-2  
 5.632000000000000E7    -1.288531422615051E-1  -3.156364336609840E-2   2.166277468204498E-1  -9.590917825698853E-1   2.165423929691315E-1  -9.580716490745544E-1  -1.275117099285126E-1  -3.002073243260384E-2  
 5.634000000000000E7    -1.294953525066376E-1  -3.206594288349152E-2   2.155227512121201E-1  -9.589477181434631E-1   2.155099958181381E-1  -9.582968354225159E-1  -1.280148774385452E-1  -3.070563822984695E-2  
 5.636000000000000E7    -1.306292414665222E-1  -3.220103681087494E-2   2.146318703889847E-1  -9.592510461807251E-1   2.143652439117432E-1  -9.583610892295837E-1  -1.283180713653565E-1  -3.023145347833633E-2  
 5.638000000000000E7    -1.310763955116272E-1  -3.249929472804070E-2   2.131557911634445E-1  -9.597381353378296E-1   2.132933586835861E-1  -9.583548903465271E-1  -1.292212158441544E-1  -3.034206479787827E-2  
 5.640000000000000E7    -1.317529380321503E-1  -3.200526535511017E-2   2.121652364730835E-1  -9.597408771514893E-1   2.118736505508423E-1  -9.585568308830261E-1  -1.294992566108704E-1  -3.016237169504166E-2  
 5.642000000000000E7    -1.326892822980881E-1  -3.154574334621429E-2   2.109430283308029E-1  -9.598541259765625E-1   2.110204845666885E-1  -9.588571786880493E-1  -1.301891803741455E-1  -3.064596280455589E-2  
 5.644000000000000E7    -1.331122517585754E-1  -3.209896385669708E-2   2.096818238496780E-1  -9.597483873367310E-1   2.098080962896347E-1  -9.588586091995239E-1  -1.309381127357483E-1  -3.073114529252052E-2  
 5.646000000000000E7    -1.340014338493347E-1  -3.235261887311935E-2   2.088177055120468E-1  -9.598625898361206E-1   2.084189057350159E-1  -9.591754674911499E-1  -1.317474246025085E-1  -3.044708259403706E-2  
 5.648000000000000E7    -1.345518231391907E-1  -3.142475336790085E-2   2.073950171470642E-1  -9.601503014564514E-1   2.075649350881577E-1  -9.593062400817871E-1  -1.324281692504883E-1  -3.020207956433296E-2  
 5.650000000000000E7    -1.353220492601395E-1  -3.166563808917999E-2   2.064550369977951E-1  -9.603344202041626E-1   2.062357217073441E-1  -9.591953754425049E-1  -1.333921253681183E-1  -3.022711351513863E-2  
 5.652000000000000E7    -1.368920505046845E-1  -3.206151723861694E-2   2.049718052148819E-1  -9.604849815368652E-1   2.052131742238998E-1  -9.596005082130432E-1  -1.331535577774048E-1  -3.051543980836868E-2  
 5.654000000000000E7    -1.375354677438736E-1  -3.194703906774521E-2   2.041663229465485E-1  -9.605935811996460E-1   2.041223347187042E-1  -9.596545100212097E-1  -1.353994011878967E-1  -2.996632829308510E-2  
 5.656000000000000E7    -1.371531188488007E-1  -3.187550604343414E-2   2.028385698795319E-1  -9.608234167098999E-1   2.029918581247330E-1  -9.596615433692932E-1  -1.358924210071564E-1  -3.034498915076256E-2  
 5.658000000000000E7    -1.377701461315155E-1  -3.241392970085144E-2   2.017132490873337E-1  -9.607815146446228E-1   2.016127109527588E-1  -9.599038362503052E-1  -1.370397955179215E-1  -3.046085312962532E-2  
 5.660000000000000E7    -1.385570913553238E-1  -3.192116692662239E-2   2.006179094314575E-1  -9.608682394027710E-1   2.005514055490494E-1  -9.599667787551880E-1  -1.375216990709305E-1  -3.044918924570084E-2  
 5.662000000000000E7    -1.392923593521118E-1  -3.135602548718453E-2   1.995682269334793E-1  -9.613953232765198E-1   1.993370503187180E-1  -9.602449536323547E-1  -1.375913918018341E-1  -3.039440140128136E-2  
 5.664000000000000E7    -1.401181966066361E-1  -3.114233538508415E-2   1.981685459613800E-1  -9.609916806221008E-1   1.982426047325134E-1  -9.603215456008911E-1  -1.386256814002991E-1  -3.097851201891899E-2  
 5.666000000000000E7    -1.409066915512085E-1  -3.105092979967594E-2   1.972608566284180E-1  -9.614402055740356E-1   1.971208304166794E-1  -9.603704214096069E-1  -1.394977271556854E-1  -3.061509504914284E-2  
 5.668000000000000E7    -1.423742324113846E-1  -3.112313896417618E-2   1.960801929235458E-1  -9.618622064590454E-1   1.959819942712784E-1  -9.603210687637329E-1  -1.404025852680206E-1  -3.067869693040848E-2  
 5.670000000000000E7    -1.428640782833099E-1  -3.183934837579727E-2   1.949595510959625E-1  -9.616207480430603E-1   1.948395669460297E-1  -9.607228040695190E-1  -1.407743096351624E-1  -3.053052164614201E-2  
 5.672000000000000E7    -1.433658748865128E-1  -3.131520003080368E-2   1.937033683061600E-1  -9.618368148803711E-1   1.937344670295715E-1  -9.607838392257690E-1  -1.412740647792816E-1  -3.007643856108189E-2  
 5.674000000000000E7    -1.441984176635742E-1  -3.155121207237244E-2   1.925880759954453E-1  -9.618942141532898E-1   1.925864517688751E-1  -9.612028598785400E-1  -1.422124803066254E-1  -2.948558144271374E-2  
 5.676000000000000E7    -1.450930237770081E-1  -3.128229826688767E-2   1.912217289209366E-1  -9.618495702743530E-1   1.913723796606064E-1  -9.612602591514587E-1  -1.430327296257019E-1  -3.014337643980980E-2  
 5.678000000000000E7    -1.455537229776382E-1  -3.206060826778412E-2   1.900629550218582E-1  -9.622245430946350E-1   1.903674006462097E-1  -9.612854719161987E-1  -1.441841274499893E-1  -2.980476431548595E-2  
 5.680000000000000E7    -1.461562216281891E-1  -3.117285668849945E-2   1.891105473041534E-1  -9.622842073440552E-1   1.891192793846130E-1  -9.612627029418945E-1  -1.440075039863586E-1  -3.054738789796829E-2  
 5.682000000000000E7    -1.474753618240356E-1  -3.162103891372681E-2   1.880199313163757E-1  -9.624149799346924E-1   1.879549175500870E-1  -9.612298011779785E-1  -1.453655213117600E-1  -2.994083054363728E-2  
 5.684000000000000E7    -1.478802561759949E-1  -3.114411979913712E-2   1.868597716093063E-1  -9.626139998435974E-1   1.868542432785034E-1  -9.613665342330933E-1  -1.456545293331146E-1  -2.996138669550419E-2  
 5.686000000000000E7    -1.490767747163773E-1  -3.066843375563622E-2   1.856561154127121E-1  -9.625363945960999E-1   1.856631338596344E-1  -9.615538120269775E-1  -1.464986503124237E-1  -2.984913252294064E-2  
 5.688000000000000E7    -1.489600241184235E-1  -3.100067749619484E-2   1.846968531608582E-1  -9.627165198326111E-1   1.845499873161316E-1  -9.616931676864624E-1  -1.476724743843079E-1  -2.969221957027912E-2  
 5.690000000000000E7    -1.504313647747040E-1  -3.085580654442310E-2   1.832607984542847E-1  -9.629930257797241E-1   1.833869069814682E-1  -9.619284272193909E-1  -1.481201350688934E-1  -2.895111590623856E-2  
 5.692000000000000E7    -1.509739756584168E-1  -3.111888468265533E-2   1.822237521409988E-1  -9.628396034240723E-1   1.822804361581802E-1  -9.619518518447876E-1  -1.490104943513870E-1  -2.956375107169151E-2  
 5.694000000000000E7    -1.517857164144516E-1  -3.042599372565746E-2   1.813953965902329E-1  -9.629627466201782E-1   1.809070557355881E-1  -9.621834158897400E-1  -1.494795531034470E-1  -2.950019389390945E-2  
 5.696000000000000E7    -1.522502601146698E-1  -3.065401501953602E-2   1.799224466085434E-1  -9.632412195205689E-1   1.799444258213043E-1  -9.618524909019470E-1  -1.507338881492615E-1  -2.971593663096428E-2  
 5.698000000000000E7    -1.536045074462891E-1  -3.091653622686863E-2   1.787095516920090E-1  -9.632803201675415E-1   1.787154376506805E-1  -9.622188806533814E-1  -1.515849679708481E-1  -2.916841953992844E-2  
 5.700000000000000E7    -1.541911065578461E-1  -3.091748617589474E-2   1.774976551532745E-1  -9.630768895149231E-1   1.774052232503891E-1  -9.624696373939514E-1  -1.518607735633850E-1  -2.939547412097454E-2  
 5.702000000000000E7    -1.548247635364533E-1  -3.060743585228920E-2   1.764573901891708E-1  -9.631103873252869E-1   1.765567064285278E-1  -9.625331759452820E-1  -1.522860825061798E-1  -2.948458492755890E-2  
 5.704000000000000E7    -1.552285254001617E-1  -3.062743507325649E-2   1.754575669765472E-1  -9.635331034660339E-1   1.751426160335541E-1  -9.624966979026794E-1  -1.533713340759277E-1  -2.967877686023712E-2  
 5.706000000000000E7    -1.559168547391892E-1  -3.042210824787617E-2   1.741463392972946E-1  -9.634407162666321E-1   1.740624606609345E-1  -9.628196358680725E-1  -1.535199880599976E-1  -2.885057777166367E-2  
 5.708000000000000E7    -1.573916971683502E-1  -3.094934672117233E-2   1.730446666479111E-1  -9.635645151138306E-1   1.730651408433914E-1  -9.627293944358826E-1  -1.552374511957169E-1  -2.925977483391762E-2  
 5.710000000000000E7    -1.570876091718674E-1  -3.029200620949268E-2   1.718706190586090E-1  -9.636735916137695E-1   1.720428913831711E-1  -9.628819227218628E-1  -1.559044420719147E-1  -2.853303402662277E-2  
 5.712000000000000E7    -1.581184566020966E-1  -3.041273728013039E-2   1.707186102867127E-1  -9.639068841934204E-1   1.707346737384796E-1  -9.626536369323731E-1  -1.568069308996201E-1  -2.883094176650047E-2  
 5.714000000000000E7    -1.589808464050293E-1  -3.007747791707516E-2   1.698111295700073E-1  -9.638634920120239E-1   1.695116162300110E-1  -9.628891944885254E-1  -1.574484407901764E-1  -2.878195792436600E-2  
 5.716000000000000E7    -1.597989946603775E-1  -3.087217733263969E-2   1.684653013944626E-1  -9.639541506767273E-1   1.682481318712235E-1  -9.629276394844055E-1  -1.578168272972107E-1  -2.871912904083729E-2  
 5.718000000000000E7    -1.595625132322311E-1  -3.035927563905716E-2   1.672653406858444E-1  -9.641969799995422E-1   1.672534197568893E-1  -9.631226658821106E-1  -1.583741605281830E-1  -2.880727685987949E-2  
 5.720000000000000E7    -1.612233370542526E-1  -2.989800646901131E-2   1.661739200353622E-1  -9.641393423080444E-1   1.662961989641190E-1  -9.632415175437927E-1  -1.593004912137985E-1  -2.872086688876152E-2  
 5.722000000000000E7    -1.618649959564209E-1  -3.005730919539928E-2   1.648767441511154E-1  -9.643065929412842E-1   1.649120002985001E-1  -9.634574651718140E-1  -1.598821431398392E-1  -2.862346358597279E-2  
 5.724000000000000E7    -1.630682945251465E-1  -2.970614284276962E-2   1.638085693120956E-1  -9.642247557640076E-1   1.640464663505554E-1  -9.633762240409851E-1  -1.607186794281006E-1  -2.831367962062359E-2  
 5.726000000000000E7    -1.635549962520599E-1  -3.011678345501423E-2   1.627150923013687E-1  -9.645148515701294E-1   1.626817733049393E-1  -9.633875489234924E-1  -1.617280244827271E-1  -2.838142588734627E-2  
 5.728000000000000E7    -1.641997694969177E-1  -2.945523709058762E-2   1.615429520606995E-1  -9.645508527755737E-1   1.614573895931244E-1  -9.634920954704285E-1  -1.625773459672928E-1  -2.898440137505531E-2  
 5.730000000000000E7    -1.648303121328354E-1  -2.914258837699890E-2   1.603141874074936E-1  -9.644476771354675E-1   1.605771034955978E-1  -9.636720418930054E-1  -1.627220213413239E-1  -2.842441201210022E-2  
 5.732000000000000E7    -1.654510796070099E-1  -2.908564731478691E-2   1.594334095716476E-1  -9.649221897125244E-1   1.591191440820694E-1  -9.636242389678955E-1  -1.632106006145477E-1  -2.873599156737328E-2  
 5.734000000000000E7    -1.665599048137665E-1  -2.907839789986610E-2   1.579494625329971E-1  -9.648333191871643E-1   1.581419110298157E-1  -9.637272953987122E-1  -1.642933189868927E-1  -2.770655788481236E-2  
 5.736000000000000E7    -1.667307317256928E-1  -2.933061495423317E-2   1.570977866649628E-1  -9.647846221923828E-1   1.569665968418121E-1  -9.638514518737793E-1  -1.655321419239044E-1  -2.786466479301453E-2  
 5.738000000000000E7    -1.678639650344849E-1  -2.956471592187882E-2   1.555330008268356E-1  -9.647948145866394E-1   1.558648049831390E-1  -9.636966586112976E-1  -1.661527156829834E-1  -2.785603515803814E-2  
 5.740000000000000E7    -1.685446202754974E-1  -2.923178486526012E-2   1.548175215721130E-1  -9.646874666213989E-1   1.546144783496857E-1  -9.639922976493835E-1  -1.661235988140106E-1  -2.807945758104324E-2  
 5.742000000000000E7    -1.695813536643982E-1  -2.914374135434628E-2   1.534532755613327E-1  -9.649045467376709E-1   1.534533351659775E-1  -9.640907049179077E-1  -1.677182018756867E-1  -2.804123237729073E-2  
 5.744000000000000E7    -1.705572307109833E-1  -2.907982096076012E-2   1.523027569055557E-1  -9.646862745285034E-1   1.524264812469482E-1  -9.643647670745850E-1  -1.680148839950562E-1  -2.772045135498047E-2  
 5.746000000000000E7    -1.713039726018906E-1  -2.902902290225029E-2   1.513662785291672E-1  -9.649392366409302E-1   1.511490046977997E-1  -9.639826416969299E-1  -1.687412559986115E-1  -2.737724781036377E-2  
 5.748000000000000E7    -1.712200939655304E-1  -2.857756242156029E-2   1.498468220233917E-1  -9.652251005172730E-1   1.501060277223587E-1  -9.641623497009277E-1  -1.690916121006012E-1  -2.682533860206604E-2  
 5.750000000000000E7    -1.735181957483292E-1  -2.844368666410446E-2   1.486647725105286E-1  -9.648201465606690E-1   1.489357203245163E-1  -9.644061923027039E-1  -1.705931425094605E-1  -2.789995633065701E-2  
 5.752000000000000E7    -1.730828881263733E-1  -2.830558456480503E-2   1.474742293357849E-1  -9.652112722396851E-1   1.477021872997284E-1  -9.641321897506714E-1  -1.708339154720306E-1  -2.735170722007752E-2  
 5.754000000000000E7    -1.741934716701508E-1  -2.870910987257958E-2   1.461337655782700E-1  -9.651771783828735E-1   1.468873023986816E-1  -9.641055464744568E-1  -1.720559298992157E-1  -2.715283632278442E-2  
 5.756000000000000E7    -1.745937168598175E-1  -2.825774624943733E-2   1.455124765634537E-1  -9.653869271278381E-1   1.453340053558350E-1  -9.642315506935120E-1  -1.718108654022217E-1  -2.733965590596199E-2  
 5.758000000000000E7    -1.752542257308960E-1  -2.825905382633209E-2   1.446108967065811E-1  -9.653762578964233E-1   1.441509127616882E-1  -9.643403887748718E-1  -1.734481900930405E-1  -2.740512415766716E-2  
 5.760000000000000E7    -1.763046830892563E-1  -2.814934402704239E-2   1.430966705083847E-1  -9.653846621513367E-1   1.431253850460053E-1  -9.643276929855347E-1  -1.738237440586090E-1  -2.653764560818672E-2  
 5.762000000000000E7    -1.771118491888046E-1  -2.781997248530388E-2   1.421262472867966E-1  -9.654690623283386E-1   1.419242918491364E-1  -9.641838073730469E-1  -1.753326058387756E-1  -2.627715095877647E-2  
 5.764000000000000E7    -1.776452064514160E-1  -2.765897661447525E-2   1.407424509525299E-1  -9.651982188224793E-1   1.409082114696503E-1  -9.643623232841492E-1  -1.756124198436737E-1  -2.596497535705566E-2  
 5.766000000000000E7    -1.783124804496765E-1  -2.741420827805996E-2   1.397416740655899E-1  -9.653830528259277E-1   1.397663503885269E-1  -9.645763635635376E-1  -1.761479228734970E-1  -2.649244666099548E-2  
 5.768000000000000E7    -1.794454753398895E-1  -2.719994261860848E-2   1.386465728282929E-1  -9.655394554138184E-1   1.383361220359802E-1  -9.643641710281372E-1  -1.768323183059692E-1  -2.660328708589077E-2  
 5.770000000000000E7    -1.796470880508423E-1  -2.769866958260536E-2   1.373900622129440E-1  -9.656518101692200E-1   1.374746263027191E-1  -9.646029472351074E-1  -1.774818450212479E-1  -2.631055004894733E-2  
 5.772000000000000E7    -1.808802932500839E-1  -2.716138958930969E-2   1.366008520126343E-1  -9.652925729751587E-1   1.358786970376968E-1  -9.645383954048157E-1  -1.781757771968842E-1  -2.602652832865715E-2  
 5.774000000000000E7    -1.818659007549286E-1  -2.659641392529011E-2   1.351693272590637E-1  -9.653781652450562E-1   1.350128501653671E-1  -9.646385312080383E-1  -1.783570051193237E-1  -2.589480951428413E-2  
 5.776000000000000E7    -1.816823929548264E-1  -2.725213021039963E-2   1.337808966636658E-1  -9.655531644821167E-1   1.339884847402573E-1  -9.647352695465088E-1  -1.797082424163818E-1  -2.531210705637932E-2  
 5.778000000000000E7    -1.824240088462830E-1  -2.720429748296738E-2   1.329453289508820E-1  -9.656063318252564E-1   1.328741908073425E-1  -9.646005034446716E-1  -1.804534196853638E-1  -2.586133219301701E-2  
 5.780000000000000E7    -1.833737492561340E-1  -2.644008211791515E-2   1.316654533147812E-1  -9.656755924224854E-1   1.318697780370712E-1  -9.644668102264404E-1  -1.813791096210480E-1  -2.522330544888973E-2  
 5.782000000000000E7    -1.842135190963745E-1  -2.643101476132870E-2   1.302857995033264E-1  -9.655027985572815E-1   1.307382732629776E-1  -9.648043513298035E-1  -1.822805702686310E-1  -2.481339126825333E-2  
 5.784000000000000E7    -1.853454411029816E-1  -2.624763175845146E-2   1.294025927782059E-1  -9.654603600502014E-1   1.295393407344818E-1  -9.646370410919190E-1  -1.832447350025177E-1  -2.543364092707634E-2  
 5.786000000000000E7    -1.861567050218582E-1  -2.587635070085526E-2   1.284892261028290E-1  -9.657255411148071E-1   1.285375654697418E-1  -9.647421836853027E-1  -1.831760853528976E-1  -2.523854188621044E-2  
 5.788000000000000E7    -1.865384429693222E-1  -2.611977607011795E-2   1.269701421260834E-1  -9.655083417892456E-1   1.273168623447418E-1  -9.648699164390564E-1  -1.843172907829285E-1  -2.465517446398735E-2  
 5.790000000000000E7    -1.870885193347931E-1  -2.601742930710316E-2   1.259028017520905E-1  -9.656513333320618E-1   1.258983612060547E-1  -9.648827910423279E-1  -1.855038702487946E-1  -2.511825971305370E-2  
 5.792000000000000E7    -1.878650784492493E-1  -2.595484629273415E-2   1.248823404312134E-1  -9.655910730361939E-1   1.248874813318253E-1  -9.648674726486206E-1  -1.855477988719940E-1  -2.485267445445061E-2  
 5.794000000000000E7    -1.886336654424667E-1  -2.576451003551483E-2   1.235729753971100E-1  -9.655567407608032E-1   1.235810071229935E-1  -9.646086096763611E-1  -1.866997182369232E-1  -2.401879616081715E-2  
 5.796000000000000E7    -1.893333196640015E-1  -2.596926130354404E-2   1.223963424563408E-1  -9.655944108963013E-1   1.224600076675415E-1  -9.646357893943787E-1  -1.871913373470306E-1  -2.517499402165413E-2  
 5.798000000000000E7    -1.895813941955566E-1  -2.529853954911232E-2   1.211207211017609E-1  -9.656879901885986E-1   1.214730218052864E-1  -9.648658633232117E-1  -1.877281367778778E-1  -2.436901256442070E-2  
 5.800000000000000E7    -1.909593343734741E-1  -2.539779245853424E-2   1.200506910681725E-1  -9.657024741172791E-1   1.201512664556503E-1  -9.647078514099121E-1  -1.887917816638947E-1  -2.401493489742279E-2  
 5.802000000000000E7    -1.914538145065308E-1  -2.599043026566505E-2   1.188231483101845E-1  -9.657694101333618E-1   1.191450431942940E-1  -9.646825790405273E-1  -1.896318197250366E-1  -2.341358363628388E-2  
 5.804000000000000E7    -1.921662688255310E-1  -2.575939148664475E-2   1.177306100726128E-1  -9.655193686485291E-1   1.178772449493408E-1  -9.652699232101440E-1  -1.902339458465576E-1  -2.388587966561317E-2  
 5.806000000000000E7    -1.930658221244812E-1  -2.499241009354591E-2   1.167729273438454E-1  -9.656271934509277E-1   1.169038563966751E-1  -9.648316502571106E-1  -1.903885155916214E-1  -2.367490157485008E-2  
 5.808000000000000E7    -1.933631598949432E-1  -2.493451535701752E-2   1.156353950500488E-1  -9.656139016151428E-1   1.156960353255272E-1  -9.647602438926697E-1  -1.918800473213196E-1  -2.282134070992470E-2  
 5.810000000000000E7    -1.943935453891754E-1  -2.485734224319458E-2   1.142755672335625E-1  -9.657114148139954E-1   1.145825758576393E-1  -9.646607637405396E-1  -1.925326287746429E-1  -2.357228659093380E-2  
 5.812000000000000E7    -1.957624256610870E-1  -2.402071096003056E-2   1.134010106325150E-1  -9.654547572135925E-1   1.134565994143486E-1  -9.645963311195374E-1  -1.930688768625259E-1  -2.354010567069054E-2  
 5.814000000000000E7    -1.963792145252228E-1  -2.434244565665722E-2   1.120856478810310E-1  -9.655378460884094E-1   1.120876595377922E-1  -9.648561477661133E-1  -1.938339173793793E-1  -2.311167493462563E-2  
 5.816000000000000E7    -1.968817412853241E-1  -2.391187846660614E-2   1.110367774963379E-1  -9.659323692321777E-1   1.111329197883606E-1  -9.645706415176392E-1  -1.946936845779419E-1  -2.307167649269104E-2  
 5.818000000000000E7    -1.977003812789917E-1  -2.410743944346905E-2   1.099695637822151E-1  -9.657208919525147E-1   1.098567023873329E-1  -9.649153947830200E-1  -1.950625479221344E-1  -2.358652278780937E-2  
 5.820000000000000E7    -1.982648372650147E-1  -2.360001951456070E-2   1.087793409824371E-1  -9.657744169235230E-1   1.087576225399971E-1  -9.646474719047546E-1  -1.956351995468140E-1  -2.194919064640999E-2  
 5.822000000000000E7    -1.991249322891235E-1  -2.358635328710079E-2   1.078289449214935E-1  -9.653871655464172E-1   1.074832305312157E-1  -9.646862745285034E-1  -1.966716498136520E-1  -2.270287275314331E-2  
 5.824000000000000E7    -1.998734623193741E-1  -2.365796267986298E-2   1.067411750555039E-1  -9.653714299201965E-1   1.060962527990341E-1  -9.646196365356445E-1  -1.973551511764526E-1  -2.263115718960762E-2  
 5.826000000000000E7    -2.008441984653473E-1  -2.355437725782394E-2   1.053079664707184E-1  -9.655198454856873E-1   1.055274903774262E-1  -9.646323323249817E-1  -1.982073187828064E-1  -2.156518399715424E-2  
 5.828000000000000E7    -2.006978839635849E-1  -2.319152653217316E-2   1.039683893322945E-1  -9.657207727432251E-1   1.042511686682701E-1  -9.646154642105103E-1  -1.988006681203842E-1  -2.167468145489693E-2  
 5.830000000000000E7    -2.015606462955475E-1  -2.313059195876122E-2   1.029928028583527E-1  -9.656288623809815E-1   1.030518114566803E-1  -9.643474221229553E-1  -1.994199901819229E-1  -2.205733954906464E-2  
 5.832000000000000E7    -2.027549147605896E-1  -2.285586111247540E-2   1.018254980444908E-1  -9.653221368789673E-1   1.019314005970955E-1  -9.646928310394287E-1  -1.999202370643616E-1  -2.163152210414410E-2  
 5.834000000000000E7    -2.035689949989319E-1  -2.299969084560871E-2   1.007619202136993E-1  -9.650247693061829E-1   1.007114648818970E-1  -9.646420478820801E-1  -2.007101476192474E-1  -2.148132398724556E-2  
 5.836000000000000E7    -2.045854777097702E-1  -2.308674715459347E-2   9.947399795055389E-2  -9.651128649711609E-1   9.974775463342667E-2  -9.645104408264160E-1  -2.020519673824310E-1  -2.118013054132462E-2  
 5.838000000000000E7    -2.044695317745209E-1  -2.245475538074970E-2   9.833087772130966E-2  -9.656281471252441E-1   9.876348823308945E-2  -9.643825888633728E-1  -2.025742232799530E-1  -2.108153514564037E-2  
 5.840000000000000E7    -2.054796665906906E-1  -2.205598913133144E-2   9.754519164562225E-2  -9.652720689773560E-1   9.738498926162720E-2  -9.643064141273499E-1  -2.030167579650879E-1  -2.106711827218533E-2  
 5.842000000000000E7    -2.063525319099426E-1  -2.171233855187893E-2   9.598588198423386E-2  -9.655165076255798E-1   9.633709490299225E-2  -9.641025066375732E-1  -2.047053873538971E-1  -2.116155438125134E-2  
 5.844000000000000E7    -2.066010534763336E-1  -2.192037925124168E-2   9.512870013713837E-2  -9.652724862098694E-1   9.513612091541290E-2  -9.641681909561157E-1  -2.045396268367767E-1  -2.045990154147148E-2  
 5.846000000000000E7    -2.074596583843231E-1  -2.145419828593731E-2   9.398921579122543E-2  -9.650985598564148E-1   9.380956739187241E-2  -9.644892215728760E-1  -2.047720253467560E-1  -2.060004137456417E-2  
 5.848000000000000E7    -2.083553671836853E-1  -2.146057225763798E-2   9.282672405242920E-2  -9.653154611587524E-1   9.285277873277664E-2  -9.643564820289612E-1  -2.056521177291870E-1  -1.980688609182835E-2  
 5.850000000000000E7    -2.095359861850739E-1  -2.113904803991318E-2   9.171710908412933E-2  -9.652204513549805E-1   9.151229262351990E-2  -9.643235206604004E-1  -2.064588218927383E-1  -2.006794512271881E-2  
 5.852000000000000E7    -2.095952033996582E-1  -2.104147337377071E-2   9.041503071784973E-2  -9.649534821510315E-1   9.042102843523026E-2  -9.640423059463501E-1  -2.080880701541901E-1  -2.008318342268467E-2  
 5.854000000000000E7    -2.107896357774735E-1  -2.117144688963890E-2   8.910381048917770E-2  -9.649878144264221E-1   8.940875530242920E-2  -9.637504816055298E-1  -2.087543308734894E-1  -1.964307576417923E-2  
 5.856000000000000E7    -2.116132080554962E-1  -2.008191123604775E-2   8.828255534172058E-2  -9.649496078491211E-1   8.838369697332382E-2  -9.639997482299805E-1  -2.088274359703064E-1  -1.978271827101708E-2  
 5.858000000000000E7    -2.115269005298615E-1  -2.039033174514771E-2   8.701553195714951E-2  -9.649733901023865E-1   8.711127191781998E-2  -9.641799926757813E-1  -2.096581459045410E-1  -1.876610331237316E-2  
 5.860000000000000E7    -2.120887339115143E-1  -2.046164311468601E-2   8.562909066677094E-2  -9.649744629859924E-1   8.627513051033020E-2  -9.639645814895630E-1  -2.102836519479752E-1  -1.822487451136112E-2  
 5.862000000000000E7    -2.134676873683929E-1  -2.009042724967003E-2   8.472377061843872E-2  -9.647930264472961E-1   8.476167917251587E-2  -9.639511108398438E-1  -2.114279419183731E-1  -1.891629397869110E-2  
 5.864000000000000E7    -2.144068479537964E-1  -1.985970139503479E-2   8.355808258056641E-2  -9.646876454353333E-1   8.347778022289276E-2  -9.639921784400940E-1  -2.120858132839203E-1  -1.898596622049809E-2  
 5.866000000000000E7    -2.151719927787781E-1  -1.977486535906792E-2   8.255025744438171E-2  -9.647789001464844E-1   8.244284987449646E-2  -9.634520411491394E-1  -2.121411412954330E-1  -1.848427951335907E-2  
 5.868000000000000E7    -2.153982222080231E-1  -1.944498717784882E-2   8.101449906826019E-2  -9.648439884185791E-1   8.166253566741943E-2  -9.637268781661987E-1  -2.131410688161850E-1  -1.765190996229649E-2  
 5.870000000000000E7    -2.164161950349808E-1  -1.883869245648384E-2   8.009248226881027E-2  -9.646927118301392E-1   8.018752932548523E-2  -9.635663032531738E-1  -2.148611545562744E-1  -1.738543435931206E-2  
 5.872000000000000E7    -2.172687053680420E-1  -1.916667260229588E-2   7.913481444120407E-2  -9.644367098808289E-1   7.908743619918823E-2  -9.636876583099365E-1  -2.148233950138092E-1  -1.791267469525337E-2  
 5.874000000000000E7    -2.177344113588333E-1  -1.865193806588650E-2   7.797712087631226E-2  -9.646896719932556E-1   7.787103950977325E-2  -9.631945490837097E-1  -2.160453796386719E-1  -1.787277683615685E-2  
 5.876000000000000E7    -2.180048227310181E-1  -1.838507875800133E-2   7.673722505569458E-2  -9.644128680229187E-1   7.704968005418778E-2  -9.635844230651856E-1  -2.159112542867661E-1  -1.677921414375305E-2  
 5.878000000000000E7    -2.195570170879364E-1  -1.804476231336594E-2   7.546366751194000E-2  -9.639643430709839E-1   7.566449791193008E-2  -9.633374214172363E-1  -2.171219289302826E-1  -1.665064319968224E-2  
 5.880000000000000E7    -2.201443016529083E-1  -1.798439025878906E-2   7.432570308446884E-2  -9.643307328224182E-1   7.487788051366806E-2  -9.630673527717590E-1  -2.177267968654633E-1  -1.702642999589443E-2  
 5.882000000000000E7    -2.202005684375763E-1  -1.809976249933243E-2   7.327871024608612E-2  -9.640905857086182E-1   7.357720285654068E-2  -9.632524847984314E-1  -2.189376950263977E-1  -1.655425876379013E-2  
 5.884000000000000E7    -2.214863449335098E-1  -1.785558089613915E-2   7.237697392702103E-2  -9.642248749732971E-1   7.223627716302872E-2  -9.632002711296082E-1  -2.184470295906067E-1  -1.667221635580063E-2  
 5.886000000000000E7    -2.220121622085571E-1  -1.718116365373135E-2   7.106044143438339E-2  -9.641671776771545E-1   7.136394083499908E-2  -9.627749323844910E-1  -2.196475565433502E-1  -1.561982184648514E-2  
 5.888000000000000E7    -2.229956686496735E-1  -1.706348359584808E-2   7.003127783536911E-2  -9.638372063636780E-1   7.017876952886581E-2  -9.629718661308289E-1  -2.205509245395660E-1  -1.585273072123528E-2  
 5.890000000000000E7    -2.241827249526978E-1  -1.664325036108494E-2   6.889116764068604E-2  -9.636971354484558E-1   6.862517446279526E-2  -9.629845619201660E-1  -2.211374044418335E-1  -1.611263677477837E-2  
 5.892000000000000E7    -2.244486063718796E-1  -1.768129691481590E-2   6.738838553428650E-2  -9.637450575828552E-1   6.773826479911804E-2  -9.628724455833435E-1  -2.219921499490738E-1  -1.581235788762569E-2  
 5.894000000000000E7    -2.244244068861008E-1  -1.680580340325832E-2   6.660642474889755E-2  -9.640666246414185E-1   6.666730344295502E-2  -9.628310799598694E-1  -2.223572731018066E-1  -1.538332737982273E-2  
 5.896000000000000E7    -2.258850634098053E-1  -1.619712077081204E-2   6.527774035930634E-2  -9.634184241294861E-1   6.554562598466873E-2  -9.627498388290405E-1  -2.227317690849304E-1  -1.472792960703373E-2  
 5.898000000000000E7    -2.267358005046845E-1  -1.630227640271187E-2   6.411409378051758E-2  -9.635206460952759E-1   6.447057425975800E-2  -9.624130725860596E-1  -2.238331884145737E-1  -1.531379856169224E-2  
 5.900000000000000E7    -2.273765653371811E-1  -1.611342281103134E-2   6.298610568046570E-2  -9.635903835296631E-1   6.344546377658844E-2  -9.626860022544861E-1  -2.243545353412628E-1  -1.531753316521645E-2  
 5.902000000000000E7    -2.275374531745911E-1  -1.545256190001965E-2   6.180158630013466E-2  -9.631658792495728E-1   6.211771816015244E-2  -9.628848433494568E-1  -2.251876890659332E-1  -1.438485644757748E-2  
 5.904000000000000E7    -2.285297811031342E-1  -1.510811597108841E-2   6.075160205364227E-2  -9.633083939552307E-1   6.087174266576767E-2  -9.623128175735474E-1  -2.263891994953156E-1  -1.427307538688183E-2  
 5.906000000000000E7    -2.288479804992676E-1  -1.504294015467167E-2   5.969394743442535E-2  -9.633676409721375E-1   5.980226024985313E-2  -9.622961282730103E-1  -2.266677320003510E-1  -1.429605111479759E-2  
 5.908000000000000E7    -2.305270284414291E-1  -1.441052183508873E-2   5.886582657694817E-2  -9.627572298049927E-1   5.846890807151794E-2  -9.623371958732605E-1  -2.277640104293823E-1  -1.376529037952423E-2  
 5.910000000000000E7    -2.309022247791290E-1  -1.500798948109150E-2   5.752033740282059E-2  -9.628646969795227E-1   5.744137614965439E-2  -9.619824886322022E-1  -2.284350693225861E-1  -1.344308629631996E-2  
 5.912000000000000E7    -2.313441932201386E-1  -1.363502442836762E-2   5.667493119835854E-2  -9.627491831779480E-1   5.642304569482803E-2  -9.618083238601685E-1  -2.292288243770599E-1  -1.310547627508640E-2  
 5.914000000000000E7    -2.324954867362976E-1  -1.393769495189190E-2   5.546363443136215E-2  -9.626476764678955E-1   5.512452125549316E-2  -9.619812369346619E-1  -2.297804653644562E-1  -1.291939057409763E-2  
 5.916000000000000E7    -2.336823493242264E-1  -1.378746144473553E-2   5.385193228721619E-2  -9.622184038162231E-1   5.420242249965668E-2  -9.617775678634644E-1  -2.301479727029800E-1  -1.257603615522385E-2  
 5.918000000000000E7    -2.331770658493042E-1  -1.340718381106854E-2   5.302712693810463E-2  -9.627049565315247E-1   5.301964655518532E-2  -9.617967009544373E-1  -2.309373021125794E-1  -1.244584657251835E-2  
 5.920000000000000E7    -2.341895252466202E-1  -1.359448395669460E-2   5.167721211910248E-2  -9.624555110931397E-1   5.182726308703423E-2  -9.613138437271118E-1  -2.319490313529968E-1  -1.237265206873417E-2  
 5.922000000000000E7    -2.344782799482346E-1  -1.317492686212063E-2   5.075787752866745E-2  -9.623494148254395E-1   5.085898935794830E-2  -9.614139795303345E-1  -2.323316633701325E-1  -1.153456047177315E-2  
 5.924000000000000E7    -2.363136112689972E-1  -1.311502233147621E-2   4.969962686300278E-2  -9.619519710540772E-1   4.934206977486610E-2  -9.612939953804016E-1  -2.334410548210144E-1  -1.174446567893028E-2  
 5.926000000000000E7    -2.369375526905060E-1  -1.249396242201328E-2   4.852971434593201E-2  -9.619765281677246E-1   4.867509007453919E-2  -9.611026048660278E-1  -2.339663952589035E-1  -1.154585555195808E-2  
 5.928000000000000E7    -2.367353439331055E-1  -1.248676516115665E-2   4.706759750843048E-2  -9.617586135864258E-1   4.760465398430824E-2  -9.609239697456360E-1  -2.347752898931503E-1  -1.109357737004757E-2  
 5.930000000000000E7    -2.378528118133545E-1  -1.178235188126564E-2   4.624962806701660E-2  -9.618757367134094E-1   4.626273363828659E-2  -9.610054492950440E-1  -2.357488572597504E-1  -1.132981479167938E-2  
 5.932000000000000E7    -2.385902404785156E-1  -1.193746551871300E-2   4.488885402679443E-2  -9.618638753890991E-1   4.524410888552666E-2  -9.607175588607788E-1  -2.355487346649170E-1  -1.119015924632549E-2  
 5.934000000000000E7    -2.389065623283386E-1  -1.188987120985985E-2   4.368368163704872E-2  -9.616679549217224E-1   4.381418973207474E-2  -9.608694314956665E-1  -2.369111925363541E-1  -1.046872138977051E-2  
 5.936000000000000E7    -2.404773533344269E-1  -1.163446903228760E-2   4.252097010612488E-2  -9.615498781204224E-1   4.296119511127472E-2  -9.601255655288696E-1  -2.376300990581513E-1  -1.074778288602829E-2  
 5.938000000000000E7    -2.409128248691559E-1  -1.132138073444367E-2   4.157322272658348E-2  -9.611478447914124E-1   4.173657298088074E-2  -9.605765342712402E-1  -2.379644960165024E-1  -1.058752462267876E-2  
 5.940000000000000E7    -2.410420775413513E-1  -1.075819879770279E-2   4.019141942262650E-2  -9.613400101661682E-1   4.090216010808945E-2  -9.601467847824097E-1  -2.389146387577057E-1  -9.240463376045227E-3  
 5.942000000000000E7    -2.425099760293961E-1  -1.020721718668938E-2   3.929434716701508E-2  -9.610373377799988E-1   3.948721289634705E-2  -9.601372480392456E-1  -2.395606935024262E-1  -9.919922798871994E-3  
 5.944000000000000E7    -2.426159232854843E-1  -1.044746488332748E-2   3.829717636108398E-2  -9.608491063117981E-1   3.835995495319367E-2  -9.602528214454651E-1  -2.404727637767792E-1  -9.123362600803375E-3  
 5.946000000000000E7    -2.439898550510407E-1  -9.975150227546692E-3   3.705091029405594E-2  -9.606727957725525E-1   3.715847432613373E-2  -9.599217772483826E-1  -2.412030696868897E-1  -9.027335792779923E-3  
 5.948000000000000E7    -2.439777851104736E-1  -9.126614779233933E-3   3.603982925415039E-2  -9.607673287391663E-1   3.606837987899780E-2  -9.594722390174866E-1  -2.422601282596588E-1  -8.818209171295166E-3  
 5.950000000000000E7    -2.450065016746521E-1  -9.543437510728836E-3   3.469284623861313E-2  -9.606136083602905E-1   3.491731733083725E-2  -9.595295786857605E-1  -2.422441244125366E-1  -8.494324982166290E-3  
 5.952000000000000E7    -2.459375560283661E-1  -8.985236287117004E-3   3.370169550180435E-2  -9.604818820953369E-1   3.370581567287445E-2  -9.591866731643677E-1  -2.432484626770020E-1  -8.185960352420807E-3  
 5.954000000000000E7    -2.462305128574371E-1  -8.591569960117340E-3   3.252745047211647E-2  -9.602400660514832E-1   3.290878608822823E-2  -9.592504501342773E-1  -2.440304756164551E-1  -7.734686136245728E-3  
 5.956000000000000E7    -2.466804981231690E-1  -8.643306791782379E-3   3.153886646032333E-2  -9.598061442375183E-1   3.148317337036133E-2  -9.595001339912415E-1  -2.444515377283096E-1  -7.399581372737885E-3  
 5.958000000000000E7    -2.472250461578369E-1  -8.215859532356262E-3   3.031237609684467E-2  -9.602213501930237E-1   3.053182922303677E-2  -9.591394066810608E-1  -2.448235452175140E-1  -7.338322699069977E-3  
 5.960000000000000E7    -2.480772137641907E-1  -7.807623594999313E-3   2.913637459278107E-2  -9.597954154014587E-1   2.908638119697571E-2  -9.587643742561340E-1  -2.460841536521912E-1  -7.060538977384567E-3  
 5.962000000000000E7    -2.493003159761429E-1  -7.889226078987122E-3   2.791905775666237E-2  -9.597823023796082E-1   2.838521450757980E-2  -9.587605595588684E-1  -2.464604675769806E-1  -6.615765392780304E-3  
 5.964000000000000E7    -2.498129904270172E-1  -7.591784000396729E-3   2.712378464639187E-2  -9.596446752548218E-1   2.690379694104195E-2  -9.585739970207214E-1  -2.474646866321564E-1  -6.577797234058380E-3  
 5.966000000000000E7    -2.503021955490112E-1  -7.399097084999085E-3   2.554683946073055E-2  -9.595513343811035E-1   2.605601027607918E-2  -9.584265947341919E-1  -2.483840882778168E-1  -6.147611886262894E-3  
 5.968000000000000E7    -2.513058483600617E-1  -6.392057985067368E-3   2.486664056777954E-2  -9.593524336814880E-1   2.463879808783531E-2  -9.583849906921387E-1  -2.484839111566544E-1  -5.932595580816269E-3  
 5.970000000000000E7    -2.520146071910858E-1  -6.595395505428314E-3   2.360895089805126E-2  -9.591685533523560E-1   2.364790067076683E-2  -9.582344293594360E-1  -2.489341497421265E-1  -5.600742995738983E-3  
 5.972000000000000E7    -2.529468536376953E-1  -6.000932306051254E-3   2.226712740957737E-2  -9.588825702667236E-1   2.271497249603272E-2  -9.579284191131592E-1  -2.497463226318359E-1  -4.638832062482834E-3  
 5.974000000000000E7    -2.534577548503876E-1  -5.983531475067139E-3   2.153260819613934E-2  -9.588606953620911E-1   2.145202085375786E-2  -9.579142928123474E-1  -2.508686780929565E-1  -5.489975214004517E-3  
 5.976000000000000E7    -2.536193728446960E-1  -5.904197692871094E-3   1.996218226850033E-2  -9.587468504905701E-1   2.058682218194008E-2  -9.577289223670960E-1  -2.512598037719727E-1  -4.289101809263229E-3  
 5.978000000000000E7    -2.548333108425140E-1  -5.913306027650833E-3   1.894087344408035E-2  -9.585924744606018E-1   1.930968277156353E-2  -9.573677182197571E-1  -2.520638108253479E-1  -4.347015172243118E-3  
 5.980000000000000E7    -2.558032274246216E-1  -4.383966326713562E-3   1.831203699111939E-2  -9.582034945487976E-1   1.810085773468018E-2  -9.573056697845459E-1  -2.528670728206635E-1  -3.950297832489014E-3  
 5.982000000000000E7    -2.562342882156372E-1  -4.953630268573761E-3   1.672769337892532E-2  -9.580723643302918E-1   1.715444400906563E-2  -9.570510983467102E-1  -2.534625530242920E-1  -3.771480172872543E-3  
 5.984000000000000E7    -2.566803693771362E-1  -4.452981054782867E-3   1.571933552622795E-2  -9.581606388092041E-1   1.598751172423363E-2  -9.569923281669617E-1  -2.542584240436554E-1  -3.225494176149368E-3  
 5.986000000000000E7    -2.573759853839874E-1  -4.114646464586258E-3   1.464895159006119E-2  -9.576694965362549E-1   1.472974568605423E-2  -9.566928148269653E-1  -2.553592324256897E-1  -3.160472959280014E-3  
 5.988000000000000E7    -2.582191824913025E-1  -3.581892699003220E-3   1.350677572190762E-2  -9.574336409568787E-1   1.364637725055218E-2  -9.568982124328613E-1  -2.561034858226776E-1  -2.691596746444702E-3  
 5.990000000000000E7    -2.588301301002502E-1  -3.803230822086334E-3   1.211096346378326E-2  -9.575821757316589E-1   1.228738576173782E-2  -9.565815925598145E-1  -2.562887668609619E-1  -2.236314117908478E-3  
 5.992000000000000E7    -2.591410279273987E-1  -3.159560263156891E-3   1.128806918859482E-2  -9.572654366493225E-1   1.123166456818581E-2  -9.565695524215698E-1  -2.570262551307678E-1  -2.312030643224716E-3  
 5.994000000000000E7    -2.604324817657471E-1  -2.955425530672073E-3   1.024326682090759E-2  -9.569497108459473E-1   1.032261922955513E-2  -9.561584591865540E-1  -2.572991549968720E-1  -1.644961535930634E-3  
 5.996000000000000E7    -2.605116367340088E-1  -2.553962171077728E-3   9.128618985414505E-3  -9.569908380508423E-1   8.873458951711655E-3  -9.559596776962280E-1  -2.586312592029572E-1  -2.030044794082642E-3  
 5.998000000000000E7    -2.619267106056213E-1  -2.237100154161453E-3   7.983213290572166E-3  -9.565467834472656E-1   8.108111098408699E-3  -9.557174444198608E-1  -2.594247460365295E-1  -1.213863492012024E-3  
 6.000000000000000E7    -2.627184689044952E-1  -1.849446445703507E-3   6.702698767185211E-3  -9.565726518630981E-1   6.937356665730476E-3  -9.559876918792725E-1  -2.592038214206696E-1  -1.110743731260300E-3  
 6.002000000000000E7    -2.627910971641541E-1  -1.802030950784683E-3   5.781199783086777E-3  -9.563636779785156E-1   5.660314112901688E-3  -9.554670453071594E-1  -2.600437402725220E-1  -1.047492027282715E-3  
 6.004000000000000E7    -2.642810940742493E-1  -1.103565096855164E-3   4.452258348464966E-3  -9.560976028442383E-1   4.588814452290535E-3  -9.550926685333252E-1  -2.617838978767395E-1  -7.321350276470184E-4  
 6.006000000000000E7    -2.641741037368774E-1  -6.585083901882172E-4   3.595409914851189E-3  -9.558539390563965E-1   3.335740417242050E-3  -9.552229642868042E-1  -2.615878582000732E-1  -5.246512591838837E-4  
 6.008000000000000E7    -2.651182413101196E-1  -5.049146711826325E-4   2.372430637478828E-3  -9.560219645500183E-1   2.341551706194878E-3  -9.551136493682861E-1  -2.621573209762573E-1  -7.608160376548767E-5  
 6.010000000000000E7    -2.653594315052033E-1  -3.652274608612061E-4   1.256182789802551E-3  -9.558253288269043E-1   1.531299203634262E-3  -9.546251296997070E-1  -2.633509337902069E-1   9.972304105758667E-4  
 6.012000000000000E7    -2.664383053779602E-1   8.587166666984558E-5   1.338776201009750E-4  -9.551928639411926E-1   1.615434885025024E-4  -9.544144272804260E-1  -2.640334665775299E-1   6.540231406688690E-4  
 6.014000000000000E7    -2.668490707874298E-1   1.516640186309815E-4  -8.199978619813919E-4  -9.554414153099060E-1  -1.237869262695313E-3  -9.543665647506714E-1  -2.642706036567688E-1   6.343834102153778E-4  
 6.016000000000000E7    -2.679229676723480E-1   3.753267228603363E-4  -2.099739387631416E-3  -9.553379416465759E-1  -2.027668058872223E-3  -9.539280533790588E-1  -2.649454772472382E-1   1.396901905536652E-3  
 6.018000000000000E7    -2.683669626712799E-1   6.759166717529297E-4  -3.524139523506165E-3  -9.550148844718933E-1  -2.888035029172897E-3  -9.538611769676209E-1  -2.657861113548279E-1   1.552611589431763E-3  
 6.020000000000000E7    -2.689147889614105E-1   6.793178617954254E-4  -4.662930965423584E-3  -9.548355937004089E-1  -4.099620506167412E-3  -9.535132646560669E-1  -2.664050757884979E-1   2.083439379930496E-3  
 6.022000000000000E7    -2.694498300552368E-1   1.680582761764526E-3  -5.655065178871155E-3  -9.545613527297974E-1  -5.190873518586159E-3  -9.533907175064087E-1  -2.674223184585571E-1   2.693954855203629E-3  
 6.024000000000000E7    -2.703952789306641E-1   1.787804067134857E-3  -6.771324202418327E-3  -9.545484781265259E-1  -6.506025791168213E-3  -9.533269405364990E-1  -2.677355706691742E-1   2.683710306882858E-3  
 6.026000000000000E7    -2.718884646892548E-1   2.289958298206329E-3  -7.597964257001877E-3  -9.538339376449585E-1  -7.456481456756592E-3  -9.531531929969788E-1  -2.687321305274963E-1   3.436025232076645E-3  
 6.028000000000000E7    -2.724515497684479E-1   2.372462302446365E-3  -8.875114843249321E-3  -9.536567330360413E-1  -8.763523772358894E-3  -9.531391263008118E-1  -2.697016596794128E-1   3.448538482189179E-3  
 6.030000000000000E7    -2.733766436576843E-1   3.096345812082291E-3  -9.933914989233017E-3  -9.535620808601379E-1  -1.002548821270466E-2  -9.527205228805542E-1  -2.701132893562317E-1   3.831438720226288E-3  
 6.032000000000000E7    -2.740818262100220E-1   3.464911133050919E-3  -1.091223210096359E-2  -9.532453417778015E-1  -1.098625734448433E-2  -9.523786902427673E-1  -2.707267999649048E-1   4.262097179889679E-3  
 6.034000000000000E7    -2.738782465457916E-1   3.258828073740006E-3  -1.208664663136005E-2  -9.533165693283081E-1  -1.200273539870977E-2  -9.523785710334778E-1  -2.714862227439880E-1   4.921790212392807E-3  
 6.036000000000000E7    -2.751993536949158E-1   4.056960344314575E-3  -1.319832075387240E-2  -9.528530836105347E-1  -1.296336203813553E-2  -9.521098732948303E-1  -2.718575298786163E-1   4.504248499870300E-3  
 6.038000000000000E7    -2.757643461227417E-1   4.361014813184738E-3  -1.422790717333555E-2  -9.527465105056763E-1  -1.417131070047617E-2  -9.519373774528503E-1  -2.725244462490082E-1   4.861366003751755E-3  
 6.040000000000000E7    -2.759141921997070E-1   4.830226302146912E-3  -1.531418319791555E-2  -9.525181651115418E-1  -1.539046876132488E-2  -9.517468810081482E-1  -2.732477486133575E-1   5.205113440752029E-3  
 6.042000000000000E7    -2.769459486007690E-1   5.053706467151642E-3  -1.652077585458756E-2  -9.524740576744080E-1  -1.656570658087730E-2  -9.513719677925110E-1  -2.738991081714630E-1   6.090909242630005E-3  
 6.044000000000000E7    -2.774320244789124E-1   5.506634712219238E-3  -1.780048012733460E-2  -9.517915844917297E-1  -1.740367338061333E-2  -9.513778090476990E-1  -2.746301591396332E-1   6.289184093475342E-3  
 6.046000000000000E7    -2.783634960651398E-1   5.732614547014237E-3  -1.862002536654472E-2  -9.520725011825562E-1  -1.875723525881767E-2  -9.510033726692200E-1  -2.753823995590210E-1   6.787508726119995E-3  
 6.048000000000000E7    -2.788360118865967E-1   6.212674081325531E-3  -1.991927623748779E-2  -9.518860578536987E-1  -1.958602853119373E-2  -9.507074356079102E-1  -2.762156724929810E-1   6.975911557674408E-3  
 6.050000000000000E7    -2.794771790504456E-1   6.417021155357361E-3  -2.116164937615395E-2  -9.515947103500366E-1  -2.074775844812393E-2  -9.508419632911682E-1  -2.768074870109558E-1   7.661677896976471E-3  
 6.052000000000000E7    -2.802948057651520E-1   6.806500256061554E-3  -2.176221087574959E-2  -9.512851238250732E-1  -2.222952432930470E-2  -9.502997994422913E-1  -2.773333191871643E-1   7.926620543003082E-3  
 6.054000000000000E7    -2.807561755180359E-1   7.091380655765533E-3  -2.305133268237114E-2  -9.511763453483582E-1  -2.305493876338005E-2  -9.498010277748108E-1  -2.780743837356567E-1   8.452259004116058E-3  
 6.056000000000000E7    -2.810299396514893E-1   6.984882056713104E-3  -2.447956241667271E-2  -9.507242441177368E-1  -2.438294515013695E-2  -9.498378634452820E-1  -2.782393693923950E-1   7.935412228107452E-3  
 6.058000000000000E7    -2.824748754501343E-1   7.596299052238464E-3  -2.542134001851082E-2  -9.504222273826599E-1  -2.530729398131371E-2  -9.497375488281250E-1  -2.796496450901032E-1   8.381702005863190E-3  
 6.060000000000000E7    -2.826772630214691E-1   7.639467716217041E-3  -2.644705027341843E-2  -9.503276348114014E-1  -2.625814452767372E-2  -9.491868019104004E-1  -2.801125347614288E-1   8.846640586853027E-3  
 6.062000000000000E7    -2.836747765541077E-1   9.073577821254730E-3  -2.731484174728394E-2  -9.500501155853272E-1  -2.766479179263115E-2  -9.488069415092468E-1  -2.809768021106720E-1   8.630767464637756E-3  
 6.064000000000000E7    -2.842930555343628E-1   9.526327252388001E-3  -2.843581140041351E-2  -9.499657750129700E-1  -2.842271886765957E-2  -9.487822651863098E-1  -2.815068364143372E-1   1.001113653182983E-2  
 6.066000000000000E7    -2.854245305061340E-1   9.307026863098145E-3  -2.988272719085217E-2  -9.495552778244019E-1  -2.944432757794857E-2  -9.486476182937622E-1  -2.822431921958923E-1   1.010407507419586E-2  
 6.068000000000000E7    -2.855690121650696E-1   9.581945836544037E-3  -3.075083717703819E-2  -9.491476416587830E-1  -3.053963929414749E-2  -9.486053586006165E-1  -2.826771438121796E-1   1.064792275428772E-2  
 6.070000000000000E7    -2.862432301044464E-1   9.887844324111939E-3  -3.184184432029724E-2  -9.489984512329102E-1  -3.191946819424629E-2  -9.483971595764160E-1  -2.834697663784027E-1   1.061744242906570E-2  
 6.072000000000000E7    -2.869567275047302E-1   1.069370657205582E-2  -3.277903422713280E-2  -9.488113522529602E-1  -3.281128779053688E-2  -9.480637311935425E-1  -2.838664650917053E-1   1.178301125764847E-2  
 6.074000000000000E7    -2.874867022037506E-1   1.056073606014252E-2  -3.440746292471886E-2  -9.486531615257263E-1  -3.390773758292198E-2  -9.475637674331665E-1  -2.848926484584808E-1   1.177331805229187E-2  
 6.076000000000000E7    -2.879965305328369E-1   1.077572256326675E-2  -3.525472059845924E-2  -9.486459493637085E-1  -3.520133346319199E-2  -9.473410248756409E-1  -2.850097119808197E-1   1.208979636430740E-2  
 6.078000000000000E7    -2.884889841079712E-1   1.182134449481964E-2  -3.629796206951141E-2  -9.483283162117004E-1  -3.631289303302765E-2  -9.471619129180908E-1  -2.859610319137573E-1   1.228328049182892E-2  
 6.080000000000000E7    -2.899295687675476E-1   1.171196997165680E-2  -3.765741735696793E-2  -9.481127858161926E-1  -3.745572268962860E-2  -9.469686746597290E-1  -2.860869467258453E-1   1.264485716819763E-2  
 6.082000000000000E7    -2.909159660339356E-1   1.238620281219482E-2  -3.862567991018295E-2  -9.473726749420166E-1  -3.813134133815765E-2  -9.469628930091858E-1  -2.870881259441376E-1   1.359191536903381E-2  
 6.084000000000000E7    -2.908321022987366E-1   1.258256286382675E-2  -3.988321870565414E-2  -9.472144842147827E-1  -3.926836326718330E-2  -9.466869235038757E-1  -2.879427075386047E-1   1.372788101434708E-2  
 6.086000000000000E7    -2.914685010910034E-1   1.255731284618378E-2  -4.104867205023766E-2  -9.469244480133057E-1  -4.052007943391800E-2  -9.463766217231751E-1  -2.887303531169891E-1   1.415275782346726E-2  
 6.088000000000000E7    -2.918720245361328E-1   1.372036337852478E-2  -4.173342883586884E-2  -9.469130635261536E-1  -4.160370677709580E-2  -9.459022879600525E-1  -2.894110679626465E-1   1.434195786714554E-2  
 6.090000000000000E7    -2.924226820468903E-1   1.396043598651886E-2  -4.275973141193390E-2  -9.468529820442200E-1  -4.259365797042847E-2  -9.455520510673523E-1  -2.893169522285461E-1   1.506665349006653E-2  
 6.092000000000000E7    -2.932793498039246E-1   1.404489576816559E-2  -4.411279410123825E-2  -9.462397098541260E-1  -4.384752735495567E-2  -9.455729722976685E-1  -2.907832264900208E-1   1.510740816593170E-2  
 6.094000000000000E7    -2.940394282341003E-1   1.446105539798737E-2  -4.532601684331894E-2  -9.461116194725037E-1  -4.479751363396645E-2  -9.453132152557373E-1  -2.914055883884430E-1   1.566249877214432E-2  
 6.096000000000000E7    -2.944711446762085E-1   1.497912406921387E-2  -4.636629670858383E-2  -9.458459019660950E-1  -4.616530984640122E-2  -9.450950026512146E-1  -2.918713092803955E-1   1.589364558458328E-2  
 6.098000000000000E7    -2.949933409690857E-1   1.539632678031921E-2  -4.684475809335709E-2  -9.457851648330689E-1  -4.716641455888748E-2  -9.446546435356140E-1  -2.924548983573914E-1   1.581571996212006E-2  
 6.100000000000000E7    -2.964329719543457E-1   1.599749922752380E-2  -4.866609722375870E-2  -9.451236128807068E-1  -4.826274514198303E-2  -9.442593455314636E-1  -2.930384278297424E-1   1.633502542972565E-2  
 6.102000000000000E7    -2.968762218952179E-1   1.557223498821259E-2  -4.949701577425003E-2  -9.451955556869507E-1  -4.926135390996933E-2  -9.441375136375427E-1  -2.936728000640869E-1   1.717434078454971E-2  
 6.104000000000000E7    -2.970964610576630E-1   1.662320643663406E-2  -5.043385177850723E-2  -9.446693062782288E-1  -5.029899626970291E-2  -9.438295960426331E-1  -2.946208119392395E-1   1.764146983623505E-2  
 6.106000000000000E7    -2.982082664966583E-1   1.685323566198349E-2  -5.152306705713272E-2  -9.442887306213379E-1  -5.146513134241104E-2  -9.436918497085571E-1  -2.951120436191559E-1   1.769155263900757E-2  
 6.108000000000000E7    -2.985059022903442E-1   1.725817471742630E-2  -5.283963307738304E-2  -9.439933300018311E-1  -5.251301079988480E-2  -9.432210922241211E-1  -2.960022985935211E-1   1.827718317508698E-2  
 6.110000000000000E7    -2.995649278163910E-1   1.743761450052261E-2  -5.379945784807205E-2  -9.438856840133667E-1  -5.370025336742401E-2  -9.429122209548950E-1  -2.967379987239838E-1   1.844822615385056E-2  
 6.112000000000000E7    -3.003308475017548E-1   1.849275827407837E-2  -5.459233745932579E-2  -9.437431693077087E-1  -5.466613173484802E-2  -9.424103498458862E-1  -2.973784506320953E-1   1.959881186485291E-2  
 6.114000000000000E7    -3.005715906620026E-1   1.790294051170349E-2  -5.609288811683655E-2  -9.432830810546875E-1  -5.600748211145401E-2  -9.425614476203919E-1  -2.977598011493683E-1   1.938806474208832E-2  
 6.116000000000000E7    -3.007905185222626E-1   1.874030381441116E-2  -5.703127011656761E-2  -9.434583187103272E-1  -5.726822465658188E-2  -9.420551061630249E-1  -2.984499633312225E-1   1.966486126184464E-2  
 6.118000000000000E7    -3.023487329483032E-1   1.915328204631805E-2  -5.802318826317787E-2  -9.425939917564392E-1  -5.822286754846573E-2  -9.419216513633728E-1  -2.987685501575470E-1   1.998595893383026E-2  
 6.120000000000000E7    -3.024794161319733E-1   1.993665099143982E-2  -5.915291234850884E-2  -9.424772262573242E-1  -5.893843993544579E-2  -9.417380690574646E-1  -2.994998097419739E-1   2.092215418815613E-2  
 6.122000000000000E7    -3.032089471817017E-1   1.965721696615219E-2  -6.050421297550201E-2  -9.423131346702576E-1  -6.003558635711670E-2  -9.410962462425232E-1  -3.007239997386932E-1   2.072409540414810E-2  
 6.124000000000000E7    -3.039538860321045E-1   2.044112235307694E-2  -6.174339726567268E-2  -9.418987631797791E-1  -6.164537370204926E-2  -9.407297968864441E-1  -3.016894161701202E-1   2.141308784484863E-2  
 6.126000000000000E7    -3.045137822628021E-1   2.039255946874619E-2  -6.262868642807007E-2  -9.415664672851563E-1  -6.212960928678513E-2  -9.408459663391113E-1  -3.016079664230347E-1   2.208651602268219E-2  
 6.128000000000000E7    -3.052725493907929E-1   2.185264974832535E-2  -6.370674818754196E-2  -9.411823153495789E-1  -6.345505267381668E-2  -9.403851628303528E-1  -3.021826148033142E-1   2.240119129419327E-2  
 6.130000000000000E7    -3.060631752014160E-1   2.168188989162445E-2  -6.479200720787048E-2  -9.409785866737366E-1  -6.459286808967590E-2  -9.400171041488648E-1  -3.031892776489258E-1   2.240107208490372E-2  
 6.132000000000000E7    -3.065568506717682E-1   2.191458642482758E-2  -6.557546555995941E-2  -9.407894611358643E-1  -6.573127210140228E-2  -9.400690197944641E-1  -3.030231297016144E-1   2.302645891904831E-2  
 6.134000000000000E7    -3.071159124374390E-1   2.245473861694336E-2  -6.698601692914963E-2  -9.404645562171936E-1  -6.627382338047028E-2  -9.393834471702576E-1  -3.042297959327698E-1   2.412923425436020E-2  
 6.136000000000000E7    -3.081455826759338E-1   2.261671423912048E-2  -6.817980855703354E-2  -9.401926994323731E-1  -6.790831685066223E-2  -9.390575289726257E-1  -3.054326474666596E-1   2.397415786981583E-2  
 6.138000000000000E7    -3.082727789878845E-1   2.365873008966446E-2  -6.903997808694840E-2  -9.398205280303955E-1  -6.866399943828583E-2  -9.389145374298096E-1  -3.057260811328888E-1   2.442367374897003E-2  
 6.140000000000000E7    -3.092359304428101E-1   2.309128642082214E-2  -7.024012506008148E-2  -9.395722746849060E-1  -6.964883208274841E-2  -9.386866092681885E-1  -3.060599863529205E-1   2.494983375072479E-2  
 6.142000000000000E7    -3.093117475509644E-1   2.432774752378464E-2  -7.113668322563171E-2  -9.393893480300903E-1  -7.100085169076920E-2  -9.382035732269287E-1  -3.063122332096100E-1   2.474363148212433E-2  
 6.144000000000000E7    -3.103545308113098E-1   2.426809817552567E-2  -7.250408083200455E-2  -9.390233755111694E-1  -7.177527248859406E-2  -9.380394816398621E-1  -3.071385920047760E-1   2.580968290567398E-2  
 6.146000000000000E7    -3.111514151096344E-1   2.463808655738831E-2  -7.355535030364990E-2  -9.389479160308838E-1  -7.288807630538940E-2  -9.375221133232117E-1  -3.078773915767670E-1   2.630396932363510E-2  
 6.148000000000000E7    -3.115419447422028E-1   2.533229440450668E-2  -7.441662251949310E-2  -9.383229017257690E-1  -7.393804937601090E-2  -9.375610947608948E-1  -3.084774017333984E-1   2.639757841825485E-2  
 6.150000000000000E7    -3.128676712512970E-1   2.587896585464478E-2  -7.519450783729553E-2  -9.379484057426453E-1  -7.517879456281662E-2  -9.368811845779419E-1  -3.093611001968384E-1   2.723263949155808E-2  
 6.152000000000000E7    -3.130533695220947E-1   2.591464668512344E-2  -7.634966075420380E-2  -9.377811551094055E-1  -7.636414468288422E-2  -9.366566538810730E-1  -3.097946941852570E-1   2.697623521089554E-2  
 6.154000000000000E7    -3.134773075580597E-1   2.700304239988327E-2  -7.764139771461487E-2  -9.372213482856751E-1  -7.717393338680267E-2  -9.365494251251221E-1  -3.106760382652283E-1   2.795195579528809E-2  
 6.156000000000000E7    -3.142987191677094E-1   2.698037773370743E-2  -7.901780307292938E-2  -9.367913603782654E-1  -7.808749377727509E-2  -9.364536404609680E-1  -3.112623095512390E-1   2.821984887123108E-2  
 6.158000000000000E7    -3.149574398994446E-1   2.791544049978256E-2  -7.982702553272247E-2  -9.366626143455505E-1  -7.934252917766571E-2  -9.360001087188721E-1  -3.117921948432922E-1   2.904856950044632E-2  
 6.160000000000000E7    -3.157232701778412E-1   2.804031968116760E-2  -8.070968836545944E-2  -9.364407062530518E-1  -8.050170540809631E-2  -9.355059266090393E-1  -3.121662139892578E-1   2.891458570957184E-2  
 6.162000000000000E7    -3.162810206413269E-1   2.844247967004776E-2  -8.199328929185867E-2  -9.360653162002564E-1  -8.160220086574554E-2  -9.352232813835144E-1  -3.137300014495850E-1   2.954064309597015E-2  
 6.164000000000000E7    -3.166866600513458E-1   2.855522930622101E-2  -8.295024931430817E-2  -9.357019662857056E-1  -8.256535977125168E-2  -9.351699352264404E-1  -3.134658932685852E-1   2.995232492685318E-2  
 6.166000000000000E7    -3.179194331169128E-1   2.964455634355545E-2  -8.384664356708527E-2  -9.350879192352295E-1  -8.390733599662781E-2  -9.343401193618774E-1  -3.152236044406891E-1   3.008572757244110E-2  
 6.168000000000000E7    -3.185708224773407E-1   2.968947589397430E-2  -8.512192964553833E-2  -9.350423812866211E-1  -8.492001891136169E-2  -9.340577125549316E-1  -3.150660395622253E-1   3.117679804563522E-2  
 6.170000000000000E7    -3.188966810703278E-1   3.038864582777023E-2  -8.602717518806458E-2  -9.347300529479981E-1  -8.600787073373795E-2  -9.337506890296936E-1  -3.157636225223541E-1   3.107584267854691E-2  
 6.172000000000000E7    -3.192838430404663E-1   3.094554692506790E-2  -8.700048923492432E-2  -9.346889257431030E-1  -8.698640763759613E-2  -9.335286617279053E-1  -3.162989020347595E-1   3.217422962188721E-2  
 6.174000000000000E7    -3.201625347137451E-1   3.149843961000443E-2  -8.829735219478607E-2  -9.340587258338928E-1  -8.805233240127564E-2  -9.329993724822998E-1  -3.170956671237946E-1   3.224644064903259E-2  
 6.176000000000000E7    -3.208203911781311E-1   3.130268305540085E-2  -8.937477320432663E-2  -9.337949156761169E-1  -8.910336345434189E-2  -9.328334331512451E-1  -3.178309500217438E-1   3.242094069719315E-2  
 6.178000000000000E7    -3.215399682521820E-1   3.271378576755524E-2  -9.039019793272018E-2  -9.333212375640869E-1  -8.989846706390381E-2  -9.326625466346741E-1  -3.179537653923035E-1   3.321398794651032E-2  
 6.180000000000000E7    -3.218326568603516E-1   3.232409805059433E-2  -9.161058068275452E-2  -9.332378506660461E-1  -9.114433825016022E-2  -9.322293400764465E-1  -3.189384341239929E-1   3.359431773424149E-2  
 6.182000000000000E7    -3.230436444282532E-1   3.298500180244446E-2  -9.241329133510590E-2  -9.327421188354492E-1  -9.212011098861694E-2  -9.319214820861816E-1  -3.193868398666382E-1   3.399379551410675E-2  
 6.184000000000000E7    -3.232500553131104E-1   3.298666328191757E-2  -9.388238191604614E-2  -9.324496388435364E-1  -9.309507906436920E-2  -9.314311742782593E-1  -3.202749788761139E-1   3.417173027992249E-2  
 6.186000000000000E7    -3.248855471611023E-1   3.388576209545136E-2  -9.459230303764343E-2  -9.318372011184692E-1  -9.469068050384522E-2  -9.312722682952881E-1  -3.205626308917999E-1   3.436433523893356E-2  
 6.188000000000000E7    -3.244955539703369E-1   3.431564569473267E-2  -9.563601016998291E-2  -9.320670962333679E-1  -9.549017250537872E-2  -9.307675361633301E-1  -3.213617801666260E-1   3.538112342357636E-2  
 6.190000000000000E7    -3.250164091587067E-1   3.516069799661636E-2  -9.667997062206268E-2  -9.311719536781311E-1  -9.649983048439026E-2  -9.306121468544006E-1  -3.217988610267639E-1   3.564530611038208E-2  
 6.192000000000000E7    -3.258242011070252E-1   3.520727157592773E-2  -9.784032404422760E-2  -9.310297369956970E-1  -9.735517203807831E-2  -9.300990104675293E-1  -3.229415714740753E-1   3.632361441850662E-2  
 6.194000000000000E7    -3.264866471290588E-1   3.597208857536316E-2  -9.882538020610809E-2  -9.307238459587097E-1  -9.857913106679916E-2  -9.300534129142761E-1  -3.227271139621735E-1   3.639596700668335E-2  
 6.196000000000000E7    -3.268339037895203E-1   3.602737933397293E-2  -9.992553293704987E-2  -9.305498003959656E-1  -9.957499802112579E-2  -9.297176599502564E-1  -3.231735527515411E-1   3.707619011402130E-2  
 6.198000000000000E7    -3.270838856697083E-1   3.704506158828735E-2  -1.007892489433289E-1  -9.302827119827271E-1  -1.005552038550377E-1  -9.292926788330078E-1  -3.237881362438202E-1   3.755855560302734E-2  
 6.200000000000000E7    -3.274567127227783E-1   3.689421713352203E-2  -1.019166260957718E-1  -9.297887086868286E-1  -1.017924472689629E-1  -9.287636876106262E-1  -3.249731361865997E-1   3.814601153135300E-2  
 6.202000000000000E7    -3.284916281700134E-1   3.794685006141663E-2  -1.031643450260162E-1  -9.295839071273804E-1  -1.027882695198059E-1  -9.281988143920898E-1  -3.258351683616638E-1   3.799249976873398E-2  
 6.204000000000000E7    -3.296947479248047E-1   3.864229470491409E-2  -1.038680151104927E-1  -9.287235140800476E-1  -1.038863658905029E-1  -9.278217554092407E-1  -3.263944983482361E-1   3.882780671119690E-2  
 6.206000000000000E7    -3.299663066864014E-1   3.926657140254974E-2  -1.051212847232819E-1  -9.285982251167297E-1  -1.048267483711243E-1  -9.278633594512940E-1  -3.261263370513916E-1   3.942961990833283E-2  
 6.208000000000000E7    -3.303532600402832E-1   3.934489190578461E-2  -1.061141192913055E-1  -9.283902645111084E-1  -1.057062894105911E-1  -9.273473620414734E-1  -3.273068964481354E-1   4.012215137481690E-2  
 6.210000000000000E7    -3.309518694877625E-1   3.984768688678742E-2  -1.072040051221848E-1  -9.279487729072571E-1  -1.068523451685906E-1  -9.268748760223389E-1  -3.285414874553680E-1   4.036431759595871E-2  
 6.212000000000000E7    -3.316587805747986E-1   3.987298905849457E-2  -1.083894893527031E-1  -9.278605580329895E-1  -1.084106564521790E-1  -9.264350533485413E-1  -3.285629153251648E-1   4.022029042243958E-2  
 6.214000000000000E7    -3.327506184577942E-1   4.034046828746796E-2  -1.094654798507690E-1  -9.269775152206421E-1  -1.092517524957657E-1  -9.263307452201843E-1  -3.295468688011169E-1   4.134780168533325E-2  
 6.216000000000000E7    -3.329945802688599E-1   4.045886546373367E-2  -1.105786189436913E-1  -9.266793727874756E-1  -1.100570410490036E-1  -9.261020421981812E-1  -3.299107849597931E-1   4.130569845438004E-2  
 6.218000000000000E7    -3.333112895488739E-1   4.167357087135315E-2  -1.111766099929810E-1  -9.263774752616882E-1  -1.112551689147949E-1  -9.256718158721924E-1  -3.305808901786804E-1   4.236669093370438E-2  
 6.220000000000000E7    -3.343168795108795E-1   4.217020422220230E-2  -1.123594269156456E-1  -9.260802268981934E-1  -1.120342314243317E-1  -9.250444173812866E-1  -3.311541080474854E-1   4.269465804100037E-2  
 6.222000000000000E7    -3.343622088432312E-1   4.210250824689865E-2  -1.136466041207314E-1  -9.259525537490845E-1  -1.133920177817345E-1  -9.247723817825317E-1  -3.317014575004578E-1   4.302933812141419E-2  
 6.224000000000000E7    -3.349245190620422E-1   4.291431605815888E-2  -1.147106811404228E-1  -9.257420897483826E-1  -1.144933477044106E-1  -9.242284893989563E-1  -3.327665925025940E-1   4.304306954145432E-2  
 6.226000000000000E7    -3.356143832206726E-1   4.322411119937897E-2  -1.154778748750687E-1  -9.250787496566773E-1  -1.157480180263519E-1  -9.243487119674683E-1  -3.327837586402893E-1   4.439017921686173E-2  
 6.228000000000000E7    -3.369112312793732E-1   4.362749308347702E-2  -1.168508529663086E-1  -9.245627522468567E-1  -1.162486821413040E-1  -9.235233068466187E-1  -3.337386250495911E-1   4.489958286285400E-2  
 6.230000000000000E7    -3.370065391063690E-1   4.416299611330032E-2  -1.177364736795425E-1  -9.244024157524109E-1  -1.176863610744476E-1  -9.233726263046265E-1  -3.344335854053497E-1   4.475775361061096E-2  
 6.232000000000000E7    -3.381235897541046E-1   4.529519379138947E-2  -1.190353706479073E-1  -9.237995147705078E-1  -1.183885186910629E-1  -9.230558276176453E-1  -3.346791565418243E-1   4.579877108335495E-2  
 6.234000000000000E7    -3.385806083679199E-1   4.536044597625732E-2  -1.197909116744995E-1  -9.236686825752258E-1  -1.196673363447189E-1  -9.223397374153137E-1  -3.352183103561401E-1   4.607167840003967E-2  
 6.236000000000000E7    -3.390361666679382E-1   4.580174386501312E-2  -1.207833364605904E-1  -9.230596423149109E-1  -1.206373125314713E-1  -9.219598174095154E-1  -3.361092209815979E-1   4.635757207870483E-2  
 6.238000000000000E7    -3.400839865207672E-1   4.640608280897141E-2  -1.219860166311264E-1  -9.229394793510437E-1  -1.215545386075974E-1  -9.218536019325256E-1  -3.362045288085938E-1   4.719401895999908E-2  
 6.240000000000000E7    -3.405819535255432E-1   4.616151005029678E-2  -1.229818314313889E-1  -9.221226572990418E-1  -1.225383505225182E-1  -9.213417172431946E-1  -3.372957110404968E-1   4.801919311285019E-2  
 6.242000000000000E7    -3.414565920829773E-1   4.692425578832626E-2  -1.238797605037689E-1  -9.219663739204407E-1  -1.237533241510391E-1  -9.211979508399963E-1  -3.372320830821991E-1   4.735805839300156E-2  
 6.244000000000000E7    -3.417549431324005E-1   4.772581160068512E-2  -1.249828934669495E-1  -9.215933680534363E-1  -1.249867081642151E-1  -9.205550551414490E-1  -3.383193612098694E-1   4.856794327497482E-2  
 6.246000000000000E7    -3.421382904052734E-1   4.832603037357330E-2  -1.260120719671249E-1  -9.212018847465515E-1  -1.257065236568451E-1  -9.203352928161621E-1  -3.388814926147461E-1   4.921354353427887E-2  
 6.248000000000000E7    -3.425267338752747E-1   4.847060143947601E-2  -1.273112595081329E-1  -9.210559725761414E-1  -1.266520619392395E-1  -9.194762110710144E-1  -3.399668037891388E-1   4.986325651407242E-2  
 6.250000000000000E7    -3.437106311321259E-1   4.909703135490418E-2  -1.281025856733322E-1  -9.201996922492981E-1  -1.278757303953171E-1  -9.194511771202087E-1  -3.398312926292419E-1   4.981285333633423E-2  
 6.252000000000000E7    -3.438427448272705E-1   4.939813166856766E-2  -1.292557865381241E-1  -9.199582934379578E-1  -1.289081871509552E-1  -9.190922975540161E-1  -3.404513895511627E-1   5.025381594896317E-2  
 6.254000000000000E7    -3.446587026119232E-1   5.018764734268189E-2  -1.298845857381821E-1  -9.194945096969605E-1  -1.300191432237625E-1  -9.186019897460938E-1  -3.412574827671051E-1   5.073129385709763E-2  
 6.256000000000000E7    -3.450398445129395E-1   5.031329393386841E-2  -1.314329504966736E-1  -9.193508625030518E-1  -1.308421492576599E-1  -9.183964133262634E-1  -3.414728641510010E-1   5.158235877752304E-2  
 6.258000000000000E7    -3.454938530921936E-1   5.133880674839020E-2  -1.320456415414810E-1  -9.190969467163086E-1  -1.317616850137711E-1  -9.180054664611816E-1  -3.419830799102783E-1   5.192185938358307E-2  
 6.260000000000000E7    -3.461398184299469E-1   5.193483084440231E-2  -1.330502778291702E-1  -9.184898138046265E-1  -1.331067383289337E-1  -9.174084663391113E-1  -3.432592451572418E-1   5.215138942003250E-2  
 6.262000000000000E7    -3.469019830226898E-1   5.198351293802261E-2  -1.344907879829407E-1  -9.178729653358460E-1  -1.339779347181320E-1  -9.169499278068543E-1  -3.440473377704620E-1   5.330254137516022E-2  
 6.264000000000000E7    -3.468726873397827E-1   5.257470160722733E-2  -1.355167627334595E-1  -9.175505042076111E-1  -1.346702575683594E-1  -9.169394969940186E-1  -3.440014719963074E-1   5.384469777345657E-2  
 6.266000000000000E7    -3.482051193714142E-1   5.316702276468277E-2  -1.364423483610153E-1  -9.170804023742676E-1  -1.360101550817490E-1  -9.163218140602112E-1  -3.447130620479584E-1   5.373753607273102E-2  
 6.268000000000000E7    -3.489809334278107E-1   5.419304221868515E-2  -1.370853930711746E-1  -9.165706634521484E-1  -1.370768249034882E-1  -9.155838489532471E-1  -3.452671766281128E-1   5.486246943473816E-2  
 6.270000000000000E7    -3.492312133312225E-1   5.418030172586441E-2  -1.383416354656220E-1  -9.165970683097839E-1  -1.377117037773132E-1  -9.155578017234802E-1  -3.454692065715790E-1   5.571134388446808E-2  
 6.272000000000000E7    -3.498798906803131E-1   5.455823242664337E-2  -1.393757164478302E-1  -9.158833622932434E-1  -1.391456574201584E-1  -9.152052402496338E-1  -3.461628556251526E-1   5.532269179821014E-2  
 6.274000000000000E7    -3.506190180778503E-1   5.510582774877548E-2  -1.405295133590698E-1  -9.154873490333557E-1  -1.404236555099487E-1  -9.145811796188355E-1  -3.469880819320679E-1   5.544633418321610E-2  
 6.276000000000000E7    -3.513416945934296E-1   5.584720522165299E-2  -1.413217633962631E-1  -9.152843952178955E-1  -1.409614682197571E-1  -9.139859080314636E-1  -3.476275205612183E-1   5.731482058763504E-2  
 6.278000000000000E7    -3.514260649681091E-1   5.656271427869797E-2  -1.424121260643005E-1  -9.146448373794556E-1  -1.420250982046127E-1  -9.137321114540100E-1  -3.481858074665070E-1   5.722253024578095E-2  
 6.280000000000000E7    -3.517293334007263E-1   5.704599618911743E-2  -1.434213519096375E-1  -9.144006371498108E-1  -1.433170139789581E-1  -9.134026169776917E-1  -3.487756252288818E-1   5.747780948877335E-2  
 6.282000000000000E7    -3.525655269622803E-1   5.779247730970383E-2  -1.442630887031555E-1  -9.138544201850891E-1  -1.443534940481186E-1  -9.126882553100586E-1  -3.496855497360230E-1   5.819064378738403E-2  
 6.284000000000000E7    -3.533759415149689E-1   5.738585442304611E-2  -1.455728858709335E-1  -9.131723046302795E-1  -1.454070657491684E-1  -9.125539660453796E-1  -3.500307798385620E-1   5.874586850404739E-2  
 6.286000000000000E7    -3.542116880416870E-1   5.824242532253265E-2  -1.464598178863525E-1  -9.130113124847412E-1  -1.464549899101257E-1  -9.121469259262085E-1  -3.507131338119507E-1   5.907302349805832E-2  
 6.288000000000000E7    -3.541850745677948E-1   5.902644246816635E-2  -1.472966372966766E-1  -9.125629067420960E-1  -1.470702737569809E-1  -9.116948246955872E-1  -3.512975871562958E-1   5.997763574123383E-2  
 6.290000000000000E7    -3.550032377243042E-1   5.929826945066452E-2  -1.485529243946075E-1  -9.121372103691101E-1  -1.482343971729279E-1  -9.112083315849304E-1  -3.513663411140442E-1   6.085813045501709E-2  
 6.292000000000000E7    -3.558753132820129E-1   6.056066602468491E-2  -1.493997722864151E-1  -9.117177128791809E-1  -1.491149365901947E-1  -9.107065200805664E-1  -3.522082567214966E-1   6.113079190254211E-2  
 6.294000000000000E7    -3.562126159667969E-1   6.102982908487320E-2  -1.501212418079376E-1  -9.111433029174805E-1  -1.500361859798431E-1  -9.103261232376099E-1  -3.532290756702423E-1   6.174007803201675E-2  
 6.296000000000000E7    -3.571088910102844E-1   6.124509871006012E-2  -1.516503989696503E-1  -9.109209775924683E-1  -1.511701792478561E-1  -9.101356267929077E-1  -3.529818058013916E-1   6.178505718708038E-2  
 6.298000000000000E7    -3.574875295162201E-1   6.162575632333756E-2  -1.527334898710251E-1  -9.102729558944702E-1  -1.523226648569107E-1  -9.097663164138794E-1  -3.544036448001862E-1   6.256143003702164E-2  
 6.300000000000000E7    -3.579015731811523E-1   6.249441206455231E-2  -1.535287201404572E-1  -9.098902344703674E-1  -1.530084013938904E-1  -9.091287255287170E-1  -3.548648655414581E-1   6.322134286165237E-2  
 6.302000000000000E7    -3.587197959423065E-1   6.254390627145767E-2  -1.544362306594849E-1  -9.097650647163391E-1  -1.544798910617828E-1  -9.088819622993469E-1  -3.545908927917481E-1   6.390048563480377E-2  
 6.304000000000000E7    -3.587365746498108E-1   6.292343139648438E-2  -1.557374000549316E-1  -9.094089865684509E-1  -1.550448536872864E-1  -9.082894921302795E-1  -3.553610146045685E-1   6.414618343114853E-2  
 6.306000000000000E7    -3.599752783775330E-1   6.373978406190872E-2  -1.567128300666809E-1  -9.085336923599243E-1  -1.566385328769684E-1  -9.079456329345703E-1  -3.561879396438599E-1   6.436444818973541E-2  
 6.308000000000000E7    -3.602173924446106E-1   6.435378640890122E-2  -1.579615473747253E-1  -9.083522558212280E-1  -1.575125008821487E-1  -9.074954390525818E-1  -3.567486107349396E-1   6.506921350955963E-2  
 6.310000000000000E7    -3.608387112617493E-1   6.505846977233887E-2  -1.586963087320328E-1  -9.079963564872742E-1  -1.582103073596954E-1  -9.069315195083618E-1  -3.572958707809448E-1   6.575985252857208E-2  
 6.312000000000000E7    -3.612885475158691E-1   6.565909832715988E-2  -1.597034633159638E-1  -9.077408909797669E-1  -1.595341861248016E-1  -9.062951803207398E-1  -3.580002486705780E-1   6.610560417175293E-2  
 6.314000000000000E7    -3.616352081298828E-1   6.596522778272629E-2  -1.607861071825028E-1  -9.068675041198731E-1  -1.603709757328033E-1  -9.059097766876221E-1  -3.590393364429474E-1   6.684799492359161E-2  
 6.316000000000000E7    -3.624808490276337E-1   6.653217226266861E-2  -1.615769267082214E-1  -9.064544439315796E-1  -1.615556180477142E-1  -9.055396318435669E-1  -3.590981662273407E-1   6.729605048894882E-2  
 6.318000000000000E7    -3.633894622325897E-1   6.800690293312073E-2  -1.624453067779541E-1  -9.060382246971130E-1  -1.623902320861816E-1  -9.053826332092285E-1  -3.593994081020355E-1   6.776716560125351E-2  
 6.320000000000000E7    -3.634758889675140E-1   6.785266846418381E-2  -1.636567413806915E-1  -9.055854082107544E-1  -1.633757501840591E-1  -9.046378731727600E-1  -3.604528009891510E-1   6.850889325141907E-2  
 6.322000000000000E7    -3.642391860485077E-1   6.843864917755127E-2  -1.646879315376282E-1  -9.052266478538513E-1  -1.642596423625946E-1  -9.044669270515442E-1  -3.607623279094696E-1   6.877249479293823E-2  
 6.324000000000000E7    -3.648843169212341E-1   6.889760494232178E-2  -1.657844185829163E-1  -9.045670628547669E-1  -1.654914915561676E-1  -9.037036895751953E-1  -3.615474104881287E-1   6.929288804531097E-2  
 6.326000000000000E7    -3.654425144195557E-1   6.884778290987015E-2  -1.668186187744141E-1  -9.041832089424133E-1  -1.667552590370178E-1  -9.034638404846191E-1  -3.619710803031921E-1   6.940583884716034E-2  
 6.328000000000000E7    -3.661876022815704E-1   6.972168385982513E-2  -1.677410900592804E-1  -9.037438631057739E-1  -1.675264835357666E-1  -9.026308655738831E-1  -3.628104031085968E-1   7.000210136175156E-2  
 6.330000000000000E7    -3.662852048873901E-1   6.981369853019714E-2  -1.688003838062286E-1  -9.034958481788635E-1  -1.682791411876679E-1  -9.025598764419556E-1  -3.628326058387756E-1   7.100844383239746E-2  
 6.332000000000000E7    -3.668677806854248E-1   7.108779996633530E-2  -1.696674227714539E-1  -9.029512405395508E-1  -1.690352857112885E-1  -9.019949436187744E-1  -3.638004064559937E-1   7.149784266948700E-2  
 6.334000000000000E7    -3.680945634841919E-1   7.166630774736404E-2  -1.705442219972611E-1  -9.023827910423279E-1  -1.706657707691193E-1  -9.015768170356751E-1  -3.639059066772461E-1   7.178911566734314E-2  
 6.336000000000000E7    -3.679655790328980E-1   7.177257537841797E-2  -1.717416942119598E-1  -9.020842313766480E-1  -1.717064082622528E-1  -9.011427760124207E-1  -3.649042546749115E-1   7.250339537858963E-2  
 6.338000000000000E7    -3.693749904632568E-1   7.198716700077057E-2  -1.730647087097168E-1  -9.012840986251831E-1  -1.722668409347534E-1  -9.007344245910645E-1  -3.654532134532929E-1   7.318536192178726E-2  
 6.340000000000000E7    -3.691350221633911E-1   7.289516180753708E-2  -1.736900508403778E-1  -9.011986255645752E-1  -1.733047366142273E-1  -9.005110263824463E-1  -3.654250204563141E-1   7.415832579135895E-2  
 6.342000000000000E7    -3.697800040245056E-1   7.366986572742462E-2  -1.748659759759903E-1  -9.005788564682007E-1  -1.743911951780319E-1  -8.999150395393372E-1  -3.663007915019989E-1   7.424968481063843E-2  
 6.344000000000000E7    -3.698717951774597E-1   7.380486279726028E-2  -1.757639050483704E-1  -9.002206325531006E-1  -1.753367185592651E-1  -8.995280265808106E-1  -3.664780557155609E-1   7.472682744264603E-2  
 6.346000000000000E7    -3.704317212104797E-1   7.542759180068970E-2  -1.765196472406387E-1  -8.998243808746338E-1  -1.762533783912659E-1  -8.987662792205811E-1  -3.677229881286621E-1   7.570450752973557E-2  
 6.348000000000000E7    -3.715152442455292E-1   7.560153305530548E-2  -1.774694025516510E-1  -8.987638354301453E-1  -1.774993240833283E-1  -8.983309864997864E-1  -3.681315779685974E-1   7.584480941295624E-2  
 6.350000000000000E7    -3.721407949924469E-1   7.613214105367661E-2  -1.785104274749756E-1  -8.985975980758667E-1  -1.781820356845856E-1  -8.979159593582153E-1  -3.683873116970062E-1   7.631063461303711E-2  
 6.352000000000000E7    -3.725638985633850E-1   7.599657773971558E-2  -1.798339188098908E-1  -8.982354998588562E-1  -1.791485548019409E-1  -8.976712226867676E-1  -3.685930073261261E-1   7.706515491008759E-2  
 6.354000000000000E7    -3.729390203952789E-1   7.668022811412811E-2  -1.809426099061966E-1  -8.979909420013428E-1  -1.800377964973450E-1  -8.968293070793152E-1  -3.697442114353180E-1   7.772958278656006E-2  
 6.356000000000000E7    -3.729607462882996E-1   7.742950320243835E-2  -1.817699074745178E-1  -8.976975679397583E-1  -1.810635775327683E-1  -8.964085578918457E-1  -3.699060380458832E-1   7.799685001373291E-2  
 6.358000000000000E7    -3.737329542636871E-1   7.750394195318222E-2  -1.830230951309204E-1  -8.970870375633240E-1  -1.823514401912689E-1  -8.957978487014771E-1  -3.710400164127350E-1   7.852798700332642E-2  
 6.360000000000000E7    -3.743937015533447E-1   7.856966555118561E-2  -1.834399104118347E-1  -8.964207172393799E-1  -1.833371818065643E-1  -8.956676721572876E-1  -3.711101412773132E-1   7.901405543088913E-2  
 6.362000000000000E7    -3.751819729804993E-1   7.918967306613922E-2  -1.844702214002609E-1  -8.959675431251526E-1  -1.841515451669693E-1  -8.950816392898560E-1  -3.719597756862640E-1   8.035168051719666E-2  
 6.364000000000000E7    -3.753400743007660E-1   7.966485619544983E-2  -1.857209950685501E-1  -8.957208395004273E-1  -1.853561848402023E-1  -8.944622278213501E-1  -3.725095093250275E-1   8.002456277608872E-2  
 6.366000000000000E7    -3.764674663543701E-1   8.057060837745667E-2  -1.862944662570953E-1  -8.947779536247253E-1  -1.860959678888321E-1  -8.940938115119934E-1  -3.723658323287964E-1   8.167510479688644E-2  
 6.368000000000000E7    -3.767838478088379E-1   8.046765625476837E-2  -1.876345276832581E-1  -8.946251869201660E-1  -1.873559504747391E-1  -8.934906721115112E-1  -3.735512197017670E-1   8.196730166673660E-2  
 6.370000000000000E7    -3.770565390586853E-1   8.187275379896164E-2  -1.883364617824554E-1  -8.941943049430847E-1  -1.881805062294006E-1  -8.932596445083618E-1  -3.736580908298492E-1   8.197473734617233E-2  
 6.372000000000000E7    -3.778884112834930E-1   8.246099948883057E-2  -1.893677413463593E-1  -8.936437368392944E-1  -1.892206817865372E-1  -8.925564289093018E-1  -3.743880391120911E-1   8.281216025352478E-2  
 6.374000000000000E7    -3.786192536354065E-1   8.303827047348023E-2  -1.900398135185242E-1  -8.929744362831116E-1  -1.899123489856720E-1  -8.921935558319092E-1  -3.746507465839386E-1   8.368902653455734E-2  
 6.376000000000000E7    -3.791472613811493E-1   8.347359299659729E-2  -1.914023756980896E-1  -8.924748301506043E-1  -1.909673511981964E-1  -8.916501402854919E-1  -3.754732906818390E-1   8.364768326282501E-2  
 6.378000000000000E7    -3.785263001918793E-1   8.424548059701920E-2  -1.921137422323227E-1  -8.925522565841675E-1  -1.918671280145645E-1  -8.915643095970154E-1  -3.751531541347504E-1   8.488525450229645E-2  
 6.380000000000000E7    -3.798776268959045E-1   8.427906036376953E-2  -1.933833807706833E-1  -8.915789723396301E-1  -1.928269416093826E-1  -8.907983303070068E-1  -3.762219250202179E-1   8.532813191413879E-2  
 6.382000000000000E7    -3.802484571933746E-1   8.464205265045166E-2  -1.943954229354858E-1  -8.909928798675537E-1  -1.939286142587662E-1  -8.903148770332336E-1  -3.769557476043701E-1   8.601038902997971E-2  
 6.384000000000000E7    -3.805015683174133E-1   8.514109998941422E-2  -1.955613046884537E-1  -8.910121917724609E-1  -1.950032711029053E-1  -8.896365165710449E-1  -3.779206275939941E-1   8.630099892616272E-2  
 6.386000000000000E7    -3.815063536167145E-1   8.590859919786453E-2  -1.962880194187164E-1  -8.901441097259522E-1  -1.961191296577454E-1  -8.892310261726379E-1  -3.781040012836456E-1   8.684715628623962E-2  
 6.388000000000000E7    -3.814282119274139E-1   8.671499788761139E-2  -1.972281634807587E-1  -8.900803923606873E-1  -1.969300210475922E-1  -8.888596892356873E-1  -3.782975971698761E-1   8.751963078975678E-2  
 6.390000000000000E7    -3.828606307506561E-1   8.781532198190689E-2  -1.980793178081513E-1  -8.889362215995789E-1  -1.978918313980103E-1  -8.883668184280396E-1  -3.791894614696503E-1   8.804599195718765E-2  
 6.392000000000000E7    -3.832184970378876E-1   8.755166083574295E-2  -1.992170363664627E-1  -8.884239792823792E-1  -1.989306062459946E-1  -8.882300853729248E-1  -3.790501356124878E-1   8.910768479108810E-2  
 6.394000000000000E7    -3.836162686347961E-1   8.820684254169464E-2  -2.003911286592484E-1  -8.879872560501099E-1  -1.996373236179352E-1  -8.875524997711182E-1  -3.794318735599518E-1   8.937294036149979E-2  
 6.396000000000000E7    -3.842066526412964E-1   8.853489160537720E-2  -2.013290822505951E-1  -8.877039551734924E-1  -2.008384764194489E-1  -8.868518471717835E-1  -3.805980384349823E-1   8.996964991092682E-2  
 6.398000000000000E7    -3.844403028488159E-1   8.955548703670502E-2  -2.021239399909973E-1  -8.872115612030029E-1  -2.017815411090851E-1  -8.859947919845581E-1  -3.813425898551941E-1   9.044183045625687E-2  
 6.400000000000000E7    -3.852875530719757E-1   9.044406563043594E-2  -2.028122693300247E-1  -8.867984414100647E-1  -2.029003202915192E-1  -8.857933282852173E-1  -3.813774287700653E-1   9.086194634437561E-2  
 6.402000000000000E7    -3.859629333019257E-1   9.071598201990128E-2  -2.039505243301392E-1  -8.858298063278198E-1  -2.035867869853973E-1  -8.851745128631592E-1  -3.822728395462036E-1   9.172238409519196E-2  
 6.404000000000000E7    -3.864692449569702E-1   9.157214313745499E-2  -2.050865292549133E-1  -8.855250477790833E-1  -2.049005031585693E-1  -8.846986889839172E-1  -3.827796280384064E-1   9.167528152465820E-2  
 6.406000000000000E7    -3.869556486606598E-1   9.232538938522339E-2  -2.060374766588211E-1  -8.849808573722839E-1  -2.056767046451569E-1  -8.839388489723206E-1  -3.834061026573181E-1   9.270360320806503E-2  
 6.408000000000000E7    -3.873019516468048E-1   9.285782277584076E-2  -2.067316472530365E-1  -8.846212029457092E-1  -2.067669034004211E-1  -8.837850689888001E-1  -3.831687271595001E-1   9.332816302776337E-2  
 6.410000000000000E7    -3.876898884773254E-1   9.342556446790695E-2  -2.080425322055817E-1  -8.843078017234802E-1  -2.073341161012650E-1  -8.830901980400085E-1  -3.839792907238007E-1   9.405627101659775E-2  
 6.412000000000000E7    -3.882297873497009E-1   9.382839500904083E-2  -2.091845870018005E-1  -8.836125731468201E-1  -2.083441317081451E-1  -8.828663229942322E-1  -3.843936622142792E-1   9.454397112131119E-2  
 6.414000000000000E7    -3.885370790958405E-1   9.498135000467300E-2  -2.095560282468796E-1  -8.831534385681152E-1  -2.095224708318710E-1  -8.821614980697632E-1  -3.853377997875214E-1   9.571319073438644E-2  
 6.416000000000000E7    -3.894796073436737E-1   9.534023702144623E-2  -2.107910066843033E-1  -8.824052810668945E-1  -2.104719579219818E-1  -8.813691735267639E-1  -3.860721290111542E-1   9.563250094652176E-2  
 6.418000000000000E7    -3.902253210544586E-1   9.544922411441803E-2  -2.118528336286545E-1  -8.818649053573608E-1  -2.111781239509583E-1  -8.811735510826111E-1  -3.861571550369263E-1   9.641433507204056E-2  
 6.420000000000000E7    -3.903149366378784E-1   9.642928838729858E-2  -2.124324440956116E-1  -8.814983367919922E-1  -2.122486531734467E-1  -8.806375861167908E-1  -3.867698907852173E-1   9.707032144069672E-2  
 6.422000000000000E7    -3.903848528862000E-1   9.652492403984070E-2  -2.135800421237946E-1  -8.809553384780884E-1  -2.128981649875641E-1  -8.801622986793518E-1  -3.867757022380829E-1   9.827554970979691E-2  
 6.424000000000000E7    -3.917665183544159E-1   9.731923788785934E-2  -2.146646082401276E-1  -8.803985118865967E-1  -2.141666114330292E-1  -8.792662024497986E-1  -3.875973820686340E-1   9.796757996082306E-2  
 6.426000000000000E7    -3.920480012893677E-1   9.803835302591324E-2  -2.156349420547485E-1  -8.797909021377564E-1  -2.151545584201813E-1  -8.788818120956421E-1  -3.886307775974274E-1   9.878136962652206E-2  
 6.428000000000000E7    -3.918326199054718E-1   9.831662476062775E-2  -2.167053818702698E-1  -8.792698979377747E-1  -2.161105126142502E-1  -8.788127899169922E-1  -3.889053463935852E-1   9.925672411918640E-2  
 6.430000000000000E7    -3.928841054439545E-1   9.929235279560089E-2  -2.174205332994461E-1  -8.790641427040100E-1  -2.172063887119293E-1  -8.782095313072205E-1  -3.889117240905762E-1   9.969367086887360E-2  
 6.432000000000000E7    -3.930995166301727E-1   1.002073734998703E-1  -2.183120846748352E-1  -8.783650994300842E-1  -2.180144339799881E-1  -8.772482872009277E-1  -3.894757926464081E-1   1.006860211491585E-1  
 6.434000000000000E7    -3.939321637153626E-1   1.004634574055672E-1  -2.193752378225327E-1  -8.774974942207336E-1  -2.190367728471756E-1  -8.767918348312378E-1  -3.900285959243774E-1   1.012240722775459E-1  
 6.436000000000000E7    -3.948179781436920E-1   1.013239622116089E-1  -2.201527655124664E-1  -8.771945834159851E-1  -2.198063731193543E-1  -8.764525651931763E-1  -3.904005289077759E-1   1.022372096776962E-1  
 6.438000000000000E7    -3.949789106845856E-1   1.018153727054596E-1  -2.213181257247925E-1  -8.765200376510620E-1  -2.209918200969696E-1  -8.762971162796021E-1  -3.908692896366119E-1   1.017897874116898E-1  
 6.440000000000000E7    -3.952635526657105E-1   1.025595739483833E-1  -2.222719490528107E-1  -8.762395381927490E-1  -2.216147482395172E-1  -8.753800988197327E-1  -3.916527926921845E-1   1.035754680633545E-1  
 6.442000000000000E7    -3.960977792739868E-1   1.033275499939919E-1  -2.229286879301071E-1  -8.755570054054260E-1  -2.224915027618408E-1  -8.749658465385437E-1  -3.918082416057587E-1   1.041063964366913E-1  
 6.444000000000000E7    -3.963839709758759E-1   1.036985740065575E-1  -2.239756137132645E-1  -8.750602006912231E-1  -2.240026295185089E-1  -8.741608262062073E-1  -3.926992416381836E-1   1.043290868401527E-1  
 6.446000000000000E7    -3.970802426338196E-1   1.046681329607964E-1  -2.250120192766190E-1  -8.747809529304504E-1  -2.244427204132080E-1  -8.736482858657837E-1  -3.927065730094910E-1   1.051279380917549E-1  
 6.448000000000000E7    -3.976629078388214E-1   1.048365011811256E-1  -2.259140908718109E-1  -8.738837838172913E-1  -2.256533801555634E-1  -8.729127645492554E-1  -3.937812745571137E-1   1.056623235344887E-1  
 6.450000000000000E7    -3.979162871837616E-1   1.059065833687782E-1  -2.266508042812347E-1  -8.731733560562134E-1  -2.264751791954041E-1  -8.725669384002686E-1  -3.941062688827515E-1   1.060848236083984E-1  
 6.452000000000000E7    -3.988051712512970E-1   1.062806174159050E-1  -2.277178317308426E-1  -8.724527359008789E-1  -2.276331484317780E-1  -8.719484806060791E-1  -3.948266804218292E-1   1.065499931573868E-1  
 6.454000000000000E7    -3.992182016372681E-1   1.070378273725510E-1  -2.289526611566544E-1  -8.722294569015503E-1  -2.281013578176498E-1  -8.714711666107178E-1  -3.949239850044251E-1   1.078377291560173E-1  
 6.456000000000000E7    -3.992731869220734E-1   1.067484244704247E-1  -2.301875650882721E-1  -8.720350265502930E-1  -2.293877452611923E-1  -8.711636066436768E-1  -3.952091634273529E-1   1.082553640007973E-1  
 6.458000000000000E7    -3.996582627296448E-1   1.081345155835152E-1  -2.304678410291672E-1  -8.712564706802368E-1  -2.304235696792603E-1  -8.705868721008301E-1  -3.957006037235260E-1   1.088174879550934E-1  
 6.460000000000000E7    -4.004577398300171E-1   1.082968413829804E-1  -2.315968871116638E-1  -8.706222772598267E-1  -2.309610396623612E-1  -8.702335357666016E-1  -3.964563608169556E-1   1.095384657382965E-1  
 6.462000000000000E7    -4.008735120296478E-1   1.097071468830109E-1  -2.324608415365219E-1  -8.701527714729309E-1  -2.317507565021515E-1  -8.693543076515198E-1  -3.967281877994537E-1   1.104726344347000E-1  
 6.464000000000000E7    -4.009656906127930E-1   1.098522320389748E-1  -2.333719432353973E-1  -8.697097897529602E-1  -2.331478744745255E-1  -8.687613606452942E-1  -3.972697854042053E-1   1.108444780111313E-1  
 6.466000000000000E7    -4.017778635025024E-1   1.109125390648842E-1  -2.344660013914108E-1  -8.691328763961792E-1  -2.339572906494141E-1  -8.681836724281311E-1  -3.976756036281586E-1   1.111221462488174E-1  
 6.468000000000000E7    -4.020507931709290E-1   1.111550182104111E-1  -2.355833947658539E-1  -8.688462972640991E-1  -2.348020523786545E-1  -8.676984310150147E-1  -3.982388377189636E-1   1.123290732502937E-1  
 6.470000000000000E7    -4.027142226696014E-1   1.119164675474167E-1  -2.361752092838287E-1  -8.681263923645020E-1  -2.355664968490601E-1  -8.673951029777527E-1  -3.984427750110626E-1   1.126968637108803E-1  
 6.472000000000000E7    -4.037658572196960E-1   1.126907840371132E-1  -2.370085120201111E-1  -8.671843409538269E-1  -2.368003726005554E-1  -8.666302561759949E-1  -3.991886675357819E-1   1.131825596094132E-1  
 6.474000000000000E7    -4.034025967121124E-1   1.134169101715088E-1  -2.380823194980621E-1  -8.670027256011963E-1  -2.374152839183807E-1  -8.657512068748474E-1  -4.000383913516998E-1   1.142788976430893E-1  
 6.476000000000000E7    -4.045956730842590E-1   1.138657703995705E-1  -2.387780249118805E-1  -8.661637306213379E-1  -2.386026233434677E-1  -8.654078841209412E-1  -4.002464413642883E-1   1.143773719668388E-1  
 6.478000000000000E7    -4.046023488044739E-1   1.145647391676903E-1  -2.398910820484161E-1  -8.657761812210083E-1  -2.393542826175690E-1  -8.647656440734863E-1  -4.011389613151550E-1   1.155581399798393E-1  
 6.480000000000000E7    -4.050495326519013E-1   1.147885397076607E-1  -2.410193681716919E-1  -8.653572797775269E-1  -2.403272390365601E-1  -8.644418120384216E-1  -4.012230038642883E-1   1.158445850014687E-1  
 6.482000000000000E7    -4.048686623573303E-1   1.157907396554947E-1  -2.417070418596268E-1  -8.649703264236450E-1  -2.411720156669617E-1  -8.642718195915222E-1  -4.014828801155090E-1   1.167386248707771E-1  
 6.484000000000000E7    -4.057034552097321E-1   1.163494884967804E-1  -2.424971759319305E-1  -8.644779324531555E-1  -2.427148520946503E-1  -8.634141087532044E-1  -4.020514190196991E-1   1.164540648460388E-1  
 6.486000000000000E7    -4.064779579639435E-1   1.176209673285484E-1  -2.434151619672775E-1  -8.635365366935730E-1  -2.432311475276947E-1  -8.628246784210205E-1  -4.023842811584473E-1   1.172561571002007E-1  
 6.488000000000000E7    -4.070332050323486E-1   1.181199774146080E-1  -2.444356530904770E-1  -8.628346323966980E-1  -2.440756857395172E-1  -8.620465993881226E-1  -4.033981859683991E-1   1.183546185493469E-1  
 6.490000000000000E7    -4.074968695640564E-1   1.180047839879990E-1  -2.454951852560043E-1  -8.623424768447876E-1  -2.449128627777100E-1  -8.618818521499634E-1  -4.032014608383179E-1   1.195041164755821E-1  
 6.492000000000000E7    -4.080315530300140E-1   1.188431903719902E-1  -2.464674115180969E-1  -8.619049787521362E-1  -2.460455298423767E-1  -8.609955906867981E-1  -4.037774503231049E-1   1.192570701241493E-1  
 6.494000000000000E7    -4.087067842483521E-1   1.199876144528389E-1  -2.468492537736893E-1  -8.615348339080811E-1  -2.471404671669006E-1  -8.601387739181519E-1  -4.047651588916779E-1   1.201378256082535E-1  
 6.496000000000000E7    -4.091235697269440E-1   1.202005445957184E-1  -2.481877654790878E-1  -8.604000210762024E-1  -2.478608191013336E-1  -8.600410819053650E-1  -4.053575098514557E-1   1.210175231099129E-1  
 6.498000000000000E7    -4.089305102825165E-1   1.214259192347527E-1  -2.487495690584183E-1  -8.601354360580444E-1  -2.483912259340286E-1  -8.593690991401672E-1  -4.055224359035492E-1   1.217528730630875E-1  
 6.500000000000000E7    -4.096170663833618E-1   1.214496120810509E-1  -2.502009570598602E-1  -8.592853546142578E-1  -2.499582320451737E-1  -8.587149977684021E-1  -4.060338139533997E-1   1.219220906496048E-1  
 6.502000000000000E7    -4.103969633579254E-1   1.224350780248642E-1  -2.507919371128082E-1  -8.591040968894959E-1  -2.502362728118897E-1  -8.577938079833984E-1  -4.068046212196350E-1   1.231618225574493E-1  
 6.504000000000000E7    -4.110171496868134E-1   1.228901892900467E-1  -2.516755163669586E-1  -8.580276966094971E-1  -2.511574029922485E-1  -8.577125072479248E-1  -4.070112109184265E-1   1.238620132207871E-1  
 6.506000000000000E7    -4.111779928207398E-1   1.234035640954971E-1  -2.526758909225464E-1  -8.576889038085938E-1  -2.521656155586243E-1  -8.570803999900818E-1  -4.070354998111725E-1   1.240522563457489E-1  
 6.508000000000000E7    -4.111513793468475E-1   1.242059245705605E-1  -2.536128163337708E-1  -8.573984503746033E-1  -2.530311942100525E-1  -8.563247323036194E-1  -4.078151285648346E-1   1.250797063112259E-1  
 6.510000000000000E7    -4.121273159980774E-1   1.252681612968445E-1  -2.543659508228302E-1  -8.567471504211426E-1  -2.537347674369812E-1  -8.555721044540405E-1  -4.082672894001007E-1   1.255138069391251E-1  
 6.512000000000000E7    -4.124107360839844E-1   1.252335608005524E-1  -2.558280229568481E-1  -8.562259078025818E-1  -2.551516890525818E-1  -8.550583124160767E-1  -4.088753461837769E-1   1.261691749095917E-1  
 6.514000000000000E7    -4.135512113571167E-1   1.265508681535721E-1  -2.560615837574005E-1  -8.552410602569580E-1  -2.560006082057953E-1  -8.546224236488342E-1  -4.090532660484314E-1   1.268035173416138E-1  
 6.516000000000000E7    -4.133169651031494E-1   1.268275380134583E-1  -2.570566236972809E-1  -8.547716140747070E-1  -2.565442621707916E-1  -8.543378710746765E-1  -4.089507460594177E-1   1.278407573699951E-1  
 6.518000000000000E7    -4.142368435859680E-1   1.274922639131546E-1  -2.582640647888184E-1  -8.542940616607666E-1  -2.576060891151428E-1  -8.532767295837402E-1  -4.101338982582092E-1   1.281760036945343E-1  
 6.520000000000000E7    -4.146005511283875E-1   1.283601522445679E-1  -2.590270042419434E-1  -8.538556098937988E-1  -2.587521374225617E-1  -8.531335592269898E-1  -4.099928736686707E-1   1.289324760437012E-1  
 6.522000000000000E7    -4.146651923656464E-1   1.288909614086151E-1  -2.598378062248230E-1  -8.533804416656494E-1  -2.594226598739624E-1  -8.523905277252197E-1  -4.107933044433594E-1   1.291645169258118E-1  
 6.524000000000000E7    -4.156813621520996E-1   1.297192275524139E-1  -2.608560621738434E-1  -8.524554967880249E-1  -2.604475617408752E-1  -8.520826697349548E-1  -4.108663797378540E-1   1.299433559179306E-1  
 6.526000000000000E7    -4.153745770454407E-1   1.298710405826569E-1  -2.618660926818848E-1  -8.520057797431946E-1  -2.613025903701782E-1  -8.514733910560608E-1  -4.115900397300720E-1   1.309647262096405E-1  
 6.528000000000000E7    -4.164579808712006E-1   1.304816603660584E-1  -2.628471553325653E-1  -8.513128161430359E-1  -2.624500095844269E-1  -8.505386114120483E-1  -4.119529128074646E-1   1.310210824012756E-1  
 6.530000000000000E7    -4.164653122425079E-1   1.314162611961365E-1  -2.636268436908722E-1  -8.508940935134888E-1  -2.631028890609741E-1  -8.502119779586792E-1  -4.123916029930115E-1   1.320669949054718E-1  
 6.532000000000000E7    -4.170553982257843E-1   1.322620958089829E-1  -2.644837796688080E-1  -8.499665260314941E-1  -2.637146115303040E-1  -8.492155671119690E-1  -4.136252403259277E-1   1.331654787063599E-1  
 6.534000000000000E7    -4.168342649936676E-1   1.328387558460236E-1  -2.654600441455841E-1  -8.495656847953796E-1  -2.646408677101135E-1  -8.488849997520447E-1  -4.132872819900513E-1   1.333834528923035E-1  
 6.536000000000000E7    -4.184060096740723E-1   1.329040378332138E-1  -2.663674950599670E-1  -8.488208651542664E-1  -2.655880451202393E-1  -8.484652638435364E-1  -4.136089384555817E-1   1.345923840999603E-1  
 6.538000000000000E7    -4.183254837989807E-1   1.346106529235840E-1  -2.668248116970062E-1  -8.482446670532227E-1  -2.664425671100617E-1  -8.477959036827087E-1  -4.141247570514679E-1   1.348713934421539E-1  
 6.540000000000000E7    -4.189189970493317E-1   1.355610638856888E-1  -2.677903771400452E-1  -8.477414250373840E-1  -2.674584388732910E-1  -8.468537926673889E-1  -4.146201014518738E-1   1.352034211158752E-1  
 6.542000000000000E7    -4.189528226852417E-1   1.359221935272217E-1  -2.685705721378326E-1  -8.470496535301209E-1  -2.680559158325195E-1  -8.462816476821899E-1  -4.153349995613098E-1   1.365581005811691E-1  
 6.544000000000000E7    -4.200288057327271E-1   1.362471580505371E-1  -2.697981595993042E-1  -8.463932871818543E-1  -2.692235112190247E-1  -8.456215262413025E-1  -4.156999886035919E-1   1.366859078407288E-1  
 6.546000000000000E7    -4.201536178588867E-1   1.372701525688171E-1  -2.704883515834808E-1  -8.458114862442017E-1  -2.701475620269775E-1  -8.452758789062500E-1  -4.159752130508423E-1   1.378190666437149E-1  
 6.548000000000000E7    -4.207164049148560E-1   1.375477910041809E-1  -2.713578641414642E-1  -8.454657196998596E-1  -2.704767584800720E-1  -8.444525003433228E-1  -4.167503118515015E-1   1.388106644153595E-1  
 6.550000000000000E7    -4.211689233779907E-1   1.387510597705841E-1  -2.721167802810669E-1  -8.446031808853149E-1  -2.720697224140167E-1  -8.440498113632202E-1  -4.166254997253418E-1   1.386779844760895E-1  
 6.552000000000000E7    -4.212439656257629E-1   1.385982632637024E-1  -2.733266949653626E-1  -8.443659543991089E-1  -2.725618779659271E-1  -8.435072898864746E-1  -4.174368381500244E-1   1.400059759616852E-1  
 6.554000000000000E7    -4.220952093601227E-1   1.399009078741074E-1  -2.739825248718262E-1  -8.433896899223328E-1  -2.738015949726105E-1  -8.426449298858643E-1  -4.180831909179688E-1   1.403616070747376E-1  
 6.556000000000000E7    -4.221498370170593E-1   1.404658854007721E-1  -2.751548588275909E-1  -8.427636623382568E-1  -2.742982208728790E-1  -8.420354127883911E-1  -4.182352423667908E-1   1.411169618368149E-1  
 6.558000000000000E7    -4.228082895278931E-1   1.407159566879273E-1  -2.757804989814758E-1  -8.422830104827881E-1  -2.752677500247955E-1  -8.412745594978333E-1  -4.189220666885376E-1   1.417578160762787E-1  
 6.560000000000000E7    -4.231392741203308E-1   1.418261528015137E-1  -2.765044867992401E-1  -8.416507244110107E-1  -2.763065397739410E-1  -8.407384753227234E-1  -4.190100133419037E-1   1.421982944011688E-1  
 6.562000000000000E7    -4.238575994968414E-1   1.425781399011612E-1  -2.773776054382324E-1  -8.409644365310669E-1  -2.772748470306397E-1  -8.406188488006592E-1  -4.190657138824463E-1   1.427913606166840E-1  
 6.564000000000000E7    -4.238205552101135E-1   1.427565515041351E-1  -2.784377038478851E-1  -8.404837250709534E-1  -2.781791687011719E-1  -8.398556709289551E-1  -4.200246632099152E-1   1.438795626163483E-1  
 6.566000000000000E7    -4.247703552246094E-1   1.439136117696762E-1  -2.792807221412659E-1  -8.395560383796692E-1  -2.790789008140564E-1  -8.391347527503967E-1  -4.200115203857422E-1   1.442363411188126E-1  
 6.568000000000000E7    -4.247025251388550E-1   1.447821855545044E-1  -2.800074815750122E-1  -8.395637869834900E-1  -2.796947062015533E-1  -8.385695219039917E-1  -4.203843176364899E-1   1.448888182640076E-1  
 6.570000000000000E7    -4.257487058639526E-1   1.450226902961731E-1  -2.812711298465729E-1  -8.384419679641724E-1  -2.805660068988800E-1  -8.377295732498169E-1  -4.213517904281616E-1   1.456081420183182E-1  
 6.572000000000000E7    -4.255610108375549E-1   1.461060643196106E-1  -2.815704345703125E-1  -8.379656672477722E-1  -2.813843488693237E-1  -8.371475934982300E-1  -4.215878248214722E-1   1.466367542743683E-1  
 6.574000000000000E7    -4.264310002326965E-1   1.466333419084549E-1  -2.824832797050476E-1  -8.372756838798523E-1  -2.824727892875671E-1  -8.363426327705383E-1  -4.223979413509369E-1   1.472696512937546E-1  
 6.576000000000000E7    -4.259689450263977E-1   1.473630666732788E-1  -2.836159765720367E-1  -8.368543982505798E-1  -2.832003831863403E-1  -8.358409404754639E-1  -4.227198958396912E-1   1.478750556707382E-1  
 6.578000000000000E7    -4.265885055065155E-1   1.480926424264908E-1  -2.845613062381744E-1  -8.364521265029907E-1  -2.841836512088776E-1  -8.352248668670654E-1  -4.225279688835144E-1   1.482461690902710E-1  
 6.580000000000000E7    -4.275192320346832E-1   1.487571895122528E-1  -2.852862179279327E-1  -8.352483510971069E-1  -2.846822142601013E-1  -8.346650600433350E-1  -4.233399033546448E-1   1.494243443012238E-1  
 6.582000000000000E7    -4.275128245353699E-1   1.499668657779694E-1  -2.860977649688721E-1  -8.349990844726563E-1  -2.856825888156891E-1  -8.341065645217896E-1  -4.233656227588654E-1   1.497233808040619E-1  
 6.584000000000000E7    -4.281294941902161E-1   1.503274142742157E-1  -2.870768308639526E-1  -8.343226909637451E-1  -2.867852747440338E-1  -8.337610960006714E-1  -4.237980842590332E-1   1.503786593675613E-1  
 6.586000000000000E7    -4.285864233970642E-1   1.506625860929489E-1  -2.879812717437744E-1  -8.335330486297607E-1  -2.875175476074219E-1  -8.328033685684204E-1  -4.244261384010315E-1   1.513767540454865E-1  
 6.588000000000000E7    -4.287535846233368E-1   1.514523923397064E-1  -2.890163958072662E-1  -8.329814672470093E-1  -2.883783280849457E-1  -8.318840265274048E-1  -4.251795709133148E-1   1.519930958747864E-1  
 6.590000000000000E7    -4.292500019073486E-1   1.524850875139237E-1  -2.896936237812042E-1  -8.323814868927002E-1  -2.889720499515533E-1  -8.314740657806397E-1  -4.248756766319275E-1   1.527879536151886E-1  
 6.592000000000000E7    -4.290931224822998E-1   1.525296270847321E-1  -2.908485829830170E-1  -8.319582343101502E-1  -2.903619706630707E-1  -8.308906555175781E-1  -4.258744716644287E-1   1.530163437128067E-1  
 6.594000000000000E7    -4.303118586540222E-1   1.536577045917511E-1  -2.914238274097443E-1  -8.309423923492432E-1  -2.906367480754852E-1  -8.300581574440002E-1  -4.263988733291626E-1   1.542739421129227E-1  
 6.596000000000000E7    -4.303249716758728E-1   1.539311707019806E-1  -2.922308146953583E-1  -8.303697705268860E-1  -2.917717695236206E-1  -8.296136856079102E-1  -4.265090227127075E-1   1.550385355949402E-1  
 6.598000000000000E7    -4.306206107139587E-1   1.551195234060288E-1  -2.929999232292175E-1  -8.299074172973633E-1  -2.924290299415588E-1  -8.287761807441711E-1  -4.270912110805512E-1   1.561607420444489E-1  
 6.600000000000000E7    -4.314276576042175E-1   1.561872363090515E-1  -2.937989830970764E-1  -8.292378187179565E-1  -2.933527231216431E-1  -8.283101320266724E-1  -4.272542297840118E-1   1.561530679464340E-1  
 6.602000000000000E7    -4.321402311325073E-1   1.562267094850540E-1  -2.948747277259827E-1  -8.284468650817871E-1  -2.940587103366852E-1  -8.277029991149902E-1  -4.277633726596832E-1   1.568856090307236E-1  
 6.604000000000000E7    -4.320001900196075E-1   1.575693041086197E-1  -2.954890429973602E-1  -8.278389573097229E-1  -2.952607274055481E-1  -8.270111083984375E-1  -4.279050230979919E-1   1.573366224765778E-1  
 6.606000000000000E7    -4.323375821113586E-1   1.576266586780548E-1  -2.965401411056519E-1  -8.273828029632568E-1  -2.962037324905396E-1  -8.267056941986084E-1  -4.279907345771790E-1   1.579783856868744E-1  
 6.608000000000000E7    -4.327479600906372E-1   1.588093489408493E-1  -2.970644831657410E-1  -8.265770673751831E-1  -2.966614365577698E-1  -8.259123563766480E-1  -4.284828305244446E-1   1.595917940139771E-1  
 6.610000000000000E7    -4.335588514804840E-1   1.598404049873352E-1  -2.982089817523956E-1  -8.260954022407532E-1  -2.976679503917694E-1  -8.251802325248718E-1  -4.290554821491242E-1   1.595439761877060E-1  
 6.612000000000000E7    -4.336303472518921E-1   1.599119007587433E-1  -2.990483343601227E-1  -8.254140615463257E-1  -2.986424565315247E-1  -8.248136043548584E-1  -4.290100336074829E-1   1.603466570377350E-1  
 6.614000000000000E7    -4.338367879390717E-1   1.604716479778290E-1  -3.000416159629822E-1  -8.246529102325440E-1  -2.991417050361633E-1  -8.236365318298340E-1  -4.307551681995392E-1   1.617949903011322E-1  
 6.616000000000000E7    -4.346667230129242E-1   1.613350063562393E-1  -3.008043169975281E-1  -8.242089748382568E-1  -3.003716170787811E-1  -8.229811191558838E-1  -4.301167130470276E-1   1.613818109035492E-1  
 6.618000000000000E7    -4.349401593208313E-1   1.619714200496674E-1  -3.013509511947632E-1  -8.231224417686462E-1  -3.011462986469269E-1  -8.225819468498230E-1  -4.307257235050201E-1   1.628303527832031E-1  
 6.620000000000000E7    -4.354664385318756E-1   1.625588834285736E-1  -3.025231361389160E-1  -8.225305080413818E-1  -3.017990887165070E-1  -8.217982053756714E-1  -4.312024712562561E-1   1.637880504131317E-1  
 6.622000000000000E7    -4.356980919837952E-1   1.635839343070984E-1  -3.031806945800781E-1  -8.222573995590210E-1  -3.028455376625061E-1  -8.213762640953064E-1  -4.312988519668579E-1   1.642820090055466E-1  
 6.624000000000000E7    -4.360415935516357E-1   1.640638709068298E-1  -3.041253089904785E-1  -8.215645551681519E-1  -3.035036921501160E-1  -8.206917047500610E-1  -4.316191077232361E-1   1.649087369441986E-1  
 6.626000000000000E7    -4.364008903503418E-1   1.651047766208649E-1  -3.050188720226288E-1  -8.207613229751587E-1  -3.044674694538117E-1  -8.200177550315857E-1  -4.322332143783569E-1   1.656236499547958E-1  
 6.628000000000000E7    -4.368069469928742E-1   1.655812710523605E-1  -3.057467341423035E-1  -8.201647400856018E-1  -3.050902187824249E-1  -8.193961381912231E-1  -4.325611293315888E-1   1.662129461765289E-1  
 6.630000000000000E7    -4.375526905059815E-1   1.672572344541550E-1  -3.062607645988464E-1  -8.194642066955566E-1  -3.058236837387085E-1  -8.186892867088318E-1  -4.329183697700501E-1   1.671217083930969E-1  
 6.632000000000000E7    -4.377338886260986E-1   1.674579977989197E-1  -3.074955940246582E-1  -8.189539313316345E-1  -3.068839609622955E-1  -8.179305195808411E-1  -4.333178997039795E-1   1.676608175039291E-1  
 6.634000000000000E7    -4.382158219814301E-1   1.677496135234833E-1  -3.085007667541504E-1  -8.180073499679565E-1  -3.079601824283600E-1  -8.172249197959900E-1  -4.342154264450073E-1   1.683048605918884E-1  
 6.636000000000000E7    -4.385219812393189E-1   1.689242571592331E-1  -3.089579641819000E-1  -8.174639940261841E-1  -3.084278702735901E-1  -8.167709112167358E-1  -4.340186715126038E-1   1.688093692064285E-1  
 6.638000000000000E7    -4.385628700256348E-1   1.691471040248871E-1  -3.098681569099426E-1  -8.169595599174500E-1  -3.093954324722290E-1  -8.162304162979126E-1  -4.344811439514160E-1   1.698661893606186E-1  
 6.640000000000000E7    -4.387744367122650E-1   1.703234612941742E-1  -3.106034100055695E-1  -8.162288665771484E-1  -3.102203309535980E-1  -8.155174851417542E-1  -4.347356557846069E-1   1.706244796514511E-1  
 6.642000000000000E7    -4.392594099044800E-1   1.709389984607697E-1  -3.112523555755615E-1  -8.153815269470215E-1  -3.112236857414246E-1  -8.146102428436279E-1  -4.355807602405548E-1   1.709876060485840E-1  
 6.644000000000000E7    -4.395998716354370E-1   1.715053170919418E-1  -3.121458888053894E-1  -8.150510787963867E-1  -3.119733035564423E-1  -8.139807581901550E-1  -4.358986616134644E-1   1.717173457145691E-1  
 6.646000000000000E7    -4.406433999538422E-1   1.719729453325272E-1  -3.133385181427002E-1  -8.138140439987183E-1  -3.128355741500855E-1  -8.134117126464844E-1  -4.358542263507843E-1   1.730798780918121E-1  
 6.648000000000000E7    -4.405879676342011E-1   1.729209423065186E-1  -3.144700825214386E-1  -8.136894702911377E-1  -3.136843442916870E-1  -8.123085498809815E-1  -4.369811415672302E-1   1.729595214128494E-1  
 6.650000000000000E7    -4.409678578376770E-1   1.737836599349976E-1  -3.147099316120148E-1  -8.126963973045349E-1  -3.141629099845886E-1  -8.118882179260254E-1  -4.369529783725739E-1   1.741945594549179E-1  
 6.652000000000000E7    -4.413275122642517E-1   1.743368059396744E-1  -3.156387209892273E-1  -8.119905591011047E-1  -3.153110146522522E-1  -8.110898733139038E-1  -4.375461935997009E-1   1.748057305812836E-1  
 6.654000000000000E7    -4.422956407070160E-1   1.744976192712784E-1  -3.164416551589966E-1  -8.111811280250549E-1  -3.161003291606903E-1  -8.105739951133728E-1  -4.374139308929443E-1   1.754445135593414E-1  
 6.656000000000000E7    -4.418320655822754E-1   1.759775876998901E-1  -3.170960247516632E-1  -8.106992244720459E-1  -3.163903951644898E-1  -8.099856972694397E-1  -4.378195405006409E-1   1.767372936010361E-1  
 6.658000000000000E7    -4.427310824394226E-1   1.765237748622894E-1  -3.180123865604401E-1  -8.098315000534058E-1  -3.173745870590210E-1  -8.097059726715088E-1  -4.378568828105927E-1   1.772363632917404E-1  
 6.660000000000000E7    -4.429133832454681E-1   1.773180961608887E-1  -3.188480734825134E-1  -8.091092705726624E-1  -3.184931278228760E-1  -8.085101246833801E-1  -4.388429522514343E-1   1.777509152889252E-1  
 6.662000000000000E7    -4.428165555000305E-1   1.779416054487228E-1  -3.198625743389130E-1  -8.086177706718445E-1  -3.187231719493866E-1  -8.077251911163330E-1  -4.394399225711823E-1   1.786749660968781E-1  
 6.664000000000000E7    -4.432898461818695E-1   1.786037832498550E-1  -3.206247091293335E-1  -8.080897927284241E-1  -3.201211392879486E-1  -8.072802424430847E-1  -4.393265247344971E-1   1.789092123508453E-1  
 6.666000000000000E7    -4.438237249851227E-1   1.794889867305756E-1  -3.213630914688110E-1  -8.074750304222107E-1  -3.210352659225464E-1  -8.065881133079529E-1  -4.396699368953705E-1   1.795590668916702E-1  
 6.668000000000000E7    -4.444768428802490E-1   1.798821389675140E-1  -3.223073184490204E-1  -8.065758943557739E-1  -3.212182521820068E-1  -8.061305880546570E-1  -4.396970570087433E-1   1.811833679676056E-1  
 6.670000000000000E7    -4.450617730617523E-1   1.802928745746613E-1  -3.231667280197144E-1  -8.058330416679382E-1  -3.224490582942963E-1  -8.056290149688721E-1  -4.402133822441101E-1   1.813938766717911E-1  
 6.672000000000000E7    -4.448790252208710E-1   1.815801709890366E-1  -3.240211904048920E-1  -8.053521513938904E-1  -3.235165178775787E-1  -8.043203353881836E-1  -4.408449530601502E-1   1.819909065961838E-1  
 6.674000000000000E7    -4.448629915714264E-1   1.827092319726944E-1  -3.244703114032745E-1  -8.050782084465027E-1  -3.237268328666687E-1  -8.038938045501709E-1  -4.411912560462952E-1   1.832590550184250E-1  
 6.676000000000000E7    -4.457087516784668E-1   1.831349432468414E-1  -3.253025114536285E-1  -8.040090799331665E-1  -3.245623707771301E-1  -8.034014105796814E-1  -4.409594535827637E-1   1.831974685192108E-1  
 6.678000000000000E7    -4.458972215652466E-1   1.841435432434082E-1  -3.258984088897705E-1  -8.035300374031067E-1  -3.259053826332092E-1  -8.022819757461548E-1  -4.416782855987549E-1   1.838005632162094E-1  
 6.680000000000000E7    -4.463758468627930E-1   1.848748922348023E-1  -3.266586661338806E-1  -8.025308847427368E-1  -3.265504240989685E-1  -8.018831610679627E-1  -4.419021308422089E-1   1.853852123022080E-1  
 6.682000000000000E7    -4.467668533325195E-1   1.852711141109467E-1  -3.277559280395508E-1  -8.018665313720703E-1  -3.273009955883026E-1  -8.013546466827393E-1  -4.422360658645630E-1   1.857891231775284E-1  
 6.684000000000000E7    -4.473682045936585E-1   1.863669157028198E-1  -3.285130262374878E-1  -8.010895848274231E-1  -3.282392621040344E-1  -8.004236221313477E-1  -4.426639676094055E-1   1.863278448581696E-1  
 6.686000000000000E7    -4.474773406982422E-1   1.871888935565949E-1  -3.289921879768372E-1  -8.005104660987854E-1  -3.289884030818939E-1  -7.997557520866394E-1  -4.428691864013672E-1   1.870643347501755E-1  
 6.688000000000000E7    -4.478161931037903E-1   1.879779100418091E-1  -3.299619555473328E-1  -7.998504638671875E-1  -3.294626474380493E-1  -7.987589240074158E-1  -4.434934854507446E-1   1.883753091096878E-1  
 6.690000000000000E7    -4.480135440826416E-1   1.891941726207733E-1  -3.302664160728455E-1  -7.990887165069580E-1  -3.298399150371552E-1  -7.985159754753113E-1  -4.437880814075470E-1   1.893554478883743E-1  
 6.692000000000000E7    -4.481585919857025E-1   1.892437040805817E-1  -3.317695260047913E-1  -7.985268235206604E-1  -3.312033116817474E-1  -7.975919842720032E-1  -4.441863000392914E-1   1.897780597209930E-1  
 6.694000000000000E7    -4.487802982330322E-1   1.902025938034058E-1  -3.324750959873200E-1  -7.977501153945923E-1  -3.320872187614441E-1  -7.968332767486572E-1  -4.446053504943848E-1   1.899864524602890E-1  
 6.696000000000000E7    -4.493037462234497E-1   1.910371780395508E-1  -3.332889080047607E-1  -7.970915436744690E-1  -3.330244123935700E-1  -7.961453795433044E-1  -4.451088905334473E-1   1.905894875526428E-1  
 6.698000000000000E7    -4.497104883193970E-1   1.913370490074158E-1  -3.341096341609955E-1  -7.962073087692261E-1  -3.333592414855957E-1  -7.951061725616455E-1  -4.452098309993744E-1   1.915409862995148E-1  
 6.700000000000000E7    -4.496845901012421E-1   1.922178864479065E-1  -3.348721563816071E-1  -7.952879667282105E-1  -3.343078494071960E-1  -7.947054505348206E-1  -4.455311894416809E-1   1.927236169576645E-1  
 6.702000000000000E7    -4.498144984245300E-1   1.933466792106628E-1  -3.356176912784576E-1  -7.950323820114136E-1  -3.353110253810883E-1  -7.937178015708923E-1  -4.464941322803497E-1   1.932114362716675E-1  
 6.704000000000000E7    -4.506537616252899E-1   1.936669051647186E-1  -3.367250561714172E-1  -7.939803004264832E-1  -3.359178602695465E-1  -7.938189506530762E-1  -4.462566971778870E-1   1.940498203039169E-1  
 6.706000000000000E7    -4.507562220096588E-1   1.947045028209686E-1  -3.371247947216034E-1  -7.938026785850525E-1  -3.371655941009522E-1  -7.927976250648499E-1  -4.462302625179291E-1   1.943003535270691E-1  
 6.708000000000000E7    -4.511061012744904E-1   1.959515661001205E-1  -3.377606868743897E-1  -7.930923104286194E-1  -3.374647498130798E-1  -7.923330068588257E-1  -4.462849497795105E-1   1.952887773513794E-1  
 6.710000000000000E7    -4.514464735984802E-1   1.961231380701065E-1  -3.386464416980743E-1  -7.921981215476990E-1  -3.381463289260864E-1  -7.914025187492371E-1  -4.469686150550842E-1   1.962248384952545E-1  
 6.712000000000000E7    -4.520313143730164E-1   1.967888474464417E-1  -3.395769000053406E-1  -7.915036678314209E-1  -3.387823402881622E-1  -7.906401753425598E-1  -4.473950564861298E-1   1.969643086194992E-1  
 6.714000000000000E7    -4.519969820976257E-1   1.976353824138641E-1  -3.402085006237030E-1  -7.909227013587952E-1  -3.398750722408295E-1  -7.902998924255371E-1  -4.471437633037567E-1   1.976986080408096E-1  
 6.716000000000000E7    -4.527322053909302E-1   1.988257467746735E-1  -3.407343029975891E-1  -7.898676395416260E-1  -3.403527140617371E-1  -7.891036272048950E-1  -4.480642974376679E-1   1.986588537693024E-1  
 6.718000000000000E7    -4.524444043636322E-1   1.989208161830902E-1  -3.420124948024750E-1  -7.894256711006165E-1  -3.417581617832184E-1  -7.886184453964233E-1  -4.482527971267700E-1   1.986785680055618E-1  
 6.720000000000000E7    -4.533491730690002E-1   1.995718181133270E-1  -3.427193462848663E-1  -7.887504100799561E-1  -3.422248959541321E-1  -7.877309918403626E-1  -4.488496184349060E-1   1.999696940183640E-1  
 6.722000000000000E7    -4.539758563041687E-1   2.010772824287415E-1  -3.432460129261017E-1  -7.877254486083984E-1  -3.428233265876770E-1  -7.872694730758667E-1  -4.489877521991730E-1   2.006553858518601E-1  
 6.724000000000000E7    -4.534812271595001E-1   2.011975049972534E-1  -3.443076312541962E-1  -7.874958515167236E-1  -3.436852991580963E-1  -7.866758704185486E-1  -4.486604928970337E-1   2.014168798923492E-1  
 6.726000000000000E7    -4.540863633155823E-1   2.020295709371567E-1  -3.450262546539307E-1  -7.866088747978210E-1  -3.444448113441467E-1  -7.863243818283081E-1  -4.487844705581665E-1   2.019103765487671E-1  
 6.728000000000000E7    -4.543746709823608E-1   2.027713060379028E-1  -3.457395732402802E-1  -7.858442068099976E-1  -3.448834717273712E-1  -7.850691676139832E-1  -4.497880935668945E-1   2.031964063644409E-1  
 6.730000000000000E7    -4.544748067855835E-1   2.041710317134857E-1  -3.459997773170471E-1  -7.852356433868408E-1  -3.457091450691223E-1  -7.844595313072205E-1  -4.502417445182800E-1   2.043578326702118E-1  
 6.732000000000000E7    -4.552163779735565E-1   2.043042033910751E-1  -3.471855521202087E-1  -7.842708230018616E-1  -3.465805351734161E-1  -7.835653424263001E-1  -4.505259692668915E-1   2.045906186103821E-1  
 6.734000000000000E7    -4.554035961627960E-1   2.052255421876907E-1  -3.477652072906494E-1  -7.837753891944885E-1  -3.476551771163940E-1  -7.829743623733521E-1  -4.507622122764587E-1   2.056105732917786E-1  
 6.736000000000000E7    -4.556256830692291E-1   2.059405446052551E-1  -3.487522006034851E-1  -7.831687927246094E-1  -3.478525280952454E-1  -7.820861935615540E-1  -4.511737525463104E-1   2.063595950603485E-1  
 6.738000000000000E7    -4.563306272029877E-1   2.065951824188232E-1  -3.496161997318268E-1  -7.820872068405151E-1  -3.490168452262878E-1  -7.816336154937744E-1  -4.509557783603668E-1   2.071980237960815E-1  
 6.740000000000000E7    -4.567207694053650E-1   2.078226804733276E-1  -3.501056432723999E-1  -7.814947366714478E-1  -3.499076366424561E-1  -7.809669971466065E-1  -4.512825310230255E-1   2.072354704141617E-1  
 6.742000000000000E7    -4.568722248077393E-1   2.082256972789764E-1  -3.511059880256653E-1  -7.807004451751709E-1  -3.503860533237457E-1  -7.801978588104248E-1  -4.519901275634766E-1   2.086005508899689E-1  
 6.744000000000000E7    -4.571006596088409E-1   2.089022099971771E-1  -3.517988026142120E-1  -7.799860835075378E-1  -3.513126373291016E-1  -7.796874046325684E-1  -4.519952833652496E-1   2.091979235410690E-1  
 6.746000000000000E7    -4.570547044277191E-1   2.094807028770447E-1  -3.529433310031891E-1  -7.792301177978516E-1  -3.521049618721008E-1  -7.787246704101563E-1  -4.527054429054260E-1   2.098928242921829E-1  
 6.748000000000000E7    -4.579191803932190E-1   2.107411921024323E-1  -3.535003066062927E-1  -7.785301804542542E-1  -3.528801798820496E-1  -7.776407599449158E-1  -4.530223011970520E-1   2.105036973953247E-1  
 6.750000000000000E7    -4.581401646137238E-1   2.106392681598663E-1  -3.543040752410889E-1  -7.777036428451538E-1  -3.532233238220215E-1  -7.771464586257935E-1  -4.532485008239746E-1   2.120494693517685E-1  
 6.752000000000000E7    -4.579240381717682E-1   2.119500488042831E-1  -3.548760414123535E-1  -7.770780324935913E-1  -3.544675111770630E-1  -7.762767076492310E-1  -4.537808895111084E-1   2.123525291681290E-1  
 6.754000000000000E7    -4.582811594009399E-1   2.130650877952576E-1  -3.555364906787872E-1  -7.764601707458496E-1  -3.551293909549713E-1  -7.758134603500366E-1  -4.535891711711884E-1   2.130892276763916E-1  
 6.756000000000000E7    -4.587626159191132E-1   2.139426916837692E-1  -3.563840091228485E-1  -7.755420804023743E-1  -3.558144271373749E-1  -7.748948335647583E-1  -4.540697038173676E-1   2.134686261415482E-1  
 6.758000000000000E7    -4.587290883064270E-1   2.146594077348709E-1  -3.573172092437744E-1  -7.751019597053528E-1  -3.564999401569367E-1  -7.745482325553894E-1  -4.539365172386169E-1   2.145835757255554E-1  
 6.760000000000000E7    -4.590907394886017E-1   2.154708951711655E-1  -3.573270142078400E-1  -7.745187282562256E-1  -3.574485778808594E-1  -7.732847332954407E-1  -4.547899663448334E-1   2.155792862176895E-1  
 6.762000000000000E7    -4.593026340007782E-1   2.160083204507828E-1  -3.587745726108551E-1  -7.735124826431274E-1  -3.580339252948761E-1  -7.728392481803894E-1  -4.549732804298401E-1   2.158181965351105E-1  
 6.764000000000000E7    -4.593637585639954E-1   2.173107564449310E-1  -3.587428331375122E-1  -7.730283737182617E-1  -3.585204780101776E-1  -7.723304629325867E-1  -4.547180533409119E-1   2.171717882156372E-1  
 6.766000000000000E7    -4.599221348762512E-1   2.176166027784348E-1  -3.598531186580658E-1  -7.723986506462097E-1  -3.594262897968292E-1  -7.716687917709351E-1  -4.552308320999146E-1   2.178205251693726E-1  
 6.768000000000000E7    -4.603185355663300E-1   2.185841053724289E-1  -3.607318699359894E-1  -7.714880108833313E-1  -3.601463735103607E-1  -7.706243991851807E-1  -4.556885063648224E-1   2.184880077838898E-1  
 6.770000000000000E7    -4.605847597122192E-1   2.186872959136963E-1  -3.615944981575012E-1  -7.708312869071960E-1  -3.611086010932922E-1  -7.699457406997681E-1  -4.558391571044922E-1   2.192250043153763E-1  
 6.772000000000000E7    -4.610713124275208E-1   2.201466411352158E-1  -3.620595335960388E-1  -7.698063850402832E-1  -3.616890013217926E-1  -7.690718173980713E-1  -4.564760923385620E-1   2.200880348682404E-1  
 6.774000000000000E7    -4.612542390823364E-1   2.206618040800095E-1  -3.628515899181366E-1  -7.689541578292847E-1  -3.623017966747284E-1  -7.683635950088501E-1  -4.567803442478180E-1   2.207010090351105E-1  
 6.776000000000000E7    -4.617595672607422E-1   2.214861214160919E-1  -3.637373447418213E-1  -7.682615518569946E-1  -3.629286587238312E-1  -7.679282426834106E-1  -4.565105438232422E-1   2.221494317054749E-1  
 6.778000000000000E7    -4.621744751930237E-1   2.219813615083695E-1  -3.644645810127258E-1  -7.675022482872009E-1  -3.641538023948669E-1  -7.667345404624939E-1  -4.574042558670044E-1   2.222974002361298E-1  
 6.780000000000000E7    -4.619523584842682E-1   2.228609174489975E-1  -3.652382493019104E-1  -7.671321630477905E-1  -3.644932210445404E-1  -7.660515904426575E-1  -4.575478434562683E-1   2.234077155590057E-1  
 6.782000000000000E7    -4.626075625419617E-1   2.234512865543366E-1  -3.664495050907135E-1  -7.661375999450684E-1  -3.652206361293793E-1  -7.652987241744995E-1  -4.580137431621552E-1   2.241592705249786E-1  
 6.784000000000000E7    -4.630683660507202E-1   2.243850976228714E-1  -3.665158152580261E-1  -7.650853991508484E-1  -3.659844100475311E-1  -7.645596265792847E-1  -4.582428336143494E-1   2.246397137641907E-1  
 6.786000000000000E7    -4.629572033882141E-1   2.253636121749878E-1  -3.672517836093903E-1  -7.646291851997376E-1  -3.672330677509308E-1  -7.641951441764832E-1  -4.582743942737579E-1   2.255450636148453E-1  
 6.788000000000000E7    -4.633567631244659E-1   2.261886447668076E-1  -3.682571053504944E-1  -7.637190818786621E-1  -3.673005998134613E-1  -7.631778717041016E-1  -4.587859213352203E-1   2.264616787433624E-1  
 6.790000000000000E7    -4.633547067642212E-1   2.267193496227264E-1  -3.692392408847809E-1  -7.633336186408997E-1  -3.680527806282044E-1  -7.624842524528503E-1  -4.590991735458374E-1   2.274208664894104E-1  
 6.792000000000000E7    -4.643043875694275E-1   2.280889898538590E-1  -3.695790767669678E-1  -7.621786594390869E-1  -3.691177070140839E-1  -7.615932822227478E-1  -4.591779410839081E-1   2.277168780565262E-1  
 6.794000000000000E7    -4.636223316192627E-1   2.287437319755554E-1  -3.702481091022492E-1  -7.620453834533691E-1  -3.697530329227448E-1  -7.612092494964600E-1  -4.594289362430573E-1   2.286673635244370E-1  
 6.796000000000000E7    -4.641057848930359E-1   2.293015569448471E-1  -3.709727525711060E-1  -7.608379721641541E-1  -3.704129755496979E-1  -7.603819370269775E-1  -4.597091078758240E-1   2.296597510576248E-1  
 6.798000000000000E7    -4.647793769836426E-1   2.301976382732391E-1  -3.717140257358551E-1  -7.602055072784424E-1  -3.708834052085877E-1  -7.595504522323608E-1  -4.596490859985352E-1   2.305086255073547E-1  
 6.800000000000000E7    -4.645750820636749E-1   2.307852208614349E-1  -3.723221123218536E-1  -7.594274282455444E-1  -3.718405365943909E-1  -7.586831450462341E-1  -4.604916572570801E-1   2.311791777610779E-1  
 6.802000000000000E7    -4.650331139564514E-1   2.316518127918243E-1  -3.734659850597382E-1  -7.587727308273315E-1  -3.723105788230896E-1  -7.581619024276733E-1  -4.606823325157166E-1   2.320585995912552E-1  
 6.804000000000000E7    -4.653232693672180E-1   2.330470234155655E-1  -3.735057711601257E-1  -7.578749060630798E-1  -3.731879293918610E-1  -7.570158839225769E-1  -4.612037837505341E-1   2.327558249235153E-1  
 6.806000000000000E7    -4.654596447944641E-1   2.337517440319061E-1  -3.744556307792664E-1  -7.571230530738831E-1  -3.737467825412750E-1  -7.564986348152161E-1  -4.611136317253113E-1   2.336351573467255E-1  
 6.808000000000000E7    -4.655419290065765E-1   2.340859770774841E-1  -3.750985562801361E-1  -7.564599514007568E-1  -3.744732141494751E-1  -7.553604841232300E-1  -4.617716968059540E-1   2.346713989973068E-1  
 6.810000000000000E7    -4.663943052291870E-1   2.352074235677719E-1  -3.760218322277069E-1  -7.553669214248657E-1  -3.752637207508087E-1  -7.548623681068420E-1  -4.614362120628357E-1   2.352026849985123E-1  
 6.812000000000000E7    -4.663828015327454E-1   2.357702255249023E-1  -3.765374720096588E-1  -7.551631927490234E-1  -3.760872185230255E-1  -7.542287707328796E-1  -4.617042839527130E-1   2.357120811939240E-1  
 6.814000000000000E7    -4.662932753562927E-1   2.367534786462784E-1  -3.771923184394836E-1  -7.540811896324158E-1  -3.766541779041290E-1  -7.534419298171997E-1  -4.623105525970459E-1   2.371439784765244E-1  
 6.816000000000000E7    -4.669838845729828E-1   2.373563647270203E-1  -3.781476318836212E-1  -7.534120678901672E-1  -3.776021599769592E-1  -7.526053190231323E-1  -4.622368216514587E-1   2.374927699565888E-1  
 6.818000000000000E7    -4.669308364391327E-1   2.383284270763397E-1  -3.790232837200165E-1  -7.527682185173035E-1  -3.780699670314789E-1  -7.520347833633423E-1  -4.624281525611877E-1   2.382548451423645E-1  
 6.820000000000000E7    -4.673317670822144E-1   2.388872504234314E-1  -3.793084025382996E-1  -7.517790794372559E-1  -3.790302872657776E-1  -7.510436773300171E-1  -4.629807472229004E-1   2.390636205673218E-1  
 6.822000000000000E7    -4.673216342926025E-1   2.398508489131928E-1  -3.802717328071594E-1  -7.513687014579773E-1  -3.798067867755890E-1  -7.505582571029663E-1  -4.628100395202637E-1   2.397405356168747E-1  
 6.824000000000000E7    -4.675068259239197E-1   2.406264841556549E-1  -3.810681104660034E-1  -7.505021691322327E-1  -3.804851770401001E-1  -7.497329711914063E-1  -4.632745087146759E-1   2.403342574834824E-1  
 6.826000000000000E7    -4.684680700302124E-1   2.412642240524292E-1  -3.815401792526245E-1  -7.494853734970093E-1  -3.812603950500488E-1  -7.488222122192383E-1  -4.635468423366547E-1   2.413817793130875E-1  
 6.828000000000000E7    -4.683468937873840E-1   2.422299087047577E-1  -3.820024728775024E-1  -7.489276528358460E-1  -3.820707499980927E-1  -7.484260201454163E-1  -4.634500741958618E-1   2.419657707214356E-1  
 6.830000000000000E7    -4.688649177551270E-1   2.426491528749466E-1  -3.831366300582886E-1  -7.478133440017700E-1  -3.822779357433319E-1  -7.472277879714966E-1  -4.639143049716950E-1   2.435106039047241E-1  
 6.832000000000000E7    -4.691227972507477E-1   2.436214387416840E-1  -3.838304579257965E-1  -7.470803260803223E-1  -3.831507861614227E-1  -7.464551925659180E-1  -4.643807411193848E-1   2.438461929559708E-1  
 6.834000000000000E7    -4.687883257865906E-1   2.446202337741852E-1  -3.842176795005798E-1  -7.469737529754639E-1  -3.836798965930939E-1  -7.461341023445129E-1  -4.640790224075317E-1   2.447472363710403E-1  
 6.836000000000000E7    -4.689944684505463E-1   2.452526390552521E-1  -3.849463760852814E-1  -7.461020350456238E-1  -3.847890198230743E-1  -7.450280189514160E-1  -4.648768603801727E-1   2.453290373086929E-1  
 6.838000000000000E7    -4.689080417156220E-1   2.462614774703980E-1  -3.857239782810211E-1  -7.452101707458496E-1  -3.851109743118286E-1  -7.442892193794251E-1  -4.649783670902252E-1   2.463121265172958E-1  
 6.840000000000000E7    -4.694328308105469E-1   2.468129694461823E-1  -3.864696621894836E-1  -7.444789409637451E-1  -3.859030306339264E-1  -7.437143325805664E-1  -4.648410677909851E-1   2.469120770692825E-1  
 6.842000000000000E7    -4.700061082839966E-1   2.479268908500671E-1  -3.873643875122070E-1  -7.431633472442627E-1  -3.862688541412354E-1  -7.425519824028015E-1  -4.658237695693970E-1   2.482381165027618E-1  
 6.844000000000000E7    -4.700630307197571E-1   2.486600875854492E-1  -3.878762125968933E-1  -7.430284619331360E-1  -3.870365619659424E-1  -7.422021627426148E-1  -4.650999605655670E-1   2.489404529333115E-1  
 6.846000000000000E7    -4.704830646514893E-1   2.494498938322067E-1  -3.882317543029785E-1  -7.421859502792358E-1  -3.878865540027618E-1  -7.413890361785889E-1  -4.656611680984497E-1   2.493826597929001E-1  
 6.848000000000000E7    -4.712013006210327E-1   2.498640269041061E-1  -3.892252445220947E-1  -7.406690120697022E-1  -3.886855542659760E-1  -7.402426004409790E-1  -4.665461182594299E-1   2.502333521842957E-1  
 6.850000000000000E7    -4.709277451038361E-1   2.507606148719788E-1  -3.900562226772308E-1  -7.405229806900024E-1  -3.894147872924805E-1  -7.396382689476013E-1  -4.663458764553070E-1   2.510952353477478E-1  
 6.852000000000000E7    -4.712542891502380E-1   2.520366609096527E-1  -3.906398415565491E-1  -7.398849725723267E-1  -3.899120092391968E-1  -7.388828992843628E-1  -4.665694534778595E-1   2.515246272087097E-1  
 6.854000000000000E7    -4.714198410511017E-1   2.526732087135315E-1  -3.912649452686310E-1  -7.391273975372315E-1  -3.907056152820587E-1  -7.381740212440491E-1  -4.667105674743652E-1   2.525568306446075E-1  
 6.856000000000000E7    -4.714585542678833E-1   2.532008290290833E-1  -3.919612169265747E-1  -7.383855581283569E-1  -3.914401233196259E-1  -7.374894618988037E-1  -4.668638110160828E-1   2.535505294799805E-1  
 6.858000000000000E7    -4.717917442321777E-1   2.539790570735931E-1  -3.927698433399200E-1  -7.373712658882141E-1  -3.916928470134735E-1  -7.368267774581909E-1  -4.671111404895783E-1   2.544670999050140E-1  
 6.860000000000000E7    -4.717645645141602E-1   2.547108232975006E-1  -3.933836817741394E-1  -7.365195155143738E-1  -3.926598727703095E-1  -7.358865737915039E-1  -4.676691889762878E-1   2.552778720855713E-1  
 6.862000000000000E7    -4.723458588123322E-1   2.559973001480103E-1  -3.938323259353638E-1  -7.360413670539856E-1  -3.934586644172669E-1  -7.351709604263306E-1  -4.673559069633484E-1   2.555292844772339E-1  
 6.864000000000000E7    -4.726493060588837E-1   2.569195926189423E-1  -3.946752846240997E-1  -7.346695065498352E-1  -3.941553533077240E-1  -7.342947721481323E-1  -4.678581953048706E-1   2.565861344337463E-1  
 6.866000000000000E7    -4.731124341487885E-1   2.575194239616394E-1  -3.953302502632141E-1  -7.341462969779968E-1  -3.944882154464722E-1  -7.333968281745911E-1  -4.678788781166077E-1   2.575175762176514E-1  
 6.868000000000000E7    -4.728924632072449E-1   2.582950890064240E-1  -3.957782685756683E-1  -7.333267331123352E-1  -3.952430486679077E-1  -7.328431606292725E-1  -4.681860208511353E-1   2.586302161216736E-1  
 6.870000000000000E7    -4.728600978851318E-1   2.589438855648041E-1  -3.967238068580627E-1  -7.328888177871704E-1  -3.962163925170898E-1  -7.324696779251099E-1  -4.680095314979553E-1   2.587706148624420E-1  
 6.872000000000000E7    -4.731613993644714E-1   2.596581578254700E-1  -3.977186977863312E-1  -7.318016290664673E-1  -3.967095613479614E-1  -7.313054800033569E-1  -4.688059389591217E-1   2.601741552352905E-1  
 6.874000000000000E7    -4.731705188751221E-1   2.611244320869446E-1  -3.977370858192444E-1  -7.311881184577942E-1  -3.971186578273773E-1  -7.302947640419006E-1  -4.689767658710480E-1   2.607446312904358E-1  
 6.876000000000000E7    -4.741048514842987E-1   2.613970041275024E-1  -3.986216783523560E-1  -7.302821874618530E-1  -3.979416191577911E-1  -7.298285365104675E-1  -4.688420891761780E-1   2.616709768772125E-1  
 6.878000000000000E7    -4.737626910209656E-1   2.625892460346222E-1  -3.990166187286377E-1  -7.292793393135071E-1  -3.985905349254608E-1  -7.290353178977966E-1  -4.692008197307587E-1   2.626253068447113E-1  
 6.880000000000000E7    -4.744585752487183E-1   2.630934715270996E-1  -4.001122713088989E-1  -7.285994887351990E-1  -3.992088437080383E-1  -7.281651496887207E-1  -4.692666232585907E-1   2.631055414676666E-1  
 6.882000000000000E7    -4.740162491798401E-1   2.640577554702759E-1  -4.002279639244080E-1  -7.281692028045654E-1  -4.000466763973236E-1  -7.274517416954041E-1  -4.695289433002472E-1   2.641169726848602E-1  
 6.884000000000000E7    -4.747566580772400E-1   2.647462487220764E-1  -4.013197422027588E-1  -7.268728613853455E-1  -4.002490639686585E-1  -7.262954115867615E-1  -4.702588915824890E-1   2.652265131473541E-1  
 6.886000000000000E7    -4.749191105365753E-1   2.657310366630554E-1  -4.020555317401886E-1  -7.261934280395508E-1  -4.014155268669128E-1  -7.257388830184937E-1  -4.703365564346314E-1   2.657248079776764E-1  
 6.888000000000000E7    -4.751712679862976E-1   2.665594220161438E-1  -4.027096629142761E-1  -7.255109548568726E-1  -4.020098745822907E-1  -7.250587940216065E-1  -4.700243771076202E-1   2.668001353740692E-1  
 6.890000000000000E7    -4.751464426517487E-1   2.671287357807159E-1  -4.035865366458893E-1  -7.248741984367371E-1  -4.023325443267822E-1  -7.242740392684937E-1  -4.704581201076508E-1   2.675238549709320E-1  
 6.892000000000000E7    -4.756076633930206E-1   2.678956091403961E-1  -4.042083323001862E-1  -7.236997485160828E-1  -4.031994044780731E-1  -7.233752012252808E-1  -4.708268642425537E-1   2.680623531341553E-1  
 6.894000000000000E7    -4.761255979537964E-1   2.690921425819397E-1  -4.041400849819183E-1  -7.227568626403809E-1  -4.035619497299194E-1  -7.224988341331482E-1  -4.710586369037628E-1   2.693002223968506E-1  
 6.896000000000000E7    -4.759979248046875E-1   2.702056765556335E-1  -4.047741889953613E-1  -7.224259972572327E-1  -4.041670262813568E-1  -7.217918634414673E-1  -4.706182479858398E-1   2.701159119606018E-1  
 6.898000000000000E7    -4.762112200260162E-1   2.708145380020142E-1  -4.054245948791504E-1  -7.215648293495178E-1  -4.047558903694153E-1  -7.206783890724182E-1  -4.713351726531982E-1   2.708506584167481E-1  
 6.900000000000000E7    -4.763682782649994E-1   2.715503871440888E-1  -4.062868058681488E-1  -7.206238508224487E-1  -4.059428274631500E-1  -7.201618552207947E-1  -4.714561104774475E-1   2.711949646472931E-1  
 6.902000000000000E7    -4.764452576637268E-1   2.723096609115601E-1  -4.067382514476776E-1  -7.198787927627564E-1  -4.064463675022125E-1  -7.192033529281616E-1  -4.716120660305023E-1   2.725647985935211E-1  
 6.904000000000000E7    -4.763853549957275E-1   2.732266485691071E-1  -4.078461229801178E-1  -7.195839285850525E-1  -4.070117771625519E-1  -7.185622453689575E-1  -4.721030890941620E-1   2.732565701007843E-1  
 6.906000000000000E7    -4.769172072410584E-1   2.741221785545349E-1  -4.082397818565369E-1  -7.182645797729492E-1  -4.079461991786957E-1  -7.178533077239990E-1  -4.717392921447754E-1   2.735484838485718E-1  
 6.908000000000000E7    -4.769856035709381E-1   2.751818895339966E-1  -4.085188508033752E-1  -7.173344492912293E-1  -4.085915088653565E-1  -7.164826989173889E-1  -4.728050231933594E-1   2.748756706714630E-1  
 6.910000000000000E7    -4.773039817810059E-1   2.757724523544312E-1  -4.095524549484253E-1  -7.167203426361084E-1  -4.091760218143463E-1  -7.164609432220459E-1  -4.719086289405823E-1   2.756301760673523E-1  
 6.912000000000000E7    -4.773989021778107E-1   2.769880592823029E-1  -4.098873138427734E-1  -7.158240675926209E-1  -4.096826016902924E-1  -7.153048515319824E-1  -4.725611507892609E-1   2.762001752853394E-1  
 6.914000000000000E7    -4.777488410472870E-1   2.771448194980621E-1  -4.108942151069641E-1  -7.149371504783630E-1  -4.105100333690643E-1  -7.144777178764343E-1  -4.729648828506470E-1   2.773339748382568E-1  
 6.916000000000000E7    -4.777330756187439E-1   2.781183421611786E-1  -4.115248918533325E-1  -7.143996357917786E-1  -4.105325639247894E-1  -7.138695716857910E-1  -4.729473292827606E-1   2.782309651374817E-1  
 6.918000000000000E7    -4.777671098709106E-1   2.790179550647736E-1  -4.122028648853302E-1  -7.136884927749634E-1  -4.112425148487091E-1  -7.130832076072693E-1  -4.733556509017944E-1   2.790000438690186E-1  
 6.920000000000000E7    -4.781852066516876E-1   2.796593308448792E-1  -4.127775132656097E-1  -7.128016352653503E-1  -4.123931229114533E-1  -7.123421430587769E-1  -4.731017351150513E-1   2.798970639705658E-1  
 6.922000000000000E7    -4.780664145946503E-1   2.808984220027924E-1  -4.133922457695007E-1  -7.123767733573914E-1  -4.127900898456574E-1  -7.112172245979309E-1  -4.737870693206787E-1   2.805140018463135E-1  
 6.924000000000000E7    -4.783336818218231E-1   2.813731729984283E-1  -4.142392277717590E-1  -7.114496827125549E-1  -4.130758345127106E-1  -7.105838656425476E-1  -4.732565879821777E-1   2.818532884120941E-1  
 6.926000000000000E7    -4.782181382179260E-1   2.822935283184052E-1  -4.145457744598389E-1  -7.104184627532959E-1  -4.141205847263336E-1  -7.095689773559570E-1  -4.742215871810913E-1   2.820446193218231E-1  
 6.928000000000000E7    -4.786836206912994E-1   2.832425236701965E-1  -4.153205156326294E-1  -7.093884944915772E-1  -4.143954515457153E-1  -7.087050676345825E-1  -4.742431044578552E-1   2.831348180770874E-1  
 6.930000000000000E7    -4.783600270748138E-1   2.840820252895355E-1  -4.156725704669952E-1  -7.093636393547058E-1  -4.153901636600494E-1  -7.084367275238037E-1  -4.737922251224518E-1   2.836908996105194E-1  
 6.932000000000000E7    -4.787614345550537E-1   2.849338352680206E-1  -4.167496562004089E-1  -7.083231806755066E-1  -4.159221053123474E-1  -7.075580954551697E-1  -4.740776121616364E-1   2.846861183643341E-1  
 6.934000000000000E7    -4.790673553943634E-1   2.853749990463257E-1  -4.171081185340881E-1  -7.072434425354004E-1  -4.164308309555054E-1  -7.068005800247192E-1  -4.740928411483765E-1   2.855576574802399E-1  
 6.936000000000000E7    -4.795192480087280E-1   2.867271900177002E-1  -4.178830981254578E-1  -7.063724398612976E-1  -4.173290729522705E-1  -7.057899832725525E-1  -4.743812084197998E-1   2.859982848167419E-1  
 6.938000000000000E7    -4.795167446136475E-1   2.870429754257202E-1  -4.185776114463806E-1  -7.054407000541687E-1  -4.177036285400391E-1  -7.048855423927307E-1  -4.748649001121521E-1   2.872007787227631E-1  
 6.940000000000000E7    -4.797533750534058E-1   2.880552113056183E-1  -4.190058410167694E-1  -7.046914696693420E-1  -4.182477295398712E-1  -7.040877938270569E-1  -4.750115275382996E-1   2.881949841976166E-1  
 6.942000000000000E7    -4.800731539726257E-1   2.888385057449341E-1  -4.199418127536774E-1  -7.036594748497009E-1  -4.188343286514282E-1  -7.031302452087402E-1  -4.755431115627289E-1   2.889130115509033E-1  
 6.944000000000000E7    -4.797997474670410E-1   2.897144854068756E-1  -4.198961853981018E-1  -7.030220031738281E-1  -4.194877445697784E-1  -7.023423910140991E-1  -4.753356873989105E-1   2.897846996784210E-1  
 6.946000000000000E7    -4.800928235054016E-1   2.904271483421326E-1  -4.210545718669891E-1  -7.024010419845581E-1  -4.202672541141510E-1  -7.015804052352905E-1  -4.754709303379059E-1   2.906337380409241E-1  
 6.948000000000000E7    -4.801171422004700E-1   2.913554012775421E-1  -4.218564033508301E-1  -7.015130519866943E-1  -4.207944571971893E-1  -7.007902860641480E-1  -4.757487177848816E-1   2.911110222339630E-1  
 6.950000000000000E7    -4.804734587669373E-1   2.922793030738831E-1  -4.222412407398224E-1  -7.007548213005066E-1  -4.215608239173889E-1  -7.002153992652893E-1  -4.753752946853638E-1   2.920367419719696E-1  
 6.952000000000000E7    -4.808972179889679E-1   2.937437593936920E-1  -4.221035838127136E-1  -6.996087431907654E-1  -4.216287136077881E-1  -6.992236375808716E-1  -4.760364890098572E-1   2.933411896228790E-1  
 6.954000000000000E7    -4.808394014835358E-1   2.938905358314514E-1  -4.233612716197968E-1  -6.987327933311462E-1  -4.228883385658264E-1  -6.984413862228394E-1  -4.761655032634735E-1   2.937954068183899E-1  
 6.956000000000000E7    -4.809632897377014E-1   2.944850921630859E-1  -4.239965975284576E-1  -6.980897784233093E-1  -4.227544069290161E-1  -6.973058581352234E-1  -4.763028025627136E-1   2.952232062816620E-1  
 6.958000000000000E7    -4.808206558227539E-1   2.956071496009827E-1  -4.245952665805817E-1  -6.976153850555420E-1  -4.237101376056671E-1  -6.965076923370361E-1  -4.765515327453613E-1   2.956331968307495E-1  
 6.960000000000000E7    -4.815849363803864E-1   2.961880564689636E-1  -4.255639314651489E-1  -6.964620947837830E-1  -4.243735074996948E-1  -6.962385177612305E-1  -4.761997759342194E-1   2.965268492698669E-1  
 6.962000000000000E7    -4.812467396259308E-1   2.970626652240753E-1  -4.258661568164825E-1  -6.957186460494995E-1  -4.248587191104889E-1  -6.955602765083313E-1  -4.762134552001953E-1   2.975096702575684E-1  
 6.964000000000000E7    -4.810667634010315E-1   2.979339361190796E-1  -4.263502359390259E-1  -6.951273083686829E-1  -4.255952537059784E-1  -6.942458748817444E-1  -4.770258069038391E-1   2.983680665493012E-1  
 6.966000000000000E7    -4.812541007995606E-1   2.987573742866516E-1  -4.268536865711212E-1  -6.940544843673706E-1  -4.260910749435425E-1  -6.934669613838196E-1  -4.772984683513641E-1   2.991620898246765E-1  
 6.968000000000000E7    -4.812717139720917E-1   3.000107705593109E-1  -4.275900423526764E-1  -6.935455799102783E-1  -4.266056716442108E-1  -6.926540136337280E-1  -4.770219922065735E-1   2.999856472015381E-1  
 6.970000000000000E7    -4.817515015602112E-1   3.007404208183289E-1  -4.279982447624207E-1  -6.923693418502808E-1  -4.273020327091217E-1  -6.917143464088440E-1  -4.771974980831146E-1   3.007687926292419E-1  
 6.972000000000000E7    -4.816656708717346E-1   3.014850318431854E-1  -4.288283288478851E-1  -6.918908953666687E-1  -4.280911684036255E-1  -6.910472512245178E-1  -4.769990146160126E-1   3.011219501495361E-1  
 6.974000000000000E7    -4.823714196681976E-1   3.025365173816681E-1  -4.291895925998688E-1  -6.908163428306580E-1  -4.284574389457703E-1  -6.904529929161072E-1  -4.770678579807282E-1   3.023389875888825E-1  
 6.976000000000000E7    -4.820181131362915E-1   3.028594851493835E-1  -4.300619065761566E-1  -6.900751590728760E-1  -4.291713833808899E-1  -6.896260976791382E-1  -4.773454368114471E-1   3.031293153762817E-1  
 6.978000000000000E7    -4.822304546833038E-1   3.046324849128723E-1  -4.298396706581116E-1  -6.892625093460083E-1  -4.293103218078613E-1  -6.886650919914246E-1  -4.773791730403900E-1   3.045379519462585E-1  
 6.980000000000000E7    -4.823189973831177E-1   3.046988248825073E-1  -4.313741028308868E-1  -6.884715557098389E-1  -4.304406046867371E-1  -6.879076957702637E-1  -4.777040481567383E-1   3.043824136257172E-1  
 6.982000000000000E7    -4.828468561172485E-1   3.056515753269196E-1  -4.314425587654114E-1  -6.872216463088989E-1  -4.307956397533417E-1  -6.866354346275330E-1  -4.781484603881836E-1   3.058346211910248E-1  
 6.984000000000000E7    -4.829441905021668E-1   3.064356744289398E-1  -4.325136840343475E-1  -6.866178512573242E-1  -4.311892986297607E-1  -6.861185431480408E-1  -4.780482947826386E-1   3.067557215690613E-1  
 6.986000000000000E7    -4.830185174942017E-1   3.078851401805878E-1  -4.325800836086273E-1  -6.861370205879211E-1  -4.320889115333557E-1  -6.853357553482056E-1  -4.780800044536591E-1   3.074467182159424E-1  
 6.988000000000000E7    -4.829906523227692E-1   3.084242343902588E-1  -4.333938360214233E-1  -6.848920583724976E-1  -4.328033328056335E-1  -6.845297813415527E-1  -4.782707691192627E-1   3.081939816474915E-1  
 6.990000000000000E7    -4.832647144794464E-1   3.092650473117828E-1  -4.339063465595245E-1  -6.841819882392883E-1  -4.333990514278412E-1  -6.835678219795227E-1  -4.782445728778839E-1   3.088995516300201E-1  
 6.992000000000000E7    -4.836111366748810E-1   3.100972771644592E-1  -4.343964755535126E-1  -6.832352280616760E-1  -4.338267743587494E-1  -6.824855208396912E-1  -4.785465002059937E-1   3.100643157958984E-1  
 6.994000000000000E7    -4.835789501667023E-1   3.107639849185944E-1  -4.351200759410858E-1  -6.822623610496521E-1  -4.343584775924683E-1  -6.820359826087952E-1  -4.785608053207398E-1   3.109912872314453E-1  
 6.996000000000000E7    -4.837564826011658E-1   3.121101856231690E-1  -4.354259967803955E-1  -6.816713213920593E-1  -4.347251355648041E-1  -6.813237667083740E-1  -4.785556793212891E-1   3.116640746593475E-1  
 6.998000000000000E7    -4.838127791881561E-1   3.123494982719421E-1  -4.364254474639893E-1  -6.806807518005371E-1  -4.354424774646759E-1  -6.804093122482300E-1  -4.785478711128235E-1   3.123789131641388E-1  
 7.000000000000000E7    -4.840955138206482E-1   3.135083317756653E-1  -4.366860091686249E-1  -6.794998645782471E-1  -4.360180795192719E-1  -6.796298027038574E-1  -4.790078103542328E-1   3.134430348873138E-1  
